<?xml version="1.0"?>
<VTKFile type="UnstructuredGrid" version="0.1" byte_order="LittleEndian">
<UnstructuredGrid>
<Piece NumberOfPoints="31898" NumberOfCells="11152">
<Points>
<DataArray type="Float64" NumberOfComponents="3" format="ascii">
-0.5 -0.5 0 -0.47620991077874902 -0.44978878706170539 0 -0.49999999999999473 -0.42132396840504388 0 -0.5 -0.5 0 -0.47160970827802529 -0.4793630013852106 0 -0.47620991077874902 -0.44978878706170539 0 -0.5 -0.5 0 -0.47160970827802529 -0.4793630013852106 0 -0.44860394795025399 -0.5 0 -0.47160970827802529 -0.4793630013852106 0 -0.44860394795025399 -0.5 0 -0.4490820238307246 -0.45820516232899983 0 -0.44860394795025399 -0.5 0 -0.4490820238307246 -0.45820516232899983 0 -0.42881687682924802 -0.47781464288736519 0 -0.4490820238307246 -0.45820516232899983 0 -0.45555437223955858 -0.42914059360647611 0 -0.4490820238307246 -0.45820516232899983 0 -0.45555437223955858 -0.42914059360647611 0 -0.43867285131603428 -0.4271457417558665 0 -0.4490820238307246 -0.45820516232899983 0 -0.43867285131603428 -0.4271457417558665 0 -0.4263356171060747 -0.44269880333887462 0 -0.47160970827802529 -0.4793630013852106 0 -0.4490820238307246 -0.45820516232899983 0 -0.47620991077874902 -0.44978878706170539 0 -0.4490820238307246 -0.45820516232899983 0 -0.47620991077874902 -0.44978878706170539 0 -0.45555437223955858 -0.42914059360647611 0 -0.47620991077874902 -0.44978878706170539 0 -0.48101336032419229 -0.41069999664450008 0 -0.45555437223955858 -0.42914059360647611 0 -0.47620991077874902 -0.44978878706170539 0 -0.49999999999999473 -0.42132396840504388 0 -0.48101336032419229 -0.41069999664450008 0 -0.49999999999999473 -0.42132396840504388 0 -0.48101336032419229 -0.41069999664450008 0 -0.5 -0.393886241813306 0 -0.49999999999999473 -0.42132396840504388 0 -0.48101336032419229 -0.41069999664450008 0 -0.5 -0.393886241813306 0 -0.47854472220918332 -0.38978458738689759 0 -0.48422759779560409 -0.37130120630367158 0 -0.5 -0.393886241813306 0 -0.5 -0.36644851522156802 0 -0.48422759779560409 -0.37130120630367158 0 -0.48101336032419229 -0.41069999664450008 0 -0.5 -0.393886241813306 0 -0.47854472220918332 -0.38978458738689759 0 -0.48101336032419229 -0.41069999664450008 0 -0.47854472220918332 -0.38978458738689759 0 -0.46202672064839212 -0.40007602488395211 0 -0.48101336032419229 -0.41069999664450008 0 -0.46202672064839212 -0.40007602488395211 0 -0.47854472220918332 -0.38978458738689759 0 -0.46725442735267431 -0.37660061361585562 0 -0.46202672064839212 -0.40007602488395211 0 -0.47854472220918332 -0.38978458738689759 0 -0.46725442735267431 -0.37660061361585562 0 -0.48422759779560409 -0.37130120630367158 0 -0.46725442735267431 -0.37660061361585562 0 -0.46202672064839212 -0.40007602488395211 0 -0.46725442735267431 -0.37660061361585562 0 -0.45645674801697989 -0.38644133236760531 0 -0.46202672064839212 -0.40007602488395211 0 -0.46725442735267431 -0.37660061361585562 0 -0.45645674801697989 -0.38644133236760531 0 -0.4540003998136638 -0.37455519391687309 0 -0.45645674801697989 -0.38644133236760531 0 -0.46202672064839212 -0.40007602488395211 0 -0.44257020456291563 -0.38918913383950271 0 -0.46202672064839212 -0.40007602488395211 0 -0.44257020456291563 -0.38918913383950271 0 -0.44727608925983742 -0.41095911152778891 0 -0.46202672064839212 -0.40007602488395211 0 -0.44257020456291563 -0.38918913383950271 0 -0.44257020456291563 -0.38918913383950271 0 -0.44727608925983742 -0.41095911152778891 0 -0.43479358559901082 -0.4041454901736512 0 -0.44257020456291563 -0.38918913383950271 0 -0.4540003998136638 -0.37455519391687309 0 -0.44172858264042247 -0.37082207246888088 0 -0.45645674801697989 -0.38644133236760531 0 -0.44257020456291563 -0.38918913383950271 0 -0.4540003998136638 -0.37455519391687309 0 -0.46202672064839212 -0.40007602488395211 0 -0.45555437223955858 -0.42914059360647611 0 -0.44727608925983742 -0.41095911152778891 0 -0.46202672064839212 -0.40007602488395211 0 -0.45555437223955858 -0.42914059360647611 0 -0.48101336032419229 -0.41069999664450008 0 -0.46202672064839212 -0.40007602488395211 0 -0.45555437223955858 -0.42914059360647611 0 -0.44727608925983742 -0.41095911152778891 0 -0.43867285131603428 -0.4271457417558665 0 -0.43676601469929588 -0.41441201227470881 0 -0.44727608925983742 -0.41095911152778891 0 -0.43676601469929588 -0.41441201227470881 0 -0.43479358559901082 -0.4041454901736512 0 -0.45555437223955858 -0.42914059360647611 0 -0.44727608925983742 -0.41095911152778891 0 -0.43867285131603428 -0.4271457417558665 0 -0.43867285131603428 -0.4271457417558665 0 -0.42681803064840879 -0.42717069814352421 0 -0.4263356171060747 -0.44269880333887462 0 -0.42681803064840879 -0.42717069814352421 0 -0.41531815884496182 -0.42985383783075998 0 -0.4263356171060747 -0.44269880333887462 0 -0.42681803064840879 -0.42717069814352421 0 -0.42624289495594048 -0.42089725947505818 0 -0.42083332353326591 -0.42146747131641099 0 -0.42681803064840879 -0.42717069814352421 0 -0.43096994786351572 -0.41951492446283251 0 -0.42624289495594048 -0.42089725947505818 0 -0.43867285131603428 -0.4271457417558665 0 -0.42681803064840879 -0.42717069814352421 0 -0.43096994786351572 -0.41951492446283251 0 -0.43867285131603428 -0.4271457417558665 0 -0.43676601469929588 -0.41441201227470881 0 -0.43096994786351572 -0.41951492446283251 0 -0.43676601469929588 -0.41441201227470881 0 -0.43096994786351572 -0.41951492446283251 0 -0.42907264086257813 -0.41311715872526122 0 -0.43676601469929588 -0.41441201227470881 0 -0.42907264086257813 -0.41311715872526122 0 -0.43479358559901082 -0.4041454901736512 0 -0.42907264086257813 -0.41311715872526122 0 -0.43479358559901082 -0.4041454901736512 0 -0.42460885511582858 -0.40417321677700252 0 -0.42907264086257813 -0.41311715872526122 0 -0.41997834854398469 -0.41180534796019508 0 -0.42907264086257813 -0.41311715872526122 0 -0.42635027777857132 -0.41543594397746519 0 -0.41997834854398469 -0.41180534796019508 0 -0.42907264086257813 -0.41311715872526122 0 -0.41997834854398469 -0.41180534796019508 0 -0.42460885511582858 -0.40417321677700252 0 -0.42635027777857132 -0.41543594397746519 0 -0.41997834854398469 -0.41180534796019508 0 -0.42635027777857132 -0.41543594397746519 0 -0.42083332353326591 -0.42146747131641099 0 -0.41997834854398469 -0.41180534796019508 0 -0.43096994786351572 -0.41951492446283251 0 -0.42624289495594048 -0.42089725947505818 0 -0.42635027777857132 -0.41543594397746519 0 -0.43096994786351572 -0.41951492446283251 0 -0.42907264086257813 -0.41311715872526122 0 -0.42635027777857132 -0.41543594397746519 0 -0.42624289495594048 -0.42089725947505818 0 -0.42635027777857132 -0.41543594397746519 0 -0.42083332353326591 -0.42146747131641099 0 -0.42083332353326591 -0.42146747131641099 0 -0.41997834854398469 -0.41180534796019508 0 -0.40992282953163789 -0.42011435591993562 0 -0.41997834854398469 -0.41180534796019508 0 -0.39756877647335259 -0.40857286797681719 0 -0.41997834854398469 -0.41180534796019508 0 -0.40992282953163789 -0.42011435591993562 0 -0.39756877647335259 -0.40857286797681719 0 -0.40992282953163789 -0.42011435591993562 0 -0.41531815884496182 -0.42985383783075998 0 -0.39591554026262499 -0.42887225451549271 0 -0.41531815884496182 -0.42985383783075998 0 -0.39591554026262499 -0.42887225451549271 0 -0.41160927495564159 -0.44339431233754628 0 -0.42083332353326591 -0.42146747131641099 0 -0.40992282953163789 -0.42011435591993562 0 -0.41531815884496182 -0.42985383783075998 0 -0.42681803064840879 -0.42717069814352421 0 -0.42083332353326591 -0.42146747131641099 0 -0.41531815884496182 -0.42985383783075998 0 -0.44257020456291563 -0.38918913383950271 0 -0.42311368847744002 -0.37830224279505142 0 -0.42594061475171041 -0.39368797999533162 0 -0.44257020456291563 -0.38918913383950271 0 -0.42311368847744002 -0.37830224279505142 0 -0.44172858264042247 -0.37082207246888088 0 -0.44257020456291563 -0.38918913383950271 0 -0.42311368847744002 -0.37830224279505142 0 -0.42311368847744002 -0.37830224279505142 0 -0.42594061475171041 -0.39368797999533162 0 -0.416587075656149 -0.38785930376960043 0 -0.44257020456291563 -0.38918913383950271 0 -0.42594061475171041 -0.39368797999533162 0 -0.43479358559901082 -0.4041454901736512 0 -0.42594061475171041 -0.39368797999533162 0 -0.43479358559901082 -0.4041454901736512 0 -0.42460885511582858 -0.40417321677700252 0 -0.41997834854398469 -0.41180534796019508 0 -0.41325908582185972 -0.39811010703057192 0 -0.39770572831670092 -0.39911486077581648 0 -0.41997834854398469 -0.41180534796019508 0 -0.39770572831670092 -0.39911486077581648 0 -0.42594061475171041 -0.39368797999533162 0 -0.42460885511582858 -0.40417321677700252 0 -0.41325908582185972 -0.39811010703057192 0 -0.41997834854398469 -0.41180534796019508 0 -0.42460885511582858 -0.40417321677700252 0 -0.41325908582185972 -0.39811010703057192 0 -0.42594061475171041 -0.39368797999533162 0 -0.41325908582185972 -0.39811010703057192 0 -0.416587075656149 -0.38785930376960043 0 -0.41325908582185972 -0.39811010703057192 0 -0.416587075656149 -0.38785930376960043 0 -0.40403491357358612 -0.38133688525744702 0 -0.42311368847744002 -0.37830224279505142 0 -0.40403491357358612 -0.38133688525744702 0 -0.40365717239196519 -0.36741535175059892 0 -0.42311368847744002 -0.37830224279505142 0 -0.416587075656149 -0.38785930376960043 0 -0.40403491357358612 -0.38133688525744702 0 -0.40403491357358612 -0.38133688525744702 0 -0.39190790742475001 -0.38540387676521748 0 -0.39770572831670092 -0.39911486077581648 0 -0.40403491357358612 -0.38133688525744702 0 -0.39190790742475001 -0.38540387676521748 0 -0.3904578797192948 -0.37473938743617019 0 -0.41325908582185972 -0.39811010703057192 0 -0.40403491357358612 -0.38133688525744702 0 -0.39770572831670092 -0.39911486077581648 0 -0.39770572831670092 -0.39911486077581648 0 -0.37543310808941849 -0.38642437359143528 0 -0.39770572831670092 -0.39911486077581648 0 -0.37515920440272033 -0.40534038799344108 0 -0.37543310808941849 -0.38642437359143528 0 -0.39770572831670092 -0.39911486077581648 0 -0.37515920440272033 -0.40534038799344108 0 -0.39756877647335259 -0.40857286797681719 0 -0.37515920440272033 -0.40534038799344108 0 -0.37543310808941849 -0.38642437359143528 0 -0.37543310808941849 -0.38642437359143528 0 -0.3904578797192948 -0.37473938743617019 0 -0.37568304780698558 -0.36916333065311507 0 -0.39190790742475001 -0.38540387676521748 0 -0.37543310808941849 -0.38642437359143528 0 -0.3904578797192948 -0.37473938743617019 0 -0.37543310808941849 -0.38642437359143528 0 -0.37568304780698558 -0.36916333065311507 0 -0.39190790742475001 -0.38540387676521748 0 -0.39770572831670092 -0.39911486077581648 0 -0.37543310808941849 -0.38642437359143528 0 -0.41997834854398469 -0.41180534796019508 0 -0.39770572831670092 -0.39911486077581648 0 -0.39756877647335259 -0.40857286797681719 0 -0.40992282953163789 -0.42011435591993562 0 -0.39591554026262499 -0.42887225451549271 0 -0.39756877647335259 -0.40857286797681719 0 -0.37515920440272033 -0.40534038799344108 0 -0.39591554026262499 -0.42887225451549271 0 -0.39756877647335259 -0.40857286797681719 0 -0.37515920440272033 -0.40534038799344108 0 -0.39756877647335259 -0.40857286797681719 0 -0.37515920440272033 -0.40534038799344108 0 -0.39591554026262499 -0.42887225451549271 0 -0.37472313619600889 -0.43545561783144832 0 -0.39591554026262499 -0.42887225451549271 0 -0.39301703415267508 -0.44654444244683272 0 -0.37472313619600889 -0.43545561783144832 0 -0.39301703415267508 -0.44654444244683272 0 -0.37428706798929601 -0.46557084766945539 0 -0.37472313619600889 -0.43545561783144832 0 -0.39591554026262499 -0.42887225451549271 0 -0.39301703415267508 -0.44654444244683272 0 -0.41160927495564159 -0.44339431233754628 0 -0.39301703415267508 -0.44654444244683272 0 -0.40396056051613372 -0.45751466911048011 0 -0.41160927495564159 -0.44339431233754628 0 -0.40396056051613372 -0.45751466911048011 0 -0.39245383412573559 -0.47875733455523922 0 -0.41207507163844148 -0.46917161410542801 0 -0.40396056051613372 -0.45751466911048011 0 -0.38912381425271458 -0.46154275838996711 0 -0.39245383412573559 -0.47875733455523922 0 -0.40396056051613372 -0.45751466911048011 0 -0.39245383412573559 -0.47875733455523922 0 -0.40396056051613372 -0.45751466911048011 0 -0.40649676728151513 -0.45682610390212369 0 -0.40396056051613372 -0.45751466911048011 0 -0.38912381425271458 -0.46154275838996711 0 -0.39301703415267508 -0.44654444244683272 0 -0.40396056051613372 -0.45751466911048011 0 -0.38912381425271458 -0.46154275838996711 0 -0.39301703415267508 -0.44654444244683272 0 -0.38912381425271458 -0.46154275838996711 0 -0.37428706798929601 -0.46557084766945539 0 -0.38912381425271458 -0.46154275838996711 0 -0.37428706798929601 -0.46557084766945539 0 -0.38912381425271458 -0.46154275838996711 0 -0.38378714202547332 -0.47159002408209011 0 -0.37428706798929601 -0.46557084766945539 0 -0.38378714202547332 -0.47159002408209011 0 -0.39245383412573559 -0.47875733455523922 0 -0.37411677223754131 -0.47733161267270968 0 -0.39245383412573559 -0.47875733455523922 0 -0.37240076261097882 -0.48974555046165519 0 -0.37411677223754131 -0.47733161267270968 0 -0.38378714202547332 -0.47159002408209011 0 -0.37411677223754131 -0.47733161267270968 0 -0.37428706798929601 -0.46557084766945539 0 -0.38912381425271458 -0.46154275838996711 0 -0.38378714202547332 -0.47159002408209011 0 -0.39245383412573559 -0.47875733455523922 0 -0.38094710773533791 -0.49999999999999839 0 -0.39245383412573559 -0.47875733455523922 0 -0.38094710773533791 -0.49999999999999839 0 -0.39245383412573559 -0.47875733455523922 0 -0.37240076261097882 -0.48974555046165519 0 -0.38094710773533791 -0.49999999999999839 0 -0.39245383412573559 -0.47875733455523922 0 -0.40997732063196057 -0.5 0 -0.39245383412573559 -0.47875733455523922 0 -0.41207507163844148 -0.46917161410542801 0 -0.40997732063196057 -0.5 0 -0.41207507163844148 -0.46917161410542801 0 -0.40997732063196057 -0.5 0 -0.42881687682924802 -0.47781464288736519 0 -0.44860394795025399 -0.5 0 -0.40997732063196057 -0.5 0 -0.42881687682924802 -0.47781464288736519 0 -0.41207507163844148 -0.46917161410542801 0 -0.42881687682924802 -0.47781464288736519 0 -0.42627766738448791 -0.46032764904509182 0 -0.4490820238307246 -0.45820516232899983 0 -0.42881687682924802 -0.47781464288736519 0 -0.42627766738448791 -0.46032764904509182 0 -0.4490820238307246 -0.45820516232899983 0 -0.42627766738448791 -0.46032764904509182 0 -0.4263356171060747 -0.44269880333887462 0 -0.42627766738448791 -0.46032764904509182 0 -0.4263356171060747 -0.44269880333887462 0 -0.41655419253802572 -0.45404861160063659 0 -0.4263356171060747 -0.44269880333887462 0 -0.41160927495564159 -0.44339431233754628 0 -0.41655419253802572 -0.45404861160063659 0 -0.41531815884496182 -0.42985383783075998 0 -0.4263356171060747 -0.44269880333887462 0 -0.41160927495564159 -0.44339431233754628 0 -0.40396056051613372 -0.45751466911048011 0 -0.41160927495564159 -0.44339431233754628 0 -0.40649676728151513 -0.45682610390212369 0 -0.41160927495564159 -0.44339431233754628 0 -0.40649676728151513 -0.45682610390212369 0 -0.41655419253802572 -0.45404861160063659 0 -0.40396056051613372 -0.45751466911048011 0 -0.41160927495564159 -0.44339431233754628 0 -0.41207507163844148 -0.46917161410542801 0 -0.40649676728151513 -0.45682610390212369 0 -0.41655419253802572 -0.45404861160063659 0 -0.40396056051613372 -0.45751466911048011 0 -0.41207507163844148 -0.46917161410542801 0 -0.40649676728151513 -0.45682610390212369 0 -0.41207507163844148 -0.46917161410542801 0 -0.42627766738448791 -0.46032764904509182 0 -0.41655419253802572 -0.45404861160063659 0 -0.45662330498375908 -0.25656877445722759 0 -0.43445882011373449 -0.25478651907497341 0 -0.45662330498375908 -0.25656877445722759 0 -0.43445882011373449 -0.25478651907497341 0 -0.45034617445999431 -0.24335722649563979 0 -0.44999384684511368 -0.2755750489792308 0 -0.45662330498375908 -0.25656877445722759 0 -0.43445882011373449 -0.25478651907497341 0 -0.44999384684511368 -0.2755750489792308 0 -0.43077531442077321 -0.27459050524281542 0 -0.43445882011373449 -0.25478651907497341 0 -0.44999384684511368 -0.2755750489792308 0 -0.441361257405879 -0.29303276451920029 0 -0.43077531442077321 -0.27459050524281542 0 -0.44999384684511368 -0.2755750489792308 0 -0.4670541169931961 -0.26846056693166809 0 -0.46910519348062618 -0.28320526693770848 0 -0.44999384684511368 -0.2755750489792308 0 -0.4670541169931961 -0.26846056693166809 0 -0.45662330498375908 -0.25656877445722759 0 -0.45662330498375908 -0.25656877445722759 0 -0.47878778985378329 -0.25835102983948688 0 -0.4670541169931961 -0.26846056693166809 0 -0.45662330498375908 -0.25656877445722759 0 -0.47878778985378329 -0.25835102983948688 0 -0.45662330498375908 -0.25656877445722759 0 -0.47878778985378329 -0.25835102983948688 0 -0.47142395938804471 -0.23802335247430181 0 -0.47878778985378329 -0.25835102983948688 0 -0.5 -0.25669760885461612 0 -0.48361763707807442 -0.27426406281091331 0 -0.47878778985378329 -0.25835102983948688 0 -0.5 -0.25669760885461612 0 -0.4875835208682564 -0.24248539692068891 0 -0.5 -0.25669760885461612 0 -0.48361763707807442 -0.27426406281091331 0 -0.5 -0.28413533544635422 0 -0.4670541169931961 -0.26846056693166809 0 -0.47878778985378329 -0.25835102983948688 0 -0.48361763707807442 -0.27426406281091331 0 -0.4670541169931961 -0.26846056693166809 0 -0.48361763707807442 -0.27426406281091331 0 -0.46910519348062618 -0.28320526693770848 0 -0.46910519348062618 -0.28320526693770848 0 -0.48580896399913942 -0.29193665231809679 0 -0.47164434439118558 -0.29859902487093259 0 -0.48361763707807442 -0.27426406281091331 0 -0.46910519348062618 -0.28320526693770848 0 -0.48580896399913942 -0.29193665231809679 0 -0.5 -0.28413533544635422 0 -0.48580896399913942 -0.29193665231809679 0 -0.5 -0.3115730620380921 0 -0.48361763707807442 -0.27426406281091331 0 -0.5 -0.28413533544635422 0 -0.48580896399913942 -0.29193665231809679 0 -0.48580896399913942 -0.29193665231809679 0 -0.5 -0.3115730620380921 0 -0.48293754746551898 -0.30617437981156609 0 -0.48293754746551898 -0.30617437981156609 0 -0.47164434439118558 -0.29859902487093259 0 -0.47203566342767839 -0.31514771464943409 0 -0.48580896399913942 -0.29193665231809679 0 -0.48293754746551898 -0.30617437981156609 0 -0.47164434439118558 -0.29859902487093259 0 -0.47164434439118558 -0.29859902487093259 0 -0.46096111539772322 -0.3069557537098867 0 -0.47203566342767839 -0.31514771464943409 0 -0.46096111539772322 -0.3069557537098867 0 -0.44739706002137658 -0.30395698434733032 0 -0.45229582611609759 -0.31444164243390338 0 -0.46096111539772322 -0.3069557537098867 0 -0.45682111422556548 -0.29317658806621089 0 -0.44739706002137658 -0.30395698434733032 0 -0.47164434439118558 -0.29859902487093259 0 -0.46096111539772322 -0.3069557537098867 0 -0.45682111422556548 -0.29317658806621089 0 -0.44999384684511368 -0.2755750489792308 0 -0.46910519348062618 -0.28320526693770848 0 -0.45682111422556548 -0.29317658806621089 0 -0.46910519348062618 -0.28320526693770848 0 -0.47164434439118558 -0.29859902487093259 0 -0.45682111422556548 -0.29317658806621089 0 -0.44999384684511368 -0.2755750489792308 0 -0.45682111422556548 -0.29317658806621089 0 -0.441361257405879 -0.29303276451920029 0 -0.45682111422556548 -0.29317658806621089 0 -0.441361257405879 -0.29303276451920029 0 -0.44739706002137658 -0.30395698434733032 0 -0.441361257405879 -0.29303276451920029 0 -0.44739706002137658 -0.30395698434733032 0 -0.43527018611072049 -0.30465000121327751 0 -0.44739706002137658 -0.30395698434733032 0 -0.44024276041750632 -0.31887045497680111 0 -0.43527018611072049 -0.30465000121327751 0 -0.44739706002137658 -0.30395698434733032 0 -0.45229582611609759 -0.31444164243390338 0 -0.44024276041750632 -0.31887045497680111 0 -0.44024276041750632 -0.31887045497680111 0 -0.45653421084860168 -0.32646185290925811 0 -0.44024276041750632 -0.31887045497680111 0 -0.43930980958642257 -0.33554338078202212 0 -0.45653421084860168 -0.32646185290925811 0 -0.45229582611609759 -0.31444164243390338 0 -0.44024276041750632 -0.31887045497680111 0 -0.45653421084860168 -0.32646185290925811 0 -0.43930980958642257 -0.33554338078202212 0 -0.44966367396753332 -0.33841986907325933 0 -0.46855294336124231 -0.32873531729210143 0 -0.43930980958642257 -0.33554338078202212 0 -0.4507851133594416 -0.34910720111649318 0 -0.43930980958642257 -0.33554338078202212 0 -0.44966367396753332 -0.33841986907325933 0 -0.4507851133594416 -0.34910720111649318 0 -0.44966367396753332 -0.33841986907325933 0 -0.46855294336124231 -0.32873531729210143 0 -0.46386644800117471 -0.33586508895417932 0 -0.43930980958642257 -0.33554338078202212 0 -0.46855294336124231 -0.32873531729210143 0 -0.43930980958642257 -0.33554338078202212 0 -0.46855294336124231 -0.32873531729210143 0 -0.45653421084860168 -0.32646185290925811 0 -0.44966367396753332 -0.33841986907325933 0 -0.4586808436472537 -0.3401528003513713 0 -0.45711636988675219 -0.34547487934353349 0 -0.44966367396753332 -0.33841986907325933 0 -0.4586808436472537 -0.3401528003513713 0 -0.46386644800117471 -0.33586508895417932 0 -0.4586808436472537 -0.3401528003513713 0 -0.46472493826860672 -0.34236766697450172 0 -0.45711636988675219 -0.34547487934353349 0 -0.4586808436472537 -0.3401528003513713 0 -0.46472493826860672 -0.34236766697450172 0 -0.46386644800117471 -0.33586508895417932 0 -0.46855294336124231 -0.32873531729210143 0 -0.46207595183026873 -0.31834845619891672 0 -0.47203566342767839 -0.31514771464943409 0 -0.46855294336124231 -0.32873531729210143 0 -0.45653421084860168 -0.32646185290925811 0 -0.46207595183026873 -0.31834845619891672 0 -0.46096111539772322 -0.3069557537098867 0 -0.45229582611609759 -0.31444164243390338 0 -0.46207595183026873 -0.31834845619891672 0 -0.45229582611609759 -0.31444164243390338 0 -0.45653421084860168 -0.32646185290925811 0 -0.46207595183026873 -0.31834845619891672 0 -0.46096111539772322 -0.3069557537098867 0 -0.46207595183026873 -0.31834845619891672 0 -0.47203566342767839 -0.31514771464943409 0 -0.48293754746551898 -0.30617437981156609 0 -0.47203566342767839 -0.31514771464943409 0 -0.47770984076123751 -0.32964979107966252 0 -0.48293754746551898 -0.30617437981156609 0 -0.47770984076123751 -0.32964979107966252 0 -0.48293754746551898 -0.30617437981156609 0 -0.48763303240419292 -0.31981883507337211 0 -0.47770984076123751 -0.32964979107966252 0 -0.46855294336124231 -0.32873531729210143 0 -0.47203566342767839 -0.31514771464943409 0 -0.47770984076123751 -0.32964979107966252 0 -0.5 -0.3115730620380921 0 -0.5 -0.33901078862982997 0 -0.49048543526404831 -0.32960291085151988 0 -0.5 -0.3115730620380921 0 -0.48763303240419292 -0.31981883507337211 0 -0.49048543526404831 -0.32960291085151988 0 -0.5 -0.3115730620380921 0 -0.48293754746551898 -0.30617437981156609 0 -0.48763303240419292 -0.31981883507337211 0 -0.48763303240419292 -0.31981883507337211 0 -0.49048543526404831 -0.32960291085151988 0 -0.47770984076123751 -0.32964979107966252 0 -0.49048543526404831 -0.32960291085151988 0 -0.47770984076123751 -0.32964979107966252 0 -0.48708430315481122 -0.3479620774366432 0 -0.5 -0.33901078862982997 0 -0.49048543526404831 -0.32960291085151988 0 -0.48708430315481122 -0.3479620774366432 0 -0.47770984076123751 -0.32964979107966252 0 -0.47248213405695583 -0.35312520234775913 0 -0.47770984076123751 -0.32964979107966252 0 -0.47248213405695583 -0.35312520234775913 0 -0.48708430315481122 -0.3479620774366432 0 -0.46472493826860672 -0.34236766697450172 0 -0.47770984076123751 -0.32964979107966252 0 -0.47248213405695583 -0.35312520234775913 0 -0.46855294336124231 -0.32873531729210143 0 -0.46386644800117471 -0.33586508895417932 0 -0.47770984076123751 -0.32964979107966252 0 -0.46472493826860672 -0.34236766697450172 0 -0.46386644800117471 -0.33586508895417932 0 -0.47770984076123751 -0.32964979107966252 0 -0.47248213405695583 -0.35312520234775913 0 -0.48708430315481122 -0.3479620774366432 0 -0.48422759779560409 -0.37130120630367158 0 -0.5 -0.33901078862982997 0 -0.48708430315481122 -0.3479620774366432 0 -0.5 -0.36644851522156802 0 -0.48708430315481122 -0.3479620774366432 0 -0.5 -0.36644851522156802 0 -0.48422759779560409 -0.37130120630367158 0 -0.46725442735267431 -0.37660061361585562 0 -0.47248213405695583 -0.35312520234775913 0 -0.48422759779560409 -0.37130120630367158 0 -0.46725442735267431 -0.37660061361585562 0 -0.47248213405695583 -0.35312520234775913 0 -0.46725442735267431 -0.37660061361585562 0 -0.4540003998136638 -0.37455519391687309 0 -0.46226041713245919 -0.36267102145096558 0 -0.46725442735267431 -0.37660061361585562 0 -0.47248213405695583 -0.35312520234775913 0 -0.46226041713245919 -0.36267102145096558 0 -0.4540003998136638 -0.37455519391687309 0 -0.46226041713245919 -0.36267102145096558 0 -0.45167034254705118 -0.36337553476545958 0 -0.47248213405695583 -0.35312520234775913 0 -0.46226041713245919 -0.36267102145096558 0 -0.46130034509645268 -0.35111989715704561 0 -0.46472493826860672 -0.34236766697450172 0 -0.47248213405695583 -0.35312520234775913 0 -0.46130034509645268 -0.35111989715704561 0 -0.46472493826860672 -0.34236766697450172 0 -0.46130034509645268 -0.35111989715704561 0 -0.45711636988675219 -0.34547487934353349 0 -0.46130034509645268 -0.35111989715704561 0 -0.45711636988675219 -0.34547487934353349 0 -0.4507851133594416 -0.34910720111649318 0 -0.46226041713245919 -0.36267102145096558 0 -0.4507851133594416 -0.34910720111649318 0 -0.45167034254705118 -0.36337553476545958 0 -0.46226041713245919 -0.36267102145096558 0 -0.46130034509645268 -0.35111989715704561 0 -0.4507851133594416 -0.34910720111649318 0 -0.46226041713245919 -0.36267102145096558 0 -0.4507851133594416 -0.34910720111649318 0 -0.4507851133594416 -0.34910720111649318 0 -0.44504098357239391 -0.35771747353496869 0 -0.45167034254705118 -0.36337553476545958 0 -0.44966367396753332 -0.33841986907325933 0 -0.45711636988675219 -0.34547487934353349 0 -0.4507851133594416 -0.34910720111649318 0 -0.4507851133594416 -0.34910720111649318 0 -0.44408457896710762 -0.34741130507322732 0 -0.44504098357239391 -0.35771747353496869 0 -0.43930980958642257 -0.33554338078202212 0 -0.4507851133594416 -0.34910720111649318 0 -0.44408457896710762 -0.34741130507322732 0 -0.44408457896710762 -0.34741130507322732 0 -0.43834809566141358 -0.35386966642967582 0 -0.4310745521241639 -0.35060051531725012 0 -0.44408457896710762 -0.34741130507322732 0 -0.43834809566141358 -0.35386966642967582 0 -0.44504098357239391 -0.35771747353496869 0 -0.43834809566141358 -0.35386966642967582 0 -0.44504098357239391 -0.35771747353496869 0 -0.43256408976529492 -0.36260533289695268 0 -0.44504098357239391 -0.35771747353496869 0 -0.44172858264042247 -0.37082207246888088 0 -0.43256408976529492 -0.36260533289695268 0 -0.4540003998136638 -0.37455519391687309 0 -0.44172858264042247 -0.37082207246888088 0 -0.45167034254705118 -0.36337553476545958 0 -0.44504098357239391 -0.35771747353496869 0 -0.44172858264042247 -0.37082207246888088 0 -0.45167034254705118 -0.36337553476545958 0 -0.42311368847744002 -0.37830224279505142 0 -0.44172858264042247 -0.37082207246888088 0 -0.43256408976529492 -0.36260533289695268 0 -0.42311368847744002 -0.37830224279505142 0 -0.43256408976529492 -0.36260533289695268 0 -0.41867380740831611 -0.36398836527224071 0 -0.43256408976529492 -0.36260533289695268 0 -0.42210656065146929 -0.35476551363046099 0 -0.41867380740831611 -0.36398836527224071 0 -0.44408457896710762 -0.34741130507322732 0 -0.4310745521241639 -0.35060051531725012 0 -0.42443636388738298 -0.3390060521705498 0 -0.43834809566141358 -0.35386966642967582 0 -0.43256408976529492 -0.36260533289695268 0 -0.4310745521241639 -0.35060051531725012 0 -0.4310745521241639 -0.35060051531725012 0 -0.42266042161335821 -0.34652378860874011 0 -0.42210656065146929 -0.35476551363046099 0 -0.4310745521241639 -0.35060051531725012 0 -0.42266042161335821 -0.34652378860874011 0 -0.42443636388738298 -0.3390060521705498 0 -0.43256408976529492 -0.36260533289695268 0 -0.4310745521241639 -0.35060051531725012 0 -0.42210656065146929 -0.35476551363046099 0 -0.42210656065146929 -0.35476551363046099 0 -0.41243440171204931 -0.35621682403100541 0 -0.41867380740831611 -0.36398836527224071 0 -0.41243440171204931 -0.35621682403100541 0 -0.40365717239196519 -0.36741535175059892 0 -0.40302160193259851 -0.3439916005776541 0 -0.42210656065146929 -0.35476551363046099 0 -0.41714587076776338 -0.34786779488983011 0 -0.41243440171204931 -0.35621682403100541 0 -0.42266042161335821 -0.34652378860874011 0 -0.42210656065146929 -0.35476551363046099 0 -0.41714587076776338 -0.34786779488983011 0 -0.42266042161335821 -0.34652378860874011 0 -0.41714587076776338 -0.34786779488983011 0 -0.41853876063601031 -0.34037906703560689 0 -0.41714587076776338 -0.34786779488983011 0 -0.41853876063601031 -0.34037906703560689 0 -0.41714587076776338 -0.34786779488983011 0 -0.41243440171204931 -0.35621682403100541 0 -0.40302160193259851 -0.3439916005776541 0 -0.41714587076776338 -0.34786779488983011 0 -0.40302160193259851 -0.3439916005776541 0 -0.41853876063601031 -0.34037906703560689 0 -0.42311368847744002 -0.37830224279505142 0 -0.41867380740831611 -0.36398836527224071 0 -0.40365717239196519 -0.36741535175059892 0 -0.42311368847744002 -0.37830224279505142 0 -0.40365717239196519 -0.36741535175059892 0 -0.41243440171204931 -0.35621682403100541 0 -0.41867380740831611 -0.36398836527224071 0 -0.40365717239196519 -0.36741535175059892 0 -0.40403491357358612 -0.38133688525744702 0 -0.40365717239196519 -0.36741535175059892 0 -0.40403491357358612 -0.38133688525744702 0 -0.40365717239196519 -0.36741535175059892 0 -0.3904578797192948 -0.37473938743617019 0 -0.40365717239196519 -0.36741535175059892 0 -0.38979507995825918 -0.35965881973269581 0 -0.40365717239196519 -0.36741535175059892 0 -0.3904578797192948 -0.37473938743617019 0 -0.38979507995825918 -0.35965881973269581 0 -0.3904578797192948 -0.37473938743617019 0 -0.38979507995825918 -0.35965881973269581 0 -0.37568304780698558 -0.36916333065311507 0 -0.37568304780698558 -0.36916333065311507 0 -0.37593298752455201 -0.35190228771479481 0 -0.38979507995825918 -0.35965881973269581 0 -0.37568304780698558 -0.36916333065311507 0 -0.37593298752455201 -0.35190228771479481 0 -0.38979507995825918 -0.35965881973269581 0 -0.37595629511297179 -0.35029264644438168 0 -0.40302160193259851 -0.3439916005776541 0 -0.37595629511297179 -0.35029264644438168 0 -0.40302160193259851 -0.3439916005776541 0 -0.38842354837557669 -0.33756560667471242 0 -0.37595629511297179 -0.35029264644438168 0 -0.40302160193259851 -0.3439916005776541 0 -0.37595629511297179 -0.35029264644438168 0 -0.37607676276689278 -0.3419730509543204 0 -0.37390838074359528 -0.35076941925389299 0 -0.37595629511297179 -0.35029264644438168 0 -0.37607676276689278 -0.3419730509543204 0 -0.37595629511297179 -0.35029264644438168 0 -0.37593298752455201 -0.35190228771479481 0 -0.37390838074359528 -0.35076941925389299 0 -0.37595629511297179 -0.35029264644438168 0 -0.37593298752455201 -0.35190228771479481 0 -0.38979507995825918 -0.35965881973269581 0 -0.37595629511297179 -0.35029264644438168 0 -0.37593298752455201 -0.35190228771479481 0 -0.38979507995825918 -0.35965881973269581 0 -0.37593298752455201 -0.35190228771479481 0 -0.40365717239196519 -0.36741535175059892 0 -0.40302160193259851 -0.3439916005776541 0 -0.40365717239196519 -0.36741535175059892 0 -0.38979507995825918 -0.35965881973269581 0 -0.40302160193259851 -0.3439916005776541 0 -0.40302160193259851 -0.3439916005776541 0 -0.40263324863316441 -0.32967896077653092 0 -0.40263324863316441 -0.32967896077653092 0 -0.38842354837557669 -0.33756560667471242 0 -0.38442983343225828 -0.32189177462067481 0 -0.40302160193259851 -0.3439916005776541 0 -0.40263324863316441 -0.32967896077653092 0 -0.38842354837557669 -0.33756560667471242 0 -0.37607676276689278 -0.3419730509543204 0 -0.37641717267996733 -0.3184640617331177 0 -0.38842354837557669 -0.33756560667471242 0 -0.37607676276689278 -0.3419730509543204 0 -0.38442983343225828 -0.32189177462067481 0 -0.37607676276689278 -0.3419730509543204 0 -0.38442983343225828 -0.32189177462067481 0 -0.37595629511297179 -0.35029264644438168 0 -0.38842354837557669 -0.33756560667471242 0 -0.37607676276689278 -0.3419730509543204 0 -0.37607676276689278 -0.3419730509543204 0 -0.37641717267996733 -0.3184640617331177 0 -0.38442983343225828 -0.32189177462067481 0 -0.37641717267996733 -0.3184640617331177 0 -0.38442983343225828 -0.32189177462067481 0 -0.3841914044669909 -0.30132118344037401 0 -0.37641717267996733 -0.3184640617331177 0 -0.38442983343225828 -0.32189177462067481 0 -0.40263324863316441 -0.32967896077653092 0 -0.38442983343225828 -0.32189177462067481 0 -0.40185461233875269 -0.30098256284660307 0 -0.40263324863316441 -0.32967896077653092 0 -0.38442983343225828 -0.32189177462067481 0 -0.40263324863316441 -0.32967896077653092 0 -0.40185461233875269 -0.30098256284660307 0 -0.40263324863316441 -0.32967896077653092 0 -0.41242695344044827 -0.31820451366256841 0 -0.40185461233875269 -0.30098256284660307 0 -0.41242695344044827 -0.31820451366256841 0 -0.41920998916455232 -0.33677027649670849 0 -0.42301959421646518 -0.31628833020920039 0 -0.41920998916455232 -0.33677027649670849 0 -0.42301959421646518 -0.31628833020920039 0 -0.41242695344044827 -0.31820451366256841 0 -0.42301959421646518 -0.31628833020920039 0 -0.41541732284930832 -0.30730243798379953 0 -0.40302160193259851 -0.3439916005776541 0 -0.41920998916455232 -0.33677027649670849 0 -0.41853876063601031 -0.34037906703560689 0 -0.40302160193259851 -0.3439916005776541 0 -0.40263324863316441 -0.32967896077653092 0 -0.41920998916455232 -0.33677027649670849 0 -0.40263324863316441 -0.32967896077653092 0 -0.41920998916455232 -0.33677027649670849 0 -0.40263324863316441 -0.32967896077653092 0 -0.41242695344044827 -0.31820451366256841 0 -0.41920998916455232 -0.33677027649670849 0 -0.40302160193259851 -0.3439916005776541 0 -0.41853876063601031 -0.34037906703560689 0 -0.41853876063601031 -0.34037906703560689 0 -0.42443636388738298 -0.3390060521705498 0 -0.41920998916455232 -0.33677027649670849 0 -0.42443636388738298 -0.3390060521705498 0 -0.41920998916455232 -0.33677027649670849 0 -0.41853876063601031 -0.34037906703560689 0 -0.42443636388738298 -0.3390060521705498 0 -0.41920998916455232 -0.33677027649670849 0 -0.41853876063601031 -0.34037906703560689 0 -0.43930980958642257 -0.33554338078202212 0 -0.44408457896710762 -0.34741130507322732 0 -0.42443636388738298 -0.3390060521705498 0 -0.43930980958642257 -0.33554338078202212 0 -0.42443636388738298 -0.3390060521705498 0 -0.42301959421646518 -0.31628833020920039 0 -0.41920998916455232 -0.33677027649670849 0 -0.42443636388738298 -0.3390060521705498 0 -0.42301959421646518 -0.31628833020920039 0 -0.44408457896710762 -0.34741130507322732 0 -0.42443636388738298 -0.3390060521705498 0 -0.42266042161335821 -0.34652378860874011 0 -0.41853876063601031 -0.34037906703560689 0 -0.42443636388738298 -0.3390060521705498 0 -0.43930980958642257 -0.33554338078202212 0 -0.42443636388738298 -0.3390060521705498 0 -0.43930980958642257 -0.33554338078202212 0 -0.42301959421646518 -0.31628833020920039 0 -0.44024276041750632 -0.31887045497680111 0 -0.42395130998641067 -0.31127905704434472 0 -0.44024276041750632 -0.31887045497680111 0 -0.43930980958642257 -0.33554338078202212 0 -0.42301959421646518 -0.31628833020920039 0 -0.44024276041750632 -0.31887045497680111 0 -0.42301959421646518 -0.31628833020920039 0 -0.42395130998641067 -0.31127905704434472 0 -0.42301959421646518 -0.31628833020920039 0 -0.42395130998641067 -0.31127905704434472 0 -0.42395130998641067 -0.31127905704434472 0 -0.42709180872781188 -0.29439449141065738 0 -0.44024276041750632 -0.31887045497680111 0 -0.42395130998641067 -0.31127905704434472 0 -0.43527018611072049 -0.30465000121327751 0 -0.42395130998641067 -0.31127905704434472 0 -0.42709180872781188 -0.29439449141065738 0 -0.41541732284930832 -0.30730243798379953 0 -0.42395130998641067 -0.31127905704434472 0 -0.43527018611072049 -0.30465000121327751 0 -0.42709180872781188 -0.29439449141065738 0 -0.441361257405879 -0.29303276451920029 0 -0.43527018611072049 -0.30465000121327751 0 -0.42709180872781188 -0.29439449141065738 0 -0.42709180872781188 -0.29439449141065738 0 -0.43077531442077321 -0.27459050524281542 0 -0.42709180872781188 -0.29439449141065738 0 -0.41684225135067149 -0.28376244362903152 0 -0.43077531442077321 -0.27459050524281542 0 -0.441361257405879 -0.29303276451920029 0 -0.42709180872781188 -0.29439449141065738 0 -0.441361257405879 -0.29303276451920029 0 -0.42709180872781188 -0.29439449141065738 0 -0.43077531442077321 -0.27459050524281542 0 -0.42709180872781188 -0.29439449141065738 0 -0.41684225135067149 -0.28376244362903152 0 -0.40618483967714292 -0.29638963380315841 0 -0.42709180872781188 -0.29439449141065738 0 -0.40618483967714292 -0.29638963380315841 0 -0.41684225135067149 -0.28376244362903152 0 -0.40690107601488551 -0.28490397733270861 0 -0.40618483967714292 -0.29638963380315841 0 -0.41541732284930832 -0.30730243798379953 0 -0.40185461233875269 -0.30098256284660307 0 -0.40618483967714292 -0.29638963380315841 0 -0.42709180872781188 -0.29439449141065738 0 -0.41541732284930832 -0.30730243798379953 0 -0.40618483967714292 -0.29638963380315841 0 -0.41541732284930832 -0.30730243798379953 0 -0.40618483967714292 -0.29638963380315841 0 -0.41242695344044827 -0.31820451366256841 0 -0.41541732284930832 -0.30730243798379953 0 -0.40185461233875269 -0.30098256284660307 0 -0.41541732284930832 -0.30730243798379953 0 -0.40185461233875269 -0.30098256284660307 0 -0.42301959421646518 -0.31628833020920039 0 -0.41541732284930832 -0.30730243798379953 0 -0.42395130998641067 -0.31127905704434472 0 -0.41541732284930832 -0.30730243798379953 0 -0.42301959421646518 -0.31628833020920039 0 -0.42395130998641067 -0.31127905704434472 0 -0.41541732284930832 -0.30730243798379953 0 -0.38442983343225828 -0.32189177462067481 0 -0.40185461233875269 -0.30098256284660307 0 -0.39448508010510541 -0.297525044214214 0 -0.40185461233875269 -0.30098256284660307 0 -0.40174149504185092 -0.29681366012781812 0 -0.40618483967714292 -0.29638963380315841 0 -0.40185461233875269 -0.30098256284660307 0 -0.40174149504185092 -0.29681366012781812 0 -0.40185461233875269 -0.30098256284660307 0 -0.39448508010510541 -0.297525044214214 0 -0.40174149504185092 -0.29681366012781812 0 -0.40185461233875269 -0.30098256284660307 0 -0.39448508010510541 -0.297525044214214 0 -0.39448508010510541 -0.297525044214214 0 -0.40174149504185092 -0.29681366012781812 0 -0.37641717267996733 -0.3184640617331177 0 -0.37669606201677502 -0.29920373422444158 0 -0.38442983343225828 -0.32189177462067481 0 -0.39448508010510541 -0.297525044214214 0 -0.38442983343225828 -0.32189177462067481 0 -0.39448508010510541 -0.297525044214214 0 -0.3841914044669909 -0.30132118344037401 0 -0.37641717267996733 -0.3184640617331177 0 -0.3841914044669909 -0.30132118344037401 0 -0.37669606201677502 -0.29920373422444158 0 -0.39448508010510541 -0.297525044214214 0 -0.3841914044669909 -0.30132118344037401 0 -0.37928718982873688 -0.29895646409505849 0 -0.39448508010510541 -0.297525044214214 0 -0.37928718982873688 -0.29895646409505849 0 -0.3841914044669909 -0.30132118344037401 0 -0.37928718982873688 -0.29895646409505849 0 -0.3841914044669909 -0.30132118344037401 0 -0.37928718982873688 -0.29895646409505849 0 -0.37669606201677502 -0.29920373422444158 0 -0.37928718982873688 -0.29895646409505849 0 -0.37669606201677502 -0.29920373422444158 0 -0.37671758341694961 -0.29771744858697219 0 -0.37928718982873688 -0.29895646409505849 0 -0.37671758341694961 -0.29771744858697219 0 -0.37928718982873688 -0.29895646409505849 0 -0.37669606201677502 -0.29920373422444158 0 -0.37669606201677502 -0.29920373422444158 0 -0.37671758341694961 -0.29771744858697219 0 -0.37671758341694961 -0.29771744858697219 0 -0.38607699004493318 -0.28757386461908069 0 -0.38483052758877101 -0.28123782127595193 0 -0.37671758341694961 -0.29771744858697219 0 -0.3770412393053626 -0.27536550612006683 0 -0.37671758341694961 -0.29771744858697219 0 -0.38483052758877101 -0.28123782127595193 0 -0.3770412393053626 -0.27536550612006683 0 -0.37928718982873688 -0.29895646409505849 0 -0.37671758341694961 -0.29771744858697219 0 -0.38467000758835601 -0.29297497791584359 0 -0.37671758341694961 -0.29771744858697219 0 -0.38467000758835601 -0.29297497791584359 0 -0.38607699004493318 -0.28757386461908069 0 -0.39448508010510541 -0.297525044214214 0 -0.37928718982873688 -0.29895646409505849 0 -0.38467000758835601 -0.29297497791584359 0 -0.39448508010510541 -0.297525044214214 0 -0.38467000758835601 -0.29297497791584359 0 -0.39448508010510541 -0.297525044214214 0 -0.38467000758835601 -0.29297497791584359 0 -0.39217701296355612 -0.28987936211692023 0 -0.38467000758835601 -0.29297497791584359 0 -0.38607699004493318 -0.28757386461908069 0 -0.39217701296355612 -0.28987936211692023 0 -0.38607699004493318 -0.28757386461908069 0 -0.39049541959166939 -0.28414526237041138 0 -0.39217701296355612 -0.28987936211692023 0 -0.39049541959166939 -0.28414526237041138 0 -0.39420405367365152 -0.27853706101481662 0 -0.38483052758877101 -0.28123782127595193 0 -0.38607699004493318 -0.28757386461908069 0 -0.39049541959166939 -0.28414526237041138 0 -0.38483052758877101 -0.28123782127595193 0 -0.39597078832761667 -0.28551153658085893 0 -0.40174149504185092 -0.29681366012781812 0 -0.40123596036735593 -0.27818233727432817 0 -0.39049541959166939 -0.28414526237041138 0 -0.39597078832761667 -0.28551153658085893 0 -0.39420405367365152 -0.27853706101481662 0 -0.40174149504185092 -0.29681366012781812 0 -0.40123596036735593 -0.27818233727432817 0 -0.40174149504185092 -0.29681366012781812 0 -0.40322207619149192 -0.29288764445213411 0 -0.40123596036735593 -0.27818233727432817 0 -0.39049541959166939 -0.28414526237041138 0 -0.39597078832761667 -0.28551153658085893 0 -0.39217701296355612 -0.28987936211692023 0 -0.39597078832761667 -0.28551153658085893 0 -0.39217701296355612 -0.28987936211692023 0 -0.40174149504185092 -0.29681366012781812 0 -0.39448508010510541 -0.297525044214214 0 -0.39217701296355612 -0.28987936211692023 0 -0.40174149504185092 -0.29681366012781812 0 -0.40690107601488551 -0.28490397733270861 0 -0.40322207619149192 -0.29288764445213411 0 -0.40618483967714292 -0.29638963380315841 0 -0.40174149504185092 -0.29681366012781812 0 -0.40322207619149192 -0.29288764445213411 0 -0.40618483967714292 -0.29638963380315841 0 -0.40174149504185092 -0.29681366012781812 0 -0.40618483967714292 -0.29638963380315841 0 -0.40322207619149192 -0.29288764445213411 0 -0.40618483967714292 -0.29638963380315841 0 -0.40690107601488551 -0.28490397733270861 0 -0.40322207619149192 -0.29288764445213411 0 -0.40123596036735593 -0.27818233727432817 0 -0.39420405367365152 -0.27853706101481662 0 -0.37710287173325818 -0.2711091198417086 0 -0.40073042569286338 -0.25955101442083811 0 -0.40123596036735593 -0.27818233727432817 0 -0.39420405367365152 -0.27853706101481662 0 -0.40073042569286338 -0.25955101442083811 0 -0.40123596036735593 -0.27818233727432817 0 -0.40073042569286338 -0.25955101442083811 0 -0.40123596036735593 -0.27818233727432817 0 -0.40073042569286338 -0.25955101442083811 0 -0.41341650638623911 -0.27076301679274262 0 -0.39597078832761667 -0.28551153658085893 0 -0.40123596036735593 -0.27818233727432817 0 -0.39420405367365152 -0.27853706101481662 0 -0.39420405367365152 -0.27853706101481662 0 -0.37710287173325818 -0.2711091198417086 0 -0.3770412393053626 -0.27536550612006683 0 -0.39420405367365152 -0.27853706101481662 0 -0.3770412393053626 -0.27536550612006683 0 -0.39420405367365152 -0.27853706101481662 0 -0.38483052758877101 -0.28123782127595193 0 -0.3770412393053626 -0.27536550612006683 0 -0.37710287173325818 -0.2711091198417086 0 -0.3770412393053626 -0.27536550612006683 0 -0.37710287173325818 -0.2711091198417086 0 -0.38543722149146659 -0.25821727905458303 0 -0.40073042569286338 -0.25955101442083811 0 -0.37710287173325818 -0.2711091198417086 0 -0.37747963509906429 -0.24508953120583671 0 -0.37710287173325818 -0.2711091198417086 0 -0.40073042569286338 -0.25955101442083811 0 -0.37710287173325818 -0.2711091198417086 0 -0.38543722149146659 -0.25821727905458303 0 -0.37747963509906429 -0.24508953120583671 0 -0.38543722149146659 -0.25821727905458303 0 -0.3938256931015453 -0.25037754026629511 0 -0.37747963509906429 -0.24508953120583671 0 -0.38543722149146659 -0.25821727905458303 0 -0.3938256931015453 -0.25037754026629511 0 -0.40073042569286338 -0.25955101442083811 0 -0.40073042569286338 -0.25955101442083811 0 -0.40282532782868952 -0.25224285689579767 0 -0.40022281387448849 -0.24084313907701979 0 -0.40073042569286338 -0.25955101442083811 0 -0.40022281387448849 -0.24084313907701979 0 -0.3938256931015453 -0.25037754026629511 0 -0.40073042569286338 -0.25955101442083811 0 -0.40022281387448849 -0.24084313907701979 0 -0.40073042569286338 -0.25955101442083811 0 -0.40282532782868952 -0.25224285689579767 0 -0.41385673751816382 -0.25312989710486528 0 -0.40073042569286338 -0.25955101442083811 0 -0.41385673751816382 -0.25312989710486528 0 -0.40073042569286338 -0.25955101442083811 0 -0.41385673751816382 -0.25312989710486528 0 -0.41341650638623911 -0.27076301679274262 0 -0.41385673751816382 -0.25312989710486528 0 -0.41341650638623911 -0.27076301679274262 0 -0.42312684460972783 -0.26331748455384929 0 -0.41385673751816382 -0.25312989710486528 0 -0.41679144862722167 -0.25169429778568547 0 -0.43445882011373449 -0.25478651907497341 0 -0.40282532782868952 -0.25224285689579767 0 -0.41385673751816382 -0.25312989710486528 0 -0.4086566941719203 -0.24778871483445111 0 -0.40282532782868952 -0.25224285689579767 0 -0.41385673751816382 -0.25312989710486528 0 -0.41385673751816382 -0.25312989710486528 0 -0.41679144862722167 -0.25169429778568547 0 -0.41627810448972868 -0.24641300060905449 0 -0.41385673751816382 -0.25312989710486528 0 -0.41679144862722167 -0.25169429778568547 0 -0.41684225135067149 -0.28376244362903152 0 -0.41341650638623911 -0.27076301679274262 0 -0.43077531442077321 -0.27459050524281542 0 -0.40690107601488551 -0.28490397733270861 0 -0.40123596036735593 -0.27818233727432817 0 -0.41341650638623911 -0.27076301679274262 0 -0.41684225135067149 -0.28376244362903152 0 -0.40690107601488551 -0.28490397733270861 0 -0.41341650638623911 -0.27076301679274262 0 -0.41341650638623911 -0.27076301679274262 0 -0.43077531442077321 -0.27459050524281542 0 -0.42312684460972783 -0.26331748455384929 0 -0.43077531442077321 -0.27459050524281542 0 -0.42312684460972783 -0.26331748455384929 0 -0.43445882011373449 -0.25478651907497341 0 -0.41385673751816382 -0.25312989710486528 0 -0.43445882011373449 -0.25478651907497341 0 -0.43077531442077321 -0.27459050524281542 0 -0.43445882011373449 -0.25478651907497341 0 -0.41385673751816382 -0.25312989710486528 0 -0.42312684460972783 -0.26331748455384929 0 -0.43445882011373449 -0.25478651907497341 0 -0.41679144862722167 -0.25169429778568547 0 -0.43445882011373449 -0.25478651907497341 0 -0.42335340856967768 -0.24893549408922019 0 -0.32580796388430833 -0.26195871891040218 0 -0.34139866608006603 -0.2687790352098644 0 -0.31202674084989918 -0.26335133138269068 0 -0.32580796388430833 -0.26195871891040218 0 -0.33345250408021371 -0.25331871279766999 0 -0.32023222063025569 -0.2489608815952247 0 -0.32580796388430833 -0.26195871891040218 0 -0.31664960680882542 -0.25714232151458272 0 -0.32023222063025569 -0.2489608815952247 0 -0.31664960680882542 -0.25714232151458272 0 -0.30853150187083839 -0.25429835417001312 0 -0.32023222063025569 -0.2489608815952247 0 -0.32580796388430833 -0.26195871891040218 0 -0.31664960680882542 -0.25714232151458272 0 -0.31202674084989918 -0.26335133138269068 0 -0.33223611708196649 -0.27626932861073827 0 -0.31972670239926188 -0.28454160199560091 0 -0.31187737399160442 -0.27618124236115132 0 -0.34139866608006603 -0.2687790352098644 0 -0.31202674084989918 -0.26335133138269068 0 -0.33223611708196649 -0.27626932861073827 0 -0.31202674084989918 -0.26335133138269068 0 -0.3062135479255173 -0.26372173898871692 0 -0.33223611708196649 -0.27626932861073827 0 -0.31187737399160442 -0.27618124236115132 0 -0.3062135479255173 -0.26372173898871692 0 -0.33260241140844943 -0.2743168067351805 0 -0.33223611708196649 -0.27626932861073827 0 -0.31202674084989918 -0.26335133138269068 0 -0.33223611708196649 -0.27626932861073827 0 -0.3062135479255173 -0.26372173898871692 0 -0.33260241140844943 -0.2743168067351805 0 -0.34139866608006603 -0.2687790352098644 0 -0.31202674084989918 -0.26335133138269068 0 -0.33223611708196649 -0.27626932861073827 0 -0.34139866608006603 -0.2687790352098644 0 -0.34951875912658742 -0.28460269103381453 0 -0.33223611708196649 -0.27626932861073827 0 -0.34951875912658742 -0.28460269103381453 0 -0.33260241140844943 -0.2743168067351805 0 -0.33223611708196649 -0.27626932861073827 0 -0.34139866608006603 -0.2687790352098644 0 -0.33260241140844943 -0.2743168067351805 0 -0.33223611708196649 -0.27626932861073827 0 -0.34139866608006603 -0.2687790352098644 0 -0.3363084638556994 -0.26041051377605268 0 -0.34457472137820933 -0.25758558818627408 0 -0.32580796388430833 -0.26195871891040218 0 -0.34139866608006603 -0.2687790352098644 0 -0.3363084638556994 -0.26041051377605268 0 -0.32580796388430833 -0.26195871891040218 0 -0.3363084638556994 -0.26041051377605268 0 -0.33345250408021371 -0.25331871279766999 0 -0.3363084638556994 -0.26041051377605268 0 -0.33345250408021371 -0.25331871279766999 0 -0.34457472137820933 -0.25758558818627408 0 -0.33345250408021371 -0.25331871279766999 0 -0.34457472137820933 -0.25758558818627408 0 -0.34395992200845399 -0.24382677409400949 0 -0.34139866608006603 -0.2687790352098644 0 -0.34457472137820933 -0.25758558818627408 0 -0.35733732661955131 -0.26288598862094092 0 -0.34457472137820933 -0.25758558818627408 0 -0.35872453044413888 -0.25078889886649508 0 -0.34395992200845399 -0.24382677409400949 0 -0.34457472137820933 -0.25758558818627408 0 -0.35733732661955131 -0.26288598862094092 0 -0.35872453044413888 -0.25078889886649508 0 -0.37710287173325818 -0.2711091198417086 0 -0.36828299104124951 -0.26081605551440462 0 -0.37747963509906429 -0.24508953120583671 0 -0.35872453044413888 -0.25078889886649508 0 -0.36828299104124951 -0.26081605551440462 0 -0.37747963509906429 -0.24508953120583671 0 -0.35733732661955131 -0.26288598862094092 0 -0.35872453044413888 -0.25078889886649508 0 -0.36828299104124951 -0.26081605551440462 0 -0.37077059131023282 -0.27420673903703829 0 -0.34951875912658742 -0.28460269103381453 0 -0.37710287173325818 -0.2711091198417086 0 -0.3770412393053626 -0.27536550612006683 0 -0.37077059131023282 -0.27420673903703829 0 -0.3770412393053626 -0.27536550612006683 0 -0.37077059131023282 -0.27420673903703829 0 -0.37710287173325818 -0.2711091198417086 0 -0.36828299104124951 -0.26081605551440462 0 -0.37077059131023282 -0.27420673903703829 0 -0.37710287173325818 -0.2711091198417086 0 -0.37077059131023282 -0.27420673903703829 0 -0.35733732661955131 -0.26288598862094092 0 -0.36828299104124951 -0.26081605551440462 0 -0.37077059131023282 -0.27420673903703829 0 -0.34139866608006603 -0.2687790352098644 0 -0.35733732661955131 -0.26288598862094092 0 -0.37077059131023282 -0.27420673903703829 0 -0.34139866608006603 -0.2687790352098644 0 -0.37077059131023282 -0.27420673903703829 0 -0.34951875912658742 -0.28460269103381453 0 -0.34139866608006603 -0.2687790352098644 0 -0.37077059131023282 -0.27420673903703829 0 -0.34951875912658742 -0.28460269103381453 0 -0.3581763596052473 -0.30097106086504849 0 -0.34010739644885768 -0.2892065328944351 0 -0.34951875912658742 -0.28460269103381453 0 -0.34010739644885768 -0.2892065328944351 0 -0.37671758341694961 -0.29771744858697219 0 -0.37077059131023282 -0.27420673903703829 0 -0.34951875912658742 -0.28460269103381453 0 -0.37671758341694961 -0.29771744858697219 0 -0.34951875912658742 -0.28460269103381453 0 -0.37671758341694961 -0.29771744858697219 0 -0.3770412393053626 -0.27536550612006683 0 -0.37077059131023282 -0.27420673903703829 0 -0.37671758341694961 -0.29771744858697219 0 -0.34951875912658742 -0.28460269103381453 0 -0.3581763596052473 -0.30097106086504849 0 -0.37669606201677502 -0.29920373422444158 0 -0.37671758341694961 -0.29771744858697219 0 -0.3581763596052473 -0.30097106086504849 0 -0.37641717267996733 -0.3184640617331177 0 -0.37669606201677502 -0.29920373422444158 0 -0.36799370156123501 -0.30592930732763762 0 -0.37641717267996733 -0.3184640617331177 0 -0.36799370156123501 -0.30592930732763762 0 -0.35803691493684492 -0.31060122461938489 0 -0.37669606201677502 -0.29920373422444158 0 -0.36799370156123501 -0.30592930732763762 0 -0.3581763596052473 -0.30097106086504849 0 -0.37669606201677502 -0.29920373422444158 0 -0.3581763596052473 -0.30097106086504849 0 -0.36799370156123501 -0.30592930732763762 0 -0.35803691493684492 -0.31060122461938489 0 -0.3581763596052473 -0.30097106086504849 0 -0.35803691493684492 -0.31060122461938489 0 -0.33965665719371979 -0.30273838750565862 0 -0.35803691493684492 -0.31060122461938489 0 -0.33965665719371979 -0.30273838750565862 0 -0.34514704515453298 -0.31300544250539297 0 -0.3581763596052473 -0.30097106086504849 0 -0.33965665719371979 -0.30273838750565862 0 -0.34010739644885768 -0.2892065328944351 0 -0.35803691493684492 -0.31060122461938489 0 -0.3581763596052473 -0.30097106086504849 0 -0.33965665719371979 -0.30273838750565862 0 -0.3581763596052473 -0.30097106086504849 0 -0.33965665719371979 -0.30273838750565862 0 -0.33676996251121621 -0.31158184422573892 0 -0.33965665719371979 -0.30273838750565862 0 -0.34514704515453298 -0.31300544250539297 0 -0.33676996251121621 -0.31158184422573892 0 -0.33965665719371979 -0.30273838750565862 0 -0.32704471803945162 -0.30394193902942662 0 -0.33676996251121621 -0.31158184422573892 0 -0.32594772137393307 -0.30978944971135602 0 -0.32704471803945162 -0.30394193902942662 0 -0.33965665719371979 -0.30273838750565862 0 -0.32704471803945162 -0.30394193902942662 0 -0.32819068517220462 -0.29783339261299951 0 -0.33965665719371979 -0.30273838750565862 0 -0.32704471803945162 -0.30394193902942662 0 -0.32819068517220462 -0.29783339261299951 0 -0.33965665719371979 -0.30273838750565862 0 -0.33223611708196649 -0.27626932861073827 0 -0.32819068517220462 -0.29783339261299951 0 -0.33223611708196649 -0.27626932861073827 0 -0.32819068517220462 -0.29783339261299951 0 -0.34010739644885768 -0.2892065328944351 0 -0.33223611708196649 -0.27626932861073827 0 -0.34951875912658742 -0.28460269103381453 0 -0.34010739644885768 -0.2892065328944351 0 -0.32819068517220462 -0.29783339261299951 0 -0.33965665719371979 -0.30273838750565862 0 -0.34010739644885768 -0.2892065328944351 0 -0.32819068517220462 -0.29783339261299951 0 -0.31972670239926188 -0.28454160199560091 0 -0.31332574866090718 -0.291474364566292 0 -0.32819068517220462 -0.29783339261299951 0 -0.31332574866090718 -0.291474364566292 0 -0.33223611708196649 -0.27626932861073827 0 -0.32819068517220462 -0.29783339261299951 0 -0.31972670239926188 -0.28454160199560091 0 -0.31972670239926188 -0.28454160199560091 0 -0.31332574866090718 -0.291474364566292 0 -0.30937392239009109 -0.28339120160471948 0 -0.31972670239926188 -0.28454160199560091 0 -0.30937392239009109 -0.28339120160471948 0 -0.31187737399160442 -0.27618124236115132 0 -0.31992409361072222 -0.30462145692723192 0 -0.32594772137393307 -0.30978944971135602 0 -0.31307430431717392 -0.31869978567557272 0 -0.31992409361072222 -0.30462145692723192 0 -0.32594772137393307 -0.30978944971135602 0 -0.32594772137393307 -0.30978944971135602 0 -0.32704471803945162 -0.30394193902942662 0 -0.31992409361072222 -0.30462145692723192 0 -0.32594772137393307 -0.30978944971135602 0 -0.32704471803945162 -0.30394193902942662 0 -0.32819068517220462 -0.29783339261299951 0 -0.31332574866090718 -0.291474364566292 0 -0.31992409361072222 -0.30462145692723192 0 -0.32819068517220462 -0.29783339261299951 0 -0.32704471803945162 -0.30394193902942662 0 -0.32819068517220462 -0.29783339261299951 0 -0.31992409361072222 -0.30462145692723192 0 -0.32704471803945162 -0.30394193902942662 0 -0.31992409361072222 -0.30462145692723192 0 -0.32704471803945162 -0.30394193902942662 0 -0.32594772137393307 -0.30978944971135602 0 -0.31307430431717392 -0.31869978567557272 0 -0.32184288384298337 -0.33167017375041419 0 -0.32594772137393307 -0.30978944971135602 0 -0.32184288384298337 -0.33167017375041419 0 -0.32184288384298337 -0.33167017375041419 0 -0.31773804631203251 -0.35355089778947202 0 -0.32184288384298337 -0.33167017375041419 0 -0.34475024534571441 -0.34586667392980902 0 -0.31773804631203251 -0.35355089778947202 0 -0.32184288384298337 -0.33167017375041419 0 -0.34612464597635118 -0.32710031367078812 0 -0.34475024534571441 -0.34586667392980902 0 -0.33676996251121621 -0.31158184422573892 0 -0.32594772137393307 -0.30978944971135602 0 -0.34612464597635118 -0.32710031367078812 0 -0.32594772137393307 -0.30978944971135602 0 -0.34612464597635118 -0.32710031367078812 0 -0.32594772137393307 -0.30978944971135602 0 -0.32184288384298337 -0.33167017375041419 0 -0.34612464597635118 -0.32710031367078812 0 -0.33676996251121621 -0.31158184422573892 0 -0.34514704515453298 -0.31300544250539297 0 -0.34612464597635118 -0.32710031367078812 0 -0.35803691493684492 -0.31060122461938489 0 -0.34514704515453298 -0.31300544250539297 0 -0.34612464597635118 -0.32710031367078812 0 -0.35803691493684492 -0.31060122461938489 0 -0.34612464597635118 -0.32710031367078812 0 -0.35600230731325749 -0.33324145173106873 0 -0.37641717267996733 -0.3184640617331177 0 -0.35803691493684492 -0.31060122461938489 0 -0.37641717267996733 -0.3184640617331177 0 -0.35803691493684492 -0.31060122461938489 0 -0.36719759625642318 -0.33008752154143739 0 -0.35803691493684492 -0.31060122461938489 0 -0.36719759625642318 -0.33008752154143739 0 -0.35600230731325749 -0.33324145173106873 0 -0.37607676276689278 -0.3419730509543204 0 -0.37641717267996733 -0.3184640617331177 0 -0.36719759625642318 -0.33008752154143739 0 -0.37607676276689278 -0.3419730509543204 0 -0.3688763256213185 -0.34309961767568647 0 -0.36719759625642318 -0.33008752154143739 0 -0.36719759625642318 -0.33008752154143739 0 -0.36118874601324108 -0.3436521492952741 0 -0.35600230731325749 -0.33324145173106873 0 -0.3688763256213185 -0.34309961767568647 0 -0.36719759625642318 -0.33008752154143739 0 -0.36118874601324108 -0.3436521492952741 0 -0.34612464597635118 -0.32710031367078812 0 -0.35600230731325749 -0.33324145173106873 0 -0.34475024534571441 -0.34586667392980902 0 -0.36118874601324108 -0.3436521492952741 0 -0.35600230731325749 -0.33324145173106873 0 -0.34475024534571441 -0.34586667392980902 0 -0.36118874601324108 -0.3436521492952741 0 -0.34475024534571441 -0.34586667392980902 0 -0.35925477447714671 -0.35134479444962452 0 -0.34475024534571441 -0.34586667392980902 0 -0.35480891830463612 -0.3592101017575729 0 -0.33937201587241012 -0.36587749477948078 0 -0.34475024534571441 -0.34586667392980902 0 -0.35480891830463612 -0.3592101017575729 0 -0.35925477447714671 -0.35134479444962452 0 -0.36118874601324108 -0.3436521492952741 0 -0.37225797237559449 -0.35115364910559932 0 -0.36118874601324108 -0.3436521492952741 0 -0.35925477447714671 -0.35134479444962452 0 -0.36985982957495511 -0.35171195823109852 0 -0.37568304780698558 -0.36916333065311507 0 -0.37593298752455201 -0.35190228771479481 0 -0.37225797237559449 -0.35115364910559932 0 -0.35480891830463612 -0.3592101017575729 0 -0.35925477447714671 -0.35134479444962452 0 -0.36985982957495511 -0.35171195823109852 0 -0.37607676276689278 -0.3419730509543204 0 -0.3688763256213185 -0.34309961767568647 0 -0.37225797237559449 -0.35115364910559932 0 -0.37607676276689278 -0.3419730509543204 0 -0.37225797237559449 -0.35115364910559932 0 -0.37607676276689278 -0.3419730509543204 0 -0.37390838074359528 -0.35076941925389299 0 -0.37225797237559449 -0.35115364910559932 0 -0.37593298752455201 -0.35190228771479481 0 -0.37390838074359528 -0.35076941925389299 0 -0.37225797237559449 -0.35115364910559932 0 -0.3688763256213185 -0.34309961767568647 0 -0.36118874601324108 -0.3436521492952741 0 -0.37225797237559449 -0.35115364910559932 0 -0.37593298752455201 -0.35190228771479481 0 -0.37390838074359528 -0.35076941925389299 0 -0.36118874601324108 -0.3436521492952741 0 -0.36985982957495511 -0.35171195823109852 0 -0.37225797237559449 -0.35115364910559932 0 -0.37595629511297179 -0.35029264644438168 0 -0.37390838074359528 -0.35076941925389299 0 -0.37390838074359528 -0.35076941925389299 0 -0.37225797237559449 -0.35115364910559932 0 -0.36985982957495511 -0.35171195823109852 0 -0.37225797237559449 -0.35115364910559932 0 -0.37568304780698558 -0.36916333065311507 0 -0.37225797237559449 -0.35115364910559932 0 -0.36100598543278789 -0.37820409176948921 0 -0.35480891830463612 -0.3592101017575729 0 -0.36985982957495511 -0.35171195823109852 0 -0.36100598543278789 -0.37820409176948921 0 -0.36985982957495511 -0.35171195823109852 0 -0.37225797237559449 -0.35115364910559932 0 -0.36100598543278789 -0.37820409176948921 0 -0.37225797237559449 -0.35115364910559932 0 -0.36100598543278789 -0.37820409176948921 0 -0.33937201587241012 -0.36587749477948078 0 -0.36100598543278789 -0.37820409176948921 0 -0.35480891830463612 -0.3592101017575729 0 -0.33937201587241012 -0.36587749477948078 0 -0.36100598543278789 -0.37820409176948921 0 -0.33937201587241012 -0.36587749477948078 0 -0.31773804631203251 -0.35355089778947202 0 -0.33937201587241012 -0.36587749477948078 0 -0.31773804631203251 -0.35355089778947202 0 -0.32803705280137402 -0.37447550275240871 0 -0.34475024534571441 -0.34586667392980902 0 -0.33937201587241012 -0.36587749477948078 0 -0.31773804631203251 -0.35355089778947202 0 -0.31773804631203251 -0.35355089778947202 0 -0.31381007312398762 -0.37448885129246268 0 -0.31773804631203251 -0.35355089778947202 0 -0.31381007312398762 -0.37448885129246268 0 -0.32803705280137402 -0.37447550275240871 0 -0.31381007312398762 -0.37448885129246268 0 -0.29871455833571747 -0.36148408621311728 0 -0.29196992941862432 -0.3825632544476108 0 -0.31773804631203251 -0.35355089778947202 0 -0.31381007312398762 -0.37448885129246268 0 -0.29871455833571747 -0.36148408621311728 0 -0.31773804631203251 -0.35355089778947202 0 -0.29871455833571747 -0.36148408621311728 0 -0.29282778547957722 -0.33935753649529382 0 -0.31773804631203251 -0.35355089778947202 0 -0.29282778547957722 -0.33935753649529382 0 -0.29871455833571747 -0.36148408621311728 0 -0.27675503022224163 -0.36681377825091099 0 -0.29282778547957722 -0.33935753649529382 0 -0.29871455833571747 -0.36148408621311728 0 -0.27675503022224163 -0.36681377825091099 0 -0.29196992941862432 -0.3825632544476108 0 -0.27675503022224163 -0.36681377825091099 0 -0.25757508569408222 -0.36424633604315798 0 -0.26546808025963542 -0.34847395767735678 0 -0.27675503022224163 -0.36681377825091099 0 -0.25757508569408222 -0.36424633604315798 0 -0.25812358553267323 -0.37605355791306738 0 -0.25757508569408222 -0.36424633604315798 0 -0.24839247009954951 -0.37292447016044328 0 -0.24532753696728959 -0.36501789644951049 0 -0.25757508569408222 -0.36424633604315798 0 -0.25812358553267323 -0.37605355791306738 0 -0.24839247009954951 -0.37292447016044328 0 -0.25757508569408222 -0.36424633604315798 0 -0.26546808025963542 -0.34847395767735678 0 -0.24650166737573331 -0.3569693529562265 0 -0.26546808025963542 -0.34847395767735678 0 -0.24650166737573331 -0.3569693529562265 0 -0.24881121389389799 -0.33838995723746451 0 -0.27675503022224163 -0.36681377825091099 0 -0.26546808025963542 -0.34847395767735678 0 -0.29282778547957722 -0.33935753649529382 0 -0.26791752464712137 -0.32516417520111718 0 -0.27544300416693679 -0.31995488319631832 0 -0.29282778547957722 -0.33935753649529382 0 -0.26546808025963542 -0.34847395767735678 0 -0.26791752464712137 -0.32516417520111718 0 -0.29282778547957722 -0.33935753649529382 0 -0.26791752464712137 -0.32516417520111718 0 -0.29282778547957722 -0.33935753649529382 0 -0.26791752464712137 -0.32516417520111718 0 -0.24881121389389799 -0.33838995723746451 0 -0.26546808025963542 -0.34847395767735678 0 -0.26791752464712137 -0.32516417520111718 0 -0.24881121389389799 -0.33838995723746451 0 -0.26791752464712137 -0.32516417520111718 0 -0.24881121389389799 -0.33838995723746451 0 -0.2441082332202735 -0.32380704628422963 0 -0.26791752464712137 -0.32516417520111718 0 -0.2444966906846206 -0.31181945912301329 0 -0.26791752464712137 -0.32516417520111718 0 -0.26963915832665503 -0.30942012505775762 0 -0.2444966906846206 -0.31181945912301329 0 -0.26791752464712137 -0.32516417520111718 0 -0.2441082332202735 -0.32380704628422963 0 -0.2444966906846206 -0.31181945912301329 0 -0.26791752464712137 -0.32516417520111718 0 -0.27544300416693679 -0.31995488319631832 0 -0.26963915832665503 -0.30942012505775762 0 -0.26791752464712137 -0.32516417520111718 0 -0.27544300416693679 -0.31995488319631832 0 -0.27544300416693679 -0.31995488319631832 0 -0.29403167998309421 -0.32125824908992018 0 -0.29478162596868879 -0.30702079099249591 0 -0.27544300416693679 -0.31995488319631832 0 -0.29403167998309421 -0.32125824908992018 0 -0.29282778547957722 -0.33935753649529382 0 -0.31307430431717392 -0.31869978567557272 0 -0.32184288384298337 -0.33167017375041419 0 -0.29282778547957722 -0.33935753649529382 0 -0.32184288384298337 -0.33167017375041419 0 -0.31773804631203251 -0.35355089778947202 0 -0.29282778547957722 -0.33935753649529382 0 -0.31307430431717392 -0.31869978567557272 0 -0.29403167998309421 -0.32125824908992018 0 -0.29282778547957722 -0.33935753649529382 0 -0.31307430431717392 -0.31869978567557272 0 -0.29403167998309421 -0.32125824908992018 0 -0.29478162596868879 -0.30702079099249591 0 -0.31992409361072222 -0.30462145692723192 0 -0.29478162596868879 -0.30702079099249591 0 -0.31992409361072222 -0.30462145692723192 0 -0.31307430431717392 -0.31869978567557272 0 -0.29478162596868879 -0.30702079099249591 0 -0.31992409361072222 -0.30462145692723192 0 -0.30687808727867438 -0.29770175581860719 0 -0.29478162596868879 -0.30702079099249591 0 -0.30687808727867438 -0.29770175581860719 0 -0.29813438661480679 -0.29530641477552327 0 -0.29478162596868879 -0.30702079099249591 0 -0.31992409361072222 -0.30462145692723192 0 -0.2984608121496099 -0.28511533651958437 0 -0.31992409361072222 -0.30462145692723192 0 -0.30687808727867438 -0.29770175581860719 0 -0.2984608121496099 -0.28511533651958437 0 -0.31332574866090718 -0.291474364566292 0 -0.31992409361072222 -0.30462145692723192 0 -0.2984608121496099 -0.28511533651958437 0 -0.31332574866090718 -0.291474364566292 0 -0.30937392239009109 -0.28339120160471948 0 -0.2984608121496099 -0.28511533651958437 0 -0.31332574866090718 -0.291474364566292 0 -0.2984608121496099 -0.28511533651958437 0 -0.30937392239009109 -0.28339120160471948 0 -0.2984608121496099 -0.28511533651958437 0 -0.30347897474907187 -0.279643462580969 0 -0.30687808727867438 -0.29770175581860719 0 -0.29951482580247829 -0.29240083595456018 0 -0.29813438661480679 -0.29530641477552327 0 -0.30687808727867438 -0.29770175581860719 0 -0.2984608121496099 -0.28511533651958437 0 -0.29951482580247829 -0.29240083595456018 0 -0.29951482580247829 -0.29240083595456018 0 -0.29813438661480679 -0.29530641477552327 0 -0.29499124589990039 -0.29073588210889412 0 -0.2984608121496099 -0.28511533651958437 0 -0.29951482580247829 -0.29240083595456018 0 -0.29499124589990039 -0.29073588210889412 0 -0.29499124589990039 -0.29073588210889412 0 -0.29148170063899659 -0.29460773718781319 0 -0.28586576089235322 -0.28577101837165192 0 -0.29813438661480679 -0.29530641477552327 0 -0.29499124589990039 -0.29073588210889412 0 -0.29148170063899659 -0.29460773718781319 0 -0.2984608121496099 -0.28511533651958437 0 -0.29499124589990039 -0.29073588210889412 0 -0.28586576089235322 -0.28577101837165192 0 -0.29148170063899659 -0.29460773718781319 0 -0.28586576089235322 -0.28577101837165192 0 -0.2798353156189245 -0.29508903771003908 0 -0.29148170063899659 -0.29460773718781319 0 -0.29478162596868879 -0.30702079099249591 0 -0.2798353156189245 -0.29508903771003908 0 -0.29478162596868879 -0.30702079099249591 0 -0.26963915832665503 -0.30942012505775762 0 -0.2798353156189245 -0.29508903771003908 0 -0.29478162596868879 -0.30702079099249591 0 -0.26963915832665503 -0.30942012505775762 0 -0.29813438661480679 -0.29530641477552327 0 -0.29148170063899659 -0.29460773718781319 0 -0.29478162596868879 -0.30702079099249591 0 -0.27544300416693679 -0.31995488319631832 0 -0.29478162596868879 -0.30702079099249591 0 -0.26963915832665503 -0.30942012505775762 0 -0.26963915832665503 -0.30942012505775762 0 -0.26057201890547982 -0.29344093798311832 0 -0.2798353156189245 -0.29508903771003908 0 -0.26963915832665503 -0.30942012505775762 0 -0.2444966906846206 -0.31181945912301329 0 -0.26963915832665503 -0.30942012505775762 0 -0.26057201890547982 -0.29344093798311832 0 -0.2444966906846206 -0.31181945912301329 0 -0.26057201890547982 -0.29344093798311832 0 -0.27108878797196961 -0.28331686931735522 0 -0.25298377122075039 -0.27518622721876451 0 -0.26057201890547982 -0.29344093798311832 0 -0.25298377122075039 -0.27518622721876451 0 -0.2435111179254994 -0.29490773243705071 0 -0.26057201890547982 -0.29344093798311832 0 -0.27108878797196961 -0.28331686931735522 0 -0.2798353156189245 -0.29508903771003908 0 -0.28586576089235322 -0.28577101837165192 0 -0.27108878797196961 -0.28331686931735522 0 -0.2798353156189245 -0.29508903771003908 0 -0.27108878797196961 -0.28331686931735522 0 -0.27618707322233982 -0.26709712530320262 0 -0.25298377122075039 -0.27518622721876451 0 -0.28586576089235322 -0.28577101837165192 0 -0.27108878797196961 -0.28331686931735522 0 -0.27618707322233982 -0.26709712530320262 0 -0.27618707322233982 -0.26709712530320262 0 -0.25431856302814809 -0.24833495949118861 0 -0.27618707322233982 -0.26709712530320262 0 -0.25298377122075039 -0.27518622721876451 0 -0.25431856302814809 -0.24833495949118861 0 -0.27618707322233982 -0.26709712530320262 0 -0.27309361240676189 -0.24179026653703889 0 -0.25431856302814809 -0.24833495949118861 0 -0.27618707322233982 -0.26709712530320262 0 -0.2907170577323625 -0.25177677077710309 0 -0.27309361240676189 -0.24179026653703889 0 -0.27618707322233982 -0.26709712530320262 0 -0.2907170577323625 -0.25177677077710309 0 -0.29477899871119112 -0.26293378760569941 0 -0.2984608121496099 -0.28511533651958437 0 -0.28586576089235322 -0.28577101837165192 0 -0.27618707322233982 -0.26709712530320262 0 -0.2984608121496099 -0.28511533651958437 0 -0.27618707322233982 -0.26709712530320262 0 -0.27618707322233982 -0.26709712530320262 0 -0.29477899871119112 -0.26293378760569941 0 -0.29948479845841441 -0.27338487519771032 0 -0.2984608121496099 -0.28511533651958437 0 -0.27618707322233982 -0.26709712530320262 0 -0.29948479845841441 -0.27338487519771032 0 -0.29477899871119112 -0.26293378760569941 0 -0.29948479845841441 -0.27338487519771032 0 -0.30156079933714469 -0.26765617134954151 0 -0.30156079933714469 -0.26765617134954151 0 -0.30403476516136241 -0.27459464834518948 0 -0.30588444940973558 -0.27063474712059482 0 -0.29948479845841441 -0.27338487519771032 0 -0.30156079933714469 -0.26765617134954151 0 -0.30403476516136241 -0.27459464834518948 0 -0.30156079933714469 -0.26765617134954151 0 -0.30588444940973558 -0.27063474712059482 0 -0.3062135479255173 -0.26372173898871692 0 -0.2984608121496099 -0.28511533651958437 0 -0.29948479845841441 -0.27338487519771032 0 -0.30347897474907187 -0.279643462580969 0 -0.29948479845841441 -0.27338487519771032 0 -0.30403476516136241 -0.27459464834518948 0 -0.30347897474907187 -0.279643462580969 0 -0.30937392239009109 -0.28339120160471948 0 -0.30347897474907187 -0.279643462580969 0 -0.31187737399160442 -0.27618124236115132 0 -0.30403476516136241 -0.27459464834518948 0 -0.30347897474907187 -0.279643462580969 0 -0.31187737399160442 -0.27618124236115132 0 -0.30403476516136241 -0.27459464834518948 0 -0.31187737399160442 -0.27618124236115132 0 -0.30588444940973558 -0.27063474712059482 0 -0.31187737399160442 -0.27618124236115132 0 -0.30588444940973558 -0.27063474712059482 0 -0.3062135479255173 -0.26372173898871692 0 -0.31664960680882542 -0.25714232151458272 0 -0.31202674084989918 -0.26335133138269068 0 -0.30853150187083839 -0.25429835417001312 0 -0.2907170577323625 -0.25177677077710309 0 -0.29477899871119112 -0.26293378760569941 0 -0.30853150187083839 -0.25429835417001312 0 -0.31202674084989918 -0.26335133138269068 0 -0.3062135479255173 -0.26372173898871692 0 -0.30853150187083839 -0.25429835417001312 0 -0.29477899871119112 -0.26293378760569941 0 -0.30156079933714469 -0.26765617134954151 0 -0.3062135479255173 -0.26372173898871692 0 -0.29477899871119112 -0.26293378760569941 0 -0.3062135479255173 -0.26372173898871692 0 -0.30853150187083839 -0.25429835417001312 0 -0.33709504481289931 -0.46474263175187808 0 -0.33075086723682939 -0.45093918684289991 0 -0.35302422329502631 -0.44785824460859458 0 -0.33709504481289931 -0.46474263175187808 0 -0.33075086723682939 -0.45093918684289991 0 -0.32054712240525829 -0.47546959342145068 0 -0.33075086723682939 -0.45093918684289991 0 -0.34095461206840061 -0.42640878026434909 0 -0.33075086723682939 -0.45093918684289991 0 -0.35302422329502631 -0.44785824460859458 0 -0.34095461206840061 -0.42640878026434909 0 -0.33075086723682939 -0.45093918684289991 0 -0.32054706720266329 -0.44859283512714471 0 -0.3206124180200437 -0.43193612962395289 0 -0.33075086723682939 -0.45093918684289991 0 -0.32054706720266329 -0.44859283512714471 0 -0.31571728338184601 -0.45752087103574601 0 -0.32054706720266329 -0.44859283512714471 0 -0.31571728338184601 -0.45752087103574601 0 -0.30706080135445341 -0.45057148265483188 0 -0.33075086723682939 -0.45093918684289991 0 -0.32054712240525829 -0.47546959342145068 0 -0.33075086723682939 -0.45093918684289991 0 -0.31571728338184601 -0.45752087103574601 0 -0.32054712240525829 -0.47546959342145068 0 -0.32054712240525829 -0.47546959342145068 0 -0.32750579650535672 -0.48798687004089669 0 -0.32933965142182292 -0.47777380670114528 0 -0.32054712240525829 -0.47546959342145068 0 -0.31034337757368669 -0.50000000000000133 0 -0.32750579650535672 -0.48798687004089669 0 -0.33387795429423722 -0.5 0 -0.31034337757368669 -0.50000000000000133 0 -0.32054712240525829 -0.47546959342145068 0 -0.32750579650535672 -0.48798687004089669 0 -0.31034337757368669 -0.50000000000000133 0 -0.32750579650535672 -0.48798687004089669 0 -0.34342087683177741 -0.48669095008188618 0 -0.33387795429423722 -0.5 0 -0.33709504481289931 -0.46474263175187808 0 -0.32933965142182292 -0.47777380670114528 0 -0.35181335970555933 -0.47167232718529989 0 -0.34342087683177741 -0.48669095008188618 0 -0.32933965142182292 -0.47777380670114528 0 -0.35181335970555933 -0.47167232718529989 0 -0.32750579650535672 -0.48798687004089669 0 -0.34342087683177741 -0.48669095008188618 0 -0.32933965142182292 -0.47777380670114528 0 -0.33709504481289931 -0.46474263175187808 0 -0.32054712240525829 -0.47546959342145068 0 -0.32933965142182292 -0.47777380670114528 0 -0.32933965142182292 -0.47777380670114528 0 -0.35181335970555933 -0.47167232718529989 0 -0.34342087683177741 -0.48669095008188618 0 -0.35181335970555933 -0.47167232718529989 0 -0.35979455825166368 -0.48519290092039941 0 -0.34342087683177741 -0.48669095008188618 0 -0.35741253101478748 -0.5 0 -0.35979455825166368 -0.48519290092039941 0 -0.34342087683177741 -0.48669095008188618 0 -0.33387795429423722 -0.5 0 -0.35741253101478748 -0.5 0 -0.38094710773533791 -0.49999999999999839 0 -0.35741253101478748 -0.5 0 -0.37240076261097882 -0.48974555046165519 0 -0.35741253101478748 -0.5 0 -0.35979455825166368 -0.48519290092039941 0 -0.37240076261097882 -0.48974555046165519 0 -0.35181335970555933 -0.47167232718529989 0 -0.35979455825166368 -0.48519290092039941 0 -0.37411677223754131 -0.47733161267270968 0 -0.35181335970555933 -0.47167232718529989 0 -0.37411677223754131 -0.47733161267270968 0 -0.37428706798929601 -0.46557084766945539 0 -0.35979455825166368 -0.48519290092039941 0 -0.37240076261097882 -0.48974555046165519 0 -0.37411677223754131 -0.47733161267270968 0 -0.37411677223754131 -0.47733161267270968 0 -0.37428706798929601 -0.46557084766945539 0 -0.35181335970555933 -0.47167232718529989 0 -0.37428706798929601 -0.46557084766945539 0 -0.35302422329502631 -0.44785824460859458 0 -0.35181335970555933 -0.47167232718529989 0 -0.37428706798929601 -0.46557084766945539 0 -0.33709504481289931 -0.46474263175187808 0 -0.35181335970555933 -0.47167232718529989 0 -0.35302422329502631 -0.44785824460859458 0 -0.37428706798929601 -0.46557084766945539 0 -0.35302422329502631 -0.44785824460859458 0 -0.37472313619600889 -0.43545561783144832 0 -0.37428706798929601 -0.46557084766945539 0 -0.37472313619600889 -0.43545561783144832 0 -0.35302422329502631 -0.44785824460859458 0 -0.37472313619600889 -0.43545561783144832 0 -0.36076670325611282 -0.42019275678090617 0 -0.37515920440272033 -0.40534038799344108 0 -0.37472313619600889 -0.43545561783144832 0 -0.36076670325611282 -0.42019275678090617 0 -0.37515920440272033 -0.40534038799344108 0 -0.36076670325611282 -0.42019275678090617 0 -0.35115835689997099 -0.40187837368579798 0 -0.37515920440272033 -0.40534038799344108 0 -0.37472313619600889 -0.43545561783144832 0 -0.36076670325611282 -0.42019275678090617 0 -0.35115835689997099 -0.40187837368579798 0 -0.34095461206840061 -0.42640878026434909 0 -0.34815033243380111 -0.40144447968524521 0 -0.35115835689997099 -0.40187837368579798 0 -0.34095461206840061 -0.42640878026434909 0 -0.35115835689997099 -0.40187837368579798 0 -0.34095461206840061 -0.42640878026434909 0 -0.35302422329502631 -0.44785824460859458 0 -0.36076670325611282 -0.42019275678090617 0 -0.34095461206840061 -0.42640878026434909 0 -0.37543310808941849 -0.38642437359143528 0 -0.36100598543278789 -0.37820409176948921 0 -0.35115835689997099 -0.40187837368579798 0 -0.37543310808941849 -0.38642437359143528 0 -0.37568304780698558 -0.36916333065311507 0 -0.36100598543278789 -0.37820409176948921 0 -0.37543310808941849 -0.38642437359143528 0 -0.36100598543278789 -0.37820409176948921 0 -0.37515920440272033 -0.40534038799344108 0 -0.37543310808941849 -0.38642437359143528 0 -0.35115835689997099 -0.40187837368579798 0 -0.37515920440272033 -0.40534038799344108 0 -0.35115835689997099 -0.40187837368579798 0 -0.35115835689997099 -0.40187837368579798 0 -0.34646966066369161 -0.38533898881774881 0 -0.34316085436749 -0.39382471367395527 0 -0.34815033243380111 -0.40144447968524521 0 -0.35115835689997099 -0.40187837368579798 0 -0.34316085436749 -0.39382471367395527 0 -0.34815033243380111 -0.40144447968524521 0 -0.35115835689997099 -0.40187837368579798 0 -0.33937201587241012 -0.36587749477948078 0 -0.36100598543278789 -0.37820409176948921 0 -0.34646966066369161 -0.38533898881774881 0 -0.36100598543278789 -0.37820409176948921 0 -0.35115835689997099 -0.40187837368579798 0 -0.36100598543278789 -0.37820409176948921 0 -0.35115835689997099 -0.40187837368579798 0 -0.34646966066369161 -0.38533898881774881 0 -0.33937201587241012 -0.36587749477948078 0 -0.32803705280137402 -0.37447550275240871 0 -0.34646966066369161 -0.38533898881774881 0 -0.32803705280137402 -0.37447550275240871 0 -0.34646966066369161 -0.38533898881774881 0 -0.32931529664348408 -0.38869437358142001 0 -0.34646966066369161 -0.38533898881774881 0 -0.32931529664348408 -0.38869437358142001 0 -0.34316085436749 -0.39382471367395527 0 -0.34815033243380111 -0.40144447968524521 0 -0.33486919938690762 -0.39884665705885908 0 -0.32944617452305069 -0.41182817437998842 0 -0.32931529664348408 -0.38869437358142001 0 -0.34316085436749 -0.39382471367395527 0 -0.33486919938690762 -0.39884665705885908 0 -0.32931529664348408 -0.38869437358142001 0 -0.33486919938690762 -0.39884665705885908 0 -0.32365381597648563 -0.39942827076698811 0 -0.34815033243380111 -0.40144447968524521 0 -0.34316085436749 -0.39382471367395527 0 -0.33486919938690762 -0.39884665705885908 0 -0.33486919938690762 -0.39884665705885908 0 -0.32365381597648563 -0.39942827076698811 0 -0.32944617452305069 -0.41182817437998842 0 -0.32931529664348408 -0.38869437358142001 0 -0.32365381597648563 -0.39942827076698811 0 -0.30988209993594379 -0.39542680479545339 0 -0.32365381597648563 -0.39942827076698811 0 -0.30595412674790001 -0.41636475829844438 0 -0.30988209993594379 -0.39542680479545339 0 -0.31381007312398762 -0.37448885129246268 0 -0.32931529664348408 -0.38869437358142001 0 -0.30988209993594379 -0.39542680479545339 0 -0.31381007312398762 -0.37448885129246268 0 -0.32803705280137402 -0.37447550275240871 0 -0.32931529664348408 -0.38869437358142001 0 -0.34095461206840061 -0.42640878026434909 0 -0.32944617452305069 -0.41182817437998842 0 -0.3206124180200437 -0.43193612962395289 0 -0.33075086723682939 -0.45093918684289991 0 -0.34095461206840061 -0.42640878026434909 0 -0.3206124180200437 -0.43193612962395289 0 -0.34815033243380111 -0.40144447968524521 0 -0.34095461206840061 -0.42640878026434909 0 -0.32944617452305069 -0.41182817437998842 0 -0.32944617452305069 -0.41182817437998842 0 -0.3206124180200437 -0.43193612962395289 0 -0.30595412674790001 -0.41636475829844438 0 -0.32365381597648563 -0.39942827076698811 0 -0.32944617452305069 -0.41182817437998842 0 -0.30595412674790001 -0.41636475829844438 0 -0.3206124180200437 -0.43193612962395289 0 -0.30595412674790001 -0.41636475829844438 0 -0.29602166034141808 -0.43748304283089118 0 -0.30595412674790001 -0.41636475829844438 0 -0.28680587137917263 -0.41476105187328532 0 -0.29502227998321778 -0.40112933436643161 0 -0.30595412674790001 -0.41636475829844438 0 -0.28680587137917263 -0.41476105187328532 0 -0.29602166034141808 -0.43748304283089118 0 -0.28680587137917263 -0.41476105187328532 0 -0.29602166034141808 -0.43748304283089118 0 -0.27149625348017281 -0.42637325053463759 0 -0.29602166034141808 -0.43748304283089118 0 -0.27149625348017281 -0.42637325053463759 0 -0.29602166034141808 -0.43748304283089118 0 -0.27149625348017281 -0.42637325053463759 0 -0.27906578537949278 -0.44687665772048962 0 -0.31381007312398762 -0.37448885129246268 0 -0.30988209993594379 -0.39542680479545339 0 -0.31381007312398762 -0.37448885129246268 0 -0.30988209993594379 -0.39542680479545339 0 -0.29196992941862432 -0.3825632544476108 0 -0.30595412674790001 -0.41636475829844438 0 -0.30988209993594379 -0.39542680479545339 0 -0.30595412674790001 -0.41636475829844438 0 -0.30988209993594379 -0.39542680479545339 0 -0.29502227998321778 -0.40112933436643161 0 -0.30988209993594379 -0.39542680479545339 0 -0.29502227998321778 -0.40112933436643161 0 -0.29196992941862432 -0.3825632544476108 0 -0.28680587137917263 -0.41476105187328532 0 -0.29502227998321778 -0.40112933436643161 0 -0.2806661672136338 -0.39648987600255969 0 -0.29502227998321778 -0.40112933436643161 0 -0.29196992941862432 -0.3825632544476108 0 -0.2806661672136338 -0.39648987600255969 0 -0.27675503022224163 -0.36681377825091099 0 -0.29196992941862432 -0.3825632544476108 0 -0.26924588117792803 -0.38334910629271668 0 -0.29196992941862432 -0.3825632544476108 0 -0.26924588117792803 -0.38334910629271668 0 -0.2806661672136338 -0.39648987600255969 0 -0.27675503022224163 -0.36681377825091099 0 -0.26924588117792803 -0.38334910629271668 0 -0.25812358553267323 -0.37605355791306738 0 -0.28680587137917263 -0.41476105187328532 0 -0.2806661672136338 -0.39648987600255969 0 -0.26326431180229581 -0.40282557300305732 0 -0.26924588117792803 -0.38334910629271668 0 -0.2806661672136338 -0.39648987600255969 0 -0.26326431180229581 -0.40282557300305732 0 -0.26326431180229581 -0.40282557300305732 0 -0.2504897110532438 -0.38524934403489181 0 -0.24394706363899241 -0.39877073912243299 0 -0.26326431180229581 -0.40282557300305732 0 -0.24697084661892749 -0.41526345823838401 0 -0.24394706363899241 -0.39877073912243299 0 -0.26924588117792803 -0.38334910629271668 0 -0.26326431180229581 -0.40282557300305732 0 -0.2504897110532438 -0.38524934403489181 0 -0.26924588117792803 -0.38334910629271668 0 -0.2504897110532438 -0.38524934403489181 0 -0.25812358553267323 -0.37605355791306738 0 -0.2504897110532438 -0.38524934403489181 0 -0.25812358553267323 -0.37605355791306738 0 -0.24839247009954951 -0.37292447016044328 0 -0.28680587137917263 -0.41476105187328532 0 -0.26326431180229581 -0.40282557300305732 0 -0.27149625348017281 -0.42637325053463759 0 -0.27149625348017281 -0.42637325053463759 0 -0.24697084661892749 -0.41526345823838401 0 -0.26326431180229581 -0.40282557300305732 0 -0.27149625348017281 -0.42637325053463759 0 -0.24697084661892749 -0.41526345823838401 0 -0.27149625348017281 -0.42637325053463759 0 -0.25687425522332558 -0.44642006451091643 0 -0.24697084661892749 -0.41526345823838401 0 -0.25687425522332558 -0.44642006451091643 0 -0.27607931301277078 -0.46657199895299017 0 -0.25409384940020791 -0.47271975939701871 0 -0.25687425522332558 -0.44642006451091643 0 -0.27607931301277078 -0.46657199895299017 0 -0.27906578537949278 -0.44687665772048962 0 -0.27149625348017281 -0.42637325053463759 0 -0.25687425522332558 -0.44642006451091643 0 -0.27906578537949278 -0.44687665772048962 0 -0.29602166034141808 -0.43748304283089118 0 -0.27906578537949278 -0.44687665772048962 0 -0.29968055871002541 -0.46203125713240301 0 -0.27607931301277078 -0.46657199895299017 0 -0.27906578537949278 -0.44687665772048962 0 -0.29968055871002541 -0.46203125713240301 0 -0.31571728338184601 -0.45752087103574601 0 -0.29968055871002541 -0.46203125713240301 0 -0.30706080135445341 -0.45057148265483188 0 -0.31571728338184601 -0.45752087103574601 0 -0.32054712240525829 -0.47546959342145068 0 -0.29968055871002541 -0.46203125713240301 0 -0.32054706720266329 -0.44859283512714471 0 -0.29602166034141808 -0.43748304283089118 0 -0.32054706720266329 -0.44859283512714471 0 -0.3206124180200437 -0.43193612962395289 0 -0.29602166034141808 -0.43748304283089118 0 -0.32054706720266329 -0.44859283512714471 0 -0.29602166034141808 -0.43748304283089118 0 -0.30706080135445341 -0.45057148265483188 0 -0.29602166034141808 -0.43748304283089118 0 -0.29968055871002541 -0.46203125713240301 0 -0.30706080135445341 -0.45057148265483188 0 -0.32054712240525829 -0.47546959342145068 0 -0.31034337757368669 -0.50000000000000133 0 -0.2941570887960146 -0.48201569375099518 0 -0.32054712240525829 -0.47546959342145068 0 -0.29968055871002541 -0.46203125713240301 0 -0.2941570887960146 -0.48201569375099518 0 -0.27607931301277078 -0.46657199895299017 0 -0.29968055871002541 -0.46203125713240301 0 -0.2941570887960146 -0.48201569375099518 0 -0.2941570887960146 -0.48201569375099518 0 -0.28248249767631262 -0.5 0 -0.27039562620846602 -0.48462576079096858 0 -0.31034337757368669 -0.50000000000000133 0 -0.2941570887960146 -0.48201569375099518 0 -0.28248249767631262 -0.5 0 -0.28248249767631262 -0.5 0 -0.27039562620846602 -0.48462576079096858 0 -0.25462161777893849 -0.5 0 -0.27607931301277078 -0.46657199895299017 0 -0.2941570887960146 -0.48201569375099518 0 -0.27039562620846602 -0.48462576079096858 0 -0.27607931301277078 -0.46657199895299017 0 -0.27039562620846602 -0.48462576079096858 0 -0.25409384940020791 -0.47271975939701871 0 -0.27039562620846602 -0.48462576079096858 0 -0.25409384940020791 -0.47271975939701871 0 -0.25462161777893849 -0.5 0 -0.25462161777893849 -0.5 0 -0.23155232774708009 -0.47932355884050398 0 -0.22676073788156451 -0.5 0 -0.25409384940020791 -0.47271975939701871 0 -0.25462161777893849 -0.5 0 -0.23155232774708009 -0.47932355884050398 0 -0.25409384940020791 -0.47271975939701871 0 -0.23155232774708009 -0.47932355884050398 0 -0.2350399564306665 -0.45937717328673289 0 -0.23155232774708009 -0.47932355884050398 0 -0.2350399564306665 -0.45937717328673289 0 -0.2080224731694312 -0.47403962225972662 0 -0.23155232774708009 -0.47932355884050398 0 -0.22676073788156451 -0.5 0 -0.2080224731694312 -0.47403962225972662 0 -0.25687425522332558 -0.44642006451091643 0 -0.2350399564306665 -0.45937717328673289 0 -0.23180750449586429 -0.4343742486430574 0 -0.25687425522332558 -0.44642006451091643 0 -0.25409384940020791 -0.47271975939701871 0 -0.2350399564306665 -0.45937717328673289 0 -0.2350399564306665 -0.45937717328673289 0 -0.21590660946663959 -0.44883644739355771 0 -0.2080224731694312 -0.47403962225972662 0 -0.2350399564306665 -0.45937717328673289 0 -0.21590660946663959 -0.44883644739355771 0 -0.23180750449586429 -0.4343742486430574 0 -0.21590660946663959 -0.44883644739355771 0 -0.1943898331460783 -0.4473597119794826 0 -0.20910912931781811 -0.42543372189632289 0 -0.21590660946663959 -0.44883644739355771 0 -0.1943898331460783 -0.4473597119794826 0 -0.2080224731694312 -0.47403962225972662 0 -0.1943898331460783 -0.4473597119794826 0 -0.2080224731694312 -0.47403962225972662 0 -0.17967053697433849 -0.46928570206264231 0 -0.22676073788156451 -0.5 0 -0.2080224731694312 -0.47403962225972662 0 -0.19889985798419041 -0.5 0 -0.2080224731694312 -0.47403962225972662 0 -0.1821948971586228 -0.48648437486529872 0 -0.17967053697433849 -0.46928570206264231 0 -0.2080224731694312 -0.47403962225972662 0 -0.19889985798419041 -0.5 0 -0.1821948971586228 -0.48648437486529872 0 -0.19889985798419041 -0.5 0 -0.1821948971586228 -0.48648437486529872 0 -0.17103897808681609 -0.49999999999999778 0 -0.1821948971586228 -0.48648437486529872 0 -0.17103897808681609 -0.49999999999999778 0 -0.16495124080259491 -0.49121169214579941 0 -0.17103897808681609 -0.49999999999999778 0 -0.16495124080259491 -0.49121169214579941 0 -0.17103897808681609 -0.49999999999999778 0 -0.16495124080259491 -0.49121169214579941 0 -0.15905149781887321 -0.49999999999999961 0 -0.16495124080259491 -0.49121169214579941 0 -0.15905149781887321 -0.49999999999999961 0 -0.1545750311736096 -0.49062041690426861 0 -0.16495124080259491 -0.49121169214579941 0 -0.15905149781887321 -0.49999999999999961 0 -0.16495124080259491 -0.49121169214579941 0 -0.16530166315622061 -0.47155300009798301 0 -0.17967053697433849 -0.46928570206264231 0 -0.16495124080259491 -0.49121169214579941 0 -0.16530166315622061 -0.47155300009798301 0 -0.15083103946930049 -0.47082765280793248 0 -0.16495124080259491 -0.49121169214579941 0 -0.1545750311736096 -0.49062041690426861 0 -0.15083103946930049 -0.47082765280793248 0 -0.16495124080259491 -0.49121169214579941 0 -0.15083103946930049 -0.47082765280793248 0 -0.16495124080259491 -0.49121169214579941 0 -0.17967053697433849 -0.46928570206264231 0 -0.1821948971586228 -0.48648437486529872 0 -0.16495124080259491 -0.49121169214579941 0 -0.17967053697433849 -0.46928570206264231 0 -0.1943898331460783 -0.4473597119794826 0 -0.17967053697433849 -0.46928570206264231 0 -0.1943898331460783 -0.4473597119794826 0 -0.17967053697433849 -0.46928570206264231 0 -0.1657538353786501 -0.45488695337555668 0 -0.1943898331460783 -0.4473597119794826 0 -0.1657538353786501 -0.45488695337555668 0 -0.1755027511393909 -0.43471579892562301 0 -0.1657538353786501 -0.45488695337555668 0 -0.15761868306950341 -0.43586407366366631 0 -0.1755027511393909 -0.43471579892562301 0 -0.16530166315622061 -0.47155300009798301 0 -0.1657538353786501 -0.45488695337555668 0 -0.15083103946930049 -0.47082765280793248 0 -0.16530166315622061 -0.47155300009798301 0 -0.17967053697433849 -0.46928570206264231 0 -0.1657538353786501 -0.45488695337555668 0 -0.13671083813600751 -0.45044361347006462 0 -0.15083103946930049 -0.47082765280793248 0 -0.13671083813600751 -0.45044361347006462 0 -0.13441782301728619 -0.47175980973682791 0 -0.15083103946930049 -0.47082765280793248 0 -0.1657538353786501 -0.45488695337555668 0 -0.13671083813600751 -0.45044361347006462 0 -0.15083103946930049 -0.47082765280793248 0 -0.13671083813600751 -0.45044361347006462 0 -0.13816776916695811 -0.432543871779144 0 -0.15761868306950341 -0.43586407366366631 0 -0.1657538353786501 -0.45488695337555668 0 -0.13671083813600751 -0.45044361347006462 0 -0.15761868306950341 -0.43586407366366631 0 -0.13671083813600751 -0.45044361347006462 0 -0.13816776916695811 -0.432543871779144 0 -0.1225906368027144 -0.43005957413219659 0 -0.13671083813600751 -0.45044361347006462 0 -0.1225906368027144 -0.43005957413219659 0 -0.13671083813600751 -0.45044361347006462 0 -0.13441782301728619 -0.47175980973682791 0 -0.1201929706126502 -0.46127799294672761 0 -0.13441782301728619 -0.47175980973682791 0 -0.12605423818426559 -0.48707922202292669 0 -0.14429533434837091 -0.48908967660720287 0 -0.13441782301728619 -0.47175980973682791 0 -0.12605423818426559 -0.48707922202292669 0 -0.1201929706126502 -0.46127799294672761 0 -0.1295391708778694 -0.5 0 -0.12605423818426559 -0.48707922202292669 0 -0.14429533434837091 -0.48908967660720287 0 -0.15905149781887321 -0.49999999999999961 0 -0.1295391708778694 -0.5 0 -0.14429533434837091 -0.48908967660720287 0 -0.15905149781887321 -0.49999999999999961 0 -0.14429533434837091 -0.48908967660720287 0 -0.1545750311736096 -0.49062041690426861 0 -0.14429533434837091 -0.48908967660720287 0 -0.1545750311736096 -0.49062041690426861 0 -0.15083103946930049 -0.47082765280793248 0 -0.13441782301728619 -0.47175980973682791 0 -0.14429533434837091 -0.48908967660720287 0 -0.15083103946930049 -0.47082765280793248 0 -0.15345949684661231 -0.4053237642064671 0 -0.15136585988972451 -0.39002590355483568 0 -0.13982663417143551 -0.39933000433158738 0 -0.15136585988972451 -0.39002590355483568 0 -0.1368738238800834 -0.3880397179408614 0 -0.13982663417143551 -0.39933000433158738 0 -0.15345949684661231 -0.4053237642064671 0 -0.13982663417143551 -0.39933000433158738 0 -0.1398029654186671 -0.41064466143528439 0 -0.15136585988972451 -0.39002590355483568 0 -0.1368738238800834 -0.3880397179408614 0 -0.13959568407155781 -0.37291875636350952 0 -0.15136585988972451 -0.39002590355483568 0 -0.15951650330528561 -0.37856285477961621 0 -0.13959568407155781 -0.37291875636350952 0 -0.1368738238800834 -0.3880397179408614 0 -0.12625141541498519 -0.38197991289387551 0 -0.13959568407155781 -0.37291875636350952 0 -0.1368738238800834 -0.3880397179408614 0 -0.12625141541498519 -0.38197991289387551 0 -0.1273295258527142 -0.39594401256049883 0 -0.1368738238800834 -0.3880397179408614 0 -0.1273295258527142 -0.39594401256049883 0 -0.13982663417143551 -0.39933000433158738 0 -0.13982663417143551 -0.39933000433158738 0 -0.1295768038857959 -0.40463739140698729 0 -0.1398029654186671 -0.41064466143528439 0 -0.1273295258527142 -0.39594401256049883 0 -0.13982663417143551 -0.39933000433158738 0 -0.1295768038857959 -0.40463739140698729 0 -0.1273295258527142 -0.39594401256049883 0 -0.1295768038857959 -0.40463739140698729 0 -0.1219584454402414 -0.40406961642135292 0 -0.1295768038857959 -0.40463739140698729 0 -0.1296119374269841 -0.41417592727859581 0 -0.1225700411049412 -0.40994677461386392 0 -0.1296119374269841 -0.41417592727859581 0 -0.12315425937001 -0.41747458531602638 0 -0.1225700411049412 -0.40994677461386392 0 -0.1296119374269841 -0.41417592727859581 0 -0.13713184062407599 -0.42036644340313623 0 -0.12908399078123631 -0.42243277819987513 0 -0.1296119374269841 -0.41417592727859581 0 -0.12908399078123631 -0.42243277819987513 0 -0.12315425937001 -0.41747458531602638 0 -0.1296119374269841 -0.41417592727859581 0 -0.13713184062407599 -0.42036644340313623 0 -0.1398029654186671 -0.41064466143528439 0 -0.1295768038857959 -0.40463739140698729 0 -0.1296119374269841 -0.41417592727859581 0 -0.1398029654186671 -0.41064466143528439 0 -0.12908399078123631 -0.42243277819987513 0 -0.13816776916695811 -0.432543871779144 0 -0.1225906368027144 -0.43005957413219659 0 -0.13713184062407599 -0.42036644340313623 0 -0.12908399078123631 -0.42243277819987513 0 -0.13816776916695811 -0.432543871779144 0 -0.13816776916695811 -0.432543871779144 0 -0.14921107955709881 -0.42003443798493328 0 -0.15761868306950341 -0.43586407366366631 0 -0.13713184062407599 -0.42036644340313623 0 -0.13816776916695811 -0.432543871779144 0 -0.14921107955709881 -0.42003443798493328 0 -0.15345949684661231 -0.4053237642064671 0 -0.1398029654186671 -0.41064466143528439 0 -0.14921107955709881 -0.42003443798493328 0 -0.13713184062407599 -0.42036644340313623 0 -0.1398029654186671 -0.41064466143528439 0 -0.14921107955709881 -0.42003443798493328 0 -0.15345949684661231 -0.4053237642064671 0 -0.14921107955709881 -0.42003443798493328 0 -0.17009787391258249 -0.41611158199907422 0 -0.14921107955709881 -0.42003443798493328 0 -0.17009787391258249 -0.41611158199907422 0 -0.15761868306950341 -0.43586407366366631 0 -0.17009787391258249 -0.41611158199907422 0 -0.15761868306950341 -0.43586407366366631 0 -0.1755027511393909 -0.43471579892562301 0 -0.1943898331460783 -0.4473597119794826 0 -0.1755027511393909 -0.43471579892562301 0 -0.18951413900105801 -0.42212105940109063 0 -0.17009787391258249 -0.41611158199907422 0 -0.1755027511393909 -0.43471579892562301 0 -0.18951413900105801 -0.42212105940109063 0 -0.17009787391258249 -0.41611158199907422 0 -0.18562609472684241 -0.40161550393767448 0 -0.18951413900105801 -0.42212105940109063 0 -0.18562609472684241 -0.40161550393767448 0 -0.16863204450281991 -0.39380366607865908 0 -0.18254917963999329 -0.38971973427100182 0 -0.17009787391258249 -0.41611158199907422 0 -0.18562609472684241 -0.40161550393767448 0 -0.16863204450281991 -0.39380366607865908 0 -0.18562609472684241 -0.40161550393767448 0 -0.18254917963999329 -0.38971973427100182 0 -0.19364364155811911 -0.391297223908462 0 -0.15345949684661231 -0.4053237642064671 0 -0.17009787391258249 -0.41611158199907422 0 -0.16863204450281991 -0.39380366607865908 0 -0.15345949684661231 -0.4053237642064671 0 -0.15136585988972451 -0.39002590355483568 0 -0.16863204450281991 -0.39380366607865908 0 -0.15951650330528561 -0.37856285477961621 0 -0.17625218554490921 -0.38180729220612769 0 -0.1663610822414904 -0.3702523776444529 0 -0.16863204450281991 -0.39380366607865908 0 -0.15951650330528561 -0.37856285477961621 0 -0.17625218554490921 -0.38180729220612769 0 -0.15136585988972451 -0.39002590355483568 0 -0.16863204450281991 -0.39380366607865908 0 -0.15951650330528561 -0.37856285477961621 0 -0.17625218554490921 -0.38180729220612769 0 -0.1663610822414904 -0.3702523776444529 0 -0.18579747934449059 -0.37379744869579251 0 -0.16863204450281991 -0.39380366607865908 0 -0.17625218554490921 -0.38180729220612769 0 -0.18254917963999329 -0.38971973427100182 0 -0.17625218554490921 -0.38180729220612769 0 -0.18254917963999329 -0.38971973427100182 0 -0.18859193186727599 -0.38007498522408562 0 -0.17625218554490921 -0.38180729220612769 0 -0.18859193186727599 -0.38007498522408562 0 -0.18579747934449059 -0.37379744869579251 0 -0.18859193186727599 -0.38007498522408562 0 -0.2014200033848125 -0.37119512976538899 0 -0.18859193186727599 -0.38007498522408562 0 -0.2014200033848125 -0.37119512976538899 0 -0.18579747934449059 -0.37379744869579251 0 -0.18859193186727599 -0.38007498522408562 0 -0.1989719328316337 -0.38216032023399737 0 -0.2014200033848125 -0.37119512976538899 0 -0.1989719328316337 -0.38216032023399737 0 -0.20694960464083431 -0.38128159833907621 0 -0.2014200033848125 -0.37119512976538899 0 -0.1989719328316337 -0.38216032023399737 0 -0.19364364155811911 -0.391297223908462 0 -0.20620014074293039 -0.39180645285032889 0 -0.18859193186727599 -0.38007498522408562 0 -0.1989719328316337 -0.38216032023399737 0 -0.19364364155811911 -0.391297223908462 0 -0.18254917963999329 -0.38971973427100182 0 -0.18859193186727599 -0.38007498522408562 0 -0.19364364155811911 -0.391297223908462 0 -0.18562609472684241 -0.40161550393767448 0 -0.19364364155811911 -0.391297223908462 0 -0.20208872018367391 -0.4070926974887904 0 -0.19364364155811911 -0.391297223908462 0 -0.20620014074293039 -0.39180645285032889 0 -0.20208872018367391 -0.4070926974887904 0 -0.20620014074293039 -0.39180645285032889 0 -0.21479853281951461 -0.38638530273916921 0 -0.22382842548955789 -0.4035077318131633 0 -0.20620014074293039 -0.39180645285032889 0 -0.20208872018367391 -0.4070926974887904 0 -0.22382842548955789 -0.4035077318131633 0 -0.21479853281951461 -0.38638530273916921 0 -0.20694960464083431 -0.38128159833907621 0 -0.21335741342528061 -0.3748607861064962 0 -0.21479853281951461 -0.38638530273916921 0 -0.22412886374227589 -0.38235217247817599 0 -0.21335741342528061 -0.3748607861064962 0 -0.20694960464083431 -0.38128159833907621 0 -0.2014200033848125 -0.37119512976538899 0 -0.21335741342528061 -0.3748607861064962 0 -0.20620014074293039 -0.39180645285032889 0 -0.21479853281951461 -0.38638530273916921 0 -0.20694960464083431 -0.38128159833907621 0 -0.1989719328316337 -0.38216032023399737 0 -0.20620014074293039 -0.39180645285032889 0 -0.20694960464083431 -0.38128159833907621 0 -0.1943898331460783 -0.4473597119794826 0 -0.20910912931781811 -0.42543372189632289 0 -0.1943898331460783 -0.4473597119794826 0 -0.18951413900105801 -0.42212105940109063 0 -0.20910912931781811 -0.42543372189632289 0 -0.18951413900105801 -0.42212105940109063 0 -0.20208872018367391 -0.4070926974887904 0 -0.20910912931781811 -0.42543372189632289 0 -0.18562609472684241 -0.40161550393767448 0 -0.18951413900105801 -0.42212105940109063 0 -0.20208872018367391 -0.4070926974887904 0 -0.20208872018367391 -0.4070926974887904 0 -0.20910912931781811 -0.42543372189632289 0 -0.22382842548955789 -0.4035077318131633 0 -0.20910912931781811 -0.42543372189632289 0 -0.22382842548955789 -0.4035077318131633 0 -0.21590660946663959 -0.44883644739355771 0 -0.20910912931781811 -0.42543372189632289 0 -0.23180750449586429 -0.4343742486430574 0 -0.20910912931781811 -0.42543372189632289 0 -0.23180750449586429 -0.4343742486430574 0 -0.22382842548955789 -0.4035077318131633 0 -0.23180750449586429 -0.4343742486430574 0 -0.24697084661892749 -0.41526345823838401 0 -0.22382842548955789 -0.4035077318131633 0 -0.25687425522332558 -0.44642006451091643 0 -0.23180750449586429 -0.4343742486430574 0 -0.24697084661892749 -0.41526345823838401 0 -0.22412886374227589 -0.38235217247817599 0 -0.2351820232309369 -0.38700758852266848 0 -0.22952037500089251 -0.37311519752493849 0 -0.22412886374227589 -0.38235217247817599 0 -0.22186900287429051 -0.37074082218821958 0 -0.21335741342528061 -0.3748607861064962 0 -0.22412886374227589 -0.38235217247817599 0 -0.22952037500089251 -0.37311519752493849 0 -0.22186900287429051 -0.37074082218821958 0 -0.22382842548955789 -0.4035077318131633 0 -0.24394706363899241 -0.39877073912243299 0 -0.2351820232309369 -0.38700758852266848 0 -0.21479853281951461 -0.38638530273916921 0 -0.22412886374227589 -0.38235217247817599 0 -0.22382842548955789 -0.4035077318131633 0 -0.22412886374227589 -0.38235217247817599 0 -0.22382842548955789 -0.4035077318131633 0 -0.2351820232309369 -0.38700758852266848 0 -0.24697084661892749 -0.41526345823838401 0 -0.22382842548955789 -0.4035077318131633 0 -0.24394706363899241 -0.39877073912243299 0 -0.2504897110532438 -0.38524934403489181 0 -0.24394706363899241 -0.39877073912243299 0 -0.2351820232309369 -0.38700758852266848 0 -0.2504897110532438 -0.38524934403489181 0 -0.2351820232309369 -0.38700758852266848 0 -0.24036284435674521 -0.37772398595485779 0 -0.2351820232309369 -0.38700758852266848 0 -0.24036284435674521 -0.37772398595485779 0 -0.22952037500089251 -0.37311519752493849 0 -0.2504897110532438 -0.38524934403489181 0 -0.24036284435674521 -0.37772398595485779 0 -0.24839247009954951 -0.37292447016044328 0 -0.24839247009954951 -0.37292447016044328 0 -0.24532753696728959 -0.36501789644951049 0 -0.23861636880082099 -0.36955921174380651 0 -0.24036284435674521 -0.37772398595485779 0 -0.24839247009954951 -0.37292447016044328 0 -0.23861636880082099 -0.36955921174380651 0 -0.25757508569408222 -0.36424633604315798 0 -0.24532753696728959 -0.36501789644951049 0 -0.24650166737573331 -0.3569693529562265 0 -0.24532753696728959 -0.36501789644951049 0 -0.24234943749700691 -0.36154613291017651 0 -0.24650166737573331 -0.3569693529562265 0 -0.24532753696728959 -0.36501789644951049 0 -0.24234943749700691 -0.36154613291017651 0 -0.23928568589256061 -0.36455139619594779 0 -0.24234943749700691 -0.36154613291017651 0 -0.23928568589256061 -0.36455139619594779 0 -0.23696933381926599 -0.3585493042599866 0 -0.24532753696728959 -0.36501789644951049 0 -0.23928568589256061 -0.36455139619594779 0 -0.23861636880082099 -0.36955921174380651 0 -0.23928568589256061 -0.36455139619594779 0 -0.23861636880082099 -0.36955921174380651 0 -0.23345080570298909 -0.36409891217005902 0 -0.23928568589256061 -0.36455139619594779 0 -0.23345080570298909 -0.36409891217005902 0 -0.23696933381926599 -0.3585493042599866 0 -0.24036284435674521 -0.37772398595485779 0 -0.23861636880082099 -0.36955921174380651 0 -0.22952037500089251 -0.37311519752493849 0 -0.23345080570298909 -0.36409891217005902 0 -0.22186900287429051 -0.37074082218821958 0 -0.21424807490234879 -0.36231527430669241 0 -0.22952037500089251 -0.37311519752493849 0 -0.23345080570298909 -0.36409891217005902 0 -0.22186900287429051 -0.37074082218821958 0 -0.23696933381926599 -0.3585493042599866 0 -0.21424807490234879 -0.36231527430669241 0 -0.23861636880082099 -0.36955921174380651 0 -0.22952037500089251 -0.37311519752493849 0 -0.23345080570298909 -0.36409891217005902 0 -0.23345080570298909 -0.36409891217005902 0 -0.23696933381926599 -0.3585493042599866 0 -0.21424807490234879 -0.36231527430669241 0 -0.22913587473404851 -0.35200963246311751 0 -0.2097464541822805 -0.33582260124732738 0 -0.22913587473404851 -0.35200963246311751 0 -0.23696933381926599 -0.3585493042599866 0 -0.21424807490234879 -0.36231527430669241 0 -0.22913587473404851 -0.35200963246311751 0 -0.21998707993494029 -0.33959044394559312 0 -0.22913587473404851 -0.35200963246311751 0 -0.21424807490234879 -0.36231527430669241 0 -0.22913587473404851 -0.35200963246311751 0 -0.23696933381926599 -0.3585493042599866 0 -0.22913587473404851 -0.35200963246311751 0 -0.24881121389389799 -0.33838995723746451 0 -0.22913587473404851 -0.35200963246311751 0 -0.23696933381926599 -0.3585493042599866 0 -0.24650166737573331 -0.3569693529562265 0 -0.22913587473404851 -0.35200963246311751 0 -0.24650166737573331 -0.3569693529562265 0 -0.24881121389389799 -0.33838995723746451 0 -0.23696933381926599 -0.3585493042599866 0 -0.24650166737573331 -0.3569693529562265 0 -0.24234943749700691 -0.36154613291017651 0 -0.23696933381926599 -0.3585493042599866 0 -0.24650166737573331 -0.3569693529562265 0 -0.22913587473404851 -0.35200963246311751 0 -0.24881121389389799 -0.33838995723746451 0 -0.2325545649384867 -0.33453283978227571 0 -0.24881121389389799 -0.33838995723746451 0 -0.2441082332202735 -0.32380704628422963 0 -0.2325545649384867 -0.33453283978227571 0 -0.23613058105125781 -0.31890710479075163 0 -0.2279063026952847 -0.3135077128279592 0 -0.2444966906846206 -0.31181945912301329 0 -0.2441082332202735 -0.32380704628422963 0 -0.23498207165859719 -0.32537142019391418 0 -0.23613058105125781 -0.31890710479075163 0 -0.2441082332202735 -0.32380704628422963 0 -0.23498207165859719 -0.32537142019391418 0 -0.2325545649384867 -0.33453283978227571 0 -0.2441082332202735 -0.32380704628422963 0 -0.23613058105125781 -0.31890710479075163 0 -0.2444966906846206 -0.31181945912301329 0 -0.2279063026952847 -0.3135077128279592 0 -0.2193464910840433 -0.31976030368968739 0 -0.21134622408423179 -0.310554889255794 0 -0.23613058105125781 -0.31890710479075163 0 -0.2279063026952847 -0.3135077128279592 0 -0.22829430606921119 -0.32293804105388452 0 -0.23498207165859719 -0.32537142019391418 0 -0.22829430606921119 -0.32293804105388452 0 -0.2325545649384867 -0.33453283978227571 0 -0.23498207165859719 -0.32537142019391418 0 -0.23613058105125781 -0.31890710479075163 0 -0.22829430606921119 -0.32293804105388452 0 -0.22829430606921119 -0.32293804105388452 0 -0.2193464910840433 -0.31976030368968739 0 -0.22209033975117781 -0.32887735541776358 0 -0.2279063026952847 -0.3135077128279592 0 -0.22829430606921119 -0.32293804105388452 0 -0.2193464910840433 -0.31976030368968739 0 -0.22913587473404851 -0.35200963246311751 0 -0.2325545649384867 -0.33453283978227571 0 -0.21998707993494029 -0.33959044394559312 0 -0.22913587473404851 -0.35200963246311751 0 -0.21998707993494029 -0.33959044394559312 0 -0.2097464541822805 -0.33582260124732738 0 -0.22829430606921119 -0.32293804105388452 0 -0.2325545649384867 -0.33453283978227571 0 -0.22209033975117781 -0.32887735541776358 0 -0.2325545649384867 -0.33453283978227571 0 -0.22209033975117781 -0.32887735541776358 0 -0.21998707993494029 -0.33959044394559312 0 -0.21998707993494029 -0.33959044394559312 0 -0.21026925672920721 -0.32756514861737779 0 -0.22209033975117781 -0.32887735541776358 0 -0.21998707993494029 -0.33959044394559312 0 -0.21026925672920721 -0.32756514861737779 0 -0.21998707993494029 -0.33959044394559312 0 -0.2097464541822805 -0.33582260124732738 0 -0.21026925672920721 -0.32756514861737779 0 -0.2097464541822805 -0.33582260124732738 0 -0.21026925672920721 -0.32756514861737779 0 -0.21026925672920721 -0.32756514861737779 0 -0.21134622408423179 -0.310554889255794 0 -0.19267178705524021 -0.30578920503631912 0 -0.21026925672920721 -0.32756514861737779 0 -0.21134622408423179 -0.310554889255794 0 -0.2097464541822805 -0.33582260124732738 0 -0.21026925672920721 -0.32756514861737779 0 -0.19254159852174429 -0.31996122112867409 0 -0.2193464910840433 -0.31976030368968739 0 -0.21026925672920721 -0.32756514861737779 0 -0.21134622408423179 -0.310554889255794 0 -0.2193464910840433 -0.31976030368968739 0 -0.22209033975117781 -0.32887735541776358 0 -0.21026925672920721 -0.32756514861737779 0 -0.2097464541822805 -0.33582260124732738 0 -0.1943588054861482 -0.32297640251143073 0 -0.19254159852174429 -0.31996122112867409 0 -0.21026925672920721 -0.32756514861737779 0 -0.19267178705524021 -0.30578920503631912 0 -0.21026925672920721 -0.32756514861737779 0 -0.19254159852174429 -0.31996122112867409 0 -0.19267178705524021 -0.30578920503631912 0 -0.2097464541822805 -0.33582260124732738 0 -0.19254159852174429 -0.31996122112867409 0 -0.1943588054861482 -0.32297640251143073 0 -0.18737083868624629 -0.33075534874643497 0 -0.18479650728396149 -0.32227615663527998 0 -0.1943588054861482 -0.32297640251143073 0 -0.19254159852174429 -0.31996122112867409 0 -0.1789711567900161 -0.3101302037755338 0 -0.2097464541822805 -0.33582260124732738 0 -0.19466829689393059 -0.33824472710720138 0 -0.19565175395430129 -0.3512554891803924 0 -0.2097464541822805 -0.33582260124732738 0 -0.1943588054861482 -0.32297640251143073 0 -0.19466829689393059 -0.33824472710720138 0 -0.2097464541822805 -0.33582260124732738 0 -0.1943588054861482 -0.32297640251143073 0 -0.1943588054861482 -0.32297640251143073 0 -0.19466829689393059 -0.33824472710720138 0 -0.18737083868624629 -0.33075534874643497 0 -0.19466829689393059 -0.33824472710720138 0 -0.18164424501215659 -0.34621916084723381 0 -0.18737083868624629 -0.33075534874643497 0 -0.19466829689393059 -0.33824472710720138 0 -0.19565175395430129 -0.3512554891803924 0 -0.18164424501215659 -0.34621916084723381 0 -0.20800359978069241 -0.36335027445133922 0 -0.18480326185087809 -0.36719565018674682 0 -0.19565175395430129 -0.3512554891803924 0 -0.20800359978069241 -0.36335027445133922 0 -0.18480326185087809 -0.36719565018674682 0 -0.2014200033848125 -0.37119512976538899 0 -0.18480326185087809 -0.36719565018674682 0 -0.18579747934449059 -0.37379744869579251 0 -0.2014200033848125 -0.37119512976538899 0 -0.20800359978069241 -0.36335027445133922 0 -0.18480326185087809 -0.36719565018674682 0 -0.2014200033848125 -0.37119512976538899 0 -0.20800359978069241 -0.36335027445133922 0 -0.20803809997708481 -0.36661394692190907 0 -0.20800359978069241 -0.36335027445133922 0 -0.20803809997708481 -0.36661394692190907 0 -0.21424807490234879 -0.36231527430669241 0 -0.20800359978069241 -0.36335027445133922 0 -0.20803809997708481 -0.36661394692190907 0 -0.2014200033848125 -0.37119512976538899 0 -0.20803809997708481 -0.36661394692190907 0 -0.21335741342528061 -0.3748607861064962 0 -0.2014200033848125 -0.37119512976538899 0 -0.20803809997708481 -0.36661394692190907 0 -0.20803809997708481 -0.36661394692190907 0 -0.21335741342528061 -0.3748607861064962 0 -0.21424807490234879 -0.36231527430669241 0 -0.22186900287429051 -0.37074082218821958 0 -0.21335741342528061 -0.3748607861064962 0 -0.21424807490234879 -0.36231527430669241 0 -0.20800359978069241 -0.36335027445133922 0 -0.21424807490234879 -0.36231527430669241 0 -0.20803809997708481 -0.36661394692190907 0 -0.21424807490234879 -0.36231527430669241 0 -0.2097464541822805 -0.33582260124732738 0 -0.19565175395430129 -0.3512554891803924 0 -0.20800359978069241 -0.36335027445133922 0 -0.2097464541822805 -0.33582260124732738 0 -0.20800359978069241 -0.36335027445133922 0 -0.2097464541822805 -0.33582260124732738 0 -0.20800359978069241 -0.36335027445133922 0 -0.21424807490234879 -0.36231527430669241 0 -0.22913587473404851 -0.35200963246311751 0 -0.2097464541822805 -0.33582260124732738 0 -0.21424807490234879 -0.36231527430669241 0 -0.2335542019388327 -0.26090262277066528 0 -0.21472073189145299 -0.25725591714607071 0 -0.22837296648480071 -0.23789375384220129 0 -0.2335542019388327 -0.26090262277066528 0 -0.21357196166535461 -0.27540027352014051 0 -0.21472073189145299 -0.25725591714607071 0 -0.25298377122075039 -0.27518622721876451 0 -0.2335542019388327 -0.26090262277066528 0 -0.25431856302814809 -0.24833495949118861 0 -0.25298377122075039 -0.27518622721876451 0 -0.2335542019388327 -0.26090262277066528 0 -0.23093648268818689 -0.28342115129973 0 -0.2335542019388327 -0.26090262277066528 0 -0.23093648268818689 -0.28342115129973 0 -0.21357196166535461 -0.27540027352014051 0 -0.23093648268818689 -0.28342115129973 0 -0.21242319143925911 -0.29354462989421048 0 -0.21357196166535461 -0.27540027352014051 0 -0.23093648268818689 -0.28342115129973 0 -0.2435111179254994 -0.29490773243705071 0 -0.2284599410619414 -0.30268204450860919 0 -0.23093648268818689 -0.28342115129973 0 -0.2284599410619414 -0.30268204450860919 0 -0.21242319143925911 -0.29354462989421048 0 -0.25298377122075039 -0.27518622721876451 0 -0.23093648268818689 -0.28342115129973 0 -0.2435111179254994 -0.29490773243705071 0 -0.2444966906846206 -0.31181945912301329 0 -0.2284599410619414 -0.30268204450860919 0 -0.2435111179254994 -0.29490773243705071 0 -0.2444966906846206 -0.31181945912301329 0 -0.2284599410619414 -0.30268204450860919 0 -0.26057201890547982 -0.29344093798311832 0 -0.2435111179254994 -0.29490773243705071 0 -0.2444966906846206 -0.31181945912301329 0 -0.2279063026952847 -0.3135077128279592 0 -0.2444966906846206 -0.31181945912301329 0 -0.2284599410619414 -0.30268204450860919 0 -0.2284599410619414 -0.30268204450860919 0 -0.21242319143925911 -0.29354462989421048 0 -0.2279063026952847 -0.3135077128279592 0 -0.2284599410619414 -0.30268204450860919 0 -0.21134622408423179 -0.310554889255794 0 -0.2284599410619414 -0.30268204450860919 0 -0.21134622408423179 -0.310554889255794 0 -0.21242319143925911 -0.29354462989421048 0 -0.21134622408423179 -0.310554889255794 0 -0.19267178705524021 -0.30578920503631912 0 -0.21242319143925911 -0.29354462989421048 0 -0.21134622408423179 -0.310554889255794 0 -0.21242319143925911 -0.29354462989421048 0 -0.19267178705524021 -0.30578920503631912 0 -0.19410774352861071 -0.2831088592208712 0 -0.21242319143925911 -0.29354462989421048 0 -0.19410774352861071 -0.2831088592208712 0 -0.21242319143925911 -0.29354462989421048 0 -0.21357196166535461 -0.27540027352014051 0 -0.19410774352861071 -0.2831088592208712 0 -0.21242319143925911 -0.29354462989421048 0 -0.21242319143925911 -0.29354462989421048 0 -0.21357196166535461 -0.27540027352014051 0 -0.21357196166535461 -0.27540027352014051 0 -0.21472073189145299 -0.25725591714607071 0 -0.19410774352861071 -0.2831088592208712 0 -0.21357196166535461 -0.27540027352014051 0 -0.1965391795889786 -0.26204425282134669 0 -0.19410774352861071 -0.2831088592208712 0 -0.1965391795889786 -0.26204425282134669 0 -0.17579229561796161 -0.27267308854753308 0 -0.1965391795889786 -0.26204425282134669 0 -0.20565562739327201 -0.24334207984173631 0 -0.18863044441395099 -0.24733650333174401 0 -0.1965391795889786 -0.26204425282134669 0 -0.18340152769721799 -0.25642831405215172 0 -0.18863044441395099 -0.24733650333174401 0 -0.1965391795889786 -0.26204425282134669 0 -0.21472073189145299 -0.25725591714607071 0 -0.20565562739327201 -0.24334207984173631 0 -0.21357196166535461 -0.27540027352014051 0 -0.1965391795889786 -0.26204425282134669 0 -0.21472073189145299 -0.25725591714607071 0 -0.15747684770731041 -0.26223731787419863 0 -0.16344648285301799 -0.25937253054906129 0 -0.17579229561796161 -0.27267308854753308 0 -0.1593809120407062 -0.25278805690175971 0 -0.16344648285301799 -0.25937253054906129 0 -0.1534429259631987 -0.25724555178864622 0 -0.1593809120407062 -0.25278805690175971 0 -0.16344648285301799 -0.25937253054906129 0 -0.16709258238786229 -0.25188408856254202 0 -0.1593809120407062 -0.25278805690175971 0 -0.16709258238786229 -0.25188408856254202 0 -0.1601832428566283 -0.24550858739866141 0 -0.15747684770731041 -0.26223731787419863 0 -0.16344648285301799 -0.25937253054906129 0 -0.1534429259631987 -0.25724555178864622 0 -0.16344648285301799 -0.25937253054906129 0 -0.1534429259631987 -0.25724555178864622 0 -0.16344648285301799 -0.25937253054906129 0 -0.17379217291466831 -0.25992581321180469 0 -0.17579229561796161 -0.27267308854753308 0 -0.16344648285301799 -0.25937253054906129 0 -0.16709258238786229 -0.25188408856254202 0 -0.17379217291466831 -0.25992581321180469 0 -0.16709258238786229 -0.25188408856254202 0 -0.17679077873490559 -0.25046109420941731 0 -0.17379217291466831 -0.25992581321180469 0 -0.1965391795889786 -0.26204425282134669 0 -0.18340152769721799 -0.25642831405215172 0 -0.17579229561796161 -0.27267308854753308 0 -0.17679077873490559 -0.25046109420941731 0 -0.18340152769721799 -0.25642831405215172 0 -0.17379217291466831 -0.25992581321180469 0 -0.18340152769721799 -0.25642831405215172 0 -0.17379217291466831 -0.25992581321180469 0 -0.17579229561796161 -0.27267308854753308 0 -0.17679077873490559 -0.25046109420941731 0 -0.18340152769721799 -0.25642831405215172 0 -0.18863044441395099 -0.24733650333174401 0 -0.19410774352861071 -0.2831088592208712 0 -0.17579229561796161 -0.27267308854753308 0 -0.17507431738127369 -0.28401326145526029 0 -0.19410774352861071 -0.2831088592208712 0 -0.17579229561796161 -0.27267308854753308 0 -0.15747684770731041 -0.26223731787419863 0 -0.17507431738127369 -0.28401326145526029 0 -0.15747684770731041 -0.26223731787419863 0 -0.17579229561796161 -0.27267308854753308 0 -0.15747684770731041 -0.26223731787419863 0 -0.17579229561796161 -0.27267308854753308 0 -0.17507431738127369 -0.28401326145526029 0 -0.15747684770731041 -0.26223731787419863 0 -0.1596399504195592 -0.27820623095404468 0 -0.17507431738127369 -0.28401326145526029 0 -0.1596399504195592 -0.27820623095404468 0 -0.1624028041075358 -0.29248408411088062 0 -0.1494793968803598 -0.28070198605355251 0 -0.1624028041075358 -0.29248408411088062 0 -0.15973767967650701 -0.30493196891575292 0 -0.15108397830665751 -0.29236825921418419 0 -0.1624028041075358 -0.29248408411088062 0 -0.17507431738127369 -0.28401326145526029 0 -0.17391538329452061 -0.29489800819007239 0 -0.1596399504195592 -0.27820623095404468 0 -0.1624028041075358 -0.29248408411088062 0 -0.17507431738127369 -0.28401326145526029 0 -0.19267178705524021 -0.30578920503631912 0 -0.19410774352861071 -0.2831088592208712 0 -0.17507431738127369 -0.28401326145526029 0 -0.19267178705524021 -0.30578920503631912 0 -0.17507431738127369 -0.28401326145526029 0 -0.17391538329452061 -0.29489800819007239 0 -0.19267178705524021 -0.30578920503631912 0 -0.17507431738127369 -0.28401326145526029 0 -0.17391538329452061 -0.29489800819007239 0 -0.17532621133471249 -0.30426618216820789 0 -0.19254159852174429 -0.31996122112867409 0 -0.19267178705524021 -0.30578920503631912 0 -0.17532621133471249 -0.30426618216820789 0 -0.19267178705524021 -0.30578920503631912 0 -0.17391538329452061 -0.29489800819007239 0 -0.17532621133471249 -0.30426618216820789 0 -0.19254159852174429 -0.31996122112867409 0 -0.17532621133471249 -0.30426618216820789 0 -0.1789711567900161 -0.3101302037755338 0 -0.19254159852174429 -0.31996122112867409 0 -0.17532621133471249 -0.30426618216820789 0 -0.17532621133471249 -0.30426618216820789 0 -0.15973767967650701 -0.30493196891575292 0 -0.16582550601247259 -0.31644195918285489 0 -0.1624028041075358 -0.29248408411088062 0 -0.17532621133471249 -0.30426618216820789 0 -0.15973767967650701 -0.30493196891575292 0 -0.1624028041075358 -0.29248408411088062 0 -0.17532621133471249 -0.30426618216820789 0 -0.1624028041075358 -0.29248408411088062 0 -0.17391538329452061 -0.29489800819007239 0 -0.17532621133471249 -0.30426618216820789 0 -0.144593184228827 -0.30237793828586917 0 -0.15261731536399281 -0.31699983390472031 0 -0.1327552185807534 -0.31482398186879779 0 -0.15973767967650701 -0.30493196891575292 0 -0.144593184228827 -0.30237793828586917 0 -0.15261731536399281 -0.31699983390472031 0 -0.15973767967650701 -0.30493196891575292 0 -0.144593184228827 -0.30237793828586917 0 -0.15108397830665751 -0.29236825921418419 0 -0.144593184228827 -0.30237793828586917 0 -0.1304175251842298 -0.30012492429455973 0 -0.1327552185807534 -0.31482398186879779 0 -0.1304175251842298 -0.30012492429455973 0 -0.1327552185807534 -0.31482398186879779 0 -0.11567190875339491 -0.3081878681979589 0 -0.1304175251842298 -0.30012492429455973 0 -0.13697378053928061 -0.28594316463020741 0 -0.11725087491461519 -0.29108504565108578 0 -0.144593184228827 -0.30237793828586917 0 -0.1304175251842298 -0.30012492429455973 0 -0.13697378053928061 -0.28594316463020741 0 -0.13697378053928061 -0.28594316463020741 0 -0.15108397830665751 -0.29236825921418419 0 -0.1494793968803598 -0.28070198605355251 0 -0.144593184228827 -0.30237793828586917 0 -0.13697378053928061 -0.28594316463020741 0 -0.15108397830665751 -0.29236825921418419 0 -0.1624028041075358 -0.29248408411088062 0 -0.15108397830665751 -0.29236825921418419 0 -0.1494793968803598 -0.28070198605355251 0 -0.1624028041075358 -0.29248408411088062 0 -0.1494793968803598 -0.28070198605355251 0 -0.15747684770731041 -0.26223731787419863 0 -0.1596399504195592 -0.27820623095404468 0 -0.1503927610565664 -0.27179087804580171 0 -0.1596399504195592 -0.27820623095404468 0 -0.1494793968803598 -0.28070198605355251 0 -0.1503927610565664 -0.27179087804580171 0 -0.15747684770731041 -0.26223731787419863 0 -0.1503927610565664 -0.27179087804580171 0 -0.1469785187108 -0.2635474229235048 0 -0.1503927610565664 -0.27179087804580171 0 -0.13966748117377659 -0.26847157538705668 0 -0.1469785187108 -0.2635474229235048 0 -0.1503927610565664 -0.27179087804580171 0 -0.14153524490660671 -0.2763029116229278 0 -0.13966748117377659 -0.26847157538705668 0 -0.1494793968803598 -0.28070198605355251 0 -0.1503927610565664 -0.27179087804580171 0 -0.14153524490660671 -0.2763029116229278 0 -0.13697378053928061 -0.28594316463020741 0 -0.1494793968803598 -0.28070198605355251 0 -0.14153524490660671 -0.2763029116229278 0 -0.13697378053928061 -0.28594316463020741 0 -0.14153524490660671 -0.2763029116229278 0 -0.13219795163187159 -0.27110871778552531 0 -0.13697378053928061 -0.28594316463020741 0 -0.1173011125765811 -0.2721428964285707 0 -0.13697378053928061 -0.28594316463020741 0 -0.13219795163187159 -0.27110871778552531 0 -0.1173011125765811 -0.2721428964285707 0 -0.13219795163187159 -0.27110871778552531 0 -0.1333337708168415 -0.26377523499205202 0 -0.12600056203783161 -0.26301541000095829 0 -0.13219795163187159 -0.27110871778552531 0 -0.12600056203783161 -0.26301541000095829 0 -0.1173011125765811 -0.2721428964285707 0 -0.13219795163187159 -0.27110871778552531 0 -0.13966748117377659 -0.26847157538705668 0 -0.1333337708168415 -0.26377523499205202 0 -0.14153524490660671 -0.2763029116229278 0 -0.13219795163187159 -0.27110871778552531 0 -0.13966748117377659 -0.26847157538705668 0 -0.13966748117377659 -0.26847157538705668 0 -0.13807993829988649 -0.25979154560904222 0 -0.1333337708168415 -0.26377523499205202 0 -0.13807993829988649 -0.25979154560904222 0 -0.1333337708168415 -0.26377523499205202 0 -0.13072292094084129 -0.25648892617767749 0 -0.12600056203783161 -0.26301541000095829 0 -0.13072292094084129 -0.25648892617767749 0 -0.1187556211832122 -0.25814451816493872 0 -0.1333337708168415 -0.26377523499205202 0 -0.12600056203783161 -0.26301541000095829 0 -0.13072292094084129 -0.25648892617767749 0 -0.13072292094084129 -0.25648892617767749 0 -0.13218950310710981 -0.25272660122947088 0 -0.1187556211832122 -0.25814451816493872 0 -0.13072292094084129 -0.25648892617767749 0 -0.13218950310710981 -0.25272660122947088 0 -0.13218950310710981 -0.25272660122947088 0 -0.1459019403517107 -0.25564217047089421 0 -0.13375162957080131 -0.24871916986845621 0 -0.13218950310710981 -0.25272660122947088 0 -0.1459019403517107 -0.25564217047089421 0 -0.13218950310710981 -0.25272660122947088 0 -0.13375162957080131 -0.24871916986845621 0 -0.1459019403517107 -0.25564217047089421 0 -0.13375162957080131 -0.24871916986845621 0 -0.13807993829988649 -0.25979154560904222 0 -0.13218950310710981 -0.25272660122947088 0 -0.1459019403517107 -0.25564217047089421 0 -0.13807993829988649 -0.25979154560904222 0 -0.13072292094084129 -0.25648892617767749 0 -0.13218950310710981 -0.25272660122947088 0 -0.1459019403517107 -0.25564217047089421 0 -0.1534429259631987 -0.25724555178864622 0 -0.1378886282313006 -0.2381062402767252 0 -0.13966748117377659 -0.26847157538705668 0 -0.13807993829988649 -0.25979154560904222 0 -0.1469785187108 -0.2635474229235048 0 -0.13807993829988649 -0.25979154560904222 0 -0.1459019403517107 -0.25564217047089421 0 -0.1469785187108 -0.2635474229235048 0 -0.15747684770731041 -0.26223731787419863 0 -0.1459019403517107 -0.25564217047089421 0 -0.1534429259631987 -0.25724555178864622 0 -0.15747684770731041 -0.26223731787419863 0 -0.1459019403517107 -0.25564217047089421 0 -0.1469785187108 -0.2635474229235048 0 -0.15747684770731041 -0.26223731787419863 0 -0.1459019403517107 -0.25564217047089421 0 -0.15747684770731041 -0.26223731787419863 0 -0.1534429259631987 -0.25724555178864622 0 -0.1593809120407062 -0.25278805690175971 0 -0.1534429259631987 -0.25724555178864622 0 -0.15289321433053751 -0.246830478479277 0 -0.1459019403517107 -0.25564217047089421 0 -0.1534429259631987 -0.25724555178864622 0 -0.17143624801538501 -0.35840063883308271 0 -0.1580141783998408 -0.34710035810185619 0 -0.15489216358121211 -0.36256913283011211 0 -0.17143624801538501 -0.35840063883308271 0 -0.1580141783998408 -0.34710035810185619 0 -0.18164424501215659 -0.34621916084723381 0 -0.17143624801538501 -0.35840063883308271 0 -0.1663610822414904 -0.3702523776444529 0 -0.15489216358121211 -0.36256913283011211 0 -0.15951650330528561 -0.37856285477961621 0 -0.1663610822414904 -0.3702523776444529 0 -0.15489216358121211 -0.36256913283011211 0 -0.17143624801538501 -0.35840063883308271 0 -0.1663610822414904 -0.3702523776444529 0 -0.18480326185087809 -0.36719565018674682 0 -0.1663610822414904 -0.3702523776444529 0 -0.18480326185087809 -0.36719565018674682 0 -0.1663610822414904 -0.3702523776444529 0 -0.18480326185087809 -0.36719565018674682 0 -0.18579747934449059 -0.37379744869579251 0 -0.18480326185087809 -0.36719565018674682 0 -0.18579747934449059 -0.37379744869579251 0 -0.18480326185087809 -0.36719565018674682 0 -0.18164424501215659 -0.34621916084723381 0 -0.19565175395430129 -0.3512554891803924 0 -0.18480326185087809 -0.36719565018674682 0 -0.18164424501215659 -0.34621916084723381 0 -0.17143624801538501 -0.35840063883308271 0 -0.18480326185087809 -0.36719565018674682 0 -0.18164424501215659 -0.34621916084723381 0 -0.18164424501215659 -0.34621916084723381 0 -0.17848522817343529 -0.32524267150772068 0 -0.1629610955137164 -0.33076913941787212 0 -0.18164424501215659 -0.34621916084723381 0 -0.17848522817343529 -0.32524267150772068 0 -0.18164424501215659 -0.34621916084723381 0 -0.18737083868624629 -0.33075534874643497 0 -0.17848522817343529 -0.32524267150772068 0 -0.17532621133471249 -0.30426618216820789 0 -0.17848522817343529 -0.32524267150772068 0 -0.17532621133471249 -0.30426618216820789 0 -0.1789711567900161 -0.3101302037755338 0 -0.17848522817343529 -0.32524267150772068 0 -0.17532621133471249 -0.30426618216820789 0 -0.17848522817343529 -0.32524267150772068 0 -0.16582550601247259 -0.31644195918285489 0 -0.1943588054861482 -0.32297640251143073 0 -0.1789711567900161 -0.3101302037755338 0 -0.18479650728396149 -0.32227615663527998 0 -0.1789711567900161 -0.3101302037755338 0 -0.18479650728396149 -0.32227615663527998 0 -0.17848522817343529 -0.32524267150772068 0 -0.1943588054861482 -0.32297640251143073 0 -0.1789711567900161 -0.3101302037755338 0 -0.18737083868624629 -0.33075534874643497 0 -0.18479650728396149 -0.32227615663527998 0 -0.17848522817343529 -0.32524267150772068 0 -0.17848522817343529 -0.32524267150772068 0 -0.16582550601247259 -0.31644195918285489 0 -0.1629610955137164 -0.33076913941787212 0 -0.16582550601247259 -0.31644195918285489 0 -0.1629610955137164 -0.33076913941787212 0 -0.15261731536399281 -0.31699983390472031 0 -0.15973767967650701 -0.30493196891575292 0 -0.16582550601247259 -0.31644195918285489 0 -0.15261731536399281 -0.31699983390472031 0 -0.1580141783998408 -0.34710035810185619 0 -0.18164424501215659 -0.34621916084723381 0 -0.1629610955137164 -0.33076913941787212 0 -0.1580141783998408 -0.34710035810185619 0 -0.1629610955137164 -0.33076913941787212 0 -0.14559484309128301 -0.3331209990743299 0 -0.14559484309128301 -0.3331209990743299 0 -0.15261731536399281 -0.31699983390472031 0 -0.1327552185807534 -0.31482398186879779 0 -0.1629610955137164 -0.33076913941787212 0 -0.14559484309128301 -0.3331209990743299 0 -0.15261731536399281 -0.31699983390472031 0 -0.14559484309128301 -0.3331209990743299 0 -0.1327552185807534 -0.31482398186879779 0 -0.12678352480283511 -0.3369129194106073 0 -0.14559484309128301 -0.3331209990743299 0 -0.12678352480283511 -0.3369129194106073 0 -0.14043772588655989 -0.35211976174212622 0 -0.12678352480283511 -0.3369129194106073 0 -0.14043772588655989 -0.35211976174212622 0 -0.1203130985899742 -0.35955571918490481 0 -0.1580141783998408 -0.34710035810185619 0 -0.14043772588655989 -0.35211976174212622 0 -0.15489216358121211 -0.36256913283011211 0 -0.1580141783998408 -0.34710035810185619 0 -0.14559484309128301 -0.3331209990743299 0 -0.14043772588655989 -0.35211976174212622 0 -0.14043772588655989 -0.35211976174212622 0 -0.15489216358121211 -0.36256913283011211 0 -0.13959568407155781 -0.37291875636350952 0 -0.15951650330528561 -0.37856285477961621 0 -0.15489216358121211 -0.36256913283011211 0 -0.13959568407155781 -0.37291875636350952 0 -0.12625141541498519 -0.38197991289387551 0 -0.13959568407155781 -0.37291875636350952 0 -0.1203130985899742 -0.35955571918490481 0 -0.14043772588655989 -0.35211976174212622 0 -0.13959568407155781 -0.37291875636350952 0 -0.1203130985899742 -0.35955571918490481 0 -0.1203130985899742 -0.35955571918490481 0 -0.11384267237711319 -0.38219851895920232 0 -0.1203130985899742 -0.35955571918490481 0 -0.10849363524981311 -0.36442991456039969 0 -0.11384267237711319 -0.38219851895920232 0 -0.12625141541498519 -0.38197991289387551 0 -0.1203130985899742 -0.35955571918490481 0 -0.11384267237711319 -0.38219851895920232 0 -0.10849363524981311 -0.36442991456039969 0 -0.096157591159299352 -0.35547454281719221 0 -0.10176491866177829 -0.38015793077534599 0 -0.096157591159299352 -0.35547454281719221 0 -0.10176491866177829 -0.38015793077534599 0 -0.096157591159299352 -0.35547454281719221 0 -0.10176491866177829 -0.38015793077534599 0 -0.085276019388031976 -0.37619188405436782 0 -0.096157591159299352 -0.35547454281719221 0 -0.10964553082547281 -0.34513317088572909 0 -0.090550263656820479 -0.33079115485903843 0 -0.10849363524981311 -0.36442991456039969 0 -0.096157591159299352 -0.35547454281719221 0 -0.10964553082547281 -0.34513317088572909 0 -0.1203130985899742 -0.35955571918490481 0 -0.10849363524981311 -0.36442991456039969 0 -0.10964553082547281 -0.34513317088572909 0 -0.12678352480283511 -0.3369129194106073 0 -0.1203130985899742 -0.35955571918490481 0 -0.10964553082547281 -0.34513317088572909 0 -0.12678352480283511 -0.3369129194106073 0 -0.1203130985899742 -0.35955571918490481 0 -0.12678352480283511 -0.3369129194106073 0 -0.10964553082547281 -0.34513317088572909 0 -0.1112875311940303 -0.32576775904759792 0 -0.1327552185807534 -0.31482398186879779 0 -0.12678352480283511 -0.3369129194106073 0 -0.1112875311940303 -0.32576775904759792 0 -0.1327552185807534 -0.31482398186879779 0 -0.1112875311940303 -0.32576775904759792 0 -0.11567190875339491 -0.3081878681979589 0 -0.1112875311940303 -0.32576775904759792 0 -0.1011365257202933 -0.31403431577096802 0 -0.11567190875339491 -0.3081878681979589 0 -0.1112875311940303 -0.32576775904759792 0 -0.1011365257202933 -0.31403431577096802 0 -0.090550263656820479 -0.33079115485903843 0 -0.10964553082547281 -0.34513317088572909 0 -0.1112875311940303 -0.32576775904759792 0 -0.090550263656820479 -0.33079115485903843 0 -0.096157591159299352 -0.35547454281719221 0 -0.090550263656820479 -0.33079115485903843 0 -0.096157591159299352 -0.35547454281719221 0 -0.090550263656820479 -0.33079115485903843 0 -0.073144777225565616 -0.33606175945158517 0 -0.090550263656820479 -0.33079115485903843 0 -0.084942936154341619 -0.30610776690088481 0 -0.090550263656820479 -0.33079115485903843 0 -0.073144777225565616 -0.33606175945158517 0 -0.084942936154341619 -0.30610776690088481 0 -0.1011365257202933 -0.31403431577096802 0 -0.090550263656820479 -0.33079115485903843 0 -0.084942936154341619 -0.30610776690088481 0 -0.073144777225565616 -0.33606175945158517 0 -0.084942936154341619 -0.30610776690088481 0 -0.060613113796085999 -0.32288269869712272 0 -0.073144777225565616 -0.33606175945158517 0 -0.076755031766953086 -0.35884624094615858 0 -0.063306301319701316 -0.35299520754669739 0 -0.076755031766953086 -0.35884624094615858 0 -0.063306301319701316 -0.35299520754669739 0 -0.065890469742167113 -0.37350781086095058 0 -0.076755031766953086 -0.35884624094615858 0 -0.065890469742167113 -0.37350781086095058 0 -0.085276019388031976 -0.37619188405436782 0 -0.096157591159299352 -0.35547454281719221 0 -0.076755031766953086 -0.35884624094615858 0 -0.085276019388031976 -0.37619188405436782 0 -0.096157591159299352 -0.35547454281719221 0 -0.073144777225565616 -0.33606175945158517 0 -0.076755031766953086 -0.35884624094615858 0 -0.097628444613881649 -0.25834262822693399 0 -0.1173011125765811 -0.2721428964285707 0 -0.097628444613881649 -0.25834262822693399 0 -0.1187556211832122 -0.25814451816493872 0 -0.1098930818979398 -0.24798588601512411 0 -0.13218950310710981 -0.25272660122947088 0 -0.1187556211832122 -0.25814451816493872 0 -0.1098930818979398 -0.24798588601512411 0 -0.097628444613881649 -0.25834262822693399 0 -0.1187556211832122 -0.25814451816493872 0 -0.1173011125765811 -0.2721428964285707 0 -0.13218950310710981 -0.25272660122947088 0 -0.1098930818979398 -0.24798588601512411 0 -0.12600056203783161 -0.26301541000095829 0 -0.1187556211832122 -0.25814451816493872 0 -0.1173011125765811 -0.2721428964285707 0 -0.097628444613881649 -0.25834262822693399 0 -0.1173011125765811 -0.2721428964285707 0 -0.090762408808148426 -0.27102181932101072 0 -0.1173011125765811 -0.2721428964285707 0 -0.096655829275762523 -0.28444542957314378 0 -0.090762408808148426 -0.27102181932101072 0 -0.096655829275762523 -0.28444542957314378 0 -0.10322998884287909 -0.29931702984935987 0 -0.084942936154341619 -0.30610776690088481 0 -0.096655829275762523 -0.28444542957314378 0 -0.11725087491461519 -0.29108504565108578 0 -0.10322998884287909 -0.29931702984935987 0 -0.13697378053928061 -0.28594316463020741 0 -0.1173011125765811 -0.2721428964285707 0 -0.11725087491461519 -0.29108504565108578 0 -0.1173011125765811 -0.2721428964285707 0 -0.096655829275762523 -0.28444542957314378 0 -0.11725087491461519 -0.29108504565108578 0 -0.11725087491461519 -0.29108504565108578 0 -0.11567190875339491 -0.3081878681979589 0 -0.10322998884287909 -0.29931702984935987 0 -0.1304175251842298 -0.30012492429455973 0 -0.11725087491461519 -0.29108504565108578 0 -0.11567190875339491 -0.3081878681979589 0 -0.1011365257202933 -0.31403431577096802 0 -0.10322998884287909 -0.29931702984935987 0 -0.084942936154341619 -0.30610776690088481 0 -0.1011365257202933 -0.31403431577096802 0 -0.11567190875339491 -0.3081878681979589 0 -0.10322998884287909 -0.29931702984935987 0 -0.084942936154341619 -0.30610776690088481 0 -0.066237696895848033 -0.30175990202967712 0 -0.078368201618682937 -0.28822753231137022 0 -0.084942936154341619 -0.30610776690088481 0 -0.066237696895848033 -0.30175990202967712 0 -0.060613113796085999 -0.32288269869712272 0 -0.066237696895848033 -0.30175990202967712 0 -0.078368201618682937 -0.28822753231137022 0 -0.057136779716869042 -0.28712205926022771 0 -0.078368201618682937 -0.28822753231137022 0 -0.072744725061100565 -0.27289296274949931 0 -0.057136779716869042 -0.28712205926022771 0 -0.096655829275762523 -0.28444542957314378 0 -0.084942936154341619 -0.30610776690088481 0 -0.078368201618682937 -0.28822753231137022 0 -0.096655829275762523 -0.28444542957314378 0 -0.078368201618682937 -0.28822753231137022 0 -0.090762408808148426 -0.27102181932101072 0 -0.078368201618682937 -0.28822753231137022 0 -0.090762408808148426 -0.27102181932101072 0 -0.072744725061100565 -0.27289296274949931 0 -0.090762408808148426 -0.27102181932101072 0 -0.072744725061100565 -0.27289296274949931 0 -0.081281336266817772 -0.26097832242812891 0 -0.072744725061100565 -0.27289296274949931 0 -0.067161912638977472 -0.25903173736147111 0 -0.055745381016590281 -0.2682223094504298 0 -0.072744725061100565 -0.27289296274949931 0 -0.067161912638977472 -0.25903173736147111 0 -0.081281336266817772 -0.26097832242812891 0 -0.067161912638977472 -0.25903173736147111 0 -0.081281336266817772 -0.26097832242812891 0 -0.077955776651182085 -0.24454236002529731 0 -0.067161912638977472 -0.25903173736147111 0 -0.056939497423126581 -0.24878681181634871 0 -0.077955776651182085 -0.24454236002529731 0 -0.097628444613881649 -0.25834262822693399 0 -0.081281336266817772 -0.26097832242812891 0 -0.077955776651182085 -0.24454236002529731 0 -0.097628444613881649 -0.25834262822693399 0 -0.090762408808148426 -0.27102181932101072 0 -0.081281336266817772 -0.26097832242812891 0 -0.097628444613881649 -0.25834262822693399 0 -0.077955776651182085 -0.24454236002529731 0 -0.025857267464119819 -0.25506418495113531 0 -0.050191684441297867 -0.2485850187836515 0 -0.034199021844566052 -0.25740496373097072 0 -0.056939497423126581 -0.24878681181634871 0 -0.034199021844566052 -0.25740496373097072 0 -0.041398382443623198 -0.25192549838374201 0 -0.056939497423126581 -0.24878681181634871 0 -0.041398382443623198 -0.25192549838374201 0 -0.025857267464119819 -0.25506418495113531 0 -0.050191684441297867 -0.2485850187836515 0 -0.034199021844566052 -0.25740496373097072 0 -0.048255079716108998 -0.25800015923011232 0 -0.056939497423126581 -0.24878681181634871 0 -0.034199021844566052 -0.25740496373097072 0 -0.041398382443623198 -0.25192549838374201 0 -0.025857267464119819 -0.25506418495113531 0 -0.041398382443623198 -0.25192549838374201 0 -0.025857267464119819 -0.25506418495113531 0 -0.034199021844566052 -0.25740496373097072 0 -0.037307574571523318 -0.26201401924185519 0 -0.024854767991187229 -0.26705994663832661 0 -0.037307574571523318 -0.26201401924185519 0 -0.048255079716108998 -0.25800015923011232 0 -0.046606779304586107 -0.26584835010199509 0 -0.034199021844566052 -0.25740496373097072 0 -0.037307574571523318 -0.26201401924185519 0 -0.048255079716108998 -0.25800015923011232 0 -0.05702546769870083 -0.25851025446459042 0 -0.048255079716108998 -0.25800015923011232 0 -0.056939497423126581 -0.24878681181634871 0 -0.041398382443623198 -0.25192549838374201 0 -0.056939497423126581 -0.24878681181634871 0 -0.067161912638977472 -0.25903173736147111 0 -0.05702546769870083 -0.25851025446459042 0 -0.056939497423126581 -0.24878681181634871 0 -0.067161912638977472 -0.25903173736147111 0 -0.05702546769870083 -0.25851025446459042 0 -0.055745381016590281 -0.2682223094504298 0 -0.05702546769870083 -0.25851025446459042 0 -0.048255079716108998 -0.25800015923011232 0 -0.055745381016590281 -0.2682223094504298 0 -0.048255079716108998 -0.25800015923011232 0 -0.055745381016590281 -0.2682223094504298 0 -0.046606779304586107 -0.26584835010199509 0 -0.055745381016590281 -0.2682223094504298 0 -0.045119081914121867 -0.27515691248558288 0 -0.046606779304586107 -0.26584835010199509 0 -0.055745381016590281 -0.2682223094504298 0 -0.045119081914121867 -0.27515691248558288 0 -0.057136779716869042 -0.28712205926022771 0 -0.072744725061100565 -0.27289296274949931 0 -0.055745381016590281 -0.2682223094504298 0 -0.057136779716869042 -0.28712205926022771 0 -0.037307574571523318 -0.26201401924185519 0 -0.034478529498429812 -0.28951379058442123 0 -0.037307574571523318 -0.26201401924185519 0 -0.034478529498429812 -0.28951379058442123 0 -0.024854767991187229 -0.26705994663832661 0 -0.037307574571523318 -0.26201401924185519 0 -0.045119081914121867 -0.27515691248558288 0 -0.034478529498429812 -0.28951379058442123 0 -0.037307574571523318 -0.26201401924185519 0 -0.045119081914121867 -0.27515691248558288 0 -0.046606779304586107 -0.26584835010199509 0 -0.045119081914121867 -0.27515691248558288 0 -0.034478529498429812 -0.28951379058442123 0 -0.057136779716869042 -0.28712205926022771 0 -0.034478529498429812 -0.28951379058442123 0 -0.057136779716869042 -0.28712205926022771 0 -0.05012745319326059 -0.30445945297878008 0 -0.066237696895848033 -0.30175990202967712 0 -0.05012745319326059 -0.30445945297878008 0 -0.060613113796085999 -0.32288269869712272 0 -0.066237696895848033 -0.30175990202967712 0 -0.057136779716869042 -0.28712205926022771 0 -0.05012745319326059 -0.30445945297878008 0 -0.034478529498429812 -0.28951379058442123 0 -0.05012745319326059 -0.30445945297878008 0 -0.031649484425336299 -0.31701356192698721 0 -0.034478529498429812 -0.28951379058442123 0 -0.031649484425336299 -0.31701356192698721 0 -0.034478529498429812 -0.28951379058442123 0 -0.020284114256294641 -0.29759304008048471 0 -0.031649484425336299 -0.31701356192698721 0 -0.020284114256294641 -0.29759304008048471 0 -0.01007927323019326 -0.3103345258507364 0 -0.031649484425336299 -0.31701356192698721 0 -0.020284114256294641 -0.29759304008048471 0 -0.01007927323019326 -0.3103345258507364 0 -0.0080748459131490501 -0.2914060437848453 0 -0.01007927323019326 -0.3103345258507364 0 -0.0080748459131490501 -0.2914060437848453 0 0.0017563221397047381 -0.2997067901486577 0 -0.020284114256294641 -0.29759304008048471 0 -0.0080748459131490501 -0.2914060437848453 0 -0.017138438214364771 -0.27969727825543328 0 -0.0080748459131490501 -0.2914060437848453 0 -0.002848760243290064 -0.27761611820401882 0 0.0066437179820165657 -0.2861171845936395 0 -0.0080748459131490501 -0.2914060437848453 0 -0.017138438214364771 -0.27969727825543328 0 -0.002848760243290064 -0.27761611820401882 0 -0.034478529498429812 -0.28951379058442123 0 -0.020284114256294641 -0.29759304008048471 0 -0.017138438214364771 -0.27969727825543328 0 -0.034478529498429812 -0.28951379058442123 0 -0.024854767991187229 -0.26705994663832661 0 -0.017138438214364771 -0.27969727825543328 0 -0.024854767991187229 -0.26705994663832661 0 -0.01588915841142927 -0.27169793716392882 0 -0.01145854626600548 -0.26602311564559261 0 -0.024854767991187229 -0.26705994663832661 0 -0.01588915841142927 -0.27169793716392882 0 -0.017138438214364771 -0.27969727825543328 0 -0.017138438214364771 -0.27969727825543328 0 -0.011833725783772399 -0.27375861231724341 0 -0.002848760243290064 -0.27761611820401882 0 -0.01145854626600548 -0.26602311564559261 0 0.01128192931255503 -0.27464126756021451 0 -0.002848760243290064 -0.27761611820401882 0 -0.01145854626600548 -0.26602311564559261 0 0.01128192931255503 -0.27464126756021451 0 -0.01588915841142927 -0.27169793716392882 0 -0.017138438214364771 -0.27969727825543328 0 -0.011833725783772399 -0.27375861231724341 0 -0.011833725783772399 -0.27375861231724341 0 -0.002848760243290064 -0.27761611820401882 0 -0.01145854626600548 -0.26602311564559261 0 -0.01588915841142927 -0.27169793716392882 0 -0.011833725783772399 -0.27375861231724341 0 -0.01145854626600548 -0.26602311564559261 0 -0.01269776775011346 -0.25850600500130039 0 -0.0051360078472848583 -0.25701396995817721 0 0.0057158633005241696 -0.26337829885565528 0 -0.01145854626600548 -0.26602311564559261 0 -0.01269776775011346 -0.25850600500130039 0 0.0057158633005241696 -0.26337829885565528 0 -0.01269776775011346 -0.25850600500130039 0 0.0057158633005241696 -0.26337829885565528 0 -0.0009620894167222515 -0.25496392916579452 0 -0.0051360078472848583 -0.25701396995817721 0 0.0057158633005241696 -0.26337829885565528 0 -0.0071971320314794382 -0.2528457057960789 0 -0.01082738352359053 -0.24876902592697839 0 -0.0029313858115674811 -0.24854412401401971 0 -0.0009620894167222515 -0.25496392916579452 0 -0.0071971320314794382 -0.2528457057960789 0 -0.0029313858115674811 -0.24854412401401971 0 -0.0009620894167222515 -0.25496392916579452 0 -0.0051360078472848583 -0.25701396995817721 0 -0.0071971320314794382 -0.2528457057960789 0 -0.0051360078472848583 -0.25701396995817721 0 -0.0071971320314794382 -0.2528457057960789 0 -0.0094143843739788544 -0.25459574361389747 0 -0.0071971320314794382 -0.2528457057960789 0 -0.0094143843739788544 -0.25459574361389747 0 -0.01082738352359053 -0.24876902592697839 0 -0.01269776775011346 -0.25850600500130039 0 -0.0094143843739788544 -0.25459574361389747 0 -0.01082738352359053 -0.24876902592697839 0 -0.01269776775011346 -0.25850600500130039 0 -0.0051360078472848583 -0.25701396995817721 0 -0.0094143843739788544 -0.25459574361389747 0 -0.01269776775011346 -0.25850600500130039 0 -0.025857267464119819 -0.25506418495113531 0 -0.034199021844566052 -0.25740496373097072 0 -0.01145854626600548 -0.26602311564559261 0 -0.025857267464119819 -0.25506418495113531 0 -0.01269776775011346 -0.25850600500130039 0 -0.025857267464119819 -0.25506418495113531 0 -0.02368513365757598 -0.23851275990414511 0 -0.034199021844566052 -0.25740496373097072 0 -0.024854767991187229 -0.26705994663832661 0 -0.01145854626600548 -0.26602311564559261 0 -0.034199021844566052 -0.25740496373097072 0 -0.01145854626600548 -0.26602311564559261 0 -0.01145854626600548 -0.26602311564559261 0 -0.01269776775011346 -0.25850600500130039 0 -0.025857267464119819 -0.25506418495113531 0 -0.046940286889098168 -0.35955036210978841 0 -0.050269733973634309 -0.3392354021108881 0 -0.02882043935224279 -0.34451333326955308 0 -0.046940286889098168 -0.35955036210978841 0 -0.02882043935224279 -0.34451333326955308 0 -0.026419717968229769 -0.36867473508972981 0 -0.046940286889098168 -0.35955036210978841 0 -0.026419717968229769 -0.36867473508972981 0 -0.046935058978613817 -0.3783756837809118 0 -0.065890469742167113 -0.37350781086095058 0 -0.046940286889098168 -0.35955036210978841 0 -0.046935058978613817 -0.3783756837809118 0 -0.063306301319701316 -0.35299520754669739 0 -0.065890469742167113 -0.37350781086095058 0 -0.046940286889098168 -0.35955036210978841 0 -0.063306301319701316 -0.35299520754669739 0 -0.046940286889098168 -0.35955036210978841 0 -0.050269733973634309 -0.3392354021108881 0 -0.073144777225565616 -0.33606175945158517 0 -0.063306301319701316 -0.35299520754669739 0 -0.050269733973634309 -0.3392354021108881 0 -0.073144777225565616 -0.33606175945158517 0 -0.050269733973634309 -0.3392354021108881 0 -0.060613113796085999 -0.32288269869712272 0 -0.050269733973634309 -0.3392354021108881 0 -0.060613113796085999 -0.32288269869712272 0 -0.031649484425336299 -0.31701356192698721 0 -0.05012745319326059 -0.30445945297878008 0 -0.060613113796085999 -0.32288269869712272 0 -0.031649484425336299 -0.31701356192698721 0 -0.050269733973634309 -0.3392354021108881 0 -0.031649484425336299 -0.31701356192698721 0 -0.02882043935224279 -0.34451333326955308 0 -0.031649484425336299 -0.31701356192698721 0 -0.02882043935224279 -0.34451333326955308 0 -0.031649484425336299 -0.31701356192698721 0 -0.0038616663111063101 -0.33241552487502413 0 -0.02882043935224279 -0.34451333326955308 0 -0.01007927323019326 -0.3103345258507364 0 -0.031649484425336299 -0.31701356192698721 0 -0.0038616663111063101 -0.33241552487502413 0 -0.01007927323019326 -0.3103345258507364 0 -0.0038616663111063101 -0.33241552487502413 0 0.0094652366165251054 -0.31053241408104548 0 -0.0038616663111063101 -0.33241552487502413 0 -0.0043130761299947744 -0.35643483176966217 0 -0.02882043935224279 -0.34451333326955308 0 -0.0043130761299947744 -0.35643483176966217 0 -0.02882043935224279 -0.34451333326955308 0 -0.026419717968229769 -0.36867473508972981 0 -0.0043130761299947744 -0.35643483176966217 0 -0.026419717968229769 -0.36867473508972981 0 -0.0064694903547723136 -0.38059021958606692 0 -0.0064694903547723136 -0.38059021958606692 0 -0.0080625817845775948 -0.40608726553411861 0 -0.026496984295852101 -0.39226102623928111 0 -0.0064694903547723136 -0.38059021958606692 0 -0.0080625817845775948 -0.40608726553411861 0 0.009690974369139977 -0.39295199195252922 0 -0.0080625817845775948 -0.40608726553411861 0 -0.026496984295852101 -0.39226102623928111 0 -0.029852467816379728 -0.41236872525256307 0 -0.026419717968229769 -0.36867473508972981 0 -0.0064694903547723136 -0.38059021958606692 0 -0.026496984295852101 -0.39226102623928111 0 -0.026496984295852101 -0.39226102623928111 0 -0.048213792324517578 -0.39768762776665978 0 -0.046935058978613817 -0.3783756837809118 0 -0.026419717968229769 -0.36867473508972981 0 -0.026496984295852101 -0.39226102623928111 0 -0.046935058978613817 -0.3783756837809118 0 -0.026496984295852101 -0.39226102623928111 0 -0.048213792324517578 -0.39768762776665978 0 -0.029852467816379728 -0.41236872525256307 0 -0.048213792324517578 -0.39768762776665978 0 -0.065379196062645584 -0.39052657147488062 0 -0.06528413140028641 -0.40548789039177052 0 -0.048213792324517578 -0.39768762776665978 0 -0.046935058978613817 -0.3783756837809118 0 -0.065379196062645584 -0.39052657147488062 0 -0.065890469742167113 -0.37350781086095058 0 -0.046935058978613817 -0.3783756837809118 0 -0.065379196062645584 -0.39052657147488062 0 -0.052630130657334448 -0.42871109396582502 0 -0.036803499053157718 -0.43392585985635063 0 -0.055908543568221357 -0.44353945242809251 0 -0.052630130657334448 -0.42871109396582502 0 -0.048282499091199083 -0.41684649723306111 0 -0.065713266975248902 -0.42040157794015642 0 -0.052630130657334448 -0.42871109396582502 0 -0.055908543568221357 -0.44353945242809251 0 -0.077753046024815156 -0.43509142098737241 0 -0.048282499091199083 -0.41684649723306111 0 -0.06528413140028641 -0.40548789039177052 0 -0.065713266975248902 -0.42040157794015642 0 -0.048213792324517578 -0.39768762776665978 0 -0.048282499091199083 -0.41684649723306111 0 -0.06528413140028641 -0.40548789039177052 0 -0.048213792324517578 -0.39768762776665978 0 -0.048282499091199083 -0.41684649723306111 0 -0.029852467816379728 -0.41236872525256307 0 -0.048282499091199083 -0.41684649723306111 0 -0.036803499053157718 -0.43392585985635063 0 -0.029852467816379728 -0.41236872525256307 0 -0.052630130657334448 -0.42871109396582502 0 -0.048282499091199083 -0.41684649723306111 0 -0.036803499053157718 -0.43392585985635063 0 -0.036803499053157718 -0.43392585985635063 0 -0.01686747062211669 -0.42668809062348251 0 -0.022482277956740859 -0.44034230556013138 0 -0.036803499053157718 -0.43392585985635063 0 -0.01686747062211669 -0.42668809062348251 0 -0.029852467816379728 -0.41236872525256307 0 -0.0080625817845775948 -0.40608726553411861 0 -0.01686747062211669 -0.42668809062348251 0 -0.029852467816379728 -0.41236872525256307 0 -0.0080625817845775948 -0.40608726553411861 0 -0.01686747062211669 -0.42668809062348251 0 0.01224976062295041 -0.42183763890738629 0 -0.01686747062211669 -0.42668809062348251 0 -0.008216644178786571 -0.4466179140804285 0 0.01224976062295041 -0.42183763890738629 0 -0.008216644178786571 -0.4466179140804285 0 -0.0021957942935651631 -0.46571035637089769 0 -0.016151777162071251 -0.46269316979172348 0 -0.0021957942935651631 -0.46571035637089769 0 -0.016151777162071251 -0.46269316979172348 0 -0.01292321871024151 -0.47600360382280887 0 -0.008216644178786571 -0.4466179140804285 0 -0.016151777162071251 -0.46269316979172348 0 -0.028753682251359231 -0.45370767630375852 0 -0.016151777162071251 -0.46269316979172348 0 -0.030722049445265721 -0.46513815794063051 0 -0.025757536927686689 -0.47561542944709773 0 -0.016151777162071251 -0.46269316979172348 0 -0.030722049445265721 -0.46513815794063051 0 -0.028753682251359231 -0.45370767630375852 0 -0.036803499053157718 -0.43392585985635063 0 -0.028753682251359231 -0.45370767630375852 0 -0.022482277956740859 -0.44034230556013138 0 -0.01686747062211669 -0.42668809062348251 0 -0.008216644178786571 -0.4466179140804285 0 -0.022482277956740859 -0.44034230556013138 0 -0.008216644178786571 -0.4466179140804285 0 -0.028753682251359231 -0.45370767630375852 0 -0.022482277956740859 -0.44034230556013138 0 -0.011489863113854141 -0.5 0 -0.010144146689038991 -0.48941639725935437 0 0.012735562036971701 -0.48508522326900949 0 -0.010144146689038991 -0.48941639725935437 0 -0.00065605929082254884 -0.47874224407546379 0 -0.01292321871024151 -0.47600360382280887 0 -0.010144146689038991 -0.48941639725935437 0 -0.01292321871024151 -0.47600360382280887 0 -0.022633997898264431 -0.48384402599231691 0 -0.0021957942935651631 -0.46571035637089769 0 -0.00065605929082254884 -0.47874224407546379 0 -0.01292321871024151 -0.47600360382280887 0 -0.016151777162071251 -0.46269316979172348 0 -0.01292321871024151 -0.47600360382280887 0 -0.025757536927686689 -0.47561542944709773 0 -0.025757536927686689 -0.47561542944709773 0 -0.022633997898264431 -0.48384402599231691 0 -0.032724513000240443 -0.48384135401243772 0 -0.01292321871024151 -0.47600360382280887 0 -0.025757536927686689 -0.47561542944709773 0 -0.022633997898264431 -0.48384402599231691 0 -0.011489863113854141 -0.5 0 -0.010144146689038991 -0.48941639725935437 0 -0.033023855415049652 -0.49374757124969931 0 -0.010144146689038991 -0.48941639725935437 0 -0.022633997898264431 -0.48384402599231691 0 -0.033023855415049652 -0.49374757124969931 0 -0.011489863113854141 -0.5 0 -0.041002190054857779 -0.5 0 -0.033023855415049652 -0.49374757124969931 0 -0.010144146689038991 -0.48941639725935437 0 -0.033023855415049652 -0.49374757124969931 0 -0.022633997898264431 -0.48384402599231691 0 -0.033023855415049652 -0.49374757124969931 0 -0.032724513000240443 -0.48384135401243772 0 -0.041002190054857779 -0.5 0 -0.040644419244316249 -0.48874723383863622 0 -0.055758353525359711 -0.48944453406372251 0 -0.041002190054857779 -0.5 0 -0.033023855415049652 -0.49374757124969931 0 -0.040644419244316249 -0.48874723383863622 0 -0.033023855415049652 -0.49374757124969931 0 -0.040644419244316249 -0.48874723383863622 0 -0.032724513000240443 -0.48384135401243772 0 -0.040644419244316249 -0.48874723383863622 0 -0.040713184226073652 -0.47670270986732172 0 -0.055758353525359711 -0.48944453406372251 0 -0.040644419244316249 -0.48874723383863622 0 -0.040713184226073652 -0.47670270986732172 0 -0.032724513000240443 -0.48384135401243772 0 -0.025757536927686689 -0.47561542944709773 0 -0.040713184226073652 -0.47670270986732172 0 -0.032724513000240443 -0.48384135401243772 0 -0.030722049445265721 -0.46513815794063051 0 -0.025757536927686689 -0.47561542944709773 0 -0.040713184226073652 -0.47670270986732172 0 -0.040713184226073652 -0.47670270986732172 0 -0.05604151524233808 -0.47085547185542692 0 -0.042137987481662489 -0.46199998676314519 0 -0.040713184226073652 -0.47670270986732172 0 -0.05604151524233808 -0.47085547185542692 0 -0.055758353525359711 -0.48944453406372251 0 -0.05604151524233808 -0.47085547185542692 0 -0.055758353525359711 -0.48944453406372251 0 -0.068357021366280857 -0.47830767763467641 0 -0.041002190054857779 -0.5 0 -0.055758353525359711 -0.48944453406372251 0 -0.070514516995861642 -0.5 0 -0.036803499053157718 -0.43392585985635063 0 -0.028753682251359231 -0.45370767630375852 0 -0.042591220718736618 -0.44931976272637059 0 -0.036803499053157718 -0.43392585985635063 0 -0.042591220718736618 -0.44931976272637059 0 -0.055908543568221357 -0.44353945242809251 0 -0.028753682251359231 -0.45370767630375852 0 -0.042591220718736618 -0.44931976272637059 0 -0.042137987481662489 -0.46199998676314519 0 -0.030722049445265721 -0.46513815794063051 0 -0.028753682251359231 -0.45370767630375852 0 -0.042137987481662489 -0.46199998676314519 0 -0.030722049445265721 -0.46513815794063051 0 -0.040713184226073652 -0.47670270986732172 0 -0.042137987481662489 -0.46199998676314519 0 -0.042591220718736618 -0.44931976272637059 0 -0.042137987481662489 -0.46199998676314519 0 -0.054601469153056192 -0.45704509188174619 0 -0.05604151524233808 -0.47085547185542692 0 -0.054601469153056192 -0.45704509188174619 0 -0.071896784036839162 -0.45711427830285839 0 -0.05604151524233808 -0.47085547185542692 0 -0.042137987481662489 -0.46199998676314519 0 -0.054601469153056192 -0.45704509188174619 0 -0.054601469153056192 -0.45704509188174619 0 -0.055908543568221357 -0.44353945242809251 0 -0.071896784036839162 -0.45711427830285839 0 -0.042591220718736618 -0.44931976272637059 0 -0.054601469153056192 -0.45704509188174619 0 -0.055908543568221357 -0.44353945242809251 0 -0.055908543568221357 -0.44353945242809251 0 -0.071896784036839162 -0.45711427830285839 0 -0.077753046024815156 -0.43509142098737241 0 -0.071896784036839162 -0.45711427830285839 0 -0.087573937031005744 -0.47412410395137422 0 -0.093954286744555499 -0.45179652052777369 0 -0.087573937031005744 -0.47412410395137422 0 -0.093954286744555499 -0.45179652052777369 0 -0.071896784036839162 -0.45711427830285839 0 -0.093954286744555499 -0.45179652052777369 0 -0.077753046024815156 -0.43509142098737241 0 -0.093954286744555499 -0.45179652052777369 0 -0.10033463645810529 -0.42946893710417328 0 -0.077753046024815156 -0.43509142098737241 0 -0.055758353525359711 -0.48944453406372251 0 -0.070514516995861642 -0.5 0 -0.068357021366280857 -0.47830767763467641 0 -0.05604151524233808 -0.47085547185542692 0 -0.071896784036839162 -0.45711427830285839 0 -0.068357021366280857 -0.47830767763467641 0 -0.071896784036839162 -0.45711427830285839 0 -0.068357021366280857 -0.47830767763467641 0 -0.087573937031005744 -0.47412410395137422 0 -0.070514516995861642 -0.5 0 -0.068357021366280857 -0.47830767763467641 0 -0.087573937031005744 -0.47412410395137422 0 -0.070514516995861642 -0.5 0 -0.087573937031005744 -0.47412410395137422 0 -0.10002684393686551 -0.5 0 -0.087573937031005744 -0.47412410395137422 0 -0.10002684393686551 -0.5 0 -0.10780494223314389 -0.47765854937150709 0 -0.087573937031005744 -0.47412410395137422 0 -0.10780494223314389 -0.47765854937150709 0 -0.1029954147344513 -0.46359439800738522 0 -0.12605423818426559 -0.48707922202292669 0 -0.10780494223314389 -0.47765854937150709 0 -0.1201929706126502 -0.46127799294672761 0 -0.12605423818426559 -0.48707922202292669 0 -0.1201929706126502 -0.46127799294672761 0 -0.12605423818426559 -0.48707922202292669 0 -0.10002684393686551 -0.5 0 -0.10780494223314389 -0.47765854937150709 0 -0.1295391708778694 -0.5 0 -0.12605423818426559 -0.48707922202292669 0 -0.10002684393686551 -0.5 0 -0.093954286744555499 -0.45179652052777369 0 -0.10033463645810529 -0.42946893710417328 0 -0.10636180231815941 -0.44832292249131772 0 -0.11433170304103479 -0.43547676387052858 0 -0.10033463645810529 -0.42946893710417328 0 -0.10636180231815941 -0.44832292249131772 0 -0.093954286744555499 -0.45179652052777369 0 -0.10033463645810529 -0.42946893710417328 0 -0.087573937031005744 -0.47412410395137422 0 -0.093954286744555499 -0.45179652052777369 0 -0.1029954147344513 -0.46359439800738522 0 -0.10636180231815941 -0.44832292249131772 0 -0.093954286744555499 -0.45179652052777369 0 -0.1029954147344513 -0.46359439800738522 0 -0.10780494223314389 -0.47765854937150709 0 -0.1029954147344513 -0.46359439800738522 0 -0.1201929706126502 -0.46127799294672761 0 -0.10636180231815941 -0.44832292249131772 0 -0.1029954147344513 -0.46359439800738522 0 -0.1201929706126502 -0.46127799294672761 0 -0.13671083813600751 -0.45044361347006462 0 -0.1201929706126502 -0.46127799294672761 0 -0.11433170304103479 -0.43547676387052858 0 -0.10636180231815941 -0.44832292249131772 0 -0.1201929706126502 -0.46127799294672761 0 -0.11433170304103479 -0.43547676387052858 0 -0.13671083813600751 -0.45044361347006462 0 -0.1225906368027144 -0.43005957413219659 0 -0.11433170304103479 -0.43547676387052858 0 -0.1201929706126502 -0.46127799294672761 0 -0.11433170304103479 -0.43547676387052858 0 -0.1225906368027144 -0.43005957413219659 0 -0.11433170304103479 -0.43547676387052858 0 -0.10847043546942051 -0.40967553479432928 0 -0.11433170304103479 -0.43547676387052858 0 -0.10847043546942051 -0.40967553479432928 0 -0.12908399078123631 -0.42243277819987513 0 -0.1225906368027144 -0.43005957413219659 0 -0.12315425937001 -0.41747458531602638 0 -0.11433170304103479 -0.43547676387052858 0 -0.10033463645810529 -0.42946893710417328 0 -0.10847043546942051 -0.40967553479432928 0 -0.10033463645810529 -0.42946893710417328 0 -0.094107383989168333 -0.41562629379671062 0 -0.1067149861716557 -0.40714135368057303 0 -0.10033463645810529 -0.42946893710417328 0 -0.1067149861716557 -0.40714135368057303 0 -0.10847043546942051 -0.40967553479432928 0 -0.10033463645810529 -0.42946893710417328 0 -0.1067149861716557 -0.40714135368057303 0 -0.094107383989168333 -0.41562629379671062 0 -0.1067149861716557 -0.40714135368057303 0 -0.093615658715422545 -0.40476526464288082 0 -0.10847043546942051 -0.40967553479432928 0 -0.1105756132387118 -0.40676785322215941 0 -0.1073722461642546 -0.40484131873350049 0 -0.10847043546942051 -0.40967553479432928 0 -0.1073722461642546 -0.40484131873350049 0 -0.1067149861716557 -0.40714135368057303 0 -0.10847043546942051 -0.40967553479432928 0 -0.1073722461642546 -0.40484131873350049 0 -0.1067149861716557 -0.40714135368057303 0 -0.10847043546942051 -0.40967553479432928 0 -0.1225906368027144 -0.43005957413219659 0 -0.1163272184937543 -0.41351727508190028 0 -0.12315425937001 -0.41747458531602638 0 -0.10847043546942051 -0.40967553479432928 0 -0.1125412123036873 -0.40894162881917728 0 -0.1163272184937543 -0.41351727508190028 0 -0.1125412123036873 -0.40894162881917728 0 -0.1105756132387118 -0.40676785322215941 0 -0.1147915820128618 -0.40580585217832088 0 -0.1225906368027144 -0.43005957413219659 0 -0.10847043546942051 -0.40967553479432928 0 -0.1163272184937543 -0.41351727508190028 0 -0.10847043546942051 -0.40967553479432928 0 -0.1125412123036873 -0.40894162881917728 0 -0.1105756132387118 -0.40676785322215941 0 -0.1225906368027144 -0.43005957413219659 0 -0.10847043546942051 -0.40967553479432928 0 -0.1125412123036873 -0.40894162881917728 0 -0.1163272184937543 -0.41351727508190028 0 -0.1147915820128618 -0.40580585217832088 0 -0.1225700411049412 -0.40994677461386392 0 -0.1219584454402414 -0.40406961642135292 0 -0.1147915820128618 -0.40580585217832088 0 -0.1163272184937543 -0.41351727508190028 0 -0.1225700411049412 -0.40994677461386392 0 -0.1147915820128618 -0.40580585217832088 0 -0.1163272184937543 -0.41351727508190028 0 -0.12315425937001 -0.41747458531602638 0 -0.1225700411049412 -0.40994677461386392 0 -0.1273295258527142 -0.39594401256049883 0 -0.1219584454402414 -0.40406961642135292 0 -0.1190781430676657 -0.39944145851713192 0 -0.11305295545189779 -0.39895005080087959 0 -0.11384267237711319 -0.38219851895920232 0 -0.1073722461642546 -0.40484131873350049 0 -0.1295768038857959 -0.40463739140698729 0 -0.1225700411049412 -0.40994677461386392 0 -0.1219584454402414 -0.40406961642135292 0 -0.1182582065806136 -0.392437760624607 0 -0.11305295545189779 -0.39895005080087959 0 -0.11384267237711319 -0.38219851895920232 0 -0.11384267237711319 -0.38219851895920232 0 -0.1073722461642546 -0.40484131873350049 0 -0.1219584454402414 -0.40406961642135292 0 -0.1190781430676657 -0.39944145851713192 0 -0.1147915820128618 -0.40580585217832088 0 -0.1273295258527142 -0.39594401256049883 0 -0.1190781430676657 -0.39944145851713192 0 -0.1182582065806136 -0.392437760624607 0 -0.1190781430676657 -0.39944145851713192 0 -0.1182582065806136 -0.392437760624607 0 -0.11305295545189779 -0.39895005080087959 0 -0.1105756132387118 -0.40676785322215941 0 -0.1114480992169309 -0.40409126873371493 0 -0.1073722461642546 -0.40484131873350049 0 -0.1105756132387118 -0.40676785322215941 0 -0.1114480992169309 -0.40409126873371493 0 -0.1147915820128618 -0.40580585217832088 0 -0.11305295545189779 -0.39895005080087959 0 -0.1114480992169309 -0.40409126873371493 0 -0.1147915820128618 -0.40580585217832088 0 -0.11305295545189779 -0.39895005080087959 0 -0.1114480992169309 -0.40409126873371493 0 -0.1073722461642546 -0.40484131873350049 0 -0.1190781430676657 -0.39944145851713192 0 -0.11305295545189779 -0.39895005080087959 0 -0.1147915820128618 -0.40580585217832088 0 -0.12625141541498519 -0.38197991289387551 0 -0.1182582065806136 -0.392437760624607 0 -0.11384267237711319 -0.38219851895920232 0 -0.12625141541498519 -0.38197991289387551 0 -0.1273295258527142 -0.39594401256049883 0 -0.1182582065806136 -0.392437760624607 0 -0.11384267237711319 -0.38219851895920232 0 -0.10176491866177829 -0.38015793077534599 0 -0.1073722461642546 -0.40484131873350049 0 -0.10176491866177829 -0.38015793077534599 0 -0.095995502779844255 -0.39166661886747001 0 -0.085276019388031976 -0.37619188405436782 0 -0.10849363524981311 -0.36442991456039969 0 -0.11384267237711319 -0.38219851895920232 0 -0.10176491866177829 -0.38015793077534599 0 -0.10176491866177829 -0.38015793077534599 0 -0.1073722461642546 -0.40484131873350049 0 -0.095995502779844255 -0.39166661886747001 0 -0.10176491866177829 -0.38015793077534599 0 -0.1073722461642546 -0.40484131873350049 0 -0.1067149861716557 -0.40714135368057303 0 -0.1073722461642546 -0.40484131873350049 0 -0.095995502779844255 -0.39166661886747001 0 -0.1067149861716557 -0.40714135368057303 0 -0.1073722461642546 -0.40484131873350049 0 -0.1067149861716557 -0.40714135368057303 0 -0.095995502779844255 -0.39166661886747001 0 -0.1067149861716557 -0.40714135368057303 0 -0.095995502779844255 -0.39166661886747001 0 -0.093615658715422545 -0.40476526464288082 0 -0.093615658715422545 -0.40476526464288082 0 -0.081664681120336771 -0.39582842074610342 0 -0.082451352827770552 -0.41163664718976212 0 -0.095995502779844255 -0.39166661886747001 0 -0.093615658715422545 -0.40476526464288082 0 -0.081664681120336771 -0.39582842074610342 0 -0.095995502779844255 -0.39166661886747001 0 -0.081664681120336771 -0.39582842074610342 0 -0.085276019388031976 -0.37619188405436782 0 -0.081664681120336771 -0.39582842074610342 0 -0.085276019388031976 -0.37619188405436782 0 -0.074552591578295357 -0.38401367178407558 0 -0.095995502779844255 -0.39166661886747001 0 -0.085276019388031976 -0.37619188405436782 0 -0.081664681120336771 -0.39582842074610342 0 -0.065379196062645584 -0.39052657147488062 0 -0.074552591578295357 -0.38401367178407558 0 -0.065890469742167113 -0.37350781086095058 0 -0.085276019388031976 -0.37619188405436782 0 -0.074552591578295357 -0.38401367178407558 0 -0.065890469742167113 -0.37350781086095058 0 -0.065379196062645584 -0.39052657147488062 0 -0.074552591578295357 -0.38401367178407558 0 -0.081664681120336771 -0.39582842074610342 0 -0.06528413140028641 -0.40548789039177052 0 -0.082451352827770552 -0.41163664718976212 0 -0.081664681120336771 -0.39582842074610342 0 -0.065379196062645584 -0.39052657147488062 0 -0.06528413140028641 -0.40548789039177052 0 -0.065713266975248902 -0.42040157794015642 0 -0.085028608260126398 -0.42320905853578622 0 -0.082451352827770552 -0.41163664718976212 0 -0.06528413140028641 -0.40548789039177052 0 -0.065713266975248902 -0.42040157794015642 0 -0.082451352827770552 -0.41163664718976212 0 -0.065713266975248902 -0.42040157794015642 0 -0.077753046024815156 -0.43509142098737241 0 -0.085028608260126398 -0.42320905853578622 0 -0.052630130657334448 -0.42871109396582502 0 -0.065713266975248902 -0.42040157794015642 0 -0.077753046024815156 -0.43509142098737241 0 -0.10033463645810529 -0.42946893710417328 0 -0.077753046024815156 -0.43509142098737241 0 -0.085028608260126398 -0.42320905853578622 0 -0.10033463645810529 -0.42946893710417328 0 -0.094107383989168333 -0.41562629379671062 0 -0.085028608260126398 -0.42320905853578622 0 -0.094107383989168333 -0.41562629379671062 0 -0.085028608260126398 -0.42320905853578622 0 -0.082451352827770552 -0.41163664718976212 0 -0.094107383989168333 -0.41562629379671062 0 -0.093615658715422545 -0.40476526464288082 0 -0.082451352827770552 -0.41163664718976212 0 -0.080832567710134945 -0.085265223789800185 0 -0.09573268077664969 -0.090624673380050064 0 -0.094924188455715333 -0.074372309221374736 0 -0.080832567710134945 -0.085265223789800185 0 -0.0944050220014645 -0.1050702242089397 0 -0.09573268077664969 -0.090624673380050064 0 -0.094924188455715333 -0.074372309221374736 0 -0.077079431972146645 -0.050953682142663811 0 -0.080832567710134945 -0.085265223789800185 0 -0.077460787511610923 -0.070469280456870842 0 -0.094924188455715333 -0.074372309221374736 0 -0.077460787511610923 -0.070469280456870842 0 -0.094924188455715333 -0.074372309221374736 0 -0.078535685693175539 -0.061573663464548622 0 -0.080832567710134945 -0.085265223789800185 0 -0.072736864716213656 -0.076885636419884412 0 -0.077460787511610923 -0.070469280456870842 0 -0.072736864716213656 -0.076885636419884412 0 -0.077460787511610923 -0.070469280456870842 0 -0.067174029152377468 -0.071022972744677337 0 -0.077460787511610923 -0.070469280456870842 0 -0.067174029152377468 -0.071022972744677337 0 -0.070308423821052124 -0.061023041189074957 0 -0.077460787511610923 -0.070469280456870842 0 -0.078535685693175539 -0.061573663464548622 0 -0.070308423821052124 -0.061023041189074957 0 -0.067174029152377468 -0.071022972744677337 0 -0.070308423821052124 -0.061023041189074957 0 -0.060830035872249492 -0.064558057335980773 0 -0.072736864716213656 -0.076885636419884412 0 -0.067174029152377468 -0.071022972744677337 0 -0.063732237529271596 -0.080733089011810297 0 -0.067174029152377468 -0.071022972744677337 0 -0.063732237529271596 -0.080733089011810297 0 -0.058000192015007383 -0.073011667883306972 0 -0.080832567710134945 -0.085265223789800185 0 -0.063732237529271596 -0.080733089011810297 0 -0.066023591375222151 -0.09957098179305135 0 -0.080832567710134945 -0.085265223789800185 0 -0.072736864716213656 -0.076885636419884412 0 -0.063732237529271596 -0.080733089011810297 0 -0.066023591375222151 -0.09957098179305135 0 -0.069466171350113709 -0.1135628440840601 0 -0.0944050220014645 -0.1050702242089397 0 -0.066023591375222151 -0.09957098179305135 0 -0.069466171350113709 -0.1135628440840601 0 -0.054384952187449757 -0.110609208962567 0 -0.077516787342341589 -0.1242022911324857 0 -0.069466171350113709 -0.1135628440840601 0 -0.059238207921678762 -0.13024384051707169 0 -0.077516787342341589 -0.1242022911324857 0 -0.093262550211769629 -0.1231040070079162 0 -0.0944050220014645 -0.1050702242089397 0 -0.077516787342341589 -0.1242022911324857 0 -0.069466171350113709 -0.1135628440840601 0 -0.0944050220014645 -0.1050702242089397 0 -0.066023591375222151 -0.09957098179305135 0 -0.0944050220014645 -0.1050702242089397 0 -0.080832567710134945 -0.085265223789800185 0 -0.066023591375222151 -0.09957098179305135 0 -0.0944050220014645 -0.1050702242089397 0 -0.0944050220014645 -0.1050702242089397 0 -0.1071147179002416 -0.1244919901550422 0 -0.11276894493928399 -0.097790936300085646 0 -0.0944050220014645 -0.1050702242089397 0 -0.11276894493928399 -0.097790936300085646 0 -0.09573268077664969 -0.090624673380050064 0 -0.093262550211769629 -0.1231040070079162 0 -0.0944050220014645 -0.1050702242089397 0 -0.1071147179002416 -0.1244919901550422 0 -0.1071147179002416 -0.1244919901550422 0 -0.11276894493928399 -0.097790936300085646 0 -0.1306137014228527 -0.1212095633787966 0 -0.11276894493928399 -0.097790936300085646 0 -0.1306137014228527 -0.1212095633787966 0 -0.112702195828283 -0.076339248342475546 0 -0.13438499311011279 -0.096174695905308166 0 -0.11276894493928399 -0.097790936300085646 0 -0.112702195828283 -0.076339248342475546 0 -0.13438499311011279 -0.096174695905308166 0 -0.11276894493928399 -0.097790936300085646 0 -0.094924188455715333 -0.074372309221374736 0 -0.112702195828283 -0.076339248342475546 0 -0.11276894493928399 -0.097790936300085646 0 -0.094924188455715333 -0.074372309221374736 0 -0.11276894493928399 -0.097790936300085646 0 -0.09573268077664969 -0.090624673380050064 0 -0.094924188455715333 -0.074372309221374736 0 -0.094924188455715333 -0.074372309221374736 0 -0.1026030192468113 -0.064894788769428779 0 -0.112702195828283 -0.076339248342475546 0 -0.094924188455715333 -0.074372309221374736 0 -0.1026030192468113 -0.064894788769428779 0 -0.090333769324138391 -0.059362086744932152 0 -0.1026030192468113 -0.064894788769428779 0 -0.112702195828283 -0.076339248342475546 0 -0.1158705629695205 -0.060236298698018297 0 -0.112702195828283 -0.076339248342475546 0 -0.1158705629695205 -0.060236298698018297 0 -0.13497135686491851 -0.078315161523928284 0 -0.1158705629695205 -0.060236298698018297 0 -0.1150956899200111 -0.045830426672337207 0 -0.1070798181065768 -0.041876824406217303 0 -0.1158705629695205 -0.060236298698018297 0 -0.1150956899200111 -0.045830426672337207 0 -0.12809376798702951 -0.047905065599393698 0 -0.1163329610324388 -0.034474533447810513 0 -0.12530131535501859 -0.034952786400489197 0 -0.12809376798702951 -0.047905065599393698 0 -0.11023593420079281 -0.033339602888773932 0 -0.1150956899200111 -0.045830426672337207 0 -0.12809376798702951 -0.047905065599393698 0 -0.11023593420079281 -0.033339602888773932 0 -0.1163329610324388 -0.034474533447810513 0 -0.12809376798702951 -0.047905065599393698 0 -0.11023593420079281 -0.033339602888773932 0 -0.12809376798702951 -0.047905065599393698 0 -0.1163329610324388 -0.034474533447810513 0 -0.1221370268088495 -0.025998648103035 0 -0.12530131535501859 -0.034952786400489197 0 -0.11023593420079281 -0.033339602888773932 0 -0.1150956899200111 -0.045830426672337207 0 -0.1070798181065768 -0.041876824406217303 0 -0.11023593420079281 -0.033339602888773932 0 -0.1163329610324388 -0.034474533447810513 0 -0.097427134368436918 -0.027820357899848831 0 -0.11023593420079281 -0.033339602888773932 0 -0.1070798181065768 -0.041876824406217303 0 -0.097427134368436918 -0.027820357899848831 0 -0.1070798181065768 -0.041876824406217303 0 -0.096769769074122519 -0.04215743587210824 0 -0.097427134368436918 -0.027820357899848831 0 -0.1158705629695205 -0.060236298698018297 0 -0.1070798181065768 -0.041876824406217303 0 -0.096769769074122519 -0.04215743587210824 0 -0.1026030192468113 -0.064894788769428779 0 -0.1158705629695205 -0.060236298698018297 0 -0.099264754381345577 -0.055060356505970513 0 -0.1158705629695205 -0.060236298698018297 0 -0.096769769074122519 -0.04215743587210824 0 -0.099264754381345577 -0.055060356505970513 0 -0.096769769074122519 -0.04215743587210824 0 -0.099264754381345577 -0.055060356505970513 0 -0.090746651292135133 -0.048651172445365112 0 -0.1158705629695205 -0.060236298698018297 0 -0.096769769074122519 -0.04215743587210824 0 -0.1026030192468113 -0.064894788769428779 0 -0.099264754381345577 -0.055060356505970513 0 -0.090333769324138391 -0.059362086744932152 0 -0.1029392013539359 -0.0085751277431150782 0 -0.12735709500343681 0.004015926865657337 0 -0.1236693299605585 -0.0137973575501921 0 -0.1110604598185659 -0.0207882196779367 0 -0.1029392013539359 -0.0085751277431150782 0 -0.1236693299605585 -0.0137973575501921 0 -0.1029392013539359 -0.0085751277431150782 0 -0.12735709500343681 0.004015926865657337 0 -0.1236693299605585 -0.0137973575501921 0 -0.1110604598185659 -0.0207882196779367 0 -0.1221370268088495 -0.025998648103035 0 -0.1163329610324388 -0.034474533447810513 0 -0.1221370268088495 -0.025998648103035 0 -0.11173939550707281 -0.027270439782157759 0 -0.1110604598185659 -0.0207882196779367 0 -0.1221370268088495 -0.025998648103035 0 -0.11173939550707281 -0.027270439782157759 0 -0.1163329610324388 -0.034474533447810513 0 -0.097427134368436918 -0.027820357899848831 0 -0.1110604598185659 -0.0207882196779367 0 -0.097427134368436918 -0.027820357899848831 0 -0.1029392013539359 -0.0085751277431150782 0 -0.1163329610324388 -0.034474533447810513 0 -0.11173939550707281 -0.027270439782157759 0 -0.097427134368436918 -0.027820357899848831 0 -0.1110604598185659 -0.0207882196779367 0 -0.11173939550707281 -0.027270439782157759 0 -0.097427134368436918 -0.027820357899848831 0 -0.1029392013539359 -0.0085751277431150782 0 -0.086097875964997059 -0.0058870606910941042 0 -0.078521307704434995 -0.021166182351887271 0 -0.1029392013539359 -0.0085751277431150782 0 -0.078521307704434995 -0.021166182351887271 0 -0.1029392013539359 -0.0085751277431150782 0 -0.086097875964997059 -0.0058870606910941042 0 -0.091682611010439896 0.0063963380850077774 0 -0.086097875964997059 -0.0058870606910941042 0 -0.073830544796709738 -0.0078542708917730738 0 -0.078933949510919491 0.00072378658541613432 0 -0.086097875964997059 -0.0058870606910941042 0 -0.078521307704434995 -0.021166182351887271 0 -0.073830544796709738 -0.0078542708917730738 0 -0.097427134368436918 -0.027820357899848831 0 -0.078521307704434995 -0.021166182351887271 0 -0.097427134368436918 -0.027820357899848831 0 -0.078521307704434995 -0.021166182351887271 0 -0.077668975178724509 -0.024078573046198169 0 -0.097427134368436918 -0.027820357899848831 0 -0.1029392013539359 -0.0085751277431150782 0 -0.078521307704434995 -0.021166182351887271 0 -0.078521307704434995 -0.021166182351887271 0 -0.055132092173872667 -0.033226800447327051 0 -0.05822397002114936 -0.01402224463886402 0 -0.078521307704434995 -0.021166182351887271 0 -0.055132092173872667 -0.033226800447327051 0 -0.077668975178724509 -0.024078573046198169 0 -0.075465350998538308 -0.032772608828030472 0 -0.055132092173872667 -0.033226800447327051 0 -0.078521307704434995 -0.021166182351887271 0 -0.077668975178724509 -0.024078573046198169 0 -0.055132092173872667 -0.033226800447327051 0 -0.078521307704434995 -0.021166182351887271 0 -0.05822397002114936 -0.01402224463886402 0 -0.078521307704434995 -0.021166182351887271 0 -0.073830544796709738 -0.0078542708917730738 0 -0.05822397002114936 -0.01402224463886402 0 -0.073830544796709738 -0.0078542708917730738 0 -0.05822397002114936 -0.01402224463886402 0 -0.068462160169621672 0.0025537029525893409 0 -0.073830544796709738 -0.0078542708917730738 0 -0.078933949510919491 0.00072378658541613432 0 -0.068462160169621672 0.0025537029525893409 0 -0.094924188455715333 -0.074372309221374736 0 -0.090333769324138391 -0.059362086744932152 0 -0.077079431972146645 -0.050953682142663811 0 -0.094924188455715333 -0.074372309221374736 0 -0.078535685693175539 -0.061573663464548622 0 -0.077079431972146645 -0.050953682142663811 0 -0.084868245962835154 -0.053326759561897898 0 -0.090333769324138391 -0.059362086744932152 0 -0.077079431972146645 -0.050953682142663811 0 -0.084868245962835154 -0.053326759561897898 0 -0.080876314157704687 -0.04955372347343575 0 -0.082849096915408454 -0.045583035938281863 0 -0.080876314157704687 -0.04955372347343575 0 -0.078708481780428496 -0.048351416250899462 0 -0.082849096915408454 -0.045583035938281863 0 -0.080876314157704687 -0.04955372347343575 0 -0.078708481780428496 -0.048351416250899462 0 -0.077079431972146645 -0.050953682142663811 0 -0.084868245962835154 -0.053326759561897898 0 -0.080876314157704687 -0.04955372347343575 0 -0.077079431972146645 -0.050953682142663811 0 -0.084868245962835154 -0.053326759561897898 0 -0.090746651292135133 -0.048651172445365112 0 -0.082849096915408454 -0.045583035938281863 0 -0.084868245962835154 -0.053326759561897898 0 -0.090333769324138391 -0.059362086744932152 0 -0.090746651292135133 -0.048651172445365112 0 -0.099264754381345577 -0.055060356505970513 0 -0.090333769324138391 -0.059362086744932152 0 -0.090746651292135133 -0.048651172445365112 0 -0.096769769074122519 -0.04215743587210824 0 -0.088481073739883592 -0.043344290748051233 0 -0.083558777677868248 -0.036985518736449702 0 -0.096769769074122519 -0.04215743587210824 0 -0.097427134368436918 -0.027820357899848831 0 -0.077668975178724509 -0.024078573046198169 0 -0.096769769074122519 -0.04215743587210824 0 -0.077668975178724509 -0.024078573046198169 0 -0.083558777677868248 -0.036985518736449702 0 -0.096769769074122519 -0.04215743587210824 0 -0.077668975178724509 -0.024078573046198169 0 -0.090746651292135133 -0.048651172445365112 0 -0.088481073739883592 -0.043344290748051233 0 -0.082849096915408454 -0.045583035938281863 0 -0.096769769074122519 -0.04215743587210824 0 -0.090746651292135133 -0.048651172445365112 0 -0.088481073739883592 -0.043344290748051233 0 -0.077668975178724509 -0.024078573046198169 0 -0.083558777677868248 -0.036985518736449702 0 -0.075465350998538308 -0.032772608828030472 0 -0.083558777677868248 -0.036985518736449702 0 -0.082849096915408454 -0.045583035938281863 0 -0.075062618692292638 -0.040325846155841297 0 -0.088481073739883592 -0.043344290748051233 0 -0.083558777677868248 -0.036985518736449702 0 -0.082849096915408454 -0.045583035938281863 0 -0.082849096915408454 -0.045583035938281863 0 -0.078067002861142085 -0.04575568247049161 0 -0.075062618692292638 -0.040325846155841297 0 -0.078708481780428496 -0.048351416250899462 0 -0.082849096915408454 -0.045583035938281863 0 -0.078067002861142085 -0.04575568247049161 0 -0.075647814056438792 -0.048762431536943832 0 -0.055132092173872667 -0.033226800447327051 0 -0.078067002861142085 -0.04575568247049161 0 -0.075062618692292638 -0.040325846155841297 0 -0.075647814056438792 -0.048762431536943832 0 -0.075062618692292638 -0.040325846155841297 0 -0.075465350998538308 -0.032772608828030472 0 -0.055132092173872667 -0.033226800447327051 0 -0.075647814056438792 -0.048762431536943832 0 -0.061428605263776047 -0.046553119166432878 0 -0.055132092173872667 -0.033226800447327051 0 -0.075062618692292638 -0.040325846155841297 0 -0.075647814056438792 -0.048762431536943832 0 -0.055132092173872667 -0.033226800447327051 0 -0.083558777677868248 -0.036985518736449702 0 -0.075062618692292638 -0.040325846155841297 0 -0.075465350998538308 -0.032772608828030472 0 -0.065722760200719738 -0.052253177456942877 0 -0.075647814056438792 -0.048762431536943832 0 -0.061428605263776047 -0.046553119166432878 0 -0.065722760200719738 -0.052253177456942877 0 -0.07269306068786438 -0.052406879740114577 0 -0.069833853901725543 -0.055329661047837618 0 -0.065722760200719738 -0.052253177456942877 0 -0.07269306068786438 -0.052406879740114577 0 -0.075647814056438792 -0.048762431536943832 0 -0.07269306068786438 -0.052406879740114577 0 -0.073703714626092445 -0.056102563442451223 0 -0.069833853901725543 -0.055329661047837618 0 -0.07269306068786438 -0.052406879740114577 0 -0.077079431972146645 -0.050953682142663811 0 -0.073703714626092445 -0.056102563442451223 0 -0.078708481780428496 -0.048351416250899462 0 -0.077079431972146645 -0.050953682142663811 0 -0.075647814056438792 -0.048762431536943832 0 -0.07269306068786438 -0.052406879740114577 0 -0.077079431972146645 -0.050953682142663811 0 -0.075647814056438792 -0.048762431536943832 0 -0.078708481780428496 -0.048351416250899462 0 -0.078067002861142085 -0.04575568247049161 0 -0.075647814056438792 -0.048762431536943832 0 -0.078535685693175539 -0.061573663464548622 0 -0.073703714626092445 -0.056102563442451223 0 -0.070308423821052124 -0.061023041189074957 0 -0.078535685693175539 -0.061573663464548622 0 -0.077079431972146645 -0.050953682142663811 0 -0.073703714626092445 -0.056102563442451223 0 -0.073703714626092445 -0.056102563442451223 0 -0.070308423821052124 -0.061023041189074957 0 -0.069833853901725543 -0.055329661047837618 0 -0.070308423821052124 -0.061023041189074957 0 -0.064391701294429504 -0.057679717025484439 0 -0.060830035872249492 -0.064558057335980773 0 -0.070308423821052124 -0.061023041189074957 0 -0.069833853901725543 -0.055329661047837618 0 -0.064391701294429504 -0.057679717025484439 0 -0.065722760200719738 -0.052253177456942877 0 -0.069833853901725543 -0.055329661047837618 0 -0.064391701294429504 -0.057679717025484439 0 -0.064391701294429504 -0.057679717025484439 0 -0.055978059279945473 -0.056388284161067823 0 -0.060830035872249492 -0.064558057335980773 0 -0.065722760200719738 -0.052253177456942877 0 -0.064391701294429504 -0.057679717025484439 0 -0.055978059279945473 -0.056388284161067823 0 -0.055978059279945473 -0.056388284161067823 0 -0.041230103293456458 -0.058058117591144771 0 -0.049479852383656611 -0.067543566470139038 0 -0.055978059279945473 -0.056388284161067823 0 -0.049741921456861897 -0.048697412542500033 0 -0.041230103293456458 -0.058058117591144771 0 -0.055978059279945473 -0.056388284161067823 0 -0.049741921456861897 -0.048697412542500033 0 -0.061428605263776047 -0.046553119166432878 0 -0.065722760200719738 -0.052253177456942877 0 -0.055978059279945473 -0.056388284161067823 0 -0.061428605263776047 -0.046553119166432878 0 -0.049741921456861897 -0.048697412542500033 0 -0.061428605263776047 -0.046553119166432878 0 -0.055132092173872667 -0.033226800447327051 0 -0.049741921456861897 -0.048697412542500033 0 -0.055132092173872667 -0.033226800447327051 0 -0.032367863380537598 -0.044965144957206583 0 -0.055132092173872667 -0.033226800447327051 0 -0.032367863380537598 -0.044965144957206583 0 -0.055132092173872667 -0.033226800447327051 0 -0.032367863380537598 -0.044965144957206583 0 -0.031233838643279398 -0.031193199633022049 0 -0.049741921456861897 -0.048697412542500033 0 -0.032367863380537598 -0.044965144957206583 0 -0.041230103293456458 -0.058058117591144771 0 -0.032367863380537598 -0.044965144957206583 0 -0.041230103293456458 -0.058058117591144771 0 -0.026902341230915561 -0.060374551747501753 0 -0.05822397002114936 -0.01402224463886402 0 -0.057836245250817257 0.0062936453779614283 0 -0.044352522143416888 0.0050416822031405977 0 -0.05822397002114936 -0.01402224463886402 0 -0.037926632337863607 -0.0068783069258408786 0 -0.05822397002114936 -0.01402224463886402 0 -0.068462160169621672 0.0025537029525893409 0 -0.057836245250817257 0.0062936453779614283 0 -0.055132092173872667 -0.033226800447327051 0 -0.05822397002114936 -0.01402224463886402 0 -0.036243114184870161 -0.018923029155399909 0 -0.055132092173872667 -0.033226800447327051 0 -0.036243114184870161 -0.018923029155399909 0 -0.031233838643279398 -0.031193199633022049 0 -0.055132092173872667 -0.033226800447327051 0 -0.036243114184870161 -0.018923029155399909 0 -0.05822397002114936 -0.01402224463886402 0 -0.036243114184870161 -0.018923029155399909 0 -0.037926632337863607 -0.0068783069258408786 0 -0.05822397002114936 -0.01402224463886402 0 -0.037926632337863607 -0.0068783069258408786 0 -0.044352522143416888 0.0050416822031405977 0 -0.036243114184870161 -0.018923029155399909 0 -0.037926632337863607 -0.0068783069258408786 0 -0.029121832422534862 -0.0067169982391169078 0 -0.037926632337863607 -0.0068783069258408786 0 -0.029539197120254941 -0.00051038393964639519 0 -0.029121832422534862 -0.0067169982391169078 0 -0.037926632337863607 -0.0068783069258408786 0 -0.029539197120254941 -0.00051038393964639519 0 -0.03614709390981162 0.0015378833132510439 0 -0.037926632337863607 -0.0068783069258408786 0 -0.03614709390981162 0.0015378833132510439 0 -0.044352522143416888 0.0050416822031405977 0 -0.036243114184870161 -0.018923029155399909 0 -0.017354136195868258 -0.0046192578634720229 0 -0.01819617019275287 -0.0061732580868559192 0 -0.036243114184870161 -0.018923029155399909 0 -0.017354136195868258 -0.0046192578634720229 0 -0.029121832422534862 -0.0067169982391169078 0 -0.036243114184870161 -0.018923029155399909 0 -0.01819617019275287 -0.0061732580868559192 0 -0.019637671972121611 -0.02148729346067638 0 -0.036243114184870161 -0.018923029155399909 0 -0.017354136195868258 -0.0046192578634720229 0 -0.017354136195868258 -0.0046192578634720229 0 -0.01819617019275287 -0.0061732580868559192 0 -0.013500839782477779 -0.0058155532537883976 0 -0.017354136195868258 -0.0046192578634720229 0 -0.01819617019275287 -0.0061732580868559192 0 -0.017354136195868258 -0.0046192578634720229 0 -0.024546082273817361 -0.00265401331122534 0 -0.02112675760807068 0.0030512678310729521 0 -0.024546082273817361 -0.00265401331122534 0 -0.029539197120254941 -0.00051038393964639519 0 -0.02112675760807068 0.0030512678310729521 0 -0.017354136195868258 -0.0046192578634720229 0 -0.024546082273817361 -0.00265401331122534 0 -0.029121832422534862 -0.0067169982391169078 0 -0.024546082273817361 -0.00265401331122534 0 -0.029539197120254941 -0.00051038393964639519 0 -0.029121832422534862 -0.0067169982391169078 0 -0.01819617019275287 -0.0061732580868559192 0 -0.019637671972121611 -0.02148729346067638 0 -0.011008321991883009 -0.01057962122923565 0 -0.036243114184870161 -0.018923029155399909 0 -0.019637671972121611 -0.02148729346067638 0 -0.031233838643279398 -0.031193199633022049 0 -0.019637671972121611 -0.02148729346067638 0 -0.031233838643279398 -0.031193199633022049 0 -0.016064986363794779 -0.036441041599790329 0 -0.0077215053668332834 -0.022860670268973711 0 -0.00118246574067416 -0.01324232368796026 0 0.0015263381015913891 -0.033415212413580753 0 -0.0077215053668332834 -0.022860670268973711 0 -0.016064986363794779 -0.036441041599790329 0 0.0015263381015913891 -0.033415212413580753 0 -0.019637671972121611 -0.02148729346067638 0 -0.0077215053668332834 -0.022860670268973711 0 -0.016064986363794779 -0.036441041599790329 0 -0.019637671972121611 -0.02148729346067638 0 -0.0077215053668332834 -0.022860670268973711 0 -0.011008321991883009 -0.01057962122923565 0 -0.011008321991883009 -0.01057962122923565 0 -0.00118246574067416 -0.01324232368796026 0 -0.0072764121498596901 -0.0036325873431357339 0 -0.0077215053668332834 -0.022860670268973711 0 -0.011008321991883009 -0.01057962122923565 0 -0.00118246574067416 -0.01324232368796026 0 -0.00118246574067416 -0.01324232368796026 0 -0.0072764121498596901 -0.0036325873431357339 0 0.0012074066645448821 -0.00065723147797176382 0 -0.0072764121498596901 -0.0036325873431357339 0 -0.013500839782477779 -0.0058155532537883976 0 -0.013607688627124061 -0.00178224205395049 0 -0.011008321991883009 -0.01057962122923565 0 -0.0072764121498596901 -0.0036325873431357339 0 -0.013500839782477779 -0.0058155532537883976 0 -0.01819617019275287 -0.0061732580868559192 0 -0.011008321991883009 -0.01057962122923565 0 -0.013500839782477779 -0.0058155532537883976 0 -0.017354136195868258 -0.0046192578634720229 0 -0.013500839782477779 -0.0058155532537883976 0 -0.013607688627124061 -0.00178224205395049 0 -0.017354136195868258 -0.0046192578634720229 0 -0.013607688627124061 -0.00178224205395049 0 -0.032367863380537598 -0.044965144957206583 0 -0.0096036345872028556 -0.056703489467087059 0 -0.032367863380537598 -0.044965144957206583 0 -0.026902341230915561 -0.060374551747501753 0 -0.0096036345872028556 -0.056703489467087059 0 -0.032367863380537598 -0.044965144957206583 0 -0.031233838643279398 -0.031193199633022049 0 -0.016064986363794779 -0.036441041599790329 0 -0.032367863380537598 -0.044965144957206583 0 -0.016064986363794779 -0.036441041599790329 0 -0.0096036345872028556 -0.056703489467087059 0 -0.0096036345872028556 -0.056703489467087059 0 0.0015263381015913891 -0.033415212413580753 0 -0.016064986363794779 -0.036441041599790329 0 -0.0096036345872028556 -0.056703489467087059 0 0.0015263381015913891 -0.033415212413580753 0 -0.0096036345872028556 -0.056703489467087059 0 0.0015263381015913891 -0.033415212413580753 0 0.007298405735321048 -0.051477207310420908 0 -0.0096036345872028556 -0.056703489467087059 0 0.0052181775422467033 -0.064346337314722044 0 -0.0096036345872028556 -0.056703489467087059 0 -0.0043762627118289626 -0.071729097412358583 0 0.0052181775422467033 -0.064346337314722044 0 -0.0043762627118289626 -0.071729097412358583 0 -0.0092607301227374331 -0.088572496961274561 0 -0.01646375475339092 -0.071057556949349329 0 -0.0096036345872028556 -0.056703489467087059 0 -0.01646375475339092 -0.071057556949349329 0 -0.0096036345872028556 -0.056703489467087059 0 -0.0043762627118289626 -0.071729097412358583 0 -0.01646375475339092 -0.071057556949349329 0 -0.0092607301227374331 -0.088572496961274561 0 -0.00044729776891663488 -0.1011528385718463 0 0.0042106568376920582 -0.081118225430045127 0 -0.0043762627118289626 -0.071729097412358583 0 -0.0092607301227374331 -0.088572496961274561 0 0.0042106568376920582 -0.081118225430045127 0 -0.0092607301227374331 -0.088572496961274561 0 -0.037642160748979789 -0.094071739377162955 0 -0.0092607301227374331 -0.088572496961274561 0 -0.023323874919582349 -0.085411624431610003 0 -0.01646375475339092 -0.071057556949349329 0 -0.0092607301227374331 -0.088572496961274561 0 -0.023323874919582349 -0.085411624431610003 0 -0.037642160748979789 -0.094071739377162955 0 -0.023323874919582349 -0.085411624431610003 0 -0.01646375475339092 -0.071057556949349329 0 -0.023323874919582349 -0.085411624431610003 0 -0.01646375475339092 -0.071057556949349329 0 -0.034846350139989962 -0.07108844977272101 0 -0.026902341230915561 -0.060374551747501753 0 -0.01646375475339092 -0.071057556949349329 0 -0.034846350139989962 -0.07108844977272101 0 -0.026902341230915561 -0.060374551747501753 0 -0.0096036345872028556 -0.056703489467087059 0 -0.01646375475339092 -0.071057556949349329 0 -0.041230103293456458 -0.058058117591144771 0 -0.026902341230915561 -0.060374551747501753 0 -0.034846350139989962 -0.07108844977272101 0 -0.041230103293456458 -0.058058117591144771 0 -0.034846350139989962 -0.07108844977272101 0 -0.049479852383656611 -0.067543566470139038 0 -0.034846350139989962 -0.07108844977272101 0 -0.048784805137481749 -0.081200653853927454 0 -0.049479852383656611 -0.067543566470139038 0 -0.023323874919582349 -0.085411624431610003 0 -0.034846350139989962 -0.07108844977272101 0 -0.036149297736508462 -0.082943116858855345 0 -0.023323874919582349 -0.085411624431610003 0 -0.036149297736508462 -0.082943116858855345 0 -0.037642160748979789 -0.094071739377162955 0 -0.036149297736508462 -0.082943116858855345 0 -0.048784805137481749 -0.081200653853927454 0 -0.037642160748979789 -0.094071739377162955 0 -0.034846350139989962 -0.07108844977272101 0 -0.036149297736508462 -0.082943116858855345 0 -0.048784805137481749 -0.081200653853927454 0 -0.063732237529271596 -0.080733089011810297 0 -0.066023591375222151 -0.09957098179305135 0 -0.048784805137481749 -0.081200653853927454 0 -0.066023591375222151 -0.09957098179305135 0 -0.048784805137481749 -0.081200653853927454 0 -0.037642160748979789 -0.094071739377162955 0 -0.063732237529271596 -0.080733089011810297 0 -0.048784805137481749 -0.081200653853927454 0 -0.058000192015007383 -0.073011667883306972 0 -0.055978059279945473 -0.056388284161067823 0 -0.060830035872249492 -0.064558057335980773 0 -0.049479852383656611 -0.067543566470139038 0 -0.058000192015007383 -0.073011667883306972 0 -0.060830035872249492 -0.064558057335980773 0 -0.049479852383656611 -0.067543566470139038 0 -0.067174029152377468 -0.071022972744677337 0 -0.058000192015007383 -0.073011667883306972 0 -0.060830035872249492 -0.064558057335980773 0 -0.048784805137481749 -0.081200653853927454 0 -0.058000192015007383 -0.073011667883306972 0 -0.049479852383656611 -0.067543566470139038 0 -0.069466171350113709 -0.1135628440840601 0 -0.054384952187449757 -0.110609208962567 0 -0.059238207921678762 -0.13024384051707169 0 -0.054384952187449757 -0.110609208962567 0 -0.059238207921678762 -0.13024384051707169 0 -0.032945469352336033 -0.1293562392835419 0 -0.066023591375222151 -0.09957098179305135 0 -0.054384952187449757 -0.110609208962567 0 -0.037642160748979789 -0.094071739377162955 0 -0.066023591375222151 -0.09957098179305135 0 -0.037642160748979789 -0.094071739377162955 0 -0.054384952187449757 -0.110609208962567 0 -0.037642160748979789 -0.094071739377162955 0 -0.035661083064217503 -0.11124856921529409 0 -0.054384952187449757 -0.110609208962567 0 -0.032945469352336033 -0.1293562392835419 0 -0.054384952187449757 -0.110609208962567 0 -0.035661083064217503 -0.11124856921529409 0 -0.032945469352336033 -0.1293562392835419 0 -0.01767174996810443 -0.1109570892379047 0 -0.012892303975098539 -0.12786221844410239 0 -0.032945469352336033 -0.1293562392835419 0 -0.035661083064217503 -0.11124856921529409 0 -0.01767174996810443 -0.1109570892379047 0 -0.032945469352336033 -0.1293562392835419 0 -0.0092607301227374331 -0.088572496961274561 0 -0.037642160748979789 -0.094071739377162955 0 -0.01767174996810443 -0.1109570892379047 0 -0.037642160748979789 -0.094071739377162955 0 -0.035661083064217503 -0.11124856921529409 0 -0.01767174996810443 -0.1109570892379047 0 -0.01767174996810443 -0.1109570892379047 0 -0.00044729776891663488 -0.1011528385718463 0 0.005085065621477718 -0.1151057880332567 0 -0.0092607301227374331 -0.088572496961274561 0 -0.01767174996810443 -0.1109570892379047 0 -0.00044729776891663488 -0.1011528385718463 0 -0.01767174996810443 -0.1109570892379047 0 -0.012892303975098539 -0.12786221844410239 0 0.005085065621477718 -0.1151057880332567 0 -0.012892303975098539 -0.12786221844410239 0 0.0027021066240326768 -0.1317064378292063 0 0.005085065621477718 -0.1151057880332567 0 -0.011505986517222349 -0.14810326960451681 0 -0.033736789854580403 -0.16402697950055581 0 -0.032945469352336033 -0.1293562392835419 0 -0.012892303975098539 -0.12786221844410239 0 -0.011505986517222349 -0.14810326960451681 0 0.0027021066240326768 -0.1317064378292063 0 -0.011505986517222349 -0.14810326960451681 0 -0.032945469352336033 -0.1293562392835419 0 -0.012892303975098539 -0.12786221844410239 0 -0.011505986517222349 -0.14810326960451681 0 -0.032945469352336033 -0.1293562392835419 0 -0.011505986517222349 -0.14810326960451681 0 0.009933496317892726 -0.16685029992549011 0 -0.011505986517222349 -0.14810326960451681 0 -0.0085976242789068957 -0.177408956520272 0 0.009933496317892726 -0.16685029992549011 0 -0.0085976242789068957 -0.177408956520272 0 -0.003739977245034012 -0.19168309442994089 0 -0.02712874487570623 -0.18796761311505439 0 -0.0085976242789068957 -0.177408956520272 0 -0.003739977245034012 -0.19168309442994089 0 0.0034571977838801569 -0.17702496179755631 0 -0.0085976242789068957 -0.177408956520272 0 -0.02712874487570623 -0.18796761311505439 0 -0.0085976242789068957 -0.177408956520272 0 -0.033736789854580403 -0.16402697950055581 0 -0.02712874487570623 -0.18796761311505439 0 -0.011505986517222349 -0.14810326960451681 0 -0.0085976242789068957 -0.177408956520272 0 -0.033736789854580403 -0.16402697950055581 0 -0.033736789854580403 -0.16402697950055581 0 -0.041678182321736049 -0.18065303021324261 0 -0.02712874487570623 -0.18796761311505439 0 -0.033736789854580403 -0.16402697950055581 0 -0.041678182321736049 -0.18065303021324261 0 -0.060187329084152079 -0.17209125852752319 0 -0.041678182321736049 -0.18065303021324261 0 -0.060187329084152079 -0.17209125852752319 0 -0.045659865472505487 -0.198526269709837 0 -0.060187329084152079 -0.17209125852752319 0 -0.045659865472505487 -0.198526269709837 0 -0.033736789854580403 -0.16402697950055581 0 -0.060187329084152079 -0.17209125852752319 0 -0.051699405537506939 -0.14899167338562519 0 -0.060187329084152079 -0.17209125852752319 0 -0.051699405537506939 -0.14899167338562519 0 -0.072389231474787458 -0.1492400490994332 0 -0.051699405537506939 -0.14899167338562519 0 -0.059238207921678762 -0.13024384051707169 0 -0.072389231474787458 -0.1492400490994332 0 -0.033736789854580403 -0.16402697950055581 0 -0.051699405537506939 -0.14899167338562519 0 -0.032945469352336033 -0.1293562392835419 0 -0.051699405537506939 -0.14899167338562519 0 -0.059238207921678762 -0.13024384051707169 0 -0.032945469352336033 -0.1293562392835419 0 -0.025857267464119819 -0.25506418495113531 0 -0.02368513365757598 -0.23851275990414511 0 -0.036167443228362108 -0.24337299090061551 0 -0.01269776775011346 -0.25850600500130039 0 -0.02368513365757598 -0.23851275990414511 0 -0.01269776775011346 -0.25850600500130039 0 -0.02368513365757598 -0.23851275990414511 0 -0.01082738352359053 -0.24876902592697839 0 -0.02368513365757598 -0.23851275990414511 0 -0.0067432183097289999 -0.239968376336817 0 -0.0090267388034834407 -0.23007068799598671 0 -0.02368513365757598 -0.23851275990414511 0 -0.01082738352359053 -0.24876902592697839 0 -0.0067432183097289999 -0.239968376336817 0 -0.01082738352359053 -0.24876902592697839 0 -0.0029313858115674811 -0.24854412401401971 0 -0.0067432183097289999 -0.239968376336817 0 -0.0029313858115674811 -0.24854412401401971 0 -0.0067432183097289999 -0.239968376336817 0 0.0026199421412959989 -0.2430643023623929 0 -0.0067432183097289999 -0.239968376336817 0 0.0026199421412959989 -0.2430643023623929 0 0.0017465435191736189 -0.23378549097037141 0 -0.0067432183097289999 -0.239968376336817 0 -0.0090267388034834407 -0.23007068799598671 0 0.0017465435191736189 -0.23378549097037141 0 -0.0090267388034834407 -0.23007068799598671 0 -0.00080535468136348092 -0.21995366459000901 0 -0.01839049427805331 -0.2195873775130934 0 -0.0090267388034834407 -0.23007068799598671 0 -0.00080535468136348092 -0.21995366459000901 0 0.0017465435191736189 -0.23378549097037141 0 -0.02368513365757598 -0.23851275990414511 0 -0.0090267388034834407 -0.23007068799598671 0 -0.01839049427805331 -0.2195873775130934 0 -0.02368513365757598 -0.23851275990414511 0 -0.01839049427805331 -0.2195873775130934 0 -0.034672499565036527 -0.2185195148069887 0 -0.02368513365757598 -0.23851275990414511 0 -0.034672499565036527 -0.2185195148069887 0 -0.01839049427805331 -0.2195873775130934 0 -0.027127261386640289 -0.20489204062456881 0 -0.034672499565036527 -0.2185195148069887 0 -0.01839049427805331 -0.2195873775130934 0 -0.027127261386640289 -0.20489204062456881 0 -0.01084996336714465 -0.20584666152463099 0 -0.00080535468136348092 -0.21995366459000901 0 -0.01839049427805331 -0.2195873775130934 0 -0.01084996336714465 -0.20584666152463099 0 -0.00080535468136348092 -0.21995366459000901 0 -0.01084996336714465 -0.20584666152463099 0 0.01016515501406726 -0.20926501301563591 0 -0.01084996336714465 -0.20584666152463099 0 -0.003739977245034012 -0.19168309442994089 0 0.01016515501406726 -0.20926501301563591 0 -0.01084996336714465 -0.20584666152463099 0 -0.003739977245034012 -0.19168309442994089 0 -0.02712874487570623 -0.18796761311505439 0 -0.027127261386640289 -0.20489204062456881 0 -0.01084996336714465 -0.20584666152463099 0 -0.02712874487570623 -0.18796761311505439 0 -0.041678182321736049 -0.18065303021324261 0 -0.02712874487570623 -0.18796761311505439 0 -0.045659865472505487 -0.198526269709837 0 -0.02712874487570623 -0.18796761311505439 0 -0.045659865472505487 -0.198526269709837 0 -0.027127261386640289 -0.20489204062456881 0 -0.02712874487570623 -0.18796761311505439 0 -0.045659865472505487 -0.198526269709837 0 -0.045659865472505487 -0.198526269709837 0 -0.067682806497079445 -0.21107449474949169 0 -0.062708331551170268 -0.19442045911658551 0 -0.060187329084152079 -0.17209125852752319 0 -0.045659865472505487 -0.198526269709837 0 -0.062708331551170268 -0.19442045911658551 0 -0.045659865472505487 -0.198526269709837 0 -0.067682806497079445 -0.21107449474949169 0 -0.045659865472505487 -0.198526269709837 0 -0.054546183461555722 -0.22015285450131489 0 -0.067682806497079445 -0.21107449474949169 0 -0.045659865472505487 -0.198526269709837 0 -0.034672499565036527 -0.2185195148069887 0 -0.054546183461555722 -0.22015285450131489 0 -0.045659865472505487 -0.198526269709837 0 -0.034672499565036527 -0.2185195148069887 0 -0.027127261386640289 -0.20489204062456881 0 -0.045659865472505487 -0.198526269709837 0 -0.034672499565036527 -0.2185195148069887 0 -0.034672499565036527 -0.2185195148069887 0 -0.044145410485190079 -0.23242073182379891 0 -0.054546183461555722 -0.22015285450131489 0 -0.02368513365757598 -0.23851275990414511 0 -0.034672499565036527 -0.2185195148069887 0 -0.044145410485190079 -0.23242073182379891 0 -0.044145410485190079 -0.23242073182379891 0 -0.054546183461555722 -0.22015285450131489 0 -0.061280333386656921 -0.23284462843810469 0 -0.061280333386656921 -0.23284462843810469 0 -0.050191684441297867 -0.2485850187836515 0 -0.071591358857016049 -0.2429226102204386 0 -0.050191684441297867 -0.2485850187836515 0 -0.071591358857016049 -0.2429226102204386 0 -0.056939497423126581 -0.24878681181634871 0 -0.050191684441297867 -0.2485850187836515 0 -0.071591358857016049 -0.2429226102204386 0 -0.044145410485190079 -0.23242073182379891 0 -0.061280333386656921 -0.23284462843810469 0 -0.050191684441297867 -0.2485850187836515 0 -0.041398382443623198 -0.25192549838374201 0 -0.056939497423126581 -0.24878681181634871 0 -0.050191684441297867 -0.2485850187836515 0 -0.044145410485190079 -0.23242073182379891 0 -0.050191684441297867 -0.2485850187836515 0 -0.036167443228362108 -0.24337299090061551 0 -0.02368513365757598 -0.23851275990414511 0 -0.044145410485190079 -0.23242073182379891 0 -0.036167443228362108 -0.24337299090061551 0 -0.025857267464119819 -0.25506418495113531 0 -0.050191684441297867 -0.2485850187836515 0 -0.036167443228362108 -0.24337299090061551 0 -0.097628444613881649 -0.25834262822693399 0 -0.087470553331264578 -0.24262075389877999 0 -0.077955776651182085 -0.24454236002529731 0 -0.087470553331264578 -0.24262075389877999 0 -0.087928467376508473 -0.23859976953689591 0 -0.1005617376665941 -0.23997685579502359 0 -0.087928467376508473 -0.23859976953689591 0 -0.07453604668454375 -0.2421434382925548 0 -0.07383618536286593 -0.22753148747966839 0 -0.087928467376508473 -0.23859976953689591 0 -0.07453604668454375 -0.2421434382925548 0 -0.087928467376508473 -0.23859976953689591 0 -0.077955776651182085 -0.24454236002529731 0 -0.07453604668454375 -0.2421434382925548 0 -0.087470553331264578 -0.24262075389877999 0 -0.087928467376508473 -0.23859976953689591 0 -0.077955776651182085 -0.24454236002529731 0 -0.087470553331264578 -0.24262075389877999 0 -0.077955776651182085 -0.24454236002529731 0 -0.056939497423126581 -0.24878681181634871 0 -0.077955776651182085 -0.24454236002529731 0 -0.071591358857016049 -0.2429226102204386 0 -0.056939497423126581 -0.24878681181634871 0 -0.077955776651182085 -0.24454236002529731 0 -0.077955776651182085 -0.24454236002529731 0 -0.071591358857016049 -0.2429226102204386 0 -0.07453604668454375 -0.2421434382925548 0 -0.077955776651182085 -0.24454236002529731 0 -0.07453604668454375 -0.2421434382925548 0 -0.071591358857016049 -0.2429226102204386 0 -0.07453604668454375 -0.2421434382925548 0 -0.056939497423126581 -0.24878681181634871 0 -0.071591358857016049 -0.2429226102204386 0 -0.061280333386656921 -0.23284462843810469 0 -0.071591358857016049 -0.2429226102204386 0 -0.07453604668454375 -0.2421434382925548 0 -0.061280333386656921 -0.23284462843810469 0 -0.07453604668454375 -0.2421434382925548 0 -0.07383618536286593 -0.22753148747966839 0 -0.089705747521653334 -0.22362271978914661 0 -0.067682806497079445 -0.21107449474949169 0 -0.054546183461555722 -0.22015285450131489 0 -0.061280333386656921 -0.23284462843810469 0 -0.07383618536286593 -0.22753148747966839 0 -0.054546183461555722 -0.22015285450131489 0 -0.07383618536286593 -0.22753148747966839 0 -0.067682806497079445 -0.21107449474949169 0 -0.061280333386656921 -0.23284462843810469 0 -0.07453604668454375 -0.2421434382925548 0 -0.07383618536286593 -0.22753148747966839 0 -0.087928467376508473 -0.23859976953689591 0 -0.07383618536286593 -0.22753148747966839 0 -0.089705747521653334 -0.22362271978914661 0 -0.087928467376508473 -0.23859976953689591 0 -0.089705747521653334 -0.22362271978914661 0 -0.1005617376665941 -0.23997685579502359 0 -0.089705747521653334 -0.22362271978914661 0 -0.067682806497079445 -0.21107449474949169 0 -0.089705747521653334 -0.22362271978914661 0 -0.084027466008495671 -0.20735524824550181 0 -0.09921486728828334 -0.20109800384388701 0 -0.089705747521653334 -0.22362271978914661 0 -0.084027466008495671 -0.20735524824550181 0 -0.067682806497079445 -0.21107449474949169 0 -0.084027466008495671 -0.20735524824550181 0 -0.067682806497079445 -0.21107449474949169 0 -0.079506442726966622 -0.19362577459948219 0 -0.067682806497079445 -0.21107449474949169 0 -0.062708331551170268 -0.19442045911658551 0 -0.079506442726966622 -0.19362577459948219 0 -0.079506442726966622 -0.19362577459948219 0 -0.09921486728828334 -0.20109800384388701 0 -0.089369030920126963 -0.1732707743578942 0 -0.084027466008495671 -0.20735524824550181 0 -0.079506442726966622 -0.19362577459948219 0 -0.09921486728828334 -0.20109800384388701 0 -0.09921486728828334 -0.20109800384388701 0 -0.1156293974943295 -0.1822747327150937 0 -0.1210853022939376 -0.205467400633562 0 -0.1156293974943295 -0.1822747327150937 0 -0.13505851963374399 -0.18906788910329131 0 -0.09921486728828334 -0.20109800384388701 0 -0.1210853022939376 -0.205467400633562 0 -0.1156293974943295 -0.1822747327150937 0 -0.1210853022939376 -0.205467400633562 0 -0.10755849924533691 -0.2178899443088799 0 -0.11989889803527461 -0.22145143588075511 0 -0.1210853022939376 -0.205467400633562 0 -0.11989889803527461 -0.22145143588075511 0 -0.13086176299679239 -0.21746526838305219 0 -0.089705747521653334 -0.22362271978914661 0 -0.09921486728828334 -0.20109800384388701 0 -0.10755849924533691 -0.2178899443088799 0 -0.09921486728828334 -0.20109800384388701 0 -0.1210853022939376 -0.205467400633562 0 -0.10755849924533691 -0.2178899443088799 0 -0.089705747521653334 -0.22362271978914661 0 -0.11172868854622731 -0.23617094482880149 0 -0.1005617376665941 -0.23997685579502359 0 -0.089705747521653334 -0.22362271978914661 0 -0.11172868854622731 -0.23617094482880149 0 -0.089705747521653334 -0.22362271978914661 0 -0.10755849924533691 -0.2178899443088799 0 -0.11172868854622731 -0.23617094482880149 0 -0.11989889803527461 -0.22145143588075511 0 -0.11172868854622731 -0.23617094482880149 0 -0.127825895831608 -0.22987551408160201 0 -0.10755849924533691 -0.2178899443088799 0 -0.11989889803527461 -0.22145143588075511 0 -0.11172868854622731 -0.23617094482880149 0 -0.13218950310710981 -0.25272660122947088 0 -0.1218823470606431 -0.24640061544388489 0 -0.1098930818979398 -0.24798588601512411 0 -0.11172868854622731 -0.23617094482880149 0 -0.13375162957080131 -0.24871916986845621 0 -0.11172868854622731 -0.23617094482880149 0 -0.1218823470606431 -0.24640061544388489 0 -0.13375162957080131 -0.24871916986845621 0 -0.11172868854622731 -0.23617094482880149 0 -0.13375162957080131 -0.24871916986845621 0 -0.127825895831608 -0.22987551408160201 0 -0.11172868854622731 -0.23617094482880149 0 -0.1218823470606431 -0.24640061544388489 0 -0.1098930818979398 -0.24798588601512411 0 -0.097628444613881649 -0.25834262822693399 0 -0.087470553331264578 -0.24262075389877999 0 -0.1098930818979398 -0.24798588601512411 0 -0.087470553331264578 -0.24262075389877999 0 -0.1098930818979398 -0.24798588601512411 0 -0.1005617376665941 -0.23997685579502359 0 -0.087470553331264578 -0.24262075389877999 0 -0.1098930818979398 -0.24798588601512411 0 -0.11172868854622731 -0.23617094482880149 0 -0.1098930818979398 -0.24798588601512411 0 -0.1005617376665941 -0.23997685579502359 0 -0.087470553331264578 -0.24262075389877999 0 -0.1005617376665941 -0.23997685579502359 0 -0.072389231474787458 -0.1492400490994332 0 -0.089369030920126963 -0.1732707743578942 0 -0.096011965921864201 -0.14265464397282879 0 -0.077516787342341589 -0.1242022911324857 0 -0.093262550211769629 -0.1231040070079162 0 -0.096011965921864201 -0.14265464397282879 0 -0.077516787342341589 -0.1242022911324857 0 -0.072389231474787458 -0.1492400490994332 0 -0.096011965921864201 -0.14265464397282879 0 -0.077516787342341589 -0.1242022911324857 0 -0.059238207921678762 -0.13024384051707169 0 -0.072389231474787458 -0.1492400490994332 0 -0.060187329084152079 -0.17209125852752319 0 -0.072389231474787458 -0.1492400490994332 0 -0.089369030920126963 -0.1732707743578942 0 -0.060187329084152079 -0.17209125852752319 0 -0.079506442726966622 -0.19362577459948219 0 -0.089369030920126963 -0.1732707743578942 0 -0.060187329084152079 -0.17209125852752319 0 -0.062708331551170268 -0.19442045911658551 0 -0.079506442726966622 -0.19362577459948219 0 -0.089369030920126963 -0.1732707743578942 0 -0.1107512355661594 -0.16096683979900789 0 -0.096011965921864201 -0.14265464397282879 0 -0.09921486728828334 -0.20109800384388701 0 -0.089369030920126963 -0.1732707743578942 0 -0.1156293974943295 -0.1822747327150937 0 -0.089369030920126963 -0.1732707743578942 0 -0.1156293974943295 -0.1822747327150937 0 -0.1107512355661594 -0.16096683979900789 0 -0.1156293974943295 -0.1822747327150937 0 -0.13204392770037571 -0.1634514615863005 0 -0.1156293974943295 -0.1822747327150937 0 -0.1107512355661594 -0.16096683979900789 0 -0.13204392770037571 -0.1634514615863005 0 -0.1107512355661594 -0.16096683979900789 0 -0.12070185579410091 -0.1431825863629223 0 -0.13204392770037571 -0.1634514615863005 0 -0.1107512355661594 -0.16096683979900789 0 -0.12070185579410091 -0.1431825863629223 0 -0.096011965921864201 -0.14265464397282879 0 -0.1071147179002416 -0.1244919901550422 0 -0.12070185579410091 -0.1431825863629223 0 -0.096011965921864201 -0.14265464397282879 0 -0.093262550211769629 -0.1231040070079162 0 -0.1071147179002416 -0.1244919901550422 0 -0.096011965921864201 -0.14265464397282879 0 -0.1071147179002416 -0.1244919901550422 0 -0.12070185579410091 -0.1431825863629223 0 -0.1306137014228527 -0.1212095633787966 0 -0.12070185579410091 -0.1431825863629223 0 -0.14845845790642179 -0.14462819045750719 0 -0.1306137014228527 -0.1212095633787966 0 -0.14845845790642179 -0.14462819045750719 0 -0.1306137014228527 -0.1212095633787966 0 -0.15036797716661271 -0.14243845987679379 0 -0.14845845790642179 -0.14462819045750719 0 -0.1306137014228527 -0.1212095633787966 0 -0.15406265534163929 -0.1294064941378926 0 -0.15036797716661271 -0.14243845987679379 0 -0.1306137014228527 -0.1212095633787966 0 -0.15406265534163929 -0.1294064941378926 0 -0.15036797716661271 -0.14243845987679379 0 -0.1564494690737798 -0.13971242061594299 0 -0.1543278084257422 -0.1453912472931165 0 -0.14845845790642179 -0.14462819045750719 0 -0.15894149653025619 -0.15184230729274609 0 -0.15519343748037609 -0.14309809199123349 0 -0.15036797716661271 -0.14243845987679379 0 -0.1564494690737798 -0.13971242061594299 0 -0.1543278084257422 -0.1453912472931165 0 -0.15519343748037609 -0.14309809199123349 0 -0.15036797716661271 -0.14243845987679379 0 -0.1543278084257422 -0.1453912472931165 0 -0.15036797716661271 -0.14243845987679379 0 -0.14845845790642179 -0.14462819045750719 0 -0.15036797716661271 -0.14243845987679379 0 -0.14845845790642179 -0.14462819045750719 0 -0.12070185579410091 -0.1431825863629223 0 -0.14845845790642179 -0.14462819045750719 0 -0.13204392770037571 -0.1634514615863005 0 -0.14845845790642179 -0.14462819045750719 0 -0.13204392770037571 -0.1634514615863005 0 -0.13204392770037571 -0.1634514615863005 0 -0.1475860696211248 -0.17640031700015249 0 -0.13505851963374399 -0.18906788910329131 0 -0.1156293974943295 -0.1822747327150937 0 -0.13204392770037571 -0.1634514615863005 0 -0.13505851963374399 -0.18906788910329131 0 -0.1475860696211248 -0.17640031700015249 0 -0.1655722477793394 -0.1670875310098065 0 -0.15496537504316019 -0.19429807729602311 0 -0.1475860696211248 -0.17640031700015249 0 -0.13505851963374399 -0.18906788910329131 0 -0.15496537504316019 -0.19429807729602311 0 -0.1475860696211248 -0.17640031700015249 0 -0.14862352044039201 -0.16347018067920821 0 -0.1655722477793394 -0.1670875310098065 0 -0.14845845790642179 -0.14462819045750719 0 -0.13204392770037571 -0.1634514615863005 0 -0.14862352044039201 -0.16347018067920821 0 -0.14845845790642179 -0.14462819045750719 0 -0.14862352044039201 -0.16347018067920821 0 -0.1655722477793394 -0.1670875310098065 0 -0.13204392770037571 -0.1634514615863005 0 -0.1475860696211248 -0.17640031700015249 0 -0.14862352044039201 -0.16347018067920821 0 -0.1655722477793394 -0.1670875310098065 0 -0.1716614177265566 -0.15146656102038991 0 -0.1655722477793394 -0.1670875310098065 0 -0.15894149653025619 -0.15184230729274609 0 -0.1716614177265566 -0.15146656102038991 0 -0.1655722477793394 -0.1670875310098065 0 -0.17557921295501691 -0.18022020591375351 0 -0.1689483943248192 -0.19264195369377959 0 -0.1655722477793394 -0.1670875310098065 0 -0.15496537504316019 -0.19429807729602311 0 -0.1689483943248192 -0.19264195369377959 0 -0.1655722477793394 -0.1670875310098065 0 -0.15496537504316019 -0.19429807729602311 0 -0.1655722477793394 -0.1670875310098065 0 -0.17557921295501691 -0.18022020591375351 0 -0.17557921295501691 -0.18022020591375351 0 -0.18239484980351819 -0.16464781923938721 0 -0.1907059301477185 -0.18468107337543721 0 -0.1655722477793394 -0.1670875310098065 0 -0.17557921295501691 -0.18022020591375351 0 -0.18239484980351819 -0.16464781923938721 0 -0.1655722477793394 -0.1670875310098065 0 -0.18239484980351819 -0.16464781923938721 0 -0.1716614177265566 -0.15146656102038991 0 -0.18239484980351819 -0.16464781923938721 0 -0.1716614177265566 -0.15146656102038991 0 -0.1894311146879058 -0.1465309504005988 0 -0.17775058767377289 -0.13584559103097291 0 -0.1716614177265566 -0.15146656102038991 0 -0.1894311146879058 -0.1465309504005988 0 -0.17775058767377289 -0.13584559103097291 0 -0.1716614177265566 -0.15146656102038991 0 -0.17775058767377289 -0.13584559103097291 0 -0.1894311146879058 -0.1465309504005988 0 -0.17775058767377289 -0.13584559103097291 0 -0.19823449762692411 -0.13229999761030051 0 -0.18534812722118199 -0.1163550958908785 0 -0.17775058767377289 -0.13584559103097291 0 -0.18534812722118199 -0.1163550958908785 0 -0.15406265534163929 -0.1294064941378926 0 -0.16394560233522651 -0.1386698702264933 0 -0.15606779039194271 -0.1160101434681408 0 -0.17775058767377289 -0.13584559103097291 0 -0.16394560233522651 -0.1386698702264933 0 -0.15606779039194271 -0.1160101434681408 0 -0.17775058767377289 -0.13584559103097291 0 -0.15606779039194271 -0.1160101434681408 0 -0.15406265534163929 -0.1294064941378926 0 -0.16394560233522651 -0.1386698702264933 0 -0.1564494690737798 -0.13971242061594299 0 -0.16394560233522651 -0.1386698702264933 0 -0.1564494690737798 -0.13971242061594299 0 -0.15962849525536979 -0.1448502401790808 0 -0.14845845790642179 -0.14462819045750719 0 -0.1655722477793394 -0.1670875310098065 0 -0.14845845790642179 -0.14462819045750719 0 -0.1655722477793394 -0.1670875310098065 0 -0.15894149653025619 -0.15184230729274609 0 -0.15519343748037609 -0.14309809199123349 0 -0.1564494690737798 -0.13971242061594299 0 -0.15962849525536979 -0.1448502401790808 0 -0.1543278084257422 -0.1453912472931165 0 -0.15519343748037609 -0.14309809199123349 0 -0.15962849525536979 -0.1448502401790808 0 -0.1543278084257422 -0.1453912472931165 0 -0.15962849525536979 -0.1448502401790808 0 -0.15894149653025619 -0.15184230729274609 0 -0.15962849525536979 -0.1448502401790808 0 -0.15894149653025619 -0.15184230729274609 0 -0.1716614177265566 -0.15146656102038991 0 -0.17775058767377289 -0.13584559103097291 0 -0.16394560233522651 -0.1386698702264933 0 -0.1716614177265566 -0.15146656102038991 0 -0.16394560233522651 -0.1386698702264933 0 -0.15962849525536979 -0.1448502401790808 0 -0.1716614177265566 -0.15146656102038991 0 -0.1534429259631987 -0.25724555178864622 0 -0.15289321433053751 -0.246830478479277 0 -0.1378886282313006 -0.2381062402767252 0 -0.1534429259631987 -0.25724555178864622 0 -0.1378886282313006 -0.2381062402767252 0 -0.15348527020851541 -0.23913552791147211 0 -0.1378886282313006 -0.2381062402767252 0 -0.15430752157141919 -0.22794821467022949 0 -0.15289321433053751 -0.246830478479277 0 -0.15348527020851541 -0.23913552791147211 0 -0.1601832428566283 -0.24550858739866141 0 -0.15289321433053751 -0.246830478479277 0 -0.15348527020851541 -0.23913552791147211 0 -0.1378886282313006 -0.2381062402767252 0 -0.1459019403517107 -0.25564217047089421 0 -0.13375162957080131 -0.24871916986845621 0 -0.1378886282313006 -0.2381062402767252 0 -0.13375162957080131 -0.24871916986845621 0 -0.1378886282313006 -0.2381062402767252 0 -0.127825895831608 -0.22987551408160201 0 -0.13375162957080131 -0.24871916986845621 0 -0.1378886282313006 -0.2381062402767252 0 -0.13218950310710981 -0.25272660122947088 0 -0.1218823470606431 -0.24640061544388489 0 -0.13375162957080131 -0.24871916986845621 0 -0.127825895831608 -0.22987551408160201 0 -0.14435850230698141 -0.22150862358223991 0 -0.13086176299679239 -0.21746526838305219 0 -0.1378886282313006 -0.2381062402767252 0 -0.127825895831608 -0.22987551408160201 0 -0.14435850230698141 -0.22150862358223991 0 -0.11989889803527461 -0.22145143588075511 0 -0.127825895831608 -0.22987551408160201 0 -0.13086176299679239 -0.21746526838305219 0 -0.1378886282313006 -0.2381062402767252 0 -0.14435850230698141 -0.22150862358223991 0 -0.14435850230698141 -0.22150862358223991 0 -0.15430752157141919 -0.22794821467022949 0 -0.16410544360365359 -0.21493654602220469 0 -0.1378886282313006 -0.2381062402767252 0 -0.14435850230698141 -0.22150862358223991 0 -0.15430752157141919 -0.22794821467022949 0 -0.14435850230698141 -0.22150862358223991 0 -0.15496537504316019 -0.19429807729602311 0 -0.14435850230698141 -0.22150862358223991 0 -0.1373527607074172 -0.20563907323320921 0 -0.15496537504316019 -0.19429807729602311 0 -0.14435850230698141 -0.22150862358223991 0 -0.15496537504316019 -0.19429807729602311 0 -0.16410544360365359 -0.21493654602220469 0 -0.14435850230698141 -0.22150862358223991 0 -0.1373527607074172 -0.20563907323320921 0 -0.13086176299679239 -0.21746526838305219 0 -0.1210853022939376 -0.205467400633562 0 -0.1373527607074172 -0.20563907323320921 0 -0.13086176299679239 -0.21746526838305219 0 -0.1210853022939376 -0.205467400633562 0 -0.1373527607074172 -0.20563907323320921 0 -0.13505851963374399 -0.18906788910329131 0 -0.1373527607074172 -0.20563907323320921 0 -0.13505851963374399 -0.18906788910329131 0 -0.15496537504316019 -0.19429807729602311 0 -0.1689483943248192 -0.19264195369377959 0 -0.17994482166635981 -0.2014366202218163 0 -0.16410544360365359 -0.21493654602220469 0 -0.15496537504316019 -0.19429807729602311 0 -0.1689483943248192 -0.19264195369377959 0 -0.16410544360365359 -0.21493654602220469 0 -0.17557921295501691 -0.18022020591375351 0 -0.1689483943248192 -0.19264195369377959 0 -0.17994482166635981 -0.2014366202218163 0 -0.17557921295501691 -0.18022020591375351 0 -0.17994482166635981 -0.2014366202218163 0 -0.1907059301477185 -0.18468107337543721 0 -0.17994482166635981 -0.2014366202218163 0 -0.1784102433228649 -0.21681777692650089 0 -0.16410544360365359 -0.21493654602220469 0 -0.17994482166635981 -0.2014366202218163 0 -0.18904495760185211 -0.20873870471059999 0 -0.19252771524915421 -0.19930647688205899 0 -0.17994482166635981 -0.2014366202218163 0 -0.1784102433228649 -0.21681777692650089 0 -0.18904495760185211 -0.20873870471059999 0 -0.1784102433228649 -0.21681777692650089 0 -0.19175951728552271 -0.21959172261586679 0 -0.18904495760185211 -0.20873870471059999 0 -0.15430752157141919 -0.22794821467022949 0 -0.16410544360365359 -0.21493654602220469 0 -0.16877954452522659 -0.2255120540677526 0 -0.15430752157141919 -0.22794821467022949 0 -0.16877954452522659 -0.2255120540677526 0 -0.16324537569009509 -0.2357306359809743 0 -0.15348527020851541 -0.23913552791147211 0 -0.15430752157141919 -0.22794821467022949 0 -0.16324537569009509 -0.2357306359809743 0 -0.16877954452522659 -0.2255120540677526 0 -0.17781387366555559 -0.23090770197000129 0 -0.16324537569009509 -0.2357306359809743 0 -0.1784102433228649 -0.21681777692650089 0 -0.16410544360365359 -0.21493654602220469 0 -0.16877954452522659 -0.2255120540677526 0 -0.1784102433228649 -0.21681777692650089 0 -0.16877954452522659 -0.2255120540677526 0 -0.17781387366555559 -0.23090770197000129 0 -0.1784102433228649 -0.21681777692650089 0 -0.17781387366555559 -0.23090770197000129 0 -0.19175951728552271 -0.21959172261586679 0 -0.17781387366555559 -0.23090770197000129 0 -0.1805311654956796 -0.2411950136452527 0 -0.19410287643929239 -0.23312434657521411 0 -0.17781387366555559 -0.23090770197000129 0 -0.1805311654956796 -0.2411950136452527 0 -0.16955513552828311 -0.24305067226283769 0 -0.17679077873490559 -0.25046109420941731 0 -0.1805311654956796 -0.2411950136452527 0 -0.18863044441395099 -0.24733650333174401 0 -0.17679077873490559 -0.25046109420941731 0 -0.1805311654956796 -0.2411950136452527 0 -0.16955513552828311 -0.24305067226283769 0 -0.16709258238786229 -0.25188408856254202 0 -0.17679077873490559 -0.25046109420941731 0 -0.16955513552828311 -0.24305067226283769 0 -0.16709258238786229 -0.25188408856254202 0 -0.16955513552828311 -0.24305067226283769 0 -0.1601832428566283 -0.24550858739866141 0 -0.17781387366555559 -0.23090770197000129 0 -0.16955513552828311 -0.24305067226283769 0 -0.16324537569009509 -0.2357306359809743 0 -0.16955513552828311 -0.24305067226283769 0 -0.16324537569009509 -0.2357306359809743 0 -0.1601832428566283 -0.24550858739866141 0 -0.15348527020851541 -0.23913552791147211 0 -0.16324537569009509 -0.2357306359809743 0 -0.1601832428566283 -0.24550858739866141 0 -0.1593809120407062 -0.25278805690175971 0 -0.15289321433053751 -0.246830478479277 0 -0.1601832428566283 -0.24550858739866141 0 -0.20565562739327201 -0.24334207984173631 0 -0.19410287643929239 -0.23312434657521411 0 -0.21201774175915139 -0.2290986139018284 0 -0.21472073189145299 -0.25725591714607071 0 -0.20565562739327201 -0.24334207984173631 0 -0.22837296648480071 -0.23789375384220129 0 -0.20565562739327201 -0.24334207984173631 0 -0.21201774175915139 -0.2290986139018284 0 -0.22837296648480071 -0.23789375384220129 0 -0.20565562739327201 -0.24334207984173631 0 -0.18863044441395099 -0.24733650333174401 0 -0.19410287643929239 -0.23312434657521411 0 -0.1805311654956796 -0.2411950136452527 0 -0.18863044441395099 -0.24733650333174401 0 -0.19410287643929239 -0.23312434657521411 0 -0.17781387366555559 -0.23090770197000129 0 -0.19410287643929239 -0.23312434657521411 0 -0.19175951728552271 -0.21959172261586679 0 -0.19410287643929239 -0.23312434657521411 0 -0.19175951728552271 -0.21959172261586679 0 -0.20443040571370949 -0.21985141578154491 0 -0.21201774175915139 -0.2290986139018284 0 -0.20443040571370949 -0.21985141578154491 0 -0.22630383013383959 -0.21240708539258099 0 -0.19410287643929239 -0.23312434657521411 0 -0.21201774175915139 -0.2290986139018284 0 -0.20443040571370949 -0.21985141578154491 0 -0.20157622681128409 -0.2075672839719423 0 -0.21557055542943429 -0.1904257004922347 0 -0.22630383013383959 -0.21240708539258099 0 -0.20157622681128409 -0.2075672839719423 0 -0.22630383013383959 -0.21240708539258099 0 -0.20443040571370949 -0.21985141578154491 0 -0.20157622681128409 -0.2075672839719423 0 -0.22630383013383959 -0.21240708539258099 0 -0.19175951728552271 -0.21959172261586679 0 -0.20443040571370949 -0.21985141578154491 0 -0.20157622681128409 -0.2075672839719423 0 -0.19175951728552271 -0.21959172261586679 0 -0.20157622681128409 -0.2075672839719423 0 -0.19175951728552271 -0.21959172261586679 0 -0.18904495760185211 -0.20873870471059999 0 -0.20157622681128409 -0.2075672839719423 0 -0.18904495760185211 -0.20873870471059999 0 -0.20157622681128409 -0.2075672839719423 0 -0.19252771524915421 -0.19930647688205899 0 -0.17994482166635981 -0.2014366202218163 0 -0.19252771524915421 -0.19930647688205899 0 -0.1907059301477185 -0.18468107337543721 0 -0.20157622681128409 -0.2075672839719423 0 -0.19252771524915421 -0.19930647688205899 0 -0.20187756758401409 -0.19506767240709361 0 -0.19252771524915421 -0.19930647688205899 0 -0.20187756758401409 -0.19506767240709361 0 -0.1907059301477185 -0.18468107337543721 0 -0.20157622681128409 -0.2075672839719423 0 -0.21557055542943429 -0.1904257004922347 0 -0.20187756758401409 -0.19506767240709361 0 -0.21557055542943429 -0.1904257004922347 0 -0.2038146335316797 -0.1820121315948606 0 -0.20157622681128409 -0.2075672839719423 0 -0.20187756758401409 -0.19506767240709361 0 -0.21557055542943429 -0.1904257004922347 0 -0.21557055542943429 -0.1904257004922347 0 -0.23533053747689989 -0.1962925907305976 0 -0.22630383013383959 -0.21240708539258099 0 -0.23533053747689989 -0.1962925907305976 0 -0.25103143345639523 -0.21724688681321891 0 -0.25418198431724581 -0.18809916394242601 0 -0.22630383013383959 -0.21240708539258099 0 -0.25103143345639523 -0.21724688681321891 0 -0.23533053747689989 -0.1962925907305976 0 -0.22630383013383959 -0.21240708539258099 0 -0.25103143345639523 -0.21724688681321891 0 -0.21201774175915139 -0.2290986139018284 0 -0.22630383013383959 -0.21240708539258099 0 -0.22837296648480071 -0.23789375384220129 0 -0.22630383013383959 -0.21240708539258099 0 -0.22837296648480071 -0.23789375384220129 0 -0.25103143345639523 -0.21724688681321891 0 -0.22837296648480071 -0.23789375384220129 0 -0.25431856302814809 -0.24833495949118861 0 -0.25103143345639523 -0.21724688681321891 0 -0.2335542019388327 -0.26090262277066528 0 -0.22837296648480071 -0.23789375384220129 0 -0.25431856302814809 -0.24833495949118861 0 -0.20708483324238849 -0.15128624944667929 0 -0.22647357207813959 -0.15205360930679629 0 -0.2195633859389316 -0.1340578990397249 0 -0.20708483324238849 -0.15128624944667929 0 -0.19823449762692411 -0.13229999761030051 0 -0.2195633859389316 -0.1340578990397249 0 -0.19823449762692411 -0.13229999761030051 0 -0.2195633859389316 -0.1340578990397249 0 -0.21022893699736381 -0.1097241998529486 0 -0.17775058767377289 -0.13584559103097291 0 -0.19823449762692411 -0.13229999761030051 0 -0.1894311146879058 -0.1465309504005988 0 -0.20708483324238849 -0.15128624944667929 0 -0.1894311146879058 -0.1465309504005988 0 -0.19351686899232889 -0.15854259719770419 0 -0.20708483324238849 -0.15128624944667929 0 -0.19823449762692411 -0.13229999761030051 0 -0.1894311146879058 -0.1465309504005988 0 -0.20708483324238849 -0.15128624944667929 0 -0.19351686899232889 -0.15854259719770419 0 -0.19880271024428661 -0.17007658736909009 0 -0.18239484980351819 -0.16464781923938721 0 -0.1894311146879058 -0.1465309504005988 0 -0.19351686899232889 -0.15854259719770419 0 -0.18239484980351819 -0.16464781923938721 0 -0.19351686899232889 -0.15854259719770419 0 -0.19880271024428661 -0.17007658736909009 0 -0.18239484980351819 -0.16464781923938721 0 -0.19880271024428661 -0.17007658736909009 0 -0.1907059301477185 -0.18468107337543721 0 -0.19880271024428661 -0.17007658736909009 0 -0.1907059301477185 -0.18468107337543721 0 -0.2038146335316797 -0.1820121315948606 0 -0.20187756758401409 -0.19506767240709361 0 -0.1907059301477185 -0.18468107337543721 0 -0.2038146335316797 -0.1820121315948606 0 -0.21557055542943429 -0.1904257004922347 0 -0.2038146335316797 -0.1820121315948606 0 -0.21355186476225221 -0.16985639920369799 0 -0.19880271024428661 -0.17007658736909009 0 -0.2038146335316797 -0.1820121315948606 0 -0.21355186476225221 -0.16985639920369799 0 -0.20708483324238849 -0.15128624944667929 0 -0.21355186476225221 -0.16985639920369799 0 -0.22647357207813959 -0.15205360930679629 0 -0.20708483324238849 -0.15128624944667929 0 -0.19880271024428661 -0.17007658736909009 0 -0.21355186476225221 -0.16985639920369799 0 -0.22956488404758479 -0.1732841170125273 0 -0.2435592126657353 -0.1561425335328199 0 -0.22647357207813959 -0.15205360930679629 0 -0.21355186476225221 -0.16985639920369799 0 -0.22956488404758479 -0.1732841170125273 0 -0.22647357207813959 -0.15205360930679629 0 -0.21557055542943429 -0.1904257004922347 0 -0.21355186476225221 -0.16985639920369799 0 -0.22956488404758479 -0.1732841170125273 0 -0.21557055542943429 -0.1904257004922347 0 -0.22956488404758479 -0.1732841170125273 0 -0.21557055542943429 -0.1904257004922347 0 -0.23533053747689989 -0.1962925907305976 0 -0.22956488404758479 -0.1732841170125273 0 -0.23533053747689989 -0.1962925907305976 0 -0.22956488404758479 -0.1732841170125273 0 -0.25418198431724581 -0.18809916394242601 0 -0.22956488404758479 -0.1732841170125273 0 -0.25418198431724581 -0.18809916394242601 0 -0.2565438833259911 -0.1687602707777138 0 -0.22956488404758479 -0.1732841170125273 0 -0.2435592126657353 -0.1561425335328199 0 -0.22956488404758479 -0.1732841170125273 0 -0.2435592126657353 -0.1561425335328199 0 -0.2565438833259911 -0.1687602707777138 0 -0.2435592126657353 -0.1561425335328199 0 -0.22647357207813959 -0.15205360930679629 0 -0.2432602079730701 -0.13485583854350039 0 -0.22647357207813959 -0.15205360930679629 0 -0.2195633859389316 -0.1340578990397249 0 -0.2432602079730701 -0.13485583854350039 0 -0.2195633859389316 -0.1340578990397249 0 -0.2432602079730701 -0.13485583854350039 0 -0.23065476516460279 -0.11957242830579699 0 -0.2432602079730701 -0.13485583854350039 0 -0.2499653418643101 -0.1102460646797562 0 -0.23065476516460279 -0.11957242830579699 0 -0.2499653418643101 -0.1102460646797562 0 -0.2308399038819596 -0.1034577205422559 0 -0.23065476516460279 -0.11957242830579699 0 -0.2308399038819596 -0.1034577205422559 0 -0.25308440776240432 -0.086371671251396109 0 -0.2499653418643101 -0.1102460646797562 0 -0.2308399038819596 -0.1034577205422559 0 -0.25308440776240432 -0.086371671251396109 0 -0.2308399038819596 -0.1034577205422559 0 -0.21022893699736381 -0.1097241998529486 0 -0.21520721362926831 -0.098298511723915558 0 -0.2308399038819596 -0.1034577205422559 0 -0.22013457808717909 -0.089221868029860679 0 -0.21520721362926831 -0.098298511723915558 0 -0.2308399038819596 -0.1034577205422559 0 -0.23065476516460279 -0.11957242830579699 0 -0.21022893699736381 -0.1097241998529486 0 -0.2195633859389316 -0.1340578990397249 0 -0.23065476516460279 -0.11957242830579699 0 -0.21022893699736381 -0.1097241998529486 0 -0.2335598957907816 -0.079883889973887123 0 -0.24475965461883589 -0.059498385283178377 0 -0.2582325144520296 -0.070050845257802419 0 -0.2335598957907816 -0.079883889973887123 0 -0.2582325144520296 -0.070050845257802419 0 -0.25308440776240432 -0.086371671251396109 0 -0.2308399038819596 -0.1034577205422559 0 -0.2335598957907816 -0.079883889973887123 0 -0.25308440776240432 -0.086371671251396109 0 -0.2308399038819596 -0.1034577205422559 0 -0.22013457808717909 -0.089221868029860679 0 -0.2335598957907816 -0.079883889973887123 0 -0.22013457808717909 -0.089221868029860679 0 -0.2335598957907816 -0.079883889973887123 0 -0.21963876375789801 -0.077814354495200549 0 -0.2335598957907816 -0.079883889973887123 0 -0.21595644614104051 -0.065738508165203102 0 -0.24475965461883589 -0.059498385283178377 0 -0.21595644614104051 -0.065738508165203102 0 -0.24475965461883589 -0.059498385283178377 0 -0.2335598957907816 -0.079883889973887123 0 -0.21963876375789801 -0.077814354495200549 0 -0.21595644614104051 -0.065738508165203102 0 -0.20438945881064449 -0.068244458930106389 0 -0.21100771399754009 -0.086966924160961745 0 -0.21595644614104051 -0.065738508165203102 0 -0.21100771399754009 -0.086966924160961745 0 -0.20438945881064449 -0.068244458930106389 0 -0.21595644614104051 -0.065738508165203102 0 -0.21100771399754009 -0.086966924160961745 0 -0.21963876375789801 -0.077814354495200549 0 -0.21595644614104051 -0.065738508165203102 0 -0.21100771399754009 -0.086966924160961745 0 -0.20438945881064449 -0.068244458930106389 0 -0.21595644614104051 -0.065738508165203102 0 -0.20438945881064449 -0.068244458930106389 0 -0.21595644614104051 -0.065738508165203102 0 -0.20711132549122371 -0.057203435059411119 0 -0.20438945881064449 -0.068244458930106389 0 -0.21100771399754009 -0.086966924160961745 0 -0.19851231957361129 -0.085310821531315487 0 -0.22013457808717909 -0.089221868029860679 0 -0.21963876375789801 -0.077814354495200549 0 -0.21100771399754009 -0.086966924160961745 0 -0.22013457808717909 -0.089221868029860679 0 -0.21100771399754009 -0.086966924160961745 0 -0.21520721362926831 -0.098298511723915558 0 -0.21100771399754009 -0.086966924160961745 0 -0.19851231957361129 -0.085310821531315487 0 -0.20550431009004061 -0.095676697317907802 0 -0.21100771399754009 -0.086966924160961745 0 -0.21520721362926831 -0.098298511723915558 0 -0.20550431009004061 -0.095676697317907802 0 -0.19851231957361129 -0.085310821531315487 0 -0.18118326058104209 -0.08825419183970401 0 -0.18409944718507371 -0.07264022497537044 0 -0.19851231957361129 -0.085310821531315487 0 -0.19294566676858971 -0.096864600750783431 0 -0.18118326058104209 -0.08825419183970401 0 -0.19851231957361129 -0.085310821531315487 0 -0.20550431009004061 -0.095676697317907802 0 -0.19294566676858971 -0.096864600750783431 0 -0.20438945881064449 -0.068244458930106389 0 -0.19851231957361129 -0.085310821531315487 0 -0.18409944718507371 -0.07264022497537044 0 -0.20438945881064449 -0.068244458930106389 0 -0.18409944718507371 -0.07264022497537044 0 -0.18769526278089041 -0.057829612445021099 0 -0.20438945881064449 -0.068244458930106389 0 -0.18409944718507371 -0.07264022497537044 0 -0.21022893699736381 -0.1097241998529486 0 -0.21520721362926831 -0.098298511723915558 0 -0.20550431009004061 -0.095676697317907802 0 -0.21022893699736381 -0.1097241998529486 0 -0.20550431009004061 -0.095676697317907802 0 -0.19294566676858971 -0.096864600750783431 0 -0.19294566676858971 -0.096864600750783431 0 -0.18534812722118199 -0.1163550958908785 0 -0.21022893699736381 -0.1097241998529486 0 -0.19294566676858971 -0.096864600750783431 0 -0.18534812722118199 -0.1163550958908785 0 -0.19823449762692411 -0.13229999761030051 0 -0.21022893699736381 -0.1097241998529486 0 -0.18534812722118199 -0.1163550958908785 0 -0.18534812722118199 -0.1163550958908785 0 -0.17423934197139679 -0.1017815859784342 0 -0.15606779039194271 -0.1160101434681408 0 -0.17775058767377289 -0.13584559103097291 0 -0.18534812722118199 -0.1163550958908785 0 -0.15606779039194271 -0.1160101434681408 0 -0.16057304666404501 -0.10079887419961479 0 -0.17423934197139679 -0.1017815859784342 0 -0.15606779039194271 -0.1160101434681408 0 -0.16057304666404501 -0.10079887419961479 0 -0.16746185343044401 -0.091445336260546128 0 -0.1570966781871318 -0.090327755750333361 0 -0.16057304666404501 -0.10079887419961479 0 -0.17423934197139679 -0.1017815859784342 0 -0.16746185343044401 -0.091445336260546128 0 -0.17423934197139679 -0.1017815859784342 0 -0.18118326058104209 -0.08825419183970401 0 -0.16746185343044401 -0.091445336260546128 0 -0.19294566676858971 -0.096864600750783431 0 -0.18534812722118199 -0.1163550958908785 0 -0.17423934197139679 -0.1017815859784342 0 -0.19294566676858971 -0.096864600750783431 0 -0.17423934197139679 -0.1017815859784342 0 -0.18118326058104209 -0.08825419183970401 0 -0.18118326058104209 -0.08825419183970401 0 -0.18409944718507371 -0.07264022497537044 0 -0.16915717098214109 -0.081397787743409861 0 -0.18118326058104209 -0.08825419183970401 0 -0.16746185343044401 -0.091445336260546128 0 -0.16915717098214109 -0.081397787743409861 0 -0.18409944718507371 -0.07264022497537044 0 -0.1702117591297739 -0.06777753321031553 0 -0.16380943555950259 -0.077035991020633382 0 -0.18409944718507371 -0.07264022497537044 0 -0.16380943555950259 -0.077035991020633382 0 -0.16915717098214109 -0.081397787743409861 0 -0.18409944718507371 -0.07264022497537044 0 -0.17187825396406881 -0.057945450019426657 0 -0.18769526278089041 -0.057829612445021099 0 -0.18409944718507371 -0.07264022497537044 0 -0.16380943555950259 -0.077035991020633382 0 -0.18409944718507371 -0.07264022497537044 0 -0.1702117591297739 -0.06777753321031553 0 -0.17187825396406881 -0.057945450019426657 0 -0.16380943555950259 -0.077035991020633382 0 -0.16105989981045041 -0.063488466825831633 0 -0.14595160177326619 -0.062470528310013429 0 -0.1702117591297739 -0.06777753321031553 0 -0.16105989981045041 -0.063488466825831633 0 -0.17187825396406881 -0.057945450019426657 0 -0.1702117591297739 -0.06777753321031553 0 -0.16380943555950259 -0.077035991020633382 0 -0.16105989981045041 -0.063488466825831633 0 -0.16380943555950259 -0.077035991020633382 0 -0.16109871639751261 -0.084134952385501949 0 -0.14796844382834351 -0.080467891152587012 0 -0.16746185343044401 -0.091445336260546128 0 -0.16915717098214109 -0.081397787743409861 0 -0.16109871639751261 -0.084134952385501949 0 -0.16380943555950259 -0.077035991020633382 0 -0.16915717098214109 -0.081397787743409861 0 -0.16109871639751261 -0.084134952385501949 0 -0.16380943555950259 -0.077035991020633382 0 -0.16915717098214109 -0.081397787743409861 0 -0.16746185343044401 -0.091445336260546128 0 -0.16109871639751261 -0.084134952385501949 0 -0.1570966781871318 -0.090327755750333361 0 -0.16380943555950259 -0.077035991020633382 0 -0.14796844382834351 -0.080467891152587012 0 -0.14796844382834351 -0.080467891152587012 0 -0.13497135686491851 -0.078315161523928284 0 -0.1484932433812913 -0.094043062253026791 0 -0.1570966781871318 -0.090327755750333361 0 -0.14796844382834351 -0.080467891152587012 0 -0.1484932433812913 -0.094043062253026791 0 -0.16109871639751261 -0.084134952385501949 0 -0.1570966781871318 -0.090327755750333361 0 -0.14796844382834351 -0.080467891152587012 0 -0.16380943555950259 -0.077035991020633382 0 -0.14796844382834351 -0.080467891152587012 0 -0.14595160177326619 -0.062470528310013429 0 -0.16380943555950259 -0.077035991020633382 0 -0.14595160177326619 -0.062470528310013429 0 -0.14796844382834351 -0.080467891152587012 0 -0.13497135686491851 -0.078315161523928284 0 -0.14595160177326619 -0.062470528310013429 0 -0.1158705629695205 -0.060236298698018297 0 -0.13497135686491851 -0.078315161523928284 0 -0.1158705629695205 -0.060236298698018297 0 -0.13497135686491851 -0.078315161523928284 0 -0.13122182239868371 -0.062231763532838429 0 -0.13497135686491851 -0.078315161523928284 0 -0.13122182239868371 -0.062231763532838429 0 -0.14595160177326619 -0.062470528310013429 0 -0.112702195828283 -0.076339248342475546 0 -0.13497135686491851 -0.078315161523928284 0 -0.13438499311011279 -0.096174695905308166 0 -0.13497135686491851 -0.078315161523928284 0 -0.13438499311011279 -0.096174695905308166 0 -0.1484932433812913 -0.094043062253026791 0 -0.11276894493928399 -0.097790936300085646 0 -0.13438499311011279 -0.096174695905308166 0 -0.1306137014228527 -0.1212095633787966 0 -0.13438499311011279 -0.096174695905308166 0 -0.1306137014228527 -0.1212095633787966 0 -0.15606779039194271 -0.1160101434681408 0 -0.15406265534163929 -0.1294064941378926 0 -0.1306137014228527 -0.1212095633787966 0 -0.15606779039194271 -0.1160101434681408 0 -0.13438499311011279 -0.096174695905308166 0 -0.15606779039194271 -0.1160101434681408 0 -0.1484932433812913 -0.094043062253026791 0 -0.16057304666404501 -0.10079887419961479 0 -0.15606779039194271 -0.1160101434681408 0 -0.1484932433812913 -0.094043062253026791 0 -0.13438499311011279 -0.096174695905308166 0 -0.15606779039194271 -0.1160101434681408 0 -0.16057304666404501 -0.10079887419961479 0 -0.1570966781871318 -0.090327755750333361 0 -0.1484932433812913 -0.094043062253026791 0 -0.14513665439653431 -0.02122229521611602 0 -0.15148395360685291 -0.031475856168514699 0 -0.16129500549156001 -0.024264335985147129 0 -0.14513665439653431 -0.02122229521611602 0 -0.1346415055917565 -0.031432898451717602 0 -0.15148395360685291 -0.031475856168514699 0 -0.14513665439653431 -0.02122229521611602 0 -0.15327979458335059 -0.01391829646419882 0 -0.16129500549156001 -0.024264335985147129 0 -0.1412848112475209 -0.008091449167619497 0 -0.15773416148281841 -0.0035868741371463562 0 -0.14801408494475049 0.0031182785745780331 0 -0.15327979458335059 -0.01391829646419882 0 -0.1412848112475209 -0.008091449167619497 0 -0.15773416148281841 -0.0035868741371463562 0 -0.14513665439653431 -0.02122229521611602 0 -0.15327979458335059 -0.01391829646419882 0 -0.1412848112475209 -0.008091449167619497 0 -0.1236693299605585 -0.0137973575501921 0 -0.1412848112475209 -0.008091449167619497 0 -0.12735709500343681 0.004015926865657337 0 -0.1412848112475209 -0.008091449167619497 0 -0.12735709500343681 0.004015926865657337 0 -0.14801408494475049 0.0031182785745780331 0 -0.1236693299605585 -0.0137973575501921 0 -0.1412848112475209 -0.008091449167619497 0 -0.13426109495296229 -0.02049569832685658 0 -0.1236693299605585 -0.0137973575501921 0 -0.1221370268088495 -0.025998648103035 0 -0.13426109495296229 -0.02049569832685658 0 -0.14513665439653431 -0.02122229521611602 0 -0.1412848112475209 -0.008091449167619497 0 -0.13426109495296229 -0.02049569832685658 0 -0.14513665439653431 -0.02122229521611602 0 -0.13426109495296229 -0.02049569832685658 0 -0.1346415055917565 -0.031432898451717602 0 -0.1221370268088495 -0.025998648103035 0 -0.12530131535501859 -0.034952786400489197 0 -0.1346415055917565 -0.031432898451717602 0 -0.1221370268088495 -0.025998648103035 0 -0.13426109495296229 -0.02049569832685658 0 -0.1346415055917565 -0.031432898451717602 0 -0.12530131535501859 -0.034952786400489197 0 -0.1346415055917565 -0.031432898451717602 0 -0.12809376798702951 -0.047905065599393698 0 -0.1346415055917565 -0.031432898451717602 0 -0.12809376798702951 -0.047905065599393698 0 -0.14629371500633531 -0.042796653234188263 0 -0.12809376798702951 -0.047905065599393698 0 -0.14595160177326619 -0.062470528310013429 0 -0.12809376798702951 -0.047905065599393698 0 -0.14595160177326619 -0.062470528310013429 0 -0.14629371500633531 -0.042796653234188263 0 -0.13122182239868371 -0.062231763532838429 0 -0.12809376798702951 -0.047905065599393698 0 -0.14595160177326619 -0.062470528310013429 0 -0.1158705629695205 -0.060236298698018297 0 -0.13122182239868371 -0.062231763532838429 0 -0.12809376798702951 -0.047905065599393698 0 -0.14595160177326619 -0.062470528310013429 0 -0.14629371500633531 -0.042796653234188263 0 -0.15696853651444401 -0.052603520026387289 0 -0.16105989981045041 -0.063488466825831633 0 -0.14595160177326619 -0.062470528310013429 0 -0.15696853651444401 -0.052603520026387289 0 -0.15148395360685291 -0.031475856168514699 0 -0.14629371500633531 -0.042796653234188263 0 -0.16402488563849801 -0.041062174760887443 0 -0.1346415055917565 -0.031432898451717602 0 -0.15148395360685291 -0.031475856168514699 0 -0.14629371500633531 -0.042796653234188263 0 -0.14629371500633531 -0.042796653234188263 0 -0.16402488563849801 -0.041062174760887443 0 -0.15696853651444401 -0.052603520026387289 0 -0.15148395360685291 -0.031475856168514699 0 -0.16402488563849801 -0.041062174760887443 0 -0.16129500549156001 -0.024264335985147129 0 -0.16402488563849801 -0.041062174760887443 0 -0.17409393016306191 -0.030370879776367592 0 -0.16129500549156001 -0.024264335985147129 0 -0.16402488563849801 -0.041062174760887443 0 -0.15696853651444401 -0.052603520026387289 0 -0.17187825396406881 -0.057945450019426657 0 -0.16105989981045041 -0.063488466825831633 0 -0.15696853651444401 -0.052603520026387289 0 -0.17187825396406881 -0.057945450019426657 0 -0.16402488563849801 -0.041062174760887443 0 -0.17187825396406881 -0.057945450019426657 0 -0.18133558272394029 -0.043618149437272283 0 -0.17187825396406881 -0.057945450019426657 0 -0.18133558272394029 -0.043618149437272283 0 -0.18769526278089041 -0.057829612445021099 0 -0.18133558272394029 -0.043618149437272283 0 -0.17409393016306191 -0.030370879776367592 0 -0.18915768363079971 -0.025155098795753519 0 -0.16402488563849801 -0.041062174760887443 0 -0.18133558272394029 -0.043618149437272283 0 -0.17409393016306191 -0.030370879776367592 0 -0.17409393016306191 -0.030370879776367592 0 -0.17549551533112251 -0.014893414490097231 0 -0.18915768363079971 -0.025155098795753519 0 -0.16129500549156001 -0.024264335985147129 0 -0.16350931143073591 -0.01273440345064396 0 -0.17549551533112251 -0.014893414490097231 0 -0.17409393016306191 -0.030370879776367592 0 -0.16129500549156001 -0.024264335985147129 0 -0.17549551533112251 -0.014893414490097231 0 -0.15327979458335059 -0.01391829646419882 0 -0.16129500549156001 -0.024264335985147129 0 -0.16350931143073591 -0.01273440345064396 0 -0.15773416148281841 -0.0035868741371463562 0 -0.16716832075785379 -0.0032078365625175 0 -0.1619193683370386 0.0066468078375689294 0 -0.15773416148281841 -0.0035868741371463562 0 -0.16350931143073591 -0.01273440345064396 0 -0.16716832075785379 -0.0032078365625175 0 -0.15327979458335059 -0.01391829646419882 0 -0.15773416148281841 -0.0035868741371463562 0 -0.16350931143073591 -0.01273440345064396 0 -0.16350931143073591 -0.01273440345064396 0 -0.16716832075785379 -0.0032078365625175 0 -0.17549551533112251 -0.014893414490097231 0 -0.17549551533112251 -0.014893414490097231 0 -0.18154179604087481 -0.0036104187285780349 0 -0.18915768363079971 -0.025155098795753519 0 -0.18154179604087481 -0.0036104187285780349 0 -0.18915768363079971 -0.025155098795753519 0 -0.17549551533112251 -0.014893414490097231 0 -0.17584419881677341 0.0071523107965592754 0 -0.17549551533112251 -0.014893414490097231 0 -0.18154179604087481 -0.0036104187285780349 0 -0.17584419881677341 0.0071523107965592754 0 -0.16716832075785379 -0.0032078365625175 0 -0.17549551533112251 -0.014893414490097231 0 -0.17584419881677341 0.0071523107965592754 0 -0.18154179604087481 -0.0036104187285780349 0 -0.19066530249761049 -0.0041303576494283751 0 -0.18915768363079971 -0.025155098795753519 0 -0.18154179604087481 -0.0036104187285780349 0 -0.19066530249761049 -0.0041303576494283751 0 -0.18717715497560061 0.0062623078557712403 0 -0.19066530249761049 -0.0041303576494283751 0 -0.1989264366345522 -0.0080023544535597537 0 -0.18915768363079971 -0.025155098795753519 0 -0.19066530249761049 -0.0041303576494283751 0 -0.1989264366345522 -0.0080023544535597537 0 -0.1965234412062255 0.0098537758749781944 0 -0.1989264366345522 -0.0080023544535597537 0 -0.2007918169376324 -0.0191738513677071 0 -0.20680177871376751 -0.0119671669755851 0 -0.18915768363079971 -0.025155098795753519 0 -0.2007918169376324 -0.0191738513677071 0 -0.21013076049929519 -0.028334228638799381 0 -0.1989264366345522 -0.0080023544535597537 0 -0.18915768363079971 -0.025155098795753519 0 -0.2007918169376324 -0.0191738513677071 0 -0.2007918169376324 -0.0191738513677071 0 -0.21013076049929519 -0.028334228638799381 0 -0.20680177871376751 -0.0119671669755851 0 -0.21013076049929519 -0.028334228638799381 0 -0.21702438745170211 -0.0043907958627755336 0 -0.21921501925093501 -0.017985606360015789 0 -0.21013076049929519 -0.028334228638799381 0 -0.21702438745170211 -0.0043907958627755336 0 -0.21013076049929519 -0.028334228638799381 0 -0.22271521407306469 -0.037269361340154371 0 -0.21921501925093501 -0.017985606360015789 0 -0.21013076049929519 -0.028334228638799381 0 -0.21702438745170211 -0.0043907958627755336 0 -0.20680177871376751 -0.0119671669755851 0 -0.1989264366345522 -0.0080023544535597537 0 -0.20680177871376751 -0.0119671669755851 0 -0.20713549204565579 6.5395444916274768e-05 0 -0.21702438745170211 -0.0043907958627755336 0 -0.20680177871376751 -0.0119671669755851 0 -0.20713549204565579 6.5395444916274768e-05 0 -0.20438945881064449 -0.068244458930106389 0 -0.1967735712207245 -0.046699778862929052 0 -0.20438945881064449 -0.068244458930106389 0 -0.18769526278089041 -0.057829612445021099 0 -0.1967735712207245 -0.046699778862929052 0 -0.20438945881064449 -0.068244458930106389 0 -0.1967735712207245 -0.046699778862929052 0 -0.20711132549122371 -0.057203435059411119 0 -0.18133558272394029 -0.043618149437272283 0 -0.18769526278089041 -0.057829612445021099 0 -0.1967735712207245 -0.046699778862929052 0 -0.18133558272394029 -0.043618149437272283 0 -0.18915768363079971 -0.025155098795753519 0 -0.1967735712207245 -0.046699778862929052 0 -0.18915768363079971 -0.025155098795753519 0 -0.1967735712207245 -0.046699778862929052 0 -0.18915768363079971 -0.025155098795753519 0 -0.21013076049929519 -0.028334228638799381 0 -0.1967735712207245 -0.046699778862929052 0 -0.21013076049929519 -0.028334228638799381 0 -0.21132582579248671 -0.048130994279405613 0 -0.22271521407306469 -0.037269361340154371 0 -0.21013076049929519 -0.028334228638799381 0 -0.1967735712207245 -0.046699778862929052 0 -0.21132582579248671 -0.048130994279405613 0 -0.21595644614104051 -0.065738508165203102 0 -0.21132582579248671 -0.048130994279405613 0 -0.22271521407306469 -0.037269361340154371 0 -0.21595644614104051 -0.065738508165203102 0 -0.21132582579248671 -0.048130994279405613 0 -0.20711132549122371 -0.057203435059411119 0 -0.1967735712207245 -0.046699778862929052 0 -0.21132582579248671 -0.048130994279405613 0 -0.20711132549122371 -0.057203435059411119 0 -0.21595644614104051 -0.065738508165203102 0 -0.2284172135094342 -0.053659916570315727 0 -0.24475965461883589 -0.059498385283178377 0 -0.21595644614104051 -0.065738508165203102 0 -0.2284172135094342 -0.053659916570315727 0 -0.22271521407306469 -0.037269361340154371 0 -0.21595644614104051 -0.065738508165203102 0 -0.22271521407306469 -0.037269361340154371 0 -0.2284172135094342 -0.053659916570315727 0 -0.22271521407306469 -0.037269361340154371 0 -0.23903543051913109 -0.043198085603962481 0 -0.22271521407306469 -0.037269361340154371 0 -0.23903543051913109 -0.043198085603962481 0 -0.24161885061771041 -0.026720350447010301 0 -0.23903543051913109 -0.043198085603962481 0 -0.24161885061771041 -0.026720350447010301 0 -0.25766621977661042 -0.038842414379153638 0 -0.23903543051913109 -0.043198085603962481 0 -0.24475965461883589 -0.059498385283178377 0 -0.25766621977661042 -0.038842414379153638 0 -0.2284172135094342 -0.053659916570315727 0 -0.23903543051913109 -0.043198085603962481 0 -0.24475965461883589 -0.059498385283178377 0 -0.22947398200509031 -0.0088002145151058891 0 -0.22867745033346079 0.0038692188645070222 0 -0.2401015516947359 0.00075261550232862703 0 -0.21702438745170211 -0.0043907958627755336 0 -0.22947398200509031 -0.0088002145151058891 0 -0.22867745033346079 0.0038692188645070222 0 -0.21702438745170211 -0.0043907958627755336 0 -0.22947398200509031 -0.0088002145151058891 0 -0.21921501925093501 -0.017985606360015789 0 -0.22271521407306469 -0.037269361340154371 0 -0.22947398200509031 -0.0088002145151058891 0 -0.21921501925093501 -0.017985606360015789 0 -0.22271521407306469 -0.037269361340154371 0 -0.22947398200509031 -0.0088002145151058891 0 -0.22271521407306469 -0.037269361340154371 0 -0.22947398200509031 -0.0088002145151058891 0 -0.24161885061771041 -0.026720350447010301 0 -0.22947398200509031 -0.0088002145151058891 0 -0.24161885061771041 -0.026720350447010301 0 -0.2437457614006571 -0.011962382738850049 0 -0.24161885061771041 -0.026720350447010301 0 -0.2437457614006571 -0.011962382738850049 0 -0.2598032925822476 -0.0188915667982569 0 -0.22947398200509031 -0.0088002145151058891 0 -0.2437457614006571 -0.011962382738850049 0 -0.2401015516947359 0.00075261550232862703 0 -0.2437457614006571 -0.011962382738850049 0 -0.25267499080189931 -0.0034516002120552492 0 -0.2401015516947359 0.00075261550232862703 0 -0.25267499080189931 -0.0034516002120552492 0 -0.2598032925822476 -0.0188915667982569 0 -0.26909988492935111 -0.0018655285383734981 0 -0.2437457614006571 -0.011962382738850049 0 -0.25267499080189931 -0.0034516002120552492 0 -0.2598032925822476 -0.0188915667982569 0 -0.2598032925822476 -0.0188915667982569 0 -0.27267419604841259 -0.026924212746328481 0 -0.25766621977661042 -0.038842414379153638 0 -0.24161885061771041 -0.026720350447010301 0 -0.2598032925822476 -0.0188915667982569 0 -0.25766621977661042 -0.038842414379153638 0 -0.2598032925822476 -0.0188915667982569 0 -0.27267419604841259 -0.026924212746328481 0 -0.27804425228895369 -0.016131696666228459 0 -0.27267419604841259 -0.026924212746328481 0 -0.27804425228895369 -0.016131696666228459 0 -0.28378415359151371 -0.031280105512012511 0 -0.27804425228895369 -0.016131696666228459 0 -0.26909988492935111 -0.0018655285383734981 0 -0.2917254884257266 -0.0017566381736345419 0 -0.2598032925822476 -0.0188915667982569 0 -0.27804425228895369 -0.016131696666228459 0 -0.26909988492935111 -0.0018655285383734981 0 -0.27804425228895369 -0.016131696666228459 0 -0.2917254884257266 -0.0017566381736345419 0 -0.2928870998243559 -0.020527937726781 0 -0.27804425228895369 -0.016131696666228459 0 -0.2928870998243559 -0.020527937726781 0 -0.28378415359151371 -0.031280105512012511 0 -0.2928870998243559 -0.020527937726781 0 -0.29943422057661201 -0.032203920876667472 0 -0.28378415359151371 -0.031280105512012511 0 -0.2928870998243559 -0.020527937726781 0 -0.31144738423897378 -0.02126732740536201 0 -0.29943422057661201 -0.032203920876667472 0 -0.31144738423897378 -0.02126732740536201 0 -0.31110423911055801 -0.035316851109560482 0 -0.29943422057661201 -0.032203920876667472 0 -0.2917254884257266 -0.0017566381736345419 0 -0.31144738423897378 -0.02126732740536201 0 -0.31177688145040278 0.0050359958776742568 0 -0.2917254884257266 -0.0017566381736345419 0 -0.2928870998243559 -0.020527937726781 0 -0.31144738423897378 -0.02126732740536201 0 -0.2917254884257266 -0.0017566381736345419 0 -0.31144738423897378 -0.02126732740536201 0 -0.30323190850646392 -0.052883144282766713 0 -0.3023660715744253 -0.047018139519123002 0 -0.29757341552329353 -0.05219957266967655 0 -0.29931176789370939 -0.061629941742321552 0 -0.30659897303184058 -0.057135789817405573 0 -0.30728911182784302 -0.064893595009923935 0 -0.30323190850646392 -0.052883144282766713 0 -0.29931176789370939 -0.061629941742321552 0 -0.30659897303184058 -0.057135789817405573 0 -0.30323190850646392 -0.052883144282766713 0 -0.29757341552329353 -0.05219957266967655 0 -0.29931176789370939 -0.061629941742321552 0 -0.30659897303184058 -0.057135789817405573 0 -0.30728911182784302 -0.064893595009923935 0 -0.31405483352543062 -0.056831087900065053 0 -0.30323190850646392 -0.052883144282766713 0 -0.3023660715744253 -0.047018139519123002 0 -0.31025625293594222 -0.050033124508212908 0 -0.30659897303184058 -0.057135789817405573 0 -0.31025625293594222 -0.050033124508212908 0 -0.31405483352543062 -0.056831087900065053 0 -0.30323190850646392 -0.052883144282766713 0 -0.30659897303184058 -0.057135789817405573 0 -0.31025625293594222 -0.050033124508212908 0 -0.3023660715744253 -0.047018139519123002 0 -0.31110423911055801 -0.035316851109560482 0 -0.29943422057661201 -0.032203920876667472 0 -0.3023660715744253 -0.047018139519123002 0 -0.29943422057661201 -0.032203920876667472 0 -0.29166722635019171 -0.038853801873014321 0 -0.29943422057661201 -0.032203920876667472 0 -0.29166722635019171 -0.038853801873014321 0 -0.28378415359151371 -0.031280105512012511 0 -0.3023660715744253 -0.047018139519123002 0 -0.29166722635019171 -0.038853801873014321 0 -0.28390051605192418 -0.042754285685484159 0 -0.29166722635019171 -0.038853801873014321 0 -0.28378415359151371 -0.031280105512012511 0 -0.28390051605192418 -0.042754285685484159 0 -0.3023660715744253 -0.047018139519123002 0 -0.28390051605192418 -0.042754285685484159 0 -0.27356286309663053 -0.053258262401150697 0 -0.3023660715744253 -0.047018139519123002 0 -0.27356286309663053 -0.053258262401150697 0 -0.29757341552329353 -0.05219957266967655 0 -0.27356286309663053 -0.053258262401150697 0 -0.27532891164284878 -0.069285621960536392 0 -0.29757341552329353 -0.05219957266967655 0 -0.27532891164284878 -0.069285621960536392 0 -0.3023660715744253 -0.047018139519123002 0 -0.29757341552329353 -0.05219957266967655 0 -0.27356286309663053 -0.053258262401150697 0 -0.29757341552329353 -0.05219957266967655 0 -0.29931176789370939 -0.061629941742321552 0 -0.27532891164284878 -0.069285621960536392 0 -0.27267419604841259 -0.026924212746328481 0 -0.27375437843427658 -0.039043607324579933 0 -0.25766621977661042 -0.038842414379153638 0 -0.27356286309663053 -0.053258262401150697 0 -0.27375437843427658 -0.039043607324579933 0 -0.25766621977661042 -0.038842414379153638 0 -0.28378415359151371 -0.031280105512012511 0 -0.28390051605192418 -0.042754285685484159 0 -0.27375437843427658 -0.039043607324579933 0 -0.27267419604841259 -0.026924212746328481 0 -0.28378415359151371 -0.031280105512012511 0 -0.27375437843427658 -0.039043607324579933 0 -0.28390051605192418 -0.042754285685484159 0 -0.27356286309663053 -0.053258262401150697 0 -0.27375437843427658 -0.039043607324579933 0 -0.24475965461883589 -0.059498385283178377 0 -0.27356286309663053 -0.053258262401150697 0 -0.2582325144520296 -0.070050845257802419 0 -0.24475965461883589 -0.059498385283178377 0 -0.27356286309663053 -0.053258262401150697 0 -0.24475965461883589 -0.059498385283178377 0 -0.27356286309663053 -0.053258262401150697 0 -0.25766621977661042 -0.038842414379153638 0 -0.2582325144520296 -0.070050845257802419 0 -0.25308440776240432 -0.086371671251396109 0 -0.27532891164284878 -0.069285621960536392 0 -0.25308440776240432 -0.086371671251396109 0 -0.27532891164284878 -0.069285621960536392 0 -0.25308440776240432 -0.086371671251396109 0 -0.27361062541114611 -0.085405998149086934 0 -0.26907394573302829 -0.10103393024372311 0 -0.27361062541114611 -0.085405998149086934 0 -0.26907394573302829 -0.10103393024372311 0 -0.28494676303449051 -0.09097811142482605 0 -0.25308440776240432 -0.086371671251396109 0 -0.27361062541114611 -0.085405998149086934 0 -0.27532891164284878 -0.069285621960536392 0 -0.27356286309663053 -0.053258262401150697 0 -0.2582325144520296 -0.070050845257802419 0 -0.27532891164284878 -0.069285621960536392 0 -0.27361062541114611 -0.085405998149086934 0 -0.27532891164284878 -0.069285621960536392 0 -0.28561909888295839 -0.079360655864953042 0 -0.2432602079730701 -0.13485583854350039 0 -0.2499653418643101 -0.1102460646797562 0 -0.26490928006600228 -0.12397715003998409 0 -0.2499653418643101 -0.1102460646797562 0 -0.26490928006600228 -0.12397715003998409 0 -0.26907394573302829 -0.10103393024372311 0 -0.2499653418643101 -0.1102460646797562 0 -0.25308440776240432 -0.086371671251396109 0 -0.26907394573302829 -0.10103393024372311 0 -0.26907394573302829 -0.10103393024372311 0 -0.28789548083438649 -0.11161882002010511 0 -0.28494676303449051 -0.09097811142482605 0 -0.26490928006600228 -0.12397715003998409 0 -0.28789548083438649 -0.11161882002010511 0 -0.28428672055728371 -0.13281235115180859 0 -0.26490928006600228 -0.12397715003998409 0 -0.26907394573302829 -0.10103393024372311 0 -0.28789548083438649 -0.11161882002010511 0 -0.28789548083438649 -0.11161882002010511 0 -0.28428672055728371 -0.13281235115180859 0 -0.30877835781368662 -0.12931532841693749 0 -0.28789548083438649 -0.11161882002010511 0 -0.29765529442092259 -0.094840601490837839 0 -0.28494676303449051 -0.09097811142482605 0 -0.30761934067920371 -0.1042503242997595 0 -0.29765529442092259 -0.094840601490837839 0 -0.30832877355579341 -0.086934752854072747 0 -0.30761934067920371 -0.1042503242997595 0 -0.30832877355579341 -0.086934752854072747 0 -0.31968159473222052 -0.091584555267719248 0 -0.28789548083438649 -0.11161882002010511 0 -0.30761934067920371 -0.1042503242997595 0 -0.29765529442092259 -0.094840601490837839 0 -0.28789548083438649 -0.11161882002010511 0 -0.30761934067920371 -0.1042503242997595 0 -0.30877835781368662 -0.12931532841693749 0 -0.29931176789370939 -0.061629941742321552 0 -0.27532891164284878 -0.069285621960536392 0 -0.29568251685582603 -0.071589435967753134 0 -0.27532891164284878 -0.069285621960536392 0 -0.29568251685582603 -0.071589435967753134 0 -0.28561909888295839 -0.079360655864953042 0 -0.29568251685582603 -0.071589435967753134 0 -0.28561909888295839 -0.079360655864953042 0 -0.29849490204505058 -0.081938345925378783 0 -0.27361062541114611 -0.085405998149086934 0 -0.28561909888295839 -0.079360655864953042 0 -0.28494676303449051 -0.09097811142482605 0 -0.29765529442092259 -0.094840601490837839 0 -0.28494676303449051 -0.09097811142482605 0 -0.29849490204505058 -0.081938345925378783 0 -0.28561909888295839 -0.079360655864953042 0 -0.28494676303449051 -0.09097811142482605 0 -0.29849490204505058 -0.081938345925378783 0 -0.29849490204505058 -0.081938345925378783 0 -0.30832877355579341 -0.086934752854072747 0 -0.3066986514807607 -0.074546990101646726 0 -0.29765529442092259 -0.094840601490837839 0 -0.29849490204505058 -0.081938345925378783 0 -0.30832877355579341 -0.086934752854072747 0 -0.30832877355579341 -0.086934752854072747 0 -0.3066986514807607 -0.074546990101646726 0 -0.31636087034116728 -0.076704125898778439 0 -0.3066986514807607 -0.074546990101646726 0 -0.31411021802290889 -0.069356746280106005 0 -0.31636087034116728 -0.076704125898778439 0 -0.29568251685582603 -0.071589435967753134 0 -0.29849490204505058 -0.081938345925378783 0 -0.3066986514807607 -0.074546990101646726 0 -0.29568251685582603 -0.071589435967753134 0 -0.3066986514807607 -0.074546990101646726 0 -0.30728911182784302 -0.064893595009923935 0 -0.29931176789370939 -0.061629941742321552 0 -0.29568251685582603 -0.071589435967753134 0 -0.30728911182784302 -0.064893595009923935 0 -0.3066986514807607 -0.074546990101646726 0 -0.30728911182784302 -0.064893595009923935 0 -0.31411021802290889 -0.069356746280106005 0 -0.30728911182784302 -0.064893595009923935 0 -0.31630436981946819 -0.062936971351065629 0 -0.31411021802290889 -0.069356746280106005 0 -0.31630436981946819 -0.062936971351065629 0 -0.31411021802290889 -0.069356746280106005 0 -0.32389808664530562 -0.067702049039115322 0 -0.31630436981946819 -0.062936971351065629 0 -0.32389808664530562 -0.067702049039115322 0 -0.32481687078849097 -0.058022226865728103 0 -0.32389808664530562 -0.067702049039115322 0 -0.3259684841043719 -0.075020057435826168 0 -0.31636087034116728 -0.076704125898778439 0 -0.31411021802290889 -0.069356746280106005 0 -0.32389808664530562 -0.067702049039115322 0 -0.31636087034116728 -0.076704125898778439 0 -0.30832877355579341 -0.086934752854072747 0 -0.32608803180755441 -0.084321365842938284 0 -0.30832877355579341 -0.086934752854072747 0 -0.31968159473222052 -0.091584555267719248 0 -0.32608803180755441 -0.084321365842938284 0 -0.30832877355579341 -0.086934752854072747 0 -0.31636087034116728 -0.076704125898778439 0 -0.32608803180755441 -0.084321365842938284 0 -0.31968159473222052 -0.091584555267719248 0 -0.32608803180755441 -0.084321365842938284 0 -0.3259684841043719 -0.075020057435826168 0 -0.31636087034116728 -0.076704125898778439 0 -0.32608803180755441 -0.084321365842938284 0 -0.31968159473222052 -0.091584555267719248 0 -0.32608803180755441 -0.084321365842938284 0 -0.34030971713070318 -0.087052614945596102 0 -0.32608803180755441 -0.084321365842938284 0 -0.34030971713070318 -0.087052614945596102 0 -0.34745734249292459 -0.081176736816750444 0 -0.32608803180755441 -0.084321365842938284 0 -0.33752694762346008 -0.07135268896247253 0 -0.34745734249292459 -0.081176736816750444 0 -0.32608803180755441 -0.084321365842938284 0 -0.34745734249292459 -0.081176736816750444 0 -0.33752694762346008 -0.07135268896247253 0 -0.3489658634393657 -0.058384012082006782 0 -0.33645864726091979 -0.05858208772264157 0 -0.33752694762346008 -0.07135268896247253 0 -0.3489658634393657 -0.058384012082006782 0 -0.32389808664530562 -0.067702049039115322 0 -0.33752694762346008 -0.07135268896247253 0 -0.33645864726091979 -0.05858208772264157 0 -0.3259684841043719 -0.075020057435826168 0 -0.32608803180755441 -0.084321365842938284 0 -0.33752694762346008 -0.07135268896247253 0 -0.32608803180755441 -0.084321365842938284 0 -0.33752694762346008 -0.07135268896247253 0 -0.32389808664530562 -0.067702049039115322 0 -0.3259684841043719 -0.075020057435826168 0 -0.33752694762346008 -0.07135268896247253 0 -0.32454403747219479 -0.1081839716812668 0 -0.30877835781368662 -0.12931532841693749 0 -0.30761934067920371 -0.1042503242997595 0 -0.32454403747219479 -0.1081839716812668 0 -0.30877835781368662 -0.12931532841693749 0 -0.32454403747219479 -0.1081839716812668 0 -0.33570809008837621 -0.11845594114356341 0 -0.30877835781368662 -0.12931532841693749 0 -0.30761934067920371 -0.1042503242997595 0 -0.31968159473222052 -0.091584555267719248 0 -0.32454403747219479 -0.1081839716812668 0 -0.34030971713070318 -0.087052614945596102 0 -0.32454403747219479 -0.1081839716812668 0 -0.34278855512837281 -0.1049294584887832 0 -0.31968159473222052 -0.091584555267719248 0 -0.34030971713070318 -0.087052614945596102 0 -0.32454403747219479 -0.1081839716812668 0 -0.34030971713070318 -0.087052614945596102 0 -0.32454403747219479 -0.1081839716812668 0 -0.32454403747219479 -0.1081839716812668 0 -0.34278855512837281 -0.1049294584887832 0 -0.33570809008837621 -0.11845594114356341 0 -0.33570809008837621 -0.11845594114356341 0 -0.35404294059136687 -0.1217835462641018 0 -0.33688620478323589 -0.13358080389391511 0 -0.34278855512837281 -0.1049294584887832 0 -0.35404294059136687 -0.1217835462641018 0 -0.35932798989652742 -0.1047455147758234 0 -0.34278855512837281 -0.1049294584887832 0 -0.33570809008837621 -0.11845594114356341 0 -0.35404294059136687 -0.1217835462641018 0 -0.34278855512837281 -0.1049294584887832 0 -0.35932798989652742 -0.1047455147758234 0 -0.35079718399447979 -0.093651592615473511 0 -0.34030971713070318 -0.087052614945596102 0 -0.34278855512837281 -0.1049294584887832 0 -0.35079718399447979 -0.093651592615473511 0 -0.35932798989652742 -0.1047455147758234 0 -0.35079718399447979 -0.093651592615473511 0 -0.36132419909701757 -0.091459041133748031 0 -0.35932798989652742 -0.1047455147758234 0 -0.37367929427193591 -0.1014825750548952 0 -0.37212838853434238 -0.11808059788504249 0 -0.35932798989652742 -0.1047455147758234 0 -0.37367929427193591 -0.1014825750548952 0 -0.36132419909701757 -0.091459041133748031 0 -0.35404294059136687 -0.1217835462641018 0 -0.37212838853434238 -0.11808059788504249 0 -0.37028068739271691 -0.13083580994494901 0 -0.35404294059136687 -0.1217835462641018 0 -0.35932798989652742 -0.1047455147758234 0 -0.37212838853434238 -0.11808059788504249 0 -0.35069420168351129 -0.07223638641294812 0 -0.34745734249292459 -0.081176736816750444 0 -0.36882665317829499 -0.078032107790563188 0 -0.36882665317829499 -0.078032107790563188 0 -0.3489658634393657 -0.058384012082006782 0 -0.35069420168351129 -0.07223638641294812 0 -0.36882665317829499 -0.078032107790563188 0 -0.3489658634393657 -0.058384012082006782 0 -0.33752694762346008 -0.07135268896247253 0 -0.35069420168351129 -0.07223638641294812 0 -0.3489658634393657 -0.058384012082006782 0 -0.33752694762346008 -0.07135268896247253 0 -0.35069420168351129 -0.07223638641294812 0 -0.34745734249292459 -0.081176736816750444 0 -0.34745734249292459 -0.081176736816750444 0 -0.36882665317829499 -0.078032107790563188 0 -0.34745734249292459 -0.081176736816750444 0 -0.36132419909701757 -0.091459041133748031 0 -0.36882665317829499 -0.078032107790563188 0 -0.34030971713070318 -0.087052614945596102 0 -0.34745734249292459 -0.081176736816750444 0 -0.35079718399447979 -0.093651592615473511 0 -0.34745734249292459 -0.081176736816750444 0 -0.35079718399447979 -0.093651592615473511 0 -0.36132419909701757 -0.091459041133748031 0 -0.37367929427193591 -0.1014825750548952 0 -0.36132419909701757 -0.091459041133748031 0 -0.36882665317829499 -0.078032107790563188 0 -0.36882665317829499 -0.078032107790563188 0 -0.36862349457690058 -0.057461967220355487 0 -0.3489658634393657 -0.058384012082006782 0 -0.36882665317829499 -0.078032107790563188 0 -0.36862349457690058 -0.057461967220355487 0 -0.37947166312044489 -0.067272628224985004 0 -0.36862349457690058 -0.057461967220355487 0 -0.3489658634393657 -0.058384012082006782 0 -0.36066681755822472 -0.045118253717945672 0 -0.36862349457690058 -0.057461967220355487 0 -0.37355784227175309 -0.045246792894939887 0 -0.3815482533063424 -0.052412606119804542 0 -0.36862349457690058 -0.057461967220355487 0 -0.36066681755822472 -0.045118253717945672 0 -0.37355784227175309 -0.045246792894939887 0 -0.3489658634393657 -0.058384012082006782 0 -0.36066681755822472 -0.045118253717945672 0 -0.3489658634393657 -0.058384012082006782 0 -0.34511111307690212 -0.046137334811030092 0 -0.36066681755822472 -0.045118253717945672 0 -0.35304062521722218 -0.036039659744318157 0 -0.3553139768507978 -0.023567241021099371 0 -0.33371347875736079 -0.040226824134751989 0 -0.34511111307690212 -0.046137334811030092 0 -0.35304062521722218 -0.036039659744318157 0 -0.33371347875736079 -0.040226824134751989 0 -0.34511111307690212 -0.046137334811030092 0 -0.35304062521722218 -0.036039659744318157 0 -0.36066681755822472 -0.045118253717945672 0 -0.36066681755822472 -0.045118253717945672 0 -0.37236777167708351 -0.031852495353884333 0 -0.35304062521722218 -0.036039659744318157 0 -0.37236777167708351 -0.031852495353884333 0 -0.35304062521722218 -0.036039659744318157 0 -0.36066681755822472 -0.045118253717945672 0 -0.37236777167708351 -0.031852495353884333 0 -0.36066681755822472 -0.045118253717945672 0 -0.37355784227175309 -0.045246792894939887 0 -0.37236777167708351 -0.031852495353884333 0 -0.37236777167708351 -0.031852495353884333 0 -0.3739022591900184 -0.02415390189740213 0 -0.36770044175442279 -0.02036669541201027 0 -0.37236777167708351 -0.031852495353884333 0 -0.36770044175442279 -0.02036669541201027 0 -0.3553139768507978 -0.023567241021099371 0 -0.36770044175442279 -0.02036669541201027 0 -0.35847393927256738 -0.010652033510738681 0 -0.38297625517291389 -0.017448943304264108 0 -0.35304062521722218 -0.036039659744318157 0 -0.37236777167708351 -0.031852495353884333 0 -0.3553139768507978 -0.023567241021099371 0 -0.3739022591900184 -0.02415390189740213 0 -0.36770044175442279 -0.02036669541201027 0 -0.38297625517291389 -0.017448943304264108 0 -0.36770044175442279 -0.02036669541201027 0 -0.35847393927256738 -0.010652033510738681 0 -0.3553139768507978 -0.023567241021099371 0 -0.35847393927256738 -0.010652033510738681 0 -0.38297625517291389 -0.017448943304264108 0 -0.37278444596104371 -0.0079457960458173115 0 -0.35847393927256738 -0.010652033510738681 0 -0.38297625517291389 -0.017448943304264108 0 -0.37474494217865062 -0.0022388935110706832 0 -0.37278444596104371 -0.0079457960458173115 0 -0.36307869926690151 -0.00068504054922277494 0 -0.37278444596104371 -0.0079457960458173115 0 -0.36307869926690151 -0.00068504054922277494 0 -0.35847393927256738 -0.010652033510738681 0 -0.36307869926690151 -0.00068504054922277494 0 -0.34718119132474479 -0.01384164818341615 0 -0.36064890389212972 0.0125435277679194 0 -0.36307869926690151 -0.00068504054922277494 0 -0.35847393927256738 -0.010652033510738681 0 -0.34718119132474479 -0.01384164818341615 0 -0.34718119132474479 -0.01384164818341615 0 -0.36064890389212972 0.0125435277679194 0 -0.34718119132474479 -0.01384164818341615 0 -0.3553139768507978 -0.023567241021099371 0 -0.33371347875736079 -0.040226824134751989 0 -0.35847393927256738 -0.010652033510738681 0 -0.34718119132474479 -0.01384164818341615 0 -0.3553139768507978 -0.023567241021099371 0 -0.34718119132474479 -0.01384164818341615 0 -0.33035884889608558 -0.02420969997450095 0 -0.33371347875736079 -0.040226824134751989 0 -0.34718119132474479 -0.01384164818341615 0 -0.33371347875736079 -0.040226824134751989 0 -0.34718119132474479 -0.01384164818341615 0 -0.32828291010712762 -0.0049346835118845543 0 -0.34055428987364128 0.0059527955302196532 0 -0.34718119132474479 -0.01384164818341615 0 -0.33035884889608558 -0.02420969997450095 0 -0.32828291010712762 -0.0049346835118845543 0 -0.31144738423897378 -0.02126732740536201 0 -0.32828291010712762 -0.0049346835118845543 0 -0.31177688145040278 0.0050359958776742568 0 -0.31144738423897378 -0.02126732740536201 0 -0.33116928005221918 -0.040778016637091109 0 -0.31144738423897378 -0.02126732740536201 0 -0.33035884889608558 -0.02420969997450095 0 -0.32828291010712762 -0.0049346835118845543 0 -0.31144738423897378 -0.02126732740536201 0 -0.33035884889608558 -0.02420969997450095 0 -0.33116928005221918 -0.040778016637091109 0 -0.3023660715744253 -0.047018139519123002 0 -0.31110423911055801 -0.035316851109560482 0 -0.33116928005221918 -0.040778016637091109 0 -0.3023660715744253 -0.047018139519123002 0 -0.31025625293594222 -0.050033124508212908 0 -0.33116928005221918 -0.040778016637091109 0 -0.3023660715744253 -0.047018139519123002 0 -0.33116928005221918 -0.040778016637091109 0 -0.31144738423897378 -0.02126732740536201 0 -0.31110423911055801 -0.035316851109560482 0 -0.33116928005221918 -0.040778016637091109 0 -0.31025625293594222 -0.050033124508212908 0 -0.31770057673851387 -0.05020147555903863 0 -0.33116928005221918 -0.040778016637091109 0 -0.31025625293594222 -0.050033124508212908 0 -0.31770057673851387 -0.05020147555903863 0 -0.31405483352543062 -0.056831087900065053 0 -0.31770057673851387 -0.05020147555903863 0 -0.31405483352543062 -0.056831087900065053 0 -0.31936567051967829 -0.054711673150449433 0 -0.31630436981946819 -0.062936971351065629 0 -0.31936567051967829 -0.054711673150449433 0 -0.32481687078849097 -0.058022226865728103 0 -0.30728911182784302 -0.064893595009923935 0 -0.31630436981946819 -0.062936971351065629 0 -0.31405483352543062 -0.056831087900065053 0 -0.31630436981946819 -0.062936971351065629 0 -0.31405483352543062 -0.056831087900065053 0 -0.31936567051967829 -0.054711673150449433 0 -0.31770057673851387 -0.05020147555903863 0 -0.32448711316898249 -0.050622394842538963 0 -0.33116928005221918 -0.040778016637091109 0 -0.31936567051967829 -0.054711673150449433 0 -0.32481687078849097 -0.058022226865728103 0 -0.32448711316898249 -0.050622394842538963 0 -0.31770057673851387 -0.05020147555903863 0 -0.31936567051967829 -0.054711673150449433 0 -0.32448711316898249 -0.050622394842538963 0 -0.32481687078849097 -0.058022226865728103 0 -0.32770904195502032 -0.053173566283506987 0 -0.32448711316898249 -0.050622394842538963 0 -0.32770904195502032 -0.053173566283506987 0 -0.32448711316898249 -0.050622394842538963 0 -0.32972533979495861 -0.048040159006195682 0 -0.3489658634393657 -0.058384012082006782 0 -0.34511111307690212 -0.046137334811030092 0 -0.3326728772282519 -0.042265511425067279 0 -0.32972533979495861 -0.048040159006195682 0 -0.33645864726091979 -0.05858208772264157 0 -0.3326728772282519 -0.042265511425067279 0 -0.3489658634393657 -0.058384012082006782 0 -0.3326728772282519 -0.042265511425067279 0 -0.32770904195502032 -0.053173566283506987 0 -0.32972533979495861 -0.048040159006195682 0 -0.33645864726091979 -0.05858208772264157 0 -0.3489658634393657 -0.058384012082006782 0 -0.33645864726091979 -0.05858208772264157 0 -0.3326728772282519 -0.042265511425067279 0 -0.32389808664530562 -0.067702049039115322 0 -0.32481687078849097 -0.058022226865728103 0 -0.33645864726091979 -0.05858208772264157 0 -0.32481687078849097 -0.058022226865728103 0 -0.32770904195502032 -0.053173566283506987 0 -0.33645864726091979 -0.05858208772264157 0 -0.34511111307690212 -0.046137334811030092 0 -0.33371347875736079 -0.040226824134751989 0 -0.3326728772282519 -0.042265511425067279 0 -0.33035884889608558 -0.02420969997450095 0 -0.33116928005221918 -0.040778016637091109 0 -0.33371347875736079 -0.040226824134751989 0 -0.35304062521722218 -0.036039659744318157 0 -0.33371347875736079 -0.040226824134751989 0 -0.32448711316898249 -0.050622394842538963 0 -0.32972533979495861 -0.048040159006195682 0 -0.33116928005221918 -0.040778016637091109 0 -0.33116928005221918 -0.040778016637091109 0 -0.3326728772282519 -0.042265511425067279 0 -0.32972533979495861 -0.048040159006195682 0 -0.3326728772282519 -0.042265511425067279 0 -0.32972533979495861 -0.048040159006195682 0 -0.33116928005221918 -0.040778016637091109 0 -0.3326728772282519 -0.042265511425067279 0 -0.33116928005221918 -0.040778016637091109 0 -0.33371347875736079 -0.040226824134751989 0 -0.33116928005221918 -0.040778016637091109 0 -0.33371347875736079 -0.040226824134751989 0 -0.3326728772282519 -0.042265511425067279 0 -0.33371347875736079 -0.040226824134751989 0 -0.3326728772282519 -0.042265511425067279 0 -0.2907170577323625 -0.25177677077710309 0 -0.30853150187083839 -0.25429835417001312 0 -0.30748271917561598 -0.2431056607245809 0 -0.30748271917561598 -0.2431056607245809 0 -0.3004866401015065 -0.2269264896544945 0 -0.32066485276457768 -0.2334308190911655 0 -0.2907170577323625 -0.25177677077710309 0 -0.30748271917561598 -0.2431056607245809 0 -0.3004866401015065 -0.2269264896544945 0 -0.30853150187083839 -0.25429835417001312 0 -0.30748271917561598 -0.2431056607245809 0 -0.32023222063025569 -0.2489608815952247 0 -0.3004866401015065 -0.2269264896544945 0 -0.27575903677895092 -0.22208668823385669 0 -0.3004866401015065 -0.2269264896544945 0 -0.27309361240676189 -0.24179026653703889 0 -0.27575903677895092 -0.22208668823385669 0 -0.3004866401015065 -0.2269264896544945 0 -0.27575903677895092 -0.22208668823385669 0 -0.29482007196541532 -0.2089319155152673 0 -0.2907170577323625 -0.25177677077710309 0 -0.3004866401015065 -0.2269264896544945 0 -0.27309361240676189 -0.24179026653703889 0 -0.27309361240676189 -0.24179026653703889 0 -0.25431856302814809 -0.24833495949118861 0 -0.25103143345639523 -0.21724688681321891 0 -0.27575903677895092 -0.22208668823385669 0 -0.25103143345639523 -0.21724688681321891 0 -0.27309361240676189 -0.24179026653703889 0 -0.27575903677895092 -0.22208668823385669 0 -0.25103143345639523 -0.21724688681321891 0 -0.27575903677895092 -0.22208668823385669 0 -0.25103143345639523 -0.21724688681321891 0 -0.27708552823660842 -0.19790031786117671 0 -0.25103143345639523 -0.21724688681321891 0 -0.25418198431724581 -0.18809916394242601 0 -0.27708552823660842 -0.19790031786117671 0 -0.27708552823660842 -0.19790031786117671 0 -0.29482007196541532 -0.2089319155152673 0 -0.30195969341908391 -0.19078830755985379 0 -0.29482007196541532 -0.2089319155152673 0 -0.30195969341908391 -0.19078830755985379 0 -0.32674672588845421 -0.2120308859258328 0 -0.3004866401015065 -0.2269264896544945 0 -0.29482007196541532 -0.2089319155152673 0 -0.32674672588845421 -0.2120308859258328 0 -0.27575903677895092 -0.22208668823385669 0 -0.27708552823660842 -0.19790031786117671 0 -0.29482007196541532 -0.2089319155152673 0 -0.30195969341908391 -0.19078830755985379 0 -0.30674796742087651 -0.1684647150882764 0 -0.32123008678095788 -0.18729232698745699 0 -0.30674796742087651 -0.1684647150882764 0 -0.2930126781551784 -0.15044668515260809 0 -0.3206808779707625 -0.15110047818677941 0 -0.27724699849667023 -0.17157804188827869 0 -0.2930126781551784 -0.15044668515260809 0 -0.30674796742087651 -0.1684647150882764 0 -0.27724699849667023 -0.17157804188827869 0 -0.2930126781551784 -0.15044668515260809 0 -0.27708552823660842 -0.19790031786117671 0 -0.30195969341908391 -0.19078830755985379 0 -0.27724699849667023 -0.17157804188827869 0 -0.30195969341908391 -0.19078830755985379 0 -0.30674796742087651 -0.1684647150882764 0 -0.27724699849667023 -0.17157804188827869 0 -0.25418198431724581 -0.18809916394242601 0 -0.27708552823660842 -0.19790031786117671 0 -0.27724699849667023 -0.17157804188827869 0 -0.25418198431724581 -0.18809916394242601 0 -0.2565438833259911 -0.1687602707777138 0 -0.27724699849667023 -0.17157804188827869 0 -0.2435592126657353 -0.1561425335328199 0 -0.2565438833259911 -0.1687602707777138 0 -0.26683780591716472 -0.14870377212940841 0 -0.27724699849667023 -0.17157804188827869 0 -0.26683780591716472 -0.14870377212940841 0 -0.2930126781551784 -0.15044668515260809 0 -0.2565438833259911 -0.1687602707777138 0 -0.27724699849667023 -0.17157804188827869 0 -0.26683780591716472 -0.14870377212940841 0 -0.2435592126657353 -0.1561425335328199 0 -0.2432602079730701 -0.13485583854350039 0 -0.26683780591716472 -0.14870377212940841 0 -0.2432602079730701 -0.13485583854350039 0 -0.26490928006600228 -0.12397715003998409 0 -0.26683780591716472 -0.14870377212940841 0 -0.26490928006600228 -0.12397715003998409 0 -0.26683780591716472 -0.14870377212940841 0 -0.28428672055728371 -0.13281235115180859 0 -0.28428672055728371 -0.13281235115180859 0 -0.2930126781551784 -0.15044668515260809 0 -0.30877835781368662 -0.12931532841693749 0 -0.26683780591716472 -0.14870377212940841 0 -0.28428672055728371 -0.13281235115180859 0 -0.2930126781551784 -0.15044668515260809 0 -0.2930126781551784 -0.15044668515260809 0 -0.30877835781368662 -0.12931532841693749 0 -0.3206808779707625 -0.15110047818677941 0 -0.2930126781551784 -0.15044668515260809 0 -0.30877835781368662 -0.12931532841693749 0 -0.33570809008837621 -0.11845594114356341 0 -0.30877835781368662 -0.12931532841693749 0 -0.33688620478323589 -0.13358080389391511 0 -0.30877835781368662 -0.12931532841693749 0 -0.3206808779707625 -0.15110047818677941 0 -0.33688620478323589 -0.13358080389391511 0 -0.3206808779707625 -0.15110047818677941 0 -0.33688620478323589 -0.13358080389391511 0 -0.34399943231138669 -0.15408109000358611 0 -0.33688620478323589 -0.13358080389391511 0 -0.35929992868189681 -0.1386942596847188 0 -0.35404294059136687 -0.1217835462641018 0 -0.33688620478323589 -0.13358080389391511 0 -0.35929992868189681 -0.1386942596847188 0 -0.35404294059136687 -0.1217835462641018 0 -0.35929992868189681 -0.1386942596847188 0 -0.37028068739271691 -0.13083580994494901 0 -0.35929992868189681 -0.1386942596847188 0 -0.37028068739271691 -0.13083580994494901 0 -0.3804539816512269 -0.14482329966991631 0 -0.35929992868189681 -0.1386942596847188 0 -0.3804539816512269 -0.14482329966991631 0 -0.35929992868189681 -0.1386942596847188 0 -0.3655172116091886 -0.15688196674787641 0 -0.3804539816512269 -0.14482329966991631 0 -0.3655172116091886 -0.15688196674787641 0 -0.3804539816512269 -0.14482329966991631 0 -0.3655172116091886 -0.15688196674787641 0 -0.37839901512320262 -0.15996290040625341 0 -0.3804539816512269 -0.14482329966991631 0 -0.33688620478323589 -0.13358080389391511 0 -0.35929992868189681 -0.1386942596847188 0 -0.34399943231138669 -0.15408109000358611 0 -0.35929992868189681 -0.1386942596847188 0 -0.34399943231138669 -0.15408109000358611 0 -0.3655172116091886 -0.15688196674787641 0 -0.34399943231138669 -0.15408109000358611 0 -0.35323542112630057 -0.1671812377988513 0 -0.3655172116091886 -0.15688196674787641 0 -0.3655172116091886 -0.15688196674787641 0 -0.37378547386561772 -0.17392500984250869 0 -0.37839901512320262 -0.15996290040625341 0 -0.35323542112630057 -0.1671812377988513 0 -0.3655172116091886 -0.15688196674787641 0 -0.37378547386561772 -0.17392500984250869 0 -0.37378547386561772 -0.17392500984250869 0 -0.35240556330307887 -0.18479875362473361 0 -0.36895563931783232 -0.19259611207654981 0 -0.35323542112630057 -0.1671812377988513 0 -0.37378547386561772 -0.17392500984250869 0 -0.35240556330307887 -0.18479875362473361 0 -0.35323542112630057 -0.1671812377988513 0 -0.35240556330307887 -0.18479875362473361 0 -0.33400288196205857 -0.17193246321376471 0 -0.35240556330307887 -0.18479875362473361 0 -0.33400288196205857 -0.17193246321376471 0 -0.33669316521431608 -0.19324526314955739 0 -0.33400288196205857 -0.17193246321376471 0 -0.32123008678095788 -0.18729232698745699 0 -0.33669316521431608 -0.19324526314955739 0 -0.3206808779707625 -0.15110047818677941 0 -0.34399943231138669 -0.15408109000358611 0 -0.33400288196205857 -0.17193246321376471 0 -0.34399943231138669 -0.15408109000358611 0 -0.35323542112630057 -0.1671812377988513 0 -0.33400288196205857 -0.17193246321376471 0 -0.30674796742087651 -0.1684647150882764 0 -0.3206808779707625 -0.15110047818677941 0 -0.33400288196205857 -0.17193246321376471 0 -0.30674796742087651 -0.1684647150882764 0 -0.33400288196205857 -0.17193246321376471 0 -0.32123008678095788 -0.18729232698745699 0 -0.30195969341908391 -0.19078830755985379 0 -0.32123008678095788 -0.18729232698745699 0 -0.32674672588845421 -0.2120308859258328 0 -0.32674672588845421 -0.2120308859258328 0 -0.35024140450074381 -0.20994798342056251 0 -0.32674672588845421 -0.2120308859258328 0 -0.33669316521431608 -0.19324526314955739 0 -0.35024140450074381 -0.20994798342056251 0 -0.32674672588845421 -0.2120308859258328 0 -0.35024140450074381 -0.20994798342056251 0 -0.3377174746324717 -0.2284461722996495 0 -0.32123008678095788 -0.18729232698745699 0 -0.32674672588845421 -0.2120308859258328 0 -0.33669316521431608 -0.19324526314955739 0 -0.35240556330307887 -0.18479875362473361 0 -0.36895563931783232 -0.19259611207654981 0 -0.35024140450074381 -0.20994798342056251 0 -0.35240556330307887 -0.18479875362473361 0 -0.33669316521431608 -0.19324526314955739 0 -0.35024140450074381 -0.20994798342056251 0 -0.36895563931783232 -0.19259611207654981 0 -0.37373608311303341 -0.20786508091529229 0 -0.35024140450074381 -0.20994798342056251 0 -0.37373608311303341 -0.20786508091529229 0 -0.35024140450074381 -0.20994798342056251 0 -0.37373608311303341 -0.20786508091529229 0 -0.35024140450074381 -0.20994798342056251 0 -0.36602803805366552 -0.21914337572849349 0 -0.37373608311303341 -0.20786508091529229 0 -0.36602803805366552 -0.21914337572849349 0 -0.37785639846487218 -0.21906994256996459 0 -0.35024140450074381 -0.20994798342056251 0 -0.357966965356528 -0.23170644806675769 0 -0.3377174746324717 -0.2284461722996495 0 -0.35024140450074381 -0.20994798342056251 0 -0.357966965356528 -0.23170644806675769 0 -0.36602803805366552 -0.21914337572849349 0 -0.357966965356528 -0.23170644806675769 0 -0.36602803805366552 -0.21914337572849349 0 -0.36983275924353248 -0.22875232439276311 0 -0.36602803805366552 -0.21914337572849349 0 -0.36983275924353248 -0.22875232439276311 0 -0.37785639846487218 -0.21906994256996459 0 -0.357966965356528 -0.23170644806675769 0 -0.36983275924353248 -0.22875232439276311 0 -0.37747963509906429 -0.24508953120583671 0 -0.35872453044413888 -0.25078889886649508 0 -0.357966965356528 -0.23170644806675769 0 -0.37747963509906429 -0.24508953120583671 0 -0.357966965356528 -0.23170644806675769 0 -0.34395992200845399 -0.24382677409400949 0 -0.3377174746324717 -0.2284461722996495 0 -0.35872453044413888 -0.25078889886649508 0 -0.357966965356528 -0.23170644806675769 0 -0.34395992200845399 -0.24382677409400949 0 -0.33345250408021371 -0.25331871279766999 0 -0.34395992200845399 -0.24382677409400949 0 -0.33132333615916232 -0.2411148243472106 0 -0.33345250408021371 -0.25331871279766999 0 -0.33132333615916232 -0.2411148243472106 0 -0.32023222063025569 -0.2489608815952247 0 -0.34395992200845399 -0.24382677409400949 0 -0.33132333615916232 -0.2411148243472106 0 -0.3377174746324717 -0.2284461722996495 0 -0.32674672588845421 -0.2120308859258328 0 -0.3377174746324717 -0.2284461722996495 0 -0.32066485276457768 -0.2334308190911655 0 -0.33132333615916232 -0.2411148243472106 0 -0.3377174746324717 -0.2284461722996495 0 -0.32066485276457768 -0.2334308190911655 0 -0.3004866401015065 -0.2269264896544945 0 -0.32674672588845421 -0.2120308859258328 0 -0.32066485276457768 -0.2334308190911655 0 -0.30748271917561598 -0.2431056607245809 0 -0.32066485276457768 -0.2334308190911655 0 -0.32023222063025569 -0.2489608815952247 0 -0.33132333615916232 -0.2411148243472106 0 -0.32066485276457768 -0.2334308190911655 0 -0.32023222063025569 -0.2489608815952247 0 -0.43445882011373449 -0.25478651907497341 0 -0.43806130733353449 -0.23541812032183559 0 -0.43445882011373449 -0.25478651907497341 0 -0.4258852610480256 -0.24284815888716721 0 -0.43806130733353449 -0.23541812032183559 0 -0.4258852610480256 -0.24284815888716721 0 -0.42538833238501789 -0.2333934851751748 0 -0.41698539980062188 -0.23875950084572559 0 -0.43445882011373449 -0.25478651907497341 0 -0.4258852610480256 -0.24284815888716721 0 -0.42335340856967768 -0.24893549408922019 0 -0.4258852610480256 -0.24284815888716721 0 -0.42538833238501789 -0.2333934851751748 0 -0.43806130733353449 -0.23541812032183559 0 -0.43091611572645672 -0.22699763907763329 0 -0.42538833238501789 -0.2333934851751748 0 -0.43806130733353449 -0.23541812032183559 0 -0.43091611572645672 -0.22699763907763329 0 -0.44166379455333399 -0.21604972156869759 0 -0.43806130733353449 -0.23541812032183559 0 -0.43091611572645672 -0.22699763907763329 0 -0.43133498143110582 -0.21921018883561361 0 -0.44166379455333399 -0.21604972156869759 0 -0.43133498143110582 -0.21921018883561361 0 -0.4232485836513401 -0.22477446532261011 0 -0.4232102070061276 -0.21869015764887889 0 -0.43091611572645672 -0.22699763907763329 0 -0.43133498143110582 -0.21921018883561361 0 -0.4232485836513401 -0.22477446532261011 0 -0.43091611572645672 -0.22699763907763329 0 -0.4232485836513401 -0.22477446532261011 0 -0.42538833238501789 -0.2333934851751748 0 -0.4232485836513401 -0.22477446532261011 0 -0.42538833238501789 -0.2333934851751748 0 -0.41731365953457839 -0.2310953018814938 0 -0.4232485836513401 -0.22477446532261011 0 -0.41731365953457839 -0.2310953018814938 0 -0.4121948509493269 -0.2247325638453028 0 -0.41731365953457839 -0.2310953018814938 0 -0.4080561583250083 -0.23272886934204159 0 -0.41698539980062188 -0.23875950084572559 0 -0.4232485836513401 -0.22477446532261011 0 -0.4121948509493269 -0.2247325638453028 0 -0.41685681033243982 -0.21746512418924929 0 -0.4232485836513401 -0.22477446532261011 0 -0.41685681033243982 -0.21746512418924929 0 -0.4232102070061276 -0.21869015764887889 0 -0.4121948509493269 -0.2247325638453028 0 -0.4080561583250083 -0.23272886934204159 0 -0.39971520205611372 -0.2221352637332015 0 -0.4121948509493269 -0.2247325638453028 0 -0.40807454407470489 -0.21592977391801271 0 -0.41685681033243982 -0.21746512418924929 0 -0.4121948509493269 -0.2247325638453028 0 -0.39971520205611372 -0.2221352637332015 0 -0.40807454407470489 -0.21592977391801271 0 -0.41731365953457839 -0.2310953018814938 0 -0.4121948509493269 -0.2247325638453028 0 -0.4080561583250083 -0.23272886934204159 0 -0.4080561583250083 -0.23272886934204159 0 -0.40983148527785651 -0.24118391776602099 0 -0.41698539980062188 -0.23875950084572559 0 -0.42538833238501789 -0.2333934851751748 0 -0.41731365953457839 -0.2310953018814938 0 -0.41698539980062188 -0.23875950084572559 0 -0.40983148527785651 -0.24118391776602099 0 -0.41698539980062188 -0.23875950084572559 0 -0.41627810448972868 -0.24641300060905449 0 -0.4258852610480256 -0.24284815888716721 0 -0.42335340856967768 -0.24893549408922019 0 -0.41627810448972868 -0.24641300060905449 0 -0.4258852610480256 -0.24284815888716721 0 -0.41698539980062188 -0.23875950084572559 0 -0.41627810448972868 -0.24641300060905449 0 -0.41679144862722167 -0.25169429778568547 0 -0.42335340856967768 -0.24893549408922019 0 -0.41627810448972868 -0.24641300060905449 0 -0.41385673751816382 -0.25312989710486528 0 -0.41627810448972868 -0.24641300060905449 0 -0.4086566941719203 -0.24778871483445111 0 -0.40983148527785651 -0.24118391776602099 0 -0.41627810448972868 -0.24641300060905449 0 -0.4086566941719203 -0.24778871483445111 0 -0.40282532782868952 -0.25224285689579767 0 -0.4086566941719203 -0.24778871483445111 0 -0.40022281387448849 -0.24084313907701979 0 -0.40983148527785651 -0.24118391776602099 0 -0.4086566941719203 -0.24778871483445111 0 -0.40022281387448849 -0.24084313907701979 0 -0.4080561583250083 -0.23272886934204159 0 -0.40983148527785651 -0.24118391776602099 0 -0.40022281387448849 -0.24084313907701979 0 -0.40022281387448849 -0.24084313907701979 0 -0.3903832871219331 -0.2411545733314838 0 -0.38772777019650018 -0.2315142496456449 0 -0.3938256931015453 -0.25037754026629511 0 -0.40022281387448849 -0.24084313907701979 0 -0.3903832871219331 -0.2411545733314838 0 -0.3938256931015453 -0.25037754026629511 0 -0.3903832871219331 -0.2411545733314838 0 -0.37747963509906429 -0.24508953120583671 0 -0.3903832871219331 -0.2411545733314838 0 -0.37747963509906429 -0.24508953120583671 0 -0.38772777019650018 -0.2315142496456449 0 -0.37747963509906429 -0.24508953120583671 0 -0.37785639846487218 -0.21906994256996459 0 -0.37747963509906429 -0.24508953120583671 0 -0.37785639846487218 -0.21906994256996459 0 -0.38772777019650018 -0.2315142496456449 0 -0.36983275924353248 -0.22875232439276311 0 -0.37747963509906429 -0.24508953120583671 0 -0.37785639846487218 -0.21906994256996459 0 -0.37785639846487218 -0.21906994256996459 0 -0.38772777019650018 -0.2315142496456449 0 -0.38790285805175961 -0.2167146319195192 0 -0.4080561583250083 -0.23272886934204159 0 -0.40022281387448849 -0.24084313907701979 0 -0.39971520205611372 -0.2221352637332015 0 -0.40022281387448849 -0.24084313907701979 0 -0.39971520205611372 -0.2221352637332015 0 -0.38772777019650018 -0.2315142496456449 0 -0.39971520205611372 -0.2221352637332015 0 -0.38790285805175961 -0.2167146319195192 0 -0.40022281387448849 -0.24084313907701979 0 -0.38772777019650018 -0.2315142496456449 0 -0.39971520205611372 -0.2221352637332015 0 -0.39971520205611372 -0.2221352637332015 0 -0.39723076172532301 -0.205782178410022 0 -0.40807454407470489 -0.21592977391801271 0 -0.39971520205611372 -0.2221352637332015 0 -0.39723076172532301 -0.205782178410022 0 -0.38790285805175961 -0.2167146319195192 0 -0.39723076172532301 -0.205782178410022 0 -0.41303892827123678 -0.21093405469715851 0 -0.40807454407470489 -0.21592977391801271 0 -0.37373608311303341 -0.20786508091529229 0 -0.39723076172532301 -0.205782178410022 0 -0.38370630256805799 -0.1971119561512929 0 -0.37373608311303341 -0.20786508091529229 0 -0.39723076172532301 -0.205782178410022 0 -0.38790285805175961 -0.2167146319195192 0 -0.37373608311303341 -0.20786508091529229 0 -0.39723076172532301 -0.205782178410022 0 -0.37373608311303341 -0.20786508091529229 0 -0.37785639846487218 -0.21906994256996459 0 -0.38790285805175961 -0.2167146319195192 0 -0.36895563931783232 -0.19259611207654981 0 -0.38370630256805799 -0.1971119561512929 0 -0.3831693110633177 -0.1873742460103984 0 -0.36895563931783232 -0.19259611207654981 0 -0.37373608311303341 -0.20786508091529229 0 -0.38370630256805799 -0.1971119561512929 0 -0.38370630256805799 -0.1971119561512929 0 -0.39543971762078378 -0.19194216334420211 0 -0.3831693110633177 -0.1873742460103984 0 -0.39723076172532301 -0.205782178410022 0 -0.38370630256805799 -0.1971119561512929 0 -0.39543971762078378 -0.19194216334420211 0 -0.39723076172532301 -0.205782178410022 0 -0.39543971762078378 -0.19194216334420211 0 -0.40534117689708921 -0.19634387975323889 0 -0.39543971762078378 -0.19194216334420211 0 -0.40534117689708921 -0.19634387975323889 0 -0.40730162077548249 -0.18407395049314179 0 -0.39723076172532301 -0.205782178410022 0 -0.40534117689708921 -0.19634387975323889 0 -0.42072544033761272 -0.20369927590475301 0 -0.42032122747045741 -0.1927313373696285 0 -0.42072544033761272 -0.20369927590475301 0 -0.40730162077548249 -0.18407395049314179 0 -0.42072544033761272 -0.20369927590475301 0 -0.40730162077548249 -0.18407395049314179 0 -0.40534117689708921 -0.19634387975323889 0 -0.42072544033761272 -0.20369927590475301 0 -0.40730162077548249 -0.18407395049314179 0 -0.39723076172532301 -0.205782178410022 0 -0.41303892827123678 -0.21093405469715851 0 -0.42072544033761272 -0.20369927590475301 0 -0.39723076172532301 -0.205782178410022 0 -0.42072544033761272 -0.20369927590475301 0 -0.41303892827123678 -0.21093405469715851 0 -0.40807454407470489 -0.21592977391801271 0 -0.41685681033243982 -0.21746512418924929 0 -0.41303892827123678 -0.21093405469715851 0 -0.41685681033243982 -0.21746512418924929 0 -0.42140045260962489 -0.21331085224804261 0 -0.41685681033243982 -0.21746512418924929 0 -0.42140045260962489 -0.21331085224804261 0 -0.4232102070061276 -0.21869015764887889 0 -0.41303892827123678 -0.21093405469715851 0 -0.42140045260962489 -0.21331085224804261 0 -0.42072544033761272 -0.20369927590475301 0 -0.42512182626149492 -0.2033095177213731 0 -0.43378961613155448 -0.20908682079381441 0 -0.44184138868315109 -0.20247798044170351 0 -0.42072544033761272 -0.20369927590475301 0 -0.42512182626149492 -0.2033095177213731 0 -0.43133498143110582 -0.21921018883561361 0 -0.42072544033761272 -0.20369927590475301 0 -0.42512182626149492 -0.2033095177213731 0 -0.43133498143110582 -0.21921018883561361 0 -0.42512182626149492 -0.2033095177213731 0 -0.43378961613155448 -0.20908682079381441 0 -0.43133498143110582 -0.21921018883561361 0 -0.42140045260962489 -0.21331085224804261 0 -0.4232102070061276 -0.21869015764887889 0 -0.43133498143110582 -0.21921018883561361 0 -0.42072544033761272 -0.20369927590475301 0 -0.43133498143110582 -0.21921018883561361 0 -0.42140045260962489 -0.21331085224804261 0 -0.42072544033761272 -0.20369927590475301 0 -0.43133498143110582 -0.21921018883561361 0 -0.43378961613155448 -0.20908682079381441 0 -0.44166379455333399 -0.21604972156869759 0 -0.42032122747045741 -0.1927313373696285 0 -0.44184138868315109 -0.20247798044170351 0 -0.42032122747045741 -0.1927313373696285 0 -0.43099962817645188 -0.18319011649723049 0 -0.43833565968517207 -0.19112957676178299 0 -0.42032122747045741 -0.1927313373696285 0 -0.42512182626149492 -0.2033095177213731 0 -0.44184138868315109 -0.20247798044170351 0 -0.42032122747045741 -0.1927313373696285 0 -0.43833565968517207 -0.19112957676178299 0 -0.44184138868315109 -0.20247798044170351 0 -0.42032122747045741 -0.1927313373696285 0 -0.42072544033761272 -0.20369927590475301 0 -0.42512182626149492 -0.2033095177213731 0 -0.42549584187692119 -0.17333418479170171 0 -0.43099962817645188 -0.18319011649723049 0 -0.41834400919125792 -0.18158621355319651 0 -0.42032122747045741 -0.1927313373696285 0 -0.43099962817645188 -0.18319011649723049 0 -0.41834400919125792 -0.18158621355319651 0 -0.43099962817645188 -0.18319011649723049 0 -0.43495901877196291 -0.17485617288990979 0 -0.44455133712372419 -0.18300714728765441 0 -0.42549584187692119 -0.17333418479170171 0 -0.43099962817645188 -0.18319011649723049 0 -0.43495901877196291 -0.17485617288990979 0 -0.42549584187692119 -0.17333418479170171 0 -0.43495901877196291 -0.17485617288990979 0 -0.43155613508544272 -0.1669321437644439 0 -0.43495901877196291 -0.17485617288990979 0 -0.43155613508544272 -0.1669321437644439 0 -0.44219215159727421 -0.16781727210851849 0 -0.43155613508544272 -0.1669321437644439 0 -0.43166640735559808 -0.1552039120346444 0 -0.44219215159727421 -0.16781727210851849 0 -0.43155613508544272 -0.1669321437644439 0 -0.4214232379976206 -0.16216052115063159 0 -0.43166640735559808 -0.1552039120346444 0 -0.42549584187692119 -0.17333418479170171 0 -0.43155613508544272 -0.1669321437644439 0 -0.4214232379976206 -0.16216052115063159 0 -0.42549584187692119 -0.17333418479170171 0 -0.4214232379976206 -0.16216052115063159 0 -0.41110577652129249 -0.1670682470007229 0 -0.4214232379976206 -0.16216052115063159 0 -0.41110577652129249 -0.1670682470007229 0 -0.40669002996807779 -0.1495058137550834 0 -0.41110577652129249 -0.1670682470007229 0 -0.41834400919125792 -0.18158621355319651 0 -0.40730162077548249 -0.18407395049314179 0 -0.42549584187692119 -0.17333418479170171 0 -0.41110577652129249 -0.1670682470007229 0 -0.41834400919125792 -0.18158621355319651 0 -0.42032122747045741 -0.1927313373696285 0 -0.41834400919125792 -0.18158621355319651 0 -0.40730162077548249 -0.18407395049314179 0 -0.39543971762078378 -0.19194216334420211 0 -0.40730162077548249 -0.18407395049314179 0 -0.39267839793348491 -0.17927693187167279 0 -0.40730162077548249 -0.18407395049314179 0 -0.39267839793348491 -0.17927693187167279 0 -0.39387780121335469 -0.16444862508152899 0 -0.40730162077548249 -0.18407395049314179 0 -0.39387780121335469 -0.16444862508152899 0 -0.37378547386561772 -0.17392500984250869 0 -0.36895563931783232 -0.19259611207654981 0 -0.3831693110633177 -0.1873742460103984 0 -0.37378547386561772 -0.17392500984250869 0 -0.39267839793348491 -0.17927693187167279 0 -0.3831693110633177 -0.1873742460103984 0 -0.37378547386561772 -0.17392500984250869 0 -0.39267839793348491 -0.17927693187167279 0 -0.39387780121335469 -0.16444862508152899 0 -0.39543971762078378 -0.19194216334420211 0 -0.39267839793348491 -0.17927693187167279 0 -0.3831693110633177 -0.1873742460103984 0 -0.37378547386561772 -0.17392500984250869 0 -0.37839901512320262 -0.15996290040625341 0 -0.39387780121335469 -0.16444862508152899 0 -0.37839901512320262 -0.15996290040625341 0 -0.39387780121335469 -0.16444862508152899 0 -0.3804539816512269 -0.14482329966991631 0 -0.41110577652129249 -0.1670682470007229 0 -0.39387780121335469 -0.16444862508152899 0 -0.40669002996807779 -0.1495058137550834 0 -0.41110577652129249 -0.1670682470007229 0 -0.40730162077548249 -0.18407395049314179 0 -0.39387780121335469 -0.16444862508152899 0 -0.39387780121335469 -0.16444862508152899 0 -0.3804539816512269 -0.14482329966991631 0 -0.40669002996807779 -0.1495058137550834 0 -0.3804539816512269 -0.14482329966991631 0 -0.39647179587780151 -0.13189450107720049 0 -0.40669002996807779 -0.1495058137550834 0 -0.3804539816512269 -0.14482329966991631 0 -0.40669002996807779 -0.1495058137550834 0 -0.39387780121335469 -0.16444862508152899 0 -0.3804539816512269 -0.14482329966991631 0 -0.3804539816512269 -0.14482329966991631 0 -0.38278168804071749 -0.12940228238898679 0 -0.39647179587780151 -0.13189450107720049 0 -0.3804539816512269 -0.14482329966991631 0 -0.39647179587780151 -0.13189450107720049 0 -0.37212838853434238 -0.11808059788504249 0 -0.37028068739271691 -0.13083580994494901 0 -0.38278168804071749 -0.12940228238898679 0 -0.37028068739271691 -0.13083580994494901 0 -0.3804539816512269 -0.14482329966991631 0 -0.38278168804071749 -0.12940228238898679 0 -0.38278168804071749 -0.12940228238898679 0 -0.39647179587780151 -0.13189450107720049 0 -0.39044023874876249 -0.11757149150947201 0 -0.39647179587780151 -0.13189450107720049 0 -0.40828286160401828 -0.1310364195873514 0 -0.40669002996807779 -0.1495058137550834 0 -0.39647179587780151 -0.13189450107720049 0 -0.40828286160401828 -0.1310364195873514 0 -0.41122993917504558 -0.1199812866788818 0 -0.39647179587780151 -0.13189450107720049 0 -0.41122993917504558 -0.1199812866788818 0 -0.40828286160401828 -0.1310364195873514 0 -0.41930562378398423 -0.12797048681614909 0 -0.41122993917504558 -0.1199812866788818 0 -0.41930562378398423 -0.12797048681614909 0 -0.41533589961201212 -0.13938201891822019 0 -0.4273858072007774 -0.14414008567558009 0 -0.40828286160401828 -0.1310364195873514 0 -0.41533589961201212 -0.13938201891822019 0 -0.40669002996807779 -0.1495058137550834 0 -0.40828286160401828 -0.1310364195873514 0 -0.41930562378398423 -0.12797048681614909 0 -0.41533589961201212 -0.13938201891822019 0 -0.40669002996807779 -0.1495058137550834 0 -0.43166640735559808 -0.1552039120346444 0 -0.4214232379976206 -0.16216052115063159 0 -0.40669002996807779 -0.1495058137550834 0 -0.43166640735559808 -0.1552039120346444 0 -0.41533589961201212 -0.13938201891822019 0 -0.40669002996807779 -0.1495058137550834 0 -0.4273858072007774 -0.14414008567558009 0 -0.40669002996807779 -0.1495058137550834 0 -0.4273858072007774 -0.14414008567558009 0 -0.43166640735559808 -0.1552039120346444 0 -0.43166640735559808 -0.1552039120346444 0 -0.43525592456887258 -0.14374997194848471 0 -0.44410307239699631 -0.15282998285397989 0 -0.4273858072007774 -0.14414008567558009 0 -0.43166640735559808 -0.1552039120346444 0 -0.43525592456887258 -0.14374997194848471 0 -0.41930562378398423 -0.12797048681614909 0 -0.43525592456887258 -0.14374997194848471 0 -0.41930562378398423 -0.12797048681614909 0 -0.4273858072007774 -0.14414008567558009 0 -0.43525592456887258 -0.14374997194848471 0 -0.41930562378398423 -0.12797048681614909 0 -0.4273858072007774 -0.14414008567558009 0 -0.41930562378398423 -0.12797048681614909 0 -0.43525592456887258 -0.14374997194848471 0 -0.43389101300267191 -0.13422730327376839 0 -0.41930562378398423 -0.12797048681614909 0 -0.43389101300267191 -0.13422730327376839 0 -0.4149348530849476 -0.1169905694289516 0 -0.43389101300267191 -0.13422730327376839 0 -0.4149348530849476 -0.1169905694289516 0 -0.43389101300267191 -0.13422730327376839 0 -0.43160182387889101 -0.1187955019330571 0 -0.44085253015216358 -0.1237950587173612 0 -0.43389101300267191 -0.13422730327376839 0 -0.44872577578551592 -0.13320174295465559 0 -0.452847172920396 -0.1514640371185853 0 -0.44872577578551592 -0.13320174295465559 0 -0.45896755277767909 -0.12575633132281341 0 -0.45000974795797011 -0.119430952696417 0 -0.44872577578551592 -0.13320174295465559 0 -0.45000974795797011 -0.119430952696417 0 -0.44085253015216358 -0.1237950587173612 0 -0.43389101300267191 -0.13422730327376839 0 -0.44872577578551592 -0.13320174295465559 0 -0.44085253015216358 -0.1237950587173612 0 -0.43525592456887258 -0.14374997194848471 0 -0.43389101300267191 -0.13422730327376839 0 -0.452847172920396 -0.1514640371185853 0 -0.43525592456887258 -0.14374997194848471 0 -0.44410307239699631 -0.15282998285397989 0 -0.452847172920396 -0.1514640371185853 0 -0.44872577578551592 -0.13320174295465559 0 -0.452847172920396 -0.1514640371185853 0 -0.456386085566235 -0.14096643446963419 0 -0.43389101300267191 -0.13422730327376839 0 -0.452847172920396 -0.1514640371185853 0 -0.44410307239699631 -0.15282998285397989 0 -0.452847172920396 -0.1514640371185853 0 -0.45664278474311831 -0.16090201031420531 0 -0.452847172920396 -0.1514640371185853 0 -0.456386085566235 -0.14096643446963419 0 -0.46738274896045578 -0.15003021006820461 0 -0.452847172920396 -0.1514640371185853 0 -0.46738274896045578 -0.15003021006820461 0 -0.45664278474311831 -0.16090201031420531 0 -0.456386085566235 -0.14096643446963419 0 -0.46738274896045578 -0.15003021006820461 0 -0.47200539146090159 -0.13839174763128981 0 -0.456386085566235 -0.14096643446963419 0 -0.47200539146090159 -0.13839174763128981 0 -0.47750202174635031 -0.1215216316744509 0 -0.456386085566235 -0.14096643446963419 0 -0.45896755277767909 -0.12575633132281341 0 -0.47750202174635031 -0.1215216316744509 0 -0.456386085566235 -0.14096643446963419 0 -0.47750202174635031 -0.1215216316744509 0 -0.44872577578551592 -0.13320174295465559 0 -0.456386085566235 -0.14096643446963419 0 -0.45896755277767909 -0.12575633132281341 0 -0.47200539146090159 -0.13839174763128981 0 -0.48675070957056549 -0.14104871431286931 0 -0.47750202174635031 -0.1215216316744509 0 -0.50000000000000011 -0.12648838757554831 0 -0.48675070957056549 -0.14104871431286931 0 -0.5 -0.15043640832747529 0 -0.50000000000000011 -0.12648838757554831 0 -0.48675070957056549 -0.14104871431286931 0 -0.47750202174635031 -0.1215216316744509 0 -0.48675070957056549 -0.14104871431286931 0 -0.5 -0.15043640832747529 0 -0.48062174440056549 -0.15969986187448909 0 -0.46738274896045578 -0.15003021006820461 0 -0.47200539146090159 -0.13839174763128981 0 -0.48675070957056549 -0.14104871431286931 0 -0.48675070957056549 -0.14104871431286931 0 -0.48062174440056549 -0.15969986187448909 0 -0.46738274896045578 -0.15003021006820461 0 -0.48675070957056549 -0.14104871431286931 0 -0.48062174440056549 -0.15969986187448909 0 -0.48062174440056549 -0.15969986187448909 0 -0.46548313673471758 -0.16971310035941381 0 -0.46753260370971428 -0.1600862956540782 0 -0.46738274896045578 -0.15003021006820461 0 -0.48062174440056549 -0.15969986187448909 0 -0.46753260370971428 -0.1600862956540782 0 -0.48062174440056549 -0.15969986187448909 0 -0.47449277923056221 -0.17835100943610771 0 -0.46548313673471758 -0.16971310035941381 0 -0.48062174440056549 -0.15969986187448909 0 -0.47449277923056221 -0.17835100943610771 0 -0.5 -0.15043640832747529 0 -0.48062174440056549 -0.15969986187448909 0 -0.49999999999999828 -0.17438442907940241 0 -0.48062174440056549 -0.15969986187448909 0 -0.49999999999999828 -0.17438442907940241 0 -0.47449277923056221 -0.17835100943610771 0 -0.49999999999999828 -0.17438442907940241 0 -0.47449277923056221 -0.17835100943610771 0 -0.49999999999999828 -0.17438442907940241 0 -0.47449277923056221 -0.17835100943610771 0 -0.48549376880548989 -0.19132810400505559 0 -0.47449277923056221 -0.17835100943610771 0 -0.46892716456320649 -0.19528781647494389 0 -0.47449277923056221 -0.17835100943610771 0 -0.45952205817714309 -0.18067907836188021 0 -0.46892716456320649 -0.19528781647494389 0 -0.45952205817714309 -0.18067907836188021 0 -0.46548313673471758 -0.16971310035941381 0 -0.45289664290439807 -0.17180374819378549 0 -0.47449277923056221 -0.17835100943610771 0 -0.45952205817714309 -0.18067907836188021 0 -0.47449277923056221 -0.17835100943610771 0 -0.45952205817714309 -0.18067907836188021 0 -0.46548313673471758 -0.16971310035941381 0 -0.46548313673471758 -0.16971310035941381 0 -0.46753260370971428 -0.1600862956540782 0 -0.45664278474311831 -0.16090201031420531 0 -0.46738274896045578 -0.15003021006820461 0 -0.46753260370971428 -0.1600862956540782 0 -0.45664278474311831 -0.16090201031420531 0 -0.46548313673471758 -0.16971310035941381 0 -0.45664278474311831 -0.16090201031420531 0 -0.45289664290439807 -0.17180374819378549 0 -0.45664278474311831 -0.16090201031420531 0 -0.45289664290439807 -0.17180374819378549 0 -0.44219215159727421 -0.16781727210851849 0 -0.43166640735559808 -0.1552039120346444 0 -0.45664278474311831 -0.16090201031420531 0 -0.44219215159727421 -0.16781727210851849 0 -0.43166640735559808 -0.1552039120346444 0 -0.45664278474311831 -0.16090201031420531 0 -0.43166640735559808 -0.1552039120346444 0 -0.44410307239699631 -0.15282998285397989 0 -0.45664278474311831 -0.16090201031420531 0 -0.43495901877196291 -0.17485617288990979 0 -0.44219215159727421 -0.16781727210851849 0 -0.44455133712372419 -0.18300714728765441 0 -0.43099962817645188 -0.18319011649723049 0 -0.44455133712372419 -0.18300714728765441 0 -0.43833565968517207 -0.19112957676178299 0 -0.45952205817714309 -0.18067907836188021 0 -0.44455133712372419 -0.18300714728765441 0 -0.45396471697207569 -0.194241302212698 0 -0.45952205817714309 -0.18067907836188021 0 -0.44455133712372419 -0.18300714728765441 0 -0.45952205817714309 -0.18067907836188021 0 -0.45289664290439807 -0.17180374819378549 0 -0.44455133712372419 -0.18300714728765441 0 -0.45289664290439807 -0.17180374819378549 0 -0.44219215159727421 -0.16781727210851849 0 -0.44455133712372419 -0.18300714728765441 0 -0.44455133712372419 -0.18300714728765441 0 -0.43833565968517207 -0.19112957676178299 0 -0.45396471697207569 -0.194241302212698 0 -0.43833565968517207 -0.19112957676178299 0 -0.44184138868315109 -0.20247798044170351 0 -0.45396471697207569 -0.194241302212698 0 -0.44184138868315109 -0.20247798044170351 0 -0.46336154989584488 -0.2122246235137781 0 -0.45396471697207569 -0.194241302212698 0 -0.44184138868315109 -0.20247798044170351 0 -0.46336154989584488 -0.2122246235137781 0 -0.45338394269579491 -0.2190794284651259 0 -0.43378961613155448 -0.20908682079381441 0 -0.44184138868315109 -0.20247798044170351 0 -0.44166379455333399 -0.21604972156869759 0 -0.44184138868315109 -0.20247798044170351 0 -0.44166379455333399 -0.21604972156869759 0 -0.45338394269579491 -0.2190794284651259 0 -0.44184138868315109 -0.20247798044170351 0 -0.46336154989584488 -0.2122246235137781 0 -0.46336154989584488 -0.2122246235137781 0 -0.46892716456320649 -0.19528781647494389 0 -0.46336154989584488 -0.2122246235137781 0 -0.45396471697207569 -0.194241302212698 0 -0.46892716456320649 -0.19528781647494389 0 -0.45952205817714309 -0.18067907836188021 0 -0.45396471697207569 -0.194241302212698 0 -0.46892716456320649 -0.19528781647494389 0 -0.47449277923056221 -0.17835100943610771 0 -0.46892716456320649 -0.19528781647494389 0 -0.48549376880548989 -0.19132810400505559 0 -0.46892716456320649 -0.19528781647494389 0 -0.48549376880548989 -0.19132810400505559 0 -0.47978640147694102 -0.20418872613165631 0 -0.5 -0.20182215567114031 0 -0.48549376880548989 -0.19132810400505559 0 -0.47978640147694102 -0.20418872613165631 0 -0.49999999999999828 -0.17438442907940241 0 -0.5 -0.20182215567114031 0 -0.48549376880548989 -0.19132810400505559 0 -0.5 -0.20182215567114031 0 -0.48114952412016337 -0.22028093099336349 0 -0.49893749834448198 -0.22833723847294871 0 -0.5 -0.20182215567114031 0 -0.47978640147694102 -0.20418872613165631 0 -0.48114952412016337 -0.22028093099336349 0 -0.46336154989584488 -0.2122246235137781 0 -0.48114952412016337 -0.22028093099336349 0 -0.46336154989584488 -0.2122246235137781 0 -0.47978640147694102 -0.20418872613165631 0 -0.48114952412016337 -0.22028093099336349 0 -0.46336154989584488 -0.2122246235137781 0 -0.46892716456320649 -0.19528781647494389 0 -0.47978640147694102 -0.20418872613165631 0 -0.46336154989584488 -0.2122246235137781 0 -0.48114952412016337 -0.22028093099336349 0 -0.46857810181099829 -0.22486784275082261 0 -0.48114952412016337 -0.22028093099336349 0 -0.48798868478634799 -0.231470988200419 0 -0.47142395938804471 -0.23802335247430181 0 -0.48114952412016337 -0.22028093099336349 0 -0.47142395938804471 -0.23802335247430181 0 -0.46857810181099829 -0.22486784275082261 0 -0.48114952412016337 -0.22028093099336349 0 -0.48798868478634799 -0.231470988200419 0 -0.49893749834448198 -0.22833723847294871 0 -0.48114952412016337 -0.22028093099336349 0 -0.49893749834448198 -0.22833723847294871 0 -0.48798868478634799 -0.231470988200419 0 -0.49893749834448198 -0.22833723847294871 0 -0.4875835208682564 -0.24248539692068891 0 -0.5 -0.25669760885461612 0 -0.49893749834448198 -0.22833723847294871 0 -0.4875835208682564 -0.24248539692068891 0 -0.48798868478634799 -0.231470988200419 0 -0.4875835208682564 -0.24248539692068891 0 -0.47142395938804471 -0.23802335247430181 0 -0.47878778985378329 -0.25835102983948688 0 -0.4875835208682564 -0.24248539692068891 0 -0.47142395938804471 -0.23802335247430181 0 -0.45662330498375908 -0.25656877445722759 0 -0.47142395938804471 -0.23802335247430181 0 -0.45034617445999431 -0.24335722649563979 0 -0.47142395938804471 -0.23802335247430181 0 -0.45735065046854989 -0.23051648340969341 0 -0.45034617445999431 -0.24335722649563979 0 -0.46336154989584488 -0.2122246235137781 0 -0.46857810181099829 -0.22486784275082261 0 -0.45735065046854989 -0.23051648340969341 0 -0.46336154989584488 -0.2122246235137781 0 -0.45735065046854989 -0.23051648340969341 0 -0.47142395938804471 -0.23802335247430181 0 -0.46857810181099829 -0.22486784275082261 0 -0.45735065046854989 -0.23051648340969341 0 -0.46336154989584488 -0.2122246235137781 0 -0.45338394269579491 -0.2190794284651259 0 -0.45735065046854989 -0.23051648340969341 0 -0.45338394269579491 -0.2190794284651259 0 -0.45735065046854989 -0.23051648340969341 0 -0.43806130733353449 -0.23541812032183559 0 -0.44166379455333399 -0.21604972156869759 0 -0.43806130733353449 -0.23541812032183559 0 -0.44166379455333399 -0.21604972156869759 0 -0.45338394269579491 -0.2190794284651259 0 -0.43806130733353449 -0.23541812032183559 0 -0.45735065046854989 -0.23051648340969341 0 -0.45034617445999431 -0.24335722649563979 0 -0.43806130733353449 -0.23541812032183559 0 -0.43445882011373449 -0.25478651907497341 0 -0.45034617445999431 -0.24335722649563979 0 -0.43806130733353449 -0.23541812032183559 0 -0.41324955929443102 -0.038374170610562031 0 -0.41005136228565903 -0.05540387285823338 0 -0.42435348212729052 -0.04457483879584373 0 -0.41324955929443102 -0.038374170610562031 0 -0.41005136228565903 -0.05540387285823338 0 -0.39900851660089293 -0.046429079601448257 0 -0.41324955929443102 -0.038374170610562031 0 -0.40747857107326091 -0.02424585309778798 0 -0.40045416304880688 -0.034240371911693122 0 -0.41005136228565903 -0.05540387285823338 0 -0.4246600563061857 -0.059067830999859447 0 -0.41422906440869389 -0.068128229862373102 0 -0.41005136228565903 -0.05540387285823338 0 -0.4246600563061857 -0.059067830999859447 0 -0.42435348212729052 -0.04457483879584373 0 -0.4246600563061857 -0.059067830999859447 0 -0.42435348212729052 -0.04457483879584373 0 -0.43957367317472601 -0.045089571971719818 0 -0.4246600563061857 -0.059067830999859447 0 -0.43957367317472601 -0.045089571971719818 0 -0.44544580640037118 -0.056213229689383748 0 -0.41324955929443102 -0.038374170610562031 0 -0.42435348212729052 -0.04457483879584373 0 -0.42981912379901888 -0.030443092666165631 0 -0.42435348212729052 -0.04457483879584373 0 -0.42981912379901888 -0.030443092666165631 0 -0.43957367317472601 -0.045089571971719818 0 -0.41302196833726168 -0.01226972299954816 0 -0.4392085005598273 -0.024676348383282701 0 -0.42659341977192161 -0.010103830507352861 0 -0.41302196833726168 -0.01226972299954816 0 -0.4392085005598273 -0.024676348383282701 0 -0.42981912379901888 -0.030443092666165631 0 -0.41673372021425997 -0.022240754673565791 0 -0.4392085005598273 -0.024676348383282701 0 -0.41302196833726168 -0.01226972299954816 0 -0.41673372021425997 -0.022240754673565791 0 -0.4392085005598273 -0.024676348383282701 0 -0.43741768347029059 -0.01288367903972009 0 -0.42659341977192161 -0.010103830507352861 0 -0.4392085005598273 -0.024676348383282701 0 -0.4441818909265971 -0.00998157505946092 0 -0.42578104856505677 0.0031949168855625672 0 -0.43741768347029059 -0.01288367903972009 0 -0.4441818909265971 -0.00998157505946092 0 -0.42578104856505677 0.0031949168855625672 0 -0.43741768347029059 -0.01288367903972009 0 -0.42659341977192161 -0.010103830507352861 0 -0.42578104856505677 0.0031949168855625672 0 -0.43741768347029059 -0.01288367903972009 0 -0.42578104856505677 0.0031949168855625672 0 -0.42659341977192161 -0.010103830507352861 0 -0.41753789792717189 -0.0038843189997757009 0 -0.42578104856505677 0.0031949168855625672 0 -0.42659341977192161 -0.010103830507352861 0 -0.41753789792717189 -0.0038843189997757009 0 -0.41302196833726168 -0.01226972299954816 0 -0.41753789792717189 -0.0038843189997757009 0 -0.41302196833726168 -0.01226972299954816 0 -0.40771050441737638 -0.0035262849216432719 0 -0.41753789792717189 -0.0038843189997757009 0 -0.40771050441737638 -0.0035262849216432719 0 -0.41105156913745711 0.0034129409419674369 0 -0.42981912379901888 -0.030443092666165631 0 -0.40747857107326091 -0.02424585309778798 0 -0.41324955929443102 -0.038374170610562031 0 -0.42981912379901888 -0.030443092666165631 0 -0.40747857107326091 -0.02424585309778798 0 -0.42981912379901888 -0.030443092666165631 0 -0.41673372021425997 -0.022240754673565791 0 -0.40747857107326091 -0.02424585309778798 0 -0.41302196833726168 -0.01226972299954816 0 -0.41673372021425997 -0.022240754673565791 0 -0.40747857107326091 -0.02424585309778798 0 -0.41673372021425997 -0.022240754673565791 0 -0.40747857107326091 -0.02424585309778798 0 -0.40747857107326091 -0.02424585309778798 0 -0.38992317137517202 -0.02804917422583518 0 -0.40747857107326091 -0.02424585309778798 0 -0.38992317137517202 -0.02804917422583518 0 -0.38297625517291389 -0.017448943304264108 0 -0.40747857107326091 -0.02424585309778798 0 -0.38992317137517202 -0.02804917422583518 0 -0.40045416304880688 -0.034240371911693122 0 -0.40747857107326091 -0.02424585309778798 0 -0.39567459441968961 -0.012635194689989219 0 -0.38297625517291389 -0.017448943304264108 0 -0.40747857107326091 -0.02424585309778798 0 -0.38297625517291389 -0.017448943304264108 0 -0.41302196833726168 -0.01226972299954816 0 -0.40747857107326091 -0.02424585309778798 0 -0.39567459441968961 -0.012635194689989219 0 -0.41302196833726168 -0.01226972299954816 0 -0.40771050441737638 -0.0035262849216432719 0 -0.38683543611469601 0.0001369023841863784 0 -0.41302196833726168 -0.01226972299954816 0 -0.39567459441968961 -0.012635194689989219 0 -0.38683543611469601 0.0001369023841863784 0 -0.41302196833726168 -0.01226972299954816 0 -0.38683543611469601 0.0001369023841863784 0 -0.40771050441737638 -0.0035262849216432719 0 -0.38683543611469601 0.0001369023841863784 0 -0.40226596945639398 0.0014711925349297271 0 -0.39567459441968961 -0.012635194689989219 0 -0.38502252263107412 -0.0084426060797158468 0 -0.38683543611469601 0.0001369023841863784 0 -0.39567459441968961 -0.012635194689989219 0 -0.38502252263107412 -0.0084426060797158468 0 -0.38297625517291389 -0.017448943304264108 0 -0.38502252263107412 -0.0084426060797158468 0 -0.38009964520605882 -0.0090403485437739461 0 -0.38297625517291389 -0.017448943304264108 0 -0.37278444596104371 -0.0079457960458173115 0 -0.38009964520605882 -0.0090403485437739461 0 -0.38297625517291389 -0.017448943304264108 0 -0.37474494217865062 -0.0022388935110706832 0 -0.38502252263107412 -0.0084426060797158468 0 -0.38683543611469601 0.0001369023841863784 0 -0.37474494217865062 -0.0022388935110706832 0 -0.38502252263107412 -0.0084426060797158468 0 -0.38009964520605882 -0.0090403485437739461 0 -0.37474494217865062 -0.0022388935110706832 0 -0.37278444596104371 -0.0079457960458173115 0 -0.38009964520605882 -0.0090403485437739461 0 -0.37236777167708351 -0.031852495353884333 0 -0.38992317137517202 -0.02804917422583518 0 -0.37990921189048049 -0.023302515363219579 0 -0.37236777167708351 -0.031852495353884333 0 -0.38992317137517202 -0.02804917422583518 0 -0.38992317137517202 -0.02804917422583518 0 -0.38297625517291389 -0.017448943304264108 0 -0.37990921189048049 -0.023302515363219579 0 -0.3739022591900184 -0.02415390189740213 0 -0.38297625517291389 -0.017448943304264108 0 -0.37990921189048049 -0.023302515363219579 0 -0.37236777167708351 -0.031852495353884333 0 -0.3739022591900184 -0.02415390189740213 0 -0.37990921189048049 -0.023302515363219579 0 -0.37236777167708351 -0.031852495353884333 0 -0.37990921189048049 -0.023302515363219579 0 -0.38458287424021398 -0.039388642062709187 0 -0.39900851660089293 -0.046429079601448257 0 -0.3815482533063424 -0.052412606119804542 0 -0.37355784227175309 -0.045246792894939887 0 -0.37236777167708351 -0.031852495353884333 0 -0.38458287424021398 -0.039388642062709187 0 -0.37236777167708351 -0.031852495353884333 0 -0.38992317137517202 -0.02804917422583518 0 -0.38458287424021398 -0.039388642062709187 0 -0.37355784227175309 -0.045246792894939887 0 -0.38458287424021398 -0.039388642062709187 0 -0.3815482533063424 -0.052412606119804542 0 -0.38458287424021398 -0.039388642062709187 0 -0.39900851660089293 -0.046429079601448257 0 -0.40045416304880688 -0.034240371911693122 0 -0.38992317137517202 -0.02804917422583518 0 -0.38458287424021398 -0.039388642062709187 0 -0.40045416304880688 -0.034240371911693122 0 -0.41324955929443102 -0.038374170610562031 0 -0.39900851660089293 -0.046429079601448257 0 -0.40045416304880688 -0.034240371911693122 0 -0.39900851660089293 -0.046429079601448257 0 -0.39626447370361728 -0.06091275685647668 0 -0.3815482533063424 -0.052412606119804542 0 -0.41005136228565903 -0.05540387285823338 0 -0.39626447370361728 -0.06091275685647668 0 -0.40517181862379281 -0.066558370858305557 0 -0.41005136228565903 -0.05540387285823338 0 -0.39900851660089293 -0.046429079601448257 0 -0.39626447370361728 -0.06091275685647668 0 -0.36862349457690058 -0.057461967220355487 0 -0.3815482533063424 -0.052412606119804542 0 -0.37947166312044489 -0.067272628224985004 0 -0.3815482533063424 -0.052412606119804542 0 -0.37947166312044489 -0.067272628224985004 0 -0.39260231949431601 -0.074533368335879327 0 -0.36882665317829499 -0.078032107790563188 0 -0.39260231949431601 -0.074533368335879327 0 -0.39626447370361728 -0.06091275685647668 0 -0.3815482533063424 -0.052412606119804542 0 -0.39260231949431601 -0.074533368335879327 0 -0.3815482533063424 -0.052412606119804542 0 -0.39260231949431601 -0.074533368335879327 0 -0.36882665317829499 -0.078032107790563188 0 -0.37947166312044489 -0.067272628224985004 0 -0.39260231949431601 -0.074533368335879327 0 -0.36882665317829499 -0.078032107790563188 0 -0.39260231949431601 -0.074533368335879327 0 -0.39002829617667018 -0.099006697234722524 0 -0.36882665317829499 -0.078032107790563188 0 -0.39002829617667018 -0.099006697234722524 0 -0.37367929427193591 -0.1014825750548952 0 -0.36882665317829499 -0.078032107790563188 0 -0.39002829617667018 -0.099006697234722524 0 -0.39260231949431601 -0.074533368335879327 0 -0.39002829617667018 -0.099006697234722524 0 -0.39510370691593599 -0.098958215311000047 0 -0.39260231949431601 -0.074533368335879327 0 -0.40274583300482147 -0.094831984843681591 0 -0.39260231949431601 -0.074533368335879327 0 -0.39510370691593599 -0.098958215311000047 0 -0.40274583300482147 -0.094831984843681591 0 -0.40361170428446441 -0.083317353290434007 0 -0.39260231949431601 -0.074533368335879327 0 -0.40274583300482147 -0.094831984843681591 0 -0.40361170428446441 -0.083317353290434007 0 -0.39867569396630093 -0.073639632925658519 0 -0.40696916935602839 -0.074517235882718885 0 -0.39867569396630093 -0.073639632925658519 0 -0.40517181862379281 -0.066558370858305557 0 -0.40696916935602839 -0.074517235882718885 0 -0.39626447370361728 -0.06091275685647668 0 -0.39867569396630093 -0.073639632925658519 0 -0.40517181862379281 -0.066558370858305557 0 -0.39626447370361728 -0.06091275685647668 0 -0.39867569396630093 -0.073639632925658519 0 -0.39260231949431601 -0.074533368335879327 0 -0.40361170428446441 -0.083317353290434007 0 -0.39867569396630093 -0.073639632925658519 0 -0.39260231949431601 -0.074533368335879327 0 -0.39867569396630093 -0.073639632925658519 0 -0.39260231949431601 -0.074533368335879327 0 -0.37212838853434238 -0.11808059788504249 0 -0.38278168804071749 -0.12940228238898679 0 -0.39044023874876249 -0.11757149150947201 0 -0.37367929427193591 -0.1014825750548952 0 -0.37212838853434238 -0.11808059788504249 0 -0.39044023874876249 -0.11757149150947201 0 -0.37367929427193591 -0.1014825750548952 0 -0.39044023874876249 -0.11757149150947201 0 -0.39002829617667018 -0.099006697234722524 0 -0.39510370691593599 -0.098958215311000047 0 -0.40274583300482147 -0.094831984843681591 0 -0.41288934651532883 -0.11513060135148299 0 -0.39002829617667018 -0.099006697234722524 0 -0.39510370691593599 -0.098958215311000047 0 -0.41122993917504558 -0.1199812866788818 0 -0.39510370691593599 -0.098958215311000047 0 -0.41288934651532883 -0.11513060135148299 0 -0.39647179587780151 -0.13189450107720049 0 -0.39044023874876249 -0.11757149150947201 0 -0.41122993917504558 -0.1199812866788818 0 -0.39002829617667018 -0.099006697234722524 0 -0.41122993917504558 -0.1199812866788818 0 -0.39044023874876249 -0.11757149150947201 0 -0.39002829617667018 -0.099006697234722524 0 -0.41122993917504558 -0.1199812866788818 0 -0.39510370691593599 -0.098958215311000047 0 -0.41122993917504558 -0.1199812866788818 0 -0.41288934651532883 -0.11513060135148299 0 -0.41930562378398423 -0.12797048681614909 0 -0.41122993917504558 -0.1199812866788818 0 -0.4149348530849476 -0.1169905694289516 0 -0.41930562378398423 -0.12797048681614909 0 -0.41122993917504558 -0.1199812866788818 0 -0.41930562378398423 -0.12797048681614909 0 -0.4149348530849476 -0.1169905694289516 0 -0.41122993917504558 -0.1199812866788818 0 -0.41288934651532883 -0.11513060135148299 0 -0.4149348530849476 -0.1169905694289516 0 -0.41122993917504558 -0.1199812866788818 0 -0.4149348530849476 -0.1169905694289516 0 -0.41288934651532883 -0.11513060135148299 0 -0.4149348530849476 -0.1169905694289516 0 -0.41288934651532883 -0.11513060135148299 0 -0.4149348530849476 -0.1169905694289516 0 -0.41458672172207622 -0.10427776634057311 0 -0.40274583300482147 -0.094831984843681591 0 -0.41288934651532883 -0.11513060135148299 0 -0.4149348530849476 -0.1169905694289516 0 -0.41458672172207622 -0.10427776634057311 0 -0.43059848591229039 -0.1043464168163742 0 -0.40274583300482147 -0.094831984843681591 0 -0.41288934651532883 -0.11513060135148299 0 -0.41458672172207622 -0.10427776634057311 0 -0.41458672172207622 -0.10427776634057311 0 -0.41348552386521947 -0.090840815536544176 0 -0.43025813067654672 -0.08737754853092726 0 -0.40274583300482147 -0.094831984843681591 0 -0.41458672172207622 -0.10427776634057311 0 -0.41348552386521947 -0.090840815536544176 0 -0.43059848591229039 -0.1043464168163742 0 -0.43025813067654672 -0.08737754853092726 0 -0.44626211873963212 -0.091702264203795431 0 -0.41458672172207622 -0.10427776634057311 0 -0.43059848591229039 -0.1043464168163742 0 -0.43025813067654672 -0.08737754853092726 0 -0.41458672172207622 -0.10427776634057311 0 -0.43025813067654672 -0.08737754853092726 0 -0.4149348530849476 -0.1169905694289516 0 -0.43059848591229039 -0.1043464168163742 0 -0.43160182387889101 -0.1187955019330571 0 -0.4149348530849476 -0.1169905694289516 0 -0.43059848591229039 -0.1043464168163742 0 -0.43389101300267191 -0.13422730327376839 0 -0.4149348530849476 -0.1169905694289516 0 -0.43160182387889101 -0.1187955019330571 0 -0.43059848591229039 -0.1043464168163742 0 -0.43160182387889101 -0.1187955019330571 0 -0.44003429013576911 -0.11331979272890801 0 -0.43160182387889101 -0.1187955019330571 0 -0.44085253015216358 -0.1237950587173612 0 -0.44003429013576911 -0.11331979272890801 0 -0.41422906440869389 -0.068128229862373102 0 -0.41539885585273961 -0.080089681603359497 0 -0.42594434486026628 -0.073522222089585226 0 -0.4246600563061857 -0.059067830999859447 0 -0.41422906440869389 -0.068128229862373102 0 -0.42594434486026628 -0.073522222089585226 0 -0.41005136228565903 -0.05540387285823338 0 -0.40517181862379281 -0.066558370858305557 0 -0.41422906440869389 -0.068128229862373102 0 -0.40517181862379281 -0.066558370858305557 0 -0.41422906440869389 -0.068128229862373102 0 -0.40696916935602839 -0.074517235882718885 0 -0.41422906440869389 -0.068128229862373102 0 -0.40696916935602839 -0.074517235882718885 0 -0.41539885585273961 -0.080089681603359497 0 -0.41348552386521947 -0.090840815536544176 0 -0.41539885585273961 -0.080089681603359497 0 -0.43025813067654672 -0.08737754853092726 0 -0.40361170428446441 -0.083317353290434007 0 -0.41348552386521947 -0.090840815536544176 0 -0.41539885585273961 -0.080089681603359497 0 -0.40361170428446441 -0.083317353290434007 0 -0.40696916935602839 -0.074517235882718885 0 -0.41539885585273961 -0.080089681603359497 0 -0.40361170428446441 -0.083317353290434007 0 -0.40274583300482147 -0.094831984843681591 0 -0.41348552386521947 -0.090840815536544176 0 -0.41539885585273961 -0.080089681603359497 0 -0.43025813067654672 -0.08737754853092726 0 -0.42594434486026628 -0.073522222089585226 0 -0.4246600563061857 -0.059067830999859447 0 -0.44592953963101739 -0.07047733072128165 0 -0.43025813067654672 -0.08737754853092726 0 -0.42594434486026628 -0.073522222089585226 0 -0.44592953963101739 -0.07047733072128165 0 -0.4246600563061857 -0.059067830999859447 0 -0.42594434486026628 -0.073522222089585226 0 -0.44592953963101739 -0.07047733072128165 0 -0.44592953963101739 -0.07047733072128165 0 -0.45893666683642192 -0.056450303318209168 0 -0.44592953963101739 -0.07047733072128165 0 -0.44626211873963212 -0.091702264203795431 0 -0.46192575156697407 -0.079058111591217034 0 -0.43025813067654672 -0.08737754853092726 0 -0.44592953963101739 -0.07047733072128165 0 -0.43025813067654672 -0.08737754853092726 0 -0.44592953963101739 -0.07047733072128165 0 -0.44626211873963212 -0.091702264203795431 0 -0.44626211873963212 -0.091702264203795431 0 -0.46631049206888459 -0.091444160656324658 0 -0.46192575156697407 -0.079058111591217034 0 -0.44626211873963212 -0.091702264203795431 0 -0.46192575156697407 -0.079058111591217034 0 -0.46631049206888459 -0.091444160656324658 0 -0.46192575156697407 -0.079058111591217034 0 -0.47702460168979111 -0.087157524427869615 0 -0.44592953963101739 -0.07047733072128165 0 -0.46192575156697407 -0.079058111591217034 0 -0.45893666683642192 -0.056450303318209168 0 -0.46192575156697407 -0.079058111591217034 0 -0.47491389520024407 -0.068573693827893439 0 -0.45893666683642192 -0.056450303318209168 0 -0.46192575156697407 -0.079058111591217034 0 -0.47491389520024407 -0.068573693827893439 0 -0.44592953963101739 -0.07047733072128165 0 -0.46192575156697407 -0.079058111591217034 0 -0.45000974795797011 -0.119430952696417 0 -0.44085253015216358 -0.1237950587173612 0 -0.44003429013576911 -0.11331979272890801 0 -0.45000974795797011 -0.119430952696417 0 -0.44003429013576911 -0.11331979272890801 0 -0.44926481423485548 -0.10476542824413421 0 -0.43059848591229039 -0.1043464168163742 0 -0.44626211873963212 -0.091702264203795431 0 -0.43059848591229039 -0.1043464168163742 0 -0.44626211873963212 -0.091702264203795431 0 -0.44926481423485548 -0.10476542824413421 0 -0.43059848591229039 -0.1043464168163742 0 -0.44003429013576911 -0.11331979272890801 0 -0.44926481423485548 -0.10476542824413421 0 -0.44626211873963212 -0.091702264203795431 0 -0.44926481423485548 -0.10476542824413421 0 -0.46153012095291662 -0.1019472767233552 0 -0.44626211873963212 -0.091702264203795431 0 -0.46631049206888459 -0.091444160656324658 0 -0.46153012095291662 -0.1019472767233552 0 -0.46631049206888459 -0.091444160656324658 0 -0.46153012095291662 -0.1019472767233552 0 -0.4710589232177344 -0.098453604121520433 0 -0.46153012095291662 -0.1019472767233552 0 -0.46221413283232399 -0.11366089481890911 0 -0.47430793409480421 -0.10627177682285049 0 -0.44926481423485548 -0.10476542824413421 0 -0.46153012095291662 -0.1019472767233552 0 -0.46221413283232399 -0.11366089481890911 0 -0.45896755277767909 -0.12575633132281341 0 -0.46221413283232399 -0.11366089481890911 0 -0.47750202174635031 -0.1215216316744509 0 -0.45000974795797011 -0.119430952696417 0 -0.44926481423485548 -0.10476542824413421 0 -0.46221413283232399 -0.11366089481890911 0 -0.45896755277767909 -0.12575633132281341 0 -0.45000974795797011 -0.119430952696417 0 -0.46221413283232399 -0.11366089481890911 0 -0.47750202174635031 -0.1215216316744509 0 -0.47430793409480421 -0.10627177682285049 0 -0.48673501487359588 -0.1010237797652184 0 -0.46221413283232399 -0.11366089481890911 0 -0.47750202174635031 -0.1215216316744509 0 -0.47430793409480421 -0.10627177682285049 0 -0.47430793409480421 -0.10627177682285049 0 -0.47745372589702628 -0.099742000537211661 0 -0.48673501487359588 -0.1010237797652184 0 -0.46153012095291662 -0.1019472767233552 0 -0.47430793409480421 -0.10627177682285049 0 -0.4710589232177344 -0.098453604121520433 0 -0.46631049206888459 -0.091444160656324658 0 -0.4710589232177344 -0.098453604121520433 0 -0.47771303140197108 -0.093218841439257433 0 -0.47430793409480421 -0.10627177682285049 0 -0.4710589232177344 -0.098453604121520433 0 -0.47745372589702628 -0.099742000537211661 0 -0.4710589232177344 -0.098453604121520433 0 -0.47745372589702628 -0.099742000537211661 0 -0.47771303140197108 -0.093218841439257433 0 -0.47745372589702628 -0.099742000537211661 0 -0.48673501487359588 -0.1010237797652184 0 -0.47771303140197108 -0.093218841439257433 0 -0.48673501487359588 -0.1010237797652184 0 -0.47771303140197108 -0.093218841439257433 0 -0.47702460168979111 -0.087157524427869615 0 -0.47750202174635031 -0.1215216316744509 0 -0.48673501487359588 -0.1010237797652184 0 -0.4986179579264654 -0.1020768288792674 0 -0.48673501487359588 -0.1010237797652184 0 -0.49842317329231273 -0.098636270432611556 0 -0.47702460168979111 -0.087157524427869615 0 -0.48673501487359588 -0.1010237797652184 0 -0.49842317329231273 -0.098636270432611556 0 -0.4986179579264654 -0.1020768288792674 0 -0.49999999999999939 -0.099482120969144883 0 -0.49842317329231273 -0.098636270432611556 0 -0.4986179579264654 -0.1020768288792674 0 -0.49842317329231273 -0.098636270432611556 0 -0.4986179579264654 -0.1020768288792674 0 -0.49999999999999939 -0.099482120969144883 0 -0.49842317329231273 -0.098636270432611556 0 -0.50000000000000011 -0.12648838757554831 0 -0.47750202174635031 -0.1215216316744509 0 -0.4986179579264654 -0.1020768288792674 0 -0.47750202174635031 -0.1215216316744509 0 -0.4986179579264654 -0.1020768288792674 0 -0.47491389520024407 -0.068573693827893439 0 -0.47702460168979111 -0.087157524427869615 0 -0.4847984782487687 -0.075944598732494498 0 -0.47491389520024407 -0.068573693827893439 0 -0.47702460168979111 -0.087157524427869615 0 -0.47967839073812912 -0.064727650616396362 0 -0.4847984782487687 -0.075944598732494498 0 -0.48794163871831331 -0.064119883023254248 0 -0.47967839073812912 -0.064727650616396362 0 -0.47491389520024407 -0.068573693827893439 0 -0.4847984782487687 -0.075944598732494498 0 -0.47967839073812912 -0.064727650616396362 0 -0.47491389520024407 -0.068573693827893439 0 -0.46192575156697407 -0.079058111591217034 0 -0.47702460168979111 -0.087157524427869615 0 -0.46192575156697407 -0.079058111591217034 0 -0.47491389520024407 -0.068573693827893439 0 -0.47702460168979111 -0.087157524427869615 0 -0.46631049206888459 -0.091444160656324658 0 -0.47771303140197108 -0.093218841439257433 0 -0.47702460168979111 -0.087157524427869615 0 -0.47771303140197108 -0.093218841439257433 0 -0.47702460168979111 -0.087157524427869615 0 -0.49842317329231273 -0.098636270432611556 0 -0.49712708577170861 -0.075742961183477536 0 -0.4847984782487687 -0.075944598732494498 0 -0.49999999999999939 -0.099482120969144883 0 -0.49842317329231273 -0.098636270432611556 0 -0.5 -0.078030389970551228 0 -0.49842317329231273 -0.098636270432611556 0 -0.49712708577170861 -0.075742961183477536 0 -0.49842317329231273 -0.098636270432611556 0 -0.5 -0.078030389970551228 0 -0.49712708577170861 -0.075742961183477536 0 -0.49842317329231273 -0.098636270432611556 0 -0.47702460168979111 -0.087157524427869615 0 -0.4847984782487687 -0.075944598732494498 0 -0.49842317329231273 -0.098636270432611556 0 -0.47702460168979111 -0.087157524427869615 0 -0.5 -0.078030389970551228 0 -0.49712708577170861 -0.075742961183477536 0 -0.49999999999999928 -0.056578658971957581 0 -0.49712708577170861 -0.075742961183477536 0 -0.49583099825110311 -0.052849651934343489 0 -0.49712708577170861 -0.075742961183477536 0 -0.48794163871831331 -0.064119883023254248 0 -0.49583099825110311 -0.052849651934343489 0 -0.49712708577170861 -0.075742961183477536 0 -0.4847984782487687 -0.075944598732494498 0 -0.48794163871831331 -0.064119883023254248 0 -0.49712708577170861 -0.075742961183477536 0 -0.49999999999999928 -0.056578658971957581 0 -0.49583099825110311 -0.052849651934343489 0 -0.49583099825110311 -0.052849651934343489 0 -0.47748890114140963 -0.036443372127734748 0 -0.48227324058185622 -0.051334552649559453 0 -0.49999999999999928 -0.056578658971957581 0 -0.49583099825110311 -0.052849651934343489 0 -0.49999999999999928 -0.056578658971957581 0 -0.50000000000000144 -0.053559852644015388 0 -0.49583099825110311 -0.052849651934343489 0 -0.48794163871831331 -0.064119883023254248 0 -0.49583099825110311 -0.052849651934343489 0 -0.48227324058185622 -0.051334552649559453 0 -0.50000000000000144 -0.053559852644015388 0 -0.49583099825110311 -0.052849651934343489 0 -0.48598145264485831 -0.02728491224803695 0 -0.49583099825110311 -0.052849651934343489 0 -0.47748890114140963 -0.036443372127734748 0 -0.48598145264485831 -0.02728491224803695 0 -0.50000000000000144 -0.053559852644015388 0 -0.48598145264485831 -0.02728491224803695 0 -0.50000000000000144 -0.053559852644015388 0 -0.48598145264485831 -0.02728491224803695 0 -0.5 -0.025161366008633609 0 -0.49583099825110311 -0.052849651934343489 0 -0.47748890114140963 -0.036443372127734748 0 -0.47748890114140963 -0.036443372127734748 0 -0.48598145264485831 -0.02728491224803695 0 -0.47748890114140963 -0.036443372127734748 0 -0.47194379404182718 -0.042423275915137587 0 -0.48227324058185622 -0.051334552649559453 0 -0.47748890114140963 -0.036443372127734748 0 -0.47194379404182718 -0.042423275915137587 0 -0.47748890114140963 -0.036443372127734748 0 -0.47194379404182718 -0.042423275915137587 0 -0.47056077858213702 -0.03024644074295027 0 -0.47194379404182718 -0.042423275915137587 0 -0.46539503278239303 -0.037082973767017267 0 -0.47056077858213702 -0.03024644074295027 0 -0.47194379404182718 -0.042423275915137587 0 -0.47056077858213702 -0.03024644074295027 0 -0.47748890114140963 -0.036443372127734748 0 -0.47056077858213702 -0.03024644074295027 0 -0.47748890114140963 -0.036443372127734748 0 -0.47056077858213702 -0.03024644074295027 0 -0.47745882259212458 -0.028728106929589409 0 -0.47967839073812912 -0.064727650616396362 0 -0.47491389520024407 -0.068573693827893439 0 -0.47194379404182718 -0.042423275915137587 0 -0.47967839073812912 -0.064727650616396362 0 -0.47194379404182718 -0.042423275915137587 0 -0.48227324058185622 -0.051334552649559453 0 -0.47491389520024407 -0.068573693827893439 0 -0.47194379404182718 -0.042423275915137587 0 -0.47967839073812912 -0.064727650616396362 0 -0.48794163871831331 -0.064119883023254248 0 -0.48227324058185622 -0.051334552649559453 0 -0.47491389520024407 -0.068573693827893439 0 -0.47194379404182718 -0.042423275915137587 0 -0.45893666683642192 -0.056450303318209168 0 -0.45893666683642192 -0.056450303318209168 0 -0.45743491846808387 -0.04563500224908737 0 -0.44544580640037118 -0.056213229689383748 0 -0.47194379404182718 -0.042423275915137587 0 -0.45893666683642192 -0.056450303318209168 0 -0.45743491846808387 -0.04563500224908737 0 -0.47194379404182718 -0.042423275915137587 0 -0.45893666683642192 -0.056450303318209168 0 -0.46539503278239303 -0.037082973767017267 0 -0.44890774518284438 -0.02927164544362729 0 -0.46539503278239303 -0.037082973767017267 0 -0.45215967652477718 -0.036640332234541717 0 -0.44890774518284438 -0.02927164544362729 0 -0.46539503278239303 -0.037082973767017267 0 -0.44890774518284438 -0.02927164544362729 0 -0.46189821575704781 -0.02986243911986371 0 -0.47194379404182718 -0.042423275915137587 0 -0.46539503278239303 -0.037082973767017267 0 -0.45743491846808387 -0.04563500224908737 0 -0.46539503278239303 -0.037082973767017267 0 -0.46189821575704781 -0.02986243911986371 0 -0.47056077858213702 -0.03024644074295027 0 -0.46539503278239303 -0.037082973767017267 0 -0.45743491846808387 -0.04563500224908737 0 -0.45215967652477718 -0.036640332234541717 0 -0.42981912379901888 -0.030443092666165631 0 -0.45215967652477718 -0.036640332234541717 0 -0.45743491846808387 -0.04563500224908737 0 -0.45215967652477718 -0.036640332234541717 0 -0.43957367317472601 -0.045089571971719818 0 -0.42981912379901888 -0.030443092666165631 0 -0.45215967652477718 -0.036640332234541717 0 -0.43957367317472601 -0.045089571971719818 0 -0.45743491846808387 -0.04563500224908737 0 -0.43957367317472601 -0.045089571971719818 0 -0.44544580640037118 -0.056213229689383748 0 -0.4246600563061857 -0.059067830999859447 0 -0.44592953963101739 -0.07047733072128165 0 -0.44544580640037118 -0.056213229689383748 0 -0.44592953963101739 -0.07047733072128165 0 -0.45893666683642192 -0.056450303318209168 0 -0.44544580640037118 -0.056213229689383748 0 -0.4441818909265971 -0.00998157505946092 0 -0.45588653083934588 0.00041698580085632909 0 -0.44737850259376799 0.0077656591989471307 0 -0.4441818909265971 -0.00998157505946092 0 -0.4570262928383732 -0.018140378997512391 0 -0.45633913854906122 -0.0094275687658610888 0 -0.4441818909265971 -0.00998157505946092 0 -0.45633913854906122 -0.0094275687658610888 0 -0.45588653083934588 0.00041698580085632909 0 -0.43741768347029059 -0.01288367903972009 0 -0.4441818909265971 -0.00998157505946092 0 -0.44890774518284438 -0.02927164544362729 0 -0.42981912379901888 -0.030443092666165631 0 -0.45215967652477718 -0.036640332234541717 0 -0.4392085005598273 -0.024676348383282701 0 -0.4441818909265971 -0.00998157505946092 0 -0.44890774518284438 -0.02927164544362729 0 -0.46258273328813732 -0.023158067004484729 0 -0.43741768347029059 -0.01288367903972009 0 -0.44890774518284438 -0.02927164544362729 0 -0.43741768347029059 -0.01288367903972009 0 -0.4392085005598273 -0.024676348383282701 0 -0.44890774518284438 -0.02927164544362729 0 -0.4392085005598273 -0.024676348383282701 0 -0.44890774518284438 -0.02927164544362729 0 -0.45215967652477718 -0.036640332234541717 0 -0.4392085005598273 -0.024676348383282701 0 -0.44890774518284438 -0.02927164544362729 0 -0.4441818909265971 -0.00998157505946092 0 -0.46258273328813732 -0.023158067004484729 0 -0.46258273328813732 -0.023158067004484729 0 -0.46826183959192841 -0.01000530680732737 0 -0.47056077858213702 -0.03024644074295027 0 -0.4441818909265971 -0.00998157505946092 0 -0.4570262928383732 -0.018140378997512391 0 -0.46258273328813732 -0.023158067004484729 0 -0.4570262928383732 -0.018140378997512391 0 -0.46258273328813732 -0.023158067004484729 0 -0.44890774518284438 -0.02927164544362729 0 -0.46189821575704781 -0.02986243911986371 0 -0.46258273328813732 -0.023158067004484729 0 -0.46258273328813732 -0.023158067004484729 0 -0.47056077858213702 -0.03024644074295027 0 -0.46189821575704781 -0.02986243911986371 0 -0.46258273328813732 -0.023158067004484729 0 -0.47056077858213702 -0.03024644074295027 0 -0.4570262928383732 -0.018140378997512391 0 -0.46258273328813732 -0.023158067004484729 0 -0.46826183959192841 -0.01000530680732737 0 -0.4570262928383732 -0.018140378997512391 0 -0.46826183959192841 -0.01000530680732737 0 -0.45633913854906122 -0.0094275687658610888 0 -0.46826183959192841 -0.01000530680732737 0 -0.45633913854906122 -0.0094275687658610888 0 -0.45588653083934588 0.00041698580085632909 0 -0.46826183959192841 -0.01000530680732737 0 -0.47597217662329228 -0.0085245425598697612 0 -0.4659629006017233 0.010235827128295859 0 -0.46826183959192841 -0.01000530680732737 0 -0.47597217662329228 -0.0085245425598697612 0 -0.47580415800009379 -0.02093770259963601 0 -0.47597217662329228 -0.0085245425598697612 0 -0.48922725890134677 -0.010453537226696331 0 -0.48082517856277007 0.001845263919603602 0 -0.47597217662329228 -0.0085245425598697612 0 -0.47580415800009379 -0.02093770259963601 0 -0.48598145264485831 -0.02728491224803695 0 -0.47597217662329228 -0.0085245425598697612 0 -0.48598145264485831 -0.02728491224803695 0 -0.46826183959192841 -0.01000530680732737 0 -0.47056077858213702 -0.03024644074295027 0 -0.47580415800009379 -0.02093770259963601 0 -0.47597217662329228 -0.0085245425598697612 0 -0.48598145264485831 -0.02728491224803695 0 -0.4893389393206713 -0.02366416211133009 0 -0.46826183959192841 -0.01000530680732737 0 -0.47056077858213702 -0.03024644074295027 0 -0.47056077858213702 -0.03024644074295027 0 -0.47580415800009379 -0.02093770259963601 0 -0.47745882259212458 -0.028728106929589409 0 -0.47580415800009379 -0.02093770259963601 0 -0.47745882259212458 -0.028728106929589409 0 -0.48598145264485831 -0.02728491224803695 0 -0.47748890114140963 -0.036443372127734748 0 -0.47745882259212458 -0.028728106929589409 0 -0.48598145264485831 -0.02728491224803695 0 -0.48598145264485831 -0.02728491224803695 0 -0.4893389393206713 -0.02366416211133009 0 -0.5 -0.025161366008633609 0 -0.48598145264485831 -0.02728491224803695 0 -0.4893389393206713 -0.02366416211133009 0 -0.4893389393206713 -0.02366416211133009 0 -0.5 -0.025161366008633609 0 -0.48922725890134677 -0.010453537226696331 0 -0.48922725890134677 -0.010453537226696331 0 -0.5 0.0032371206267481911 0 -0.48082517856277007 0.001845263919603602 0 -0.5 -0.025161366008633609 0 -0.48922725890134677 -0.010453537226696331 0 -0.5 0.0032371206267481911 0 -0.47597217662329228 -0.0085245425598697612 0 -0.4893389393206713 -0.02366416211133009 0 -0.48922725890134677 -0.010453537226696331 0 -0.5 0.0032371206267481911 0 -0.48596576445654982 0.01457961489688041 0 -0.48082517856277007 0.001845263919603602 0 -0.48596576445654982 0.01457961489688041 0 -0.47541999506787802 0.025418180444172121 0 -0.5 0.031635607262129987 0 -0.5 0.0032371206267481911 0 -0.48596576445654982 0.01457961489688041 0 -0.5 0.031635607262129987 0 -0.48596576445654982 0.01457961489688041 0 -0.47541999506787802 0.025418180444172121 0 -0.47401658579892991 0.013489912392399149 0 -0.47541999506787802 0.025418180444172121 0 -0.46963945276383978 0.01793989872667965 0 -0.47401658579892991 0.013489912392399149 0 -0.47597217662329228 -0.0085245425598697612 0 -0.48082517856277007 0.001845263919603602 0 -0.4659629006017233 0.010235827128295859 0 -0.47401658579892991 0.013489912392399149 0 -0.48082517856277007 0.001845263919603602 0 -0.4659629006017233 0.010235827128295859 0 -0.46963945276383978 0.01793989872667965 0 -0.47401658579892991 0.013489912392399149 0 -0.4659629006017233 0.010235827128295859 0 -0.47597217662329228 -0.0085245425598697612 0 -0.4659629006017233 0.010235827128295859 0 -0.48596576445654982 0.01457961489688041 0 -0.47401658579892991 0.013489912392399149 0 -0.48082517856277007 0.001845263919603602 0 -0.5 0.060034093897511798 0 -0.47816362815030861 0.043832779932641487 0 -0.48068047186290208 0.063626500276227002 0 -0.47541999506787802 0.025418180444172121 0 -0.5 0.031635607262129987 0 -0.47816362815030861 0.043832779932641487 0 -0.5 0.060034093897511798 0 -0.5 0.031635607262129987 0 -0.47816362815030861 0.043832779932641487 0 -0.47541999506787802 0.025418180444172121 0 -0.47816362815030861 0.043832779932641487 0 -0.46442391639916691 0.036471327701905212 0 -0.47816362815030861 0.043832779932641487 0 -0.46119618507356652 0.049359273152949731 0 -0.48068047186290208 0.063626500276227002 0 -0.46119618507356652 0.049359273152949731 0 -0.46103932749027238 0.064238871702306077 0 -0.48068047186290208 0.063626500276227002 0 -0.46119618507356652 0.049359273152949731 0 -0.44286953411296898 0.045255716157198693 0 -0.46103932749027238 0.064238871702306077 0 -0.47816362815030861 0.043832779932641487 0 -0.46119618507356652 0.049359273152949731 0 -0.46442391639916691 0.036471327701905212 0 -0.46119618507356652 0.049359273152949731 0 -0.46442391639916691 0.036471327701905212 0 -0.45082509298125129 0.038608595210277222 0 -0.46442391639916691 0.036471327701905212 0 -0.45082509298125129 0.038608595210277222 0 -0.4583939967914884 0.024422211169287101 0 -0.45082509298125129 0.038608595210277222 0 -0.4583939967914884 0.024422211169287101 0 -0.46119618507356652 0.049359273152949731 0 -0.45082509298125129 0.038608595210277222 0 -0.44286953411296898 0.045255716157198693 0 -0.45082509298125129 0.038608595210277222 0 -0.4405409619944019 0.035432846457562263 0 -0.4458839614772655 0.023387518650519249 0 -0.45082509298125129 0.038608595210277222 0 -0.4405409619944019 0.035432846457562263 0 -0.44286953411296898 0.045255716157198693 0 -0.4405409619944019 0.035432846457562263 0 -0.44286953411296898 0.045255716157198693 0 -0.43229092530358848 0.04451632412921195 0 -0.44286953411296898 0.045255716157198693 0 -0.44282721760043869 0.062046251170956107 0 -0.46103932749027238 0.064238871702306077 0 -0.44286953411296898 0.045255716157198693 0 -0.44282721760043869 0.062046251170956107 0 -0.43188097302969042 0.056955122555226501 0 -0.44286953411296898 0.045255716157198693 0 -0.46103932749027238 0.064238871702306077 0 -0.46826183959192841 -0.01000530680732737 0 -0.45588653083934588 0.00041698580085632909 0 -0.4659629006017233 0.010235827128295859 0 -0.46826183959192841 -0.01000530680732737 0 -0.4659629006017233 0.010235827128295859 0 -0.45609316173783881 0.014082317838893479 0 -0.45588653083934588 0.00041698580085632909 0 -0.4659629006017233 0.010235827128295859 0 -0.46963945276383978 0.01793989872667965 0 -0.4659629006017233 0.010235827128295859 0 -0.4583939967914884 0.024422211169287101 0 -0.4659629006017233 0.010235827128295859 0 -0.4583939967914884 0.024422211169287101 0 -0.47541999506787802 0.025418180444172121 0 -0.46963945276383978 0.01793989872667965 0 -0.4583939967914884 0.024422211169287101 0 -0.47541999506787802 0.025418180444172121 0 -0.46442391639916691 0.036471327701905212 0 -0.4583939967914884 0.024422211169287101 0 -0.45609316173783881 0.014082317838893479 0 -0.4659629006017233 0.010235827128295859 0 -0.4583939967914884 0.024422211169287101 0 -0.45609316173783881 0.014082317838893479 0 -0.4583939967914884 0.024422211169287101 0 -0.4458839614772655 0.023387518650519249 0 -0.45082509298125129 0.038608595210277222 0 -0.4583939967914884 0.024422211169287101 0 -0.4458839614772655 0.023387518650519249 0 -0.4405409619944019 0.035432846457562263 0 -0.4458839614772655 0.023387518650519249 0 -0.43566193494816191 0.02574822372494872 0 -0.4458839614772655 0.023387518650519249 0 -0.4359559447540089 0.01018896392150693 0 -0.43566193494816191 0.02574822372494872 0 -0.4441818909265971 -0.00998157505946092 0 -0.44737850259376799 0.0077656591989471307 0 -0.4359559447540089 0.01018896392150693 0 -0.4458839614772655 0.023387518650519249 0 -0.44737850259376799 0.0077656591989471307 0 -0.4359559447540089 0.01018896392150693 0 -0.45609316173783881 0.014082317838893479 0 -0.4458839614772655 0.023387518650519249 0 -0.44737850259376799 0.0077656591989471307 0 -0.45609316173783881 0.014082317838893479 0 -0.45588653083934588 0.00041698580085632909 0 -0.44737850259376799 0.0077656591989471307 0 -0.4441818909265971 -0.00998157505946092 0 -0.4359559447540089 0.01018896392150693 0 -0.42578104856505677 0.0031949168855625672 0 -0.42578104856505677 0.0031949168855625672 0 -0.41622595309658328 0.016397403714119251 0 -0.42870406893849561 0.019163111370922251 0 -0.4359559447540089 0.01018896392150693 0 -0.42578104856505677 0.0031949168855625672 0 -0.42870406893849561 0.019163111370922251 0 -0.41753789792717189 -0.0038843189997757009 0 -0.42578104856505677 0.0031949168855625672 0 -0.41105156913745711 0.0034129409419674369 0 -0.42578104856505677 0.0031949168855625672 0 -0.40852807671777941 0.0155494406680463 0 -0.41622595309658328 0.016397403714119251 0 -0.42578104856505677 0.0031949168855625672 0 -0.40852807671777941 0.0155494406680463 0 -0.41105156913745711 0.0034129409419674369 0 -0.42578104856505677 0.0031949168855625672 0 -0.40852807671777941 0.0155494406680463 0 -0.42578104856505677 0.0031949168855625672 0 -0.41622595309658328 0.016397403714119251 0 -0.40852807671777941 0.0155494406680463 0 -0.41105156913745711 0.0034129409419674369 0 -0.40262572535869262 0.0089097845909437267 0 -0.40771050441737638 -0.0035262849216432719 0 -0.41105156913745711 0.0034129409419674369 0 -0.40226596945639398 0.0014711925349297271 0 -0.40667085762811028 0.029599890542676258 0 -0.41622595309658328 0.016397403714119251 0 -0.42870406893849561 0.019163111370922251 0 -0.40667085762811028 0.029599890542676258 0 -0.42870406893849561 0.019163111370922251 0 -0.40667085762811028 0.029599890542676258 0 -0.41990433555607742 0.03061685230769556 0 -0.42870406893849561 0.019163111370922251 0 -0.40852807671777941 0.0155494406680463 0 -0.40667085762811028 0.029599890542676258 0 -0.41622595309658328 0.016397403714119251 0 -0.40667085762811028 0.029599890542676258 0 -0.41622595309658328 0.016397403714119251 0 -0.41990433555607742 0.03061685230769556 0 -0.4284463216954002 0.029357354603554459 0 -0.42870406893849561 0.019163111370922251 0 -0.4359559447540089 0.01018896392150693 0 -0.42870406893849561 0.019163111370922251 0 -0.43566193494816191 0.02574822372494872 0 -0.4284463216954002 0.029357354603554459 0 -0.42870406893849561 0.019163111370922251 0 -0.43566193494816191 0.02574822372494872 0 -0.4284463216954002 0.029357354603554459 0 -0.43566193494816191 0.02574822372494872 0 -0.43264023121812112 0.033917661463996759 0 -0.4405409619944019 0.035432846457562263 0 -0.43264023121812112 0.033917661463996759 0 -0.43229092530358848 0.04451632412921195 0 -0.43264023121812112 0.033917661463996759 0 -0.43229092530358848 0.04451632412921195 0 -0.42532103781614489 0.037340924150209003 0 -0.4405409619944019 0.035432846457562263 0 -0.43566193494816191 0.02574822372494872 0 -0.43264023121812112 0.033917661463996759 0 -0.43229092530358848 0.04451632412921195 0 -0.42532103781614489 0.037340924150209003 0 -0.42042490988599091 0.046091327469671317 0 -0.4284463216954002 0.029357354603554459 0 -0.43264023121812112 0.033917661463996759 0 -0.42532103781614489 0.037340924150209003 0 -0.41990433555607742 0.03061685230769556 0 -0.4284463216954002 0.029357354603554459 0 -0.42532103781614489 0.037340924150209003 0 -0.43229092530358848 0.04451632412921195 0 -0.43188097302969042 0.056955122555226501 0 -0.42585725303016408 0.051510102087770737 0 -0.44286953411296898 0.045255716157198693 0 -0.43229092530358848 0.04451632412921195 0 -0.43188097302969042 0.056955122555226501 0 -0.43229092530358848 0.04451632412921195 0 -0.42585725303016408 0.051510102087770737 0 -0.42042490988599091 0.046091327469671317 0 -0.43188097302969042 0.056955122555226501 0 -0.41883220390138681 0.058477634196973202 0 -0.43131469147834472 0.070632617455275076 0 -0.43188097302969042 0.056955122555226501 0 -0.42585725303016408 0.051510102087770737 0 -0.41883220390138681 0.058477634196973202 0 -0.41883220390138681 0.058477634196973202 0 -0.40840220717331749 0.048304634434869917 0 -0.39985653820026013 0.060860810446949978 0 -0.42585725303016408 0.051510102087770737 0 -0.41883220390138681 0.058477634196973202 0 -0.42042490988599091 0.046091327469671317 0 -0.41883220390138681 0.058477634196973202 0 -0.40840220717331749 0.048304634434869917 0 -0.42042490988599091 0.046091327469671317 0 -0.41990433555607742 0.03061685230769556 0 -0.42532103781614489 0.037340924150209003 0 -0.4122967326089878 0.037821593301397609 0 -0.42532103781614489 0.037340924150209003 0 -0.42042490988599091 0.046091327469671317 0 -0.4122967326089878 0.037821593301397609 0 -0.40840220717331749 0.048304634434869917 0 -0.4122967326089878 0.037821593301397609 0 -0.40579981868685489 0.041495006097714962 0 -0.40840220717331749 0.048304634434869917 0 -0.42042490988599091 0.046091327469671317 0 -0.4122967326089878 0.037821593301397609 0 -0.4122967326089878 0.037821593301397609 0 -0.40278544391907911 0.034968452634622761 0 -0.40579981868685489 0.041495006097714962 0 -0.40667085762811028 0.029599890542676258 0 -0.4122967326089878 0.037821593301397609 0 -0.40278544391907911 0.034968452634622761 0 -0.40667085762811028 0.029599890542676258 0 -0.41990433555607742 0.03061685230769556 0 -0.4122967326089878 0.037821593301397609 0 -0.40667085762811028 0.029599890542676258 0 -0.40278544391907911 0.034968452634622761 0 -0.40667085762811028 0.029599890542676258 0 -0.38856614517843069 0.038175802748282091 0 -0.40667085762811028 0.029599890542676258 0 -0.38856614517843069 0.038175802748282091 0 -0.39127510487050182 0.027903964450529759 0 -0.40667085762811028 0.029599890542676258 0 -0.40278544391907911 0.034968452634622761 0 -0.38856614517843069 0.038175802748282091 0 -0.40278544391907911 0.034968452634622761 0 -0.40579981868685489 0.041495006097714962 0 -0.3977250587697031 0.045015474274426849 0 -0.40840220717331749 0.048304634434869917 0 -0.40579981868685489 0.041495006097714962 0 -0.3977250587697031 0.045015474274426849 0 -0.40278544391907911 0.034968452634622761 0 -0.3977250587697031 0.045015474274426849 0 -0.38856614517843069 0.038175802748282091 0 -0.40840220717331749 0.048304634434869917 0 -0.3977250587697031 0.045015474274426849 0 -0.39985653820026013 0.060860810446949978 0 -0.3977250587697031 0.045015474274426849 0 -0.39985653820026013 0.060860810446949978 0 -0.38472691017257071 0.052921849058569698 0 -0.39985653820026013 0.060860810446949978 0 -0.38472691017257071 0.052921849058569698 0 -0.38510762700538009 0.066428587654483159 0 -0.38472691017257071 0.052921849058569698 0 -0.37046143272875132 0.04675171495388801 0 -0.37000681959492809 0.05831264468359916 0 -0.38472691017257071 0.052921849058569698 0 -0.38510762700538009 0.066428587654483159 0 -0.37000681959492809 0.05831264468359916 0 -0.38856614517843069 0.038175802748282091 0 -0.37871402691879819 0.03757115751491092 0 -0.37046143272875132 0.04675171495388801 0 -0.38856614517843069 0.038175802748282091 0 -0.37046143272875132 0.04675171495388801 0 -0.38472691017257071 0.052921849058569698 0 -0.38856614517843069 0.038175802748282091 0 -0.37046143272875132 0.04675171495388801 0 -0.38856614517843069 0.038175802748282091 0 -0.38315308642314733 0.033917821982192238 0 -0.39127510487050182 0.027903964450529759 0 -0.38856614517843069 0.038175802748282091 0 -0.38315308642314733 0.033917821982192238 0 -0.37871402691879819 0.03757115751491092 0 -0.3977250587697031 0.045015474274426849 0 -0.38472691017257071 0.052921849058569698 0 -0.38856614517843069 0.038175802748282091 0 -0.37871402691879819 0.03757115751491092 0 -0.3764786745208083 0.032098692741998169 0 -0.37046143272875132 0.04675171495388801 0 -0.38315308642314733 0.033917821982192238 0 -0.3764786745208083 0.032098692741998169 0 -0.38155727091044611 0.028316364585127811 0 -0.38315308642314733 0.033917821982192238 0 -0.37871402691879819 0.03757115751491092 0 -0.3764786745208083 0.032098692741998169 0 -0.3764786745208083 0.032098692741998169 0 -0.38155727091044611 0.028316364585127811 0 -0.37960108001976323 0.022263106047543741 0 -0.37960108001976323 0.022263106047543741 0 -0.37998819155715241 0.0057865511937031933 0 -0.37123175334181557 0.027162262264614271 0 -0.3764786745208083 0.032098692741998169 0 -0.37960108001976323 0.022263106047543741 0 -0.37123175334181557 0.027162262264614271 0 -0.38155727091044611 0.028316364585127811 0 -0.38533699425949169 0.022674384769296389 0 -0.37960108001976323 0.022263106047543741 0 -0.38155727091044611 0.028316364585127811 0 -0.38533699425949169 0.022674384769296389 0 -0.39127510487050182 0.027903964450529759 0 -0.38315308642314733 0.033917821982192238 0 -0.38155727091044611 0.028316364585127811 0 -0.39127510487050182 0.027903964450529759 0 -0.39054146691731162 0.018060194648231769 0 -0.38533699425949169 0.022674384769296389 0 -0.39127510487050182 0.027903964450529759 0 -0.38533699425949169 0.022674384769296389 0 -0.3837100485794358 0.01682829411504885 0 -0.37960108001976323 0.022263106047543741 0 -0.39054146691731162 0.018060194648231769 0 -0.38533699425949169 0.022674384769296389 0 -0.3837100485794358 0.01682829411504885 0 -0.3837100485794358 0.01682829411504885 0 -0.37960108001976323 0.022263106047543741 0 -0.37998819155715241 0.0057865511937031933 0 -0.37998819155715241 0.0057865511937031933 0 -0.38683543611469601 0.0001369023841863784 0 -0.36064890389212972 0.0125435277679194 0 -0.37998819155715241 0.0057865511937031933 0 -0.38683543611469601 0.0001369023841863784 0 -0.38901012294298121 0.0062908016400105649 0 -0.38683543611469601 0.0001369023841863784 0 -0.38901012294298121 0.0062908016400105649 0 -0.39501457079486157 0.0055715078560810288 0 -0.37998819155715241 0.0057865511937031933 0 -0.38901012294298121 0.0062908016400105649 0 -0.38744744785130802 0.01185902438546781 0 -0.3837100485794358 0.01682829411504885 0 -0.37998819155715241 0.0057865511937031933 0 -0.38744744785130802 0.01185902438546781 0 -0.38901012294298121 0.0062908016400105649 0 -0.38744744785130802 0.01185902438546781 0 -0.39422738021243581 0.01127211946813913 0 -0.39054146691731162 0.018060194648231769 0 -0.3837100485794358 0.01682829411504885 0 -0.38744744785130802 0.01185902438546781 0 -0.39054146691731162 0.018060194648231769 0 -0.39422738021243581 0.01127211946813913 0 -0.39743955081534421 0.016339100765178138 0 -0.39054146691731162 0.018060194648231769 0 -0.38744744785130802 0.01185902438546781 0 -0.39422738021243581 0.01127211946813913 0 -0.39422738021243581 0.01127211946813913 0 -0.39501457079486157 0.0055715078560810288 0 -0.40262572535869262 0.0089097845909437267 0 -0.39422738021243581 0.01127211946813913 0 -0.40262572535869262 0.0089097845909437267 0 -0.39743955081534421 0.016339100765178138 0 -0.38683543611469601 0.0001369023841863784 0 -0.39501457079486157 0.0055715078560810288 0 -0.40226596945639398 0.0014711925349297271 0 -0.38901012294298121 0.0062908016400105649 0 -0.39422738021243581 0.01127211946813913 0 -0.39501457079486157 0.0055715078560810288 0 -0.41105156913745711 0.0034129409419674369 0 -0.40226596945639398 0.0014711925349297271 0 -0.40262572535869262 0.0089097845909437267 0 -0.39501457079486157 0.0055715078560810288 0 -0.40226596945639398 0.0014711925349297271 0 -0.40262572535869262 0.0089097845909437267 0 -0.40852807671777941 0.0155494406680463 0 -0.40262572535869262 0.0089097845909437267 0 -0.39743955081534421 0.016339100765178138 0 -0.40852807671777941 0.0155494406680463 0 -0.39127510487050182 0.027903964450529759 0 -0.40852807671777941 0.0155494406680463 0 -0.40667085762811028 0.029599890542676258 0 -0.39127510487050182 0.027903964450529759 0 -0.40852807671777941 0.0155494406680463 0 -0.39127510487050182 0.027903964450529759 0 -0.39743955081534421 0.016339100765178138 0 -0.39054146691731162 0.018060194648231769 0 -0.39127510487050182 0.027903964450529759 0 -0.39743955081534421 0.016339100765178138 0 -0.39792088922733271 0.1160922105611595 0 -0.40104213778508202 0.092866093853817611 0 -0.41467909406405851 0.1139188519362445 0 -0.39792088922733271 0.1160922105611595 0 -0.3782625711058698 0.101617738696854 0 -0.40104213778508202 0.092866093853817611 0 -0.3782625711058698 0.101617738696854 0 -0.38372255811484618 0.13025780258704611 0 -0.3782625711058698 0.101617738696854 0 -0.38372255811484618 0.13025780258704611 0 -0.36747352968705388 0.12273486311700831 0 -0.39792088922733271 0.1160922105611595 0 -0.3782625711058698 0.101617738696854 0 -0.38372255811484618 0.13025780258704611 0 -0.39792088922733271 0.1160922105611595 0 -0.3782625711058698 0.101617738696854 0 -0.3782625711058698 0.101617738696854 0 -0.40104213778508202 0.092866093853817611 0 -0.37470600383380392 0.082961959162170973 0 -0.39520328107527708 0.075997639864115257 0 -0.40104213778508202 0.092866093853817611 0 -0.37470600383380392 0.082961959162170973 0 -0.3782625711058698 0.101617738696854 0 -0.37470600383380392 0.082961959162170973 0 -0.40104213778508202 0.092866093853817611 0 -0.37470600383380392 0.082961959162170973 0 -0.38510762700538009 0.066428587654483159 0 -0.37000681959492809 0.05831264468359916 0 -0.37470600383380392 0.082961959162170973 0 -0.38510762700538009 0.066428587654483159 0 -0.39520328107527708 0.075997639864115257 0 -0.37470600383380392 0.082961959162170973 0 -0.39985653820026013 0.060860810446949978 0 -0.39520328107527708 0.075997639864115257 0 -0.41322693425173768 0.074694678089132868 0 -0.39985653820026013 0.060860810446949978 0 -0.38510762700538009 0.066428587654483159 0 -0.39520328107527708 0.075997639864115257 0 -0.39520328107527708 0.075997639864115257 0 -0.40104213778508202 0.092866093853817611 0 -0.41322693425173768 0.074694678089132868 0 -0.40104213778508202 0.092866093853817611 0 -0.41322693425173768 0.074694678089132868 0 -0.42957324029363853 0.085693113452461764 0 -0.41883220390138681 0.058477634196973202 0 -0.41322693425173768 0.074694678089132868 0 -0.43131469147834472 0.070632617455275076 0 -0.41883220390138681 0.058477634196973202 0 -0.39985653820026013 0.060860810446949978 0 -0.41322693425173768 0.074694678089132868 0 -0.43131469147834472 0.070632617455275076 0 -0.42957324029363853 0.085693113452461764 0 -0.4470315618909167 0.073148927984774167 0 -0.41322693425173768 0.074694678089132868 0 -0.43131469147834472 0.070632617455275076 0 -0.42957324029363853 0.085693113452461764 0 -0.44282721760043869 0.062046251170956107 0 -0.43188097302969042 0.056955122555226501 0 -0.43131469147834472 0.070632617455275076 0 -0.42957324029363853 0.085693113452461764 0 -0.42737827173636012 0.1027702285454639 0 -0.44343173260412461 0.097571970950778963 0 -0.40104213778508202 0.092866093853817611 0 -0.42737827173636012 0.1027702285454639 0 -0.41467909406405851 0.1139188519362445 0 -0.40104213778508202 0.092866093853817611 0 -0.42737827173636012 0.1027702285454639 0 -0.40104213778508202 0.092866093853817611 0 -0.42957324029363853 0.085693113452461764 0 -0.42737827173636012 0.1027702285454639 0 -0.39792088922733271 0.1160922105611595 0 -0.41467909406405851 0.1139188519362445 0 -0.417579207348795 0.13056668242546571 0 -0.39792088922733271 0.1160922105611595 0 -0.417579207348795 0.13056668242546571 0 -0.41467909406405851 0.1139188519362445 0 -0.42608096723388439 0.1205091241492761 0 -0.417579207348795 0.13056668242546571 0 -0.42737827173636012 0.1027702285454639 0 -0.41467909406405851 0.1139188519362445 0 -0.42608096723388439 0.1205091241492761 0 -0.42737827173636012 0.1027702285454639 0 -0.42608096723388439 0.1205091241492761 0 -0.43826405507869293 0.1195835460605416 0 -0.42608096723388439 0.1205091241492761 0 -0.43826405507869293 0.1195835460605416 0 -0.43293323699752101 0.1317554923945817 0 -0.43826405507869293 0.1195835460605416 0 -0.45371440568763749 0.1126743632371118 0 -0.44901593584904892 0.12912088192892021 0 -0.42737827173636012 0.1027702285454639 0 -0.43826405507869293 0.1195835460605416 0 -0.45371440568763749 0.1126743632371118 0 -0.4523882543875366 0.10983005993361 0 -0.45371440568763749 0.1126743632371118 0 -0.42737827173636012 0.1027702285454639 0 -0.4523882543875366 0.10983005993361 0 -0.44343173260412461 0.097571970950778963 0 -0.42737827173636012 0.1027702285454639 0 -0.4523882543875366 0.10983005993361 0 -0.45371440568763749 0.1126743632371118 0 -0.42737827173636012 0.1027702285454639 0 -0.45371440568763749 0.1126743632371118 0 -0.44343173260412461 0.097571970950778963 0 -0.45084974973894648 0.096020795281878568 0 -0.45306155814551219 0.1028275296158008 0 -0.44343173260412461 0.097571970950778963 0 -0.45084974973894648 0.096020795281878568 0 -0.44733932132275389 0.088290098875458828 0 -0.4523882543875366 0.10983005993361 0 -0.44343173260412461 0.097571970950778963 0 -0.45306155814551219 0.1028275296158008 0 -0.4523882543875366 0.10983005993361 0 -0.45306155814551219 0.1028275296158008 0 -0.45661100561120399 0.109540819014999 0 -0.45306155814551219 0.1028275296158008 0 -0.46084618436187341 0.10490351706993729 0 -0.45661100561120399 0.109540819014999 0 -0.45306155814551219 0.1028275296158008 0 -0.46084618436187341 0.10490351706993729 0 -0.45799439118323759 0.099220837031069903 0 -0.46084618436187341 0.10490351706993729 0 -0.4635407771028337 0.1124237257980706 0 -0.45661100561120399 0.109540819014999 0 -0.45799439118323759 0.099220837031069903 0 -0.46723244863383712 0.097971273043108306 0 -0.45594156200913483 0.091684632610025046 0 -0.45084974973894648 0.096020795281878568 0 -0.45799439118323759 0.099220837031069903 0 -0.45594156200913483 0.091684632610025046 0 -0.45084974973894648 0.096020795281878568 0 -0.45306155814551219 0.1028275296158008 0 -0.45799439118323759 0.099220837031069903 0 -0.46084618436187341 0.10490351706993729 0 -0.45799439118323759 0.099220837031069903 0 -0.46723244863383712 0.097971273043108306 0 -0.46084618436187341 0.10490351706993729 0 -0.46723244863383712 0.097971273043108306 0 -0.46686982756835349 0.1074114054382402 0 -0.46084618436187341 0.10490351706993729 0 -0.46686982756835349 0.1074114054382402 0 -0.4635407771028337 0.1124237257980706 0 -0.45371440568763749 0.1126743632371118 0 -0.46425598871103851 0.13528374379222011 0 -0.4635407771028337 0.1124237257980706 0 -0.45674497769142258 0.1138140594952527 0 -0.46958882025875243 0.12035793204680111 0 -0.46686982756835349 0.1074114054382402 0 -0.4635407771028337 0.1124237257980706 0 -0.47044075898603932 0.11380610730348489 0 -0.4635407771028337 0.1124237257980706 0 -0.46958882025875243 0.12035793204680111 0 -0.47044075898603932 0.11380610730348489 0 -0.45674497769142258 0.1138140594952527 0 -0.45371440568763749 0.1126743632371118 0 -0.46425598871103851 0.13528374379222011 0 -0.45674497769142258 0.1138140594952527 0 -0.46958882025875243 0.12035793204680111 0 -0.46425598871103851 0.13528374379222011 0 -0.4523882543875366 0.10983005993361 0 -0.45661100561120399 0.109540819014999 0 -0.45371440568763749 0.1126743632371118 0 -0.45674497769142258 0.1138140594952527 0 -0.45661100561120399 0.109540819014999 0 -0.45371440568763749 0.1126743632371118 0 -0.45674497769142258 0.1138140594952527 0 -0.45371440568763749 0.1126743632371118 0 -0.4635407771028337 0.1124237257980706 0 -0.45674497769142258 0.1138140594952527 0 -0.45661100561120399 0.109540819014999 0 -0.44282721760043869 0.062046251170956107 0 -0.4470315618909167 0.073148927984774167 0 -0.46103932749027238 0.064238871702306077 0 -0.44282721760043869 0.062046251170956107 0 -0.43131469147834472 0.070632617455275076 0 -0.4470315618909167 0.073148927984774167 0 -0.42957324029363853 0.085693113452461764 0 -0.44343173260412461 0.097571970950778963 0 -0.44733932132275389 0.088290098875458828 0 -0.42957324029363853 0.085693113452461764 0 -0.4470315618909167 0.073148927984774167 0 -0.44733932132275389 0.088290098875458828 0 -0.4470315618909167 0.073148927984774167 0 -0.44733932132275389 0.088290098875458828 0 -0.46047789149500767 0.082617330138573752 0 -0.45084974973894648 0.096020795281878568 0 -0.44733932132275389 0.088290098875458828 0 -0.45594156200913483 0.091684632610025046 0 -0.44733932132275389 0.088290098875458828 0 -0.45594156200913483 0.091684632610025046 0 -0.46047789149500767 0.082617330138573752 0 -0.46723244863383712 0.097971273043108306 0 -0.45594156200913483 0.091684632610025046 0 -0.46047789149500767 0.082617330138573752 0 -0.46047789149500767 0.082617330138573752 0 -0.46103932749027238 0.064238871702306077 0 -0.47920912086757578 0.083222027247413538 0 -0.4470315618909167 0.073148927984774167 0 -0.46047789149500767 0.082617330138573752 0 -0.46103932749027238 0.064238871702306077 0 -0.46103932749027238 0.064238871702306077 0 -0.48068047186290208 0.063626500276227002 0 -0.47920912086757578 0.083222027247413538 0 -0.46103932749027238 0.064238871702306077 0 -0.47920912086757578 0.083222027247413538 0 -0.46723244863383712 0.097971273043108306 0 -0.46047789149500767 0.082617330138573752 0 -0.47920912086757578 0.083222027247413538 0 -0.48068047186290208 0.063626500276227002 0 -0.47920912086757578 0.083222027247413538 0 -0.5 0.088432580532893601 0 -0.47920912086757578 0.083222027247413538 0 -0.49737891424487929 0.102205182792521 0 -0.47920912086757578 0.083222027247413538 0 -0.5 0.088432580532893601 0 -0.49737891424487929 0.102205182792521 0 -0.5 0.060034093897511798 0 -0.48068047186290208 0.063626500276227002 0 -0.5 0.088432580532893601 0 -0.47827810320487629 0.116675775998883 0 -0.48837893466537508 0.1117690854599766 0 -0.4842723158563047 0.1301441798928954 0 -0.47827810320487629 0.116675775998883 0 -0.47512549980118862 0.10796659812409699 0 -0.48837893466537508 0.1117690854599766 0 -0.47827810320487629 0.116675775998883 0 -0.46958882025875243 0.12035793204680111 0 -0.4842723158563047 0.1301441798928954 0 -0.47827810320487629 0.116675775998883 0 -0.47044075898603932 0.11380610730348489 0 -0.47512549980118862 0.10796659812409699 0 -0.46686982756835349 0.1074114054382402 0 -0.47044075898603932 0.11380610730348489 0 -0.47512549980118862 0.10796659812409699 0 -0.47827810320487629 0.116675775998883 0 -0.46958882025875243 0.12035793204680111 0 -0.47044075898603932 0.11380610730348489 0 -0.46723244863383712 0.097971273043108306 0 -0.47512549980118862 0.10796659812409699 0 -0.48162445158666772 0.1005823670901454 0 -0.46723244863383712 0.097971273043108306 0 -0.47920912086757578 0.083222027247413538 0 -0.48162445158666772 0.1005823670901454 0 -0.46723244863383712 0.097971273043108306 0 -0.46686982756835349 0.1074114054382402 0 -0.47512549980118862 0.10796659812409699 0 -0.47512549980118862 0.10796659812409699 0 -0.48162445158666772 0.1005823670901454 0 -0.48837893466537508 0.1117690854599766 0 -0.48162445158666772 0.1005823670901454 0 -0.49737891424487929 0.102205182792521 0 -0.48837893466537508 0.1117690854599766 0 -0.47920912086757578 0.083222027247413538 0 -0.48162445158666772 0.1005823670901454 0 -0.49737891424487929 0.102205182792521 0 -0.5 0.088432580532893601 0 -0.49737891424487929 0.102205182792521 0 -0.5 0.1168310671682755 0 -0.49737891424487929 0.102205182792521 0 -0.5 0.1168310671682755 0 -0.48837893466537508 0.1117690854599766 0 -0.5 0.1168310671682755 0 -0.48837893466537508 0.1117690854599766 0 -0.4842723158563047 0.1301441798928954 0 -0.5 0.1168310671682755 0 -0.4842723158563047 0.1301441798928954 0 -0.5 0.14522955380365729 0 -0.46958882025875243 0.12035793204680111 0 -0.4842723158563047 0.1301441798928954 0 -0.46425598871103851 0.13528374379222011 0 -0.4842723158563047 0.1301441798928954 0 -0.47479757173443998 0.15789312434732811 0 -0.46425598871103851 0.13528374379222011 0 -0.47479757173443998 0.15789312434732811 0 -0.46425598871103851 0.13528374379222011 0 -0.4842723158563047 0.1301441798928954 0 -0.5 0.14522955380365729 0 -0.47479757173443998 0.15789312434732811 0 -0.5 0.14522955380365729 0 -0.49999999999999972 0.17362804043903909 0 -0.47479757173443998 0.15789312434732811 0 -0.49999999999999972 0.17362804043903909 0 -0.47479757173443998 0.15789312434732811 0 -0.49999999999999972 0.17362804043903909 0 -0.49200992699072321 0.1743962810239672 0 -0.47479757173443998 0.15789312434732811 0 -0.48341269367675271 0.17637066895233999 0 -0.49170634683837577 0.1941587336203292 0 -0.49368671912131301 0.1828531969182482 0 -0.49999999999999972 0.17362804043903909 0 -0.5 0.19278741936367841 0 -0.49368671912131301 0.1828531969182482 0 -0.48341269367675271 0.17637066895233999 0 -0.49170634683837577 0.1941587336203292 0 -0.49368671912131301 0.1828531969182482 0 -0.49999999999999972 0.17362804043903909 0 -0.49200992699072321 0.1743962810239672 0 -0.49200992699072321 0.1743962810239672 0 -0.48341269367675271 0.17637066895233999 0 -0.49368671912131301 0.1828531969182482 0 -0.49200992699072321 0.1743962810239672 0 -0.48341269367675271 0.17637066895233999 0 -0.48341269367675271 0.17637066895233999 0 -0.45591042926964898 0.18268667049205081 0 -0.47274380268756999 0.19288508587190861 0 -0.48341269367675271 0.17637066895233999 0 -0.45591042926964898 0.18268667049205081 0 -0.49200992699072321 0.1743962810239672 0 -0.48341269367675271 0.17637066895233999 0 -0.47479757173443998 0.15789312434732811 0 -0.48341269367675271 0.17637066895233999 0 -0.47479757173443998 0.15789312434732811 0 -0.48341269367675271 0.17637066895233999 0 -0.47479757173443998 0.15789312434732811 0 -0.45723956394668003 0.16387676974864759 0 -0.48341269367675271 0.17637066895233999 0 -0.45723956394668003 0.16387676974864759 0 -0.45591042926964898 0.18268667049205081 0 -0.45591042926964898 0.18268667049205081 0 -0.43992511097516529 0.17411109905454999 0 -0.4284081648625454 0.1890026720317621 0 -0.45591042926964898 0.18268667049205081 0 -0.4284081648625454 0.1890026720317621 0 -0.45723956394668003 0.16387676974864759 0 -0.45591042926964898 0.18268667049205081 0 -0.43992511097516529 0.17411109905454999 0 -0.45723956394668003 0.16387676974864759 0 -0.43992511097516529 0.17411109905454999 0 -0.43892522612619872 0.15930650560997939 0 -0.43892522612619872 0.15930650560997939 0 -0.43796764784210812 0.14528805014891141 0 -0.45386540436598038 0.14482430837095511 0 -0.45723956394668003 0.16387676974864759 0 -0.43892522612619872 0.15930650560997939 0 -0.45386540436598038 0.14482430837095511 0 -0.45386540436598038 0.14482430837095511 0 -0.43293323699752101 0.1317554923945817 0 -0.43826405507869293 0.1195835460605416 0 -0.44901593584904892 0.12912088192892021 0 -0.43293323699752101 0.1317554923945817 0 -0.43796764784210812 0.14528805014891141 0 -0.45386540436598038 0.14482430837095511 0 -0.43293323699752101 0.1317554923945817 0 -0.44901593584904892 0.12912088192892021 0 -0.45386540436598038 0.14482430837095511 0 -0.43293323699752101 0.1317554923945817 0 -0.45371440568763749 0.1126743632371118 0 -0.44901593584904892 0.12912088192892021 0 -0.46425598871103851 0.13528374379222011 0 -0.44901593584904892 0.12912088192892021 0 -0.46425598871103851 0.13528374379222011 0 -0.45386540436598038 0.14482430837095511 0 -0.47479757173443998 0.15789312434732811 0 -0.45723956394668003 0.16387676974864759 0 -0.45386540436598038 0.14482430837095511 0 -0.47479757173443998 0.15789312434732811 0 -0.46425598871103851 0.13528374379222011 0 -0.45386540436598038 0.14482430837095511 0 -0.47479757173443998 0.15789312434732811 0 -0.45386540436598038 0.14482430837095511 0 -0.48226153920099157 0.23766317590200001 0 -0.47864167104372218 0.246590621409366 0 -0.48932095354102823 0.25454658797793611 0 -0.47315400564016008 0.2364435414805684 0 -0.47864167104372218 0.246590621409366 0 -0.46938038244821267 0.25133041049185839 0 -0.47315400564016008 0.2364435414805684 0 -0.48226153920099157 0.23766317590200001 0 -0.47864167104372218 0.246590621409366 0 -0.49106398183666961 0.22759324404760359 0 -0.48932095354102823 0.25454658797793611 0 -0.5 0.23810140997737081 0 -0.49106398183666961 0.22759324404760359 0 -0.48932095354102823 0.25454658797793611 0 -0.48226153920099157 0.23766317590200001 0 -0.49106398183666961 0.22759324404760359 0 -0.48932095354102823 0.25454658797793611 0 -0.5 0.23810140997737081 0 -0.49106398183666961 0.22759324404760359 0 -0.50000000000000022 0.21194679828831781 0 -0.49106398183666961 0.22759324404760359 0 -0.47912708394337772 0.2231418845945258 0 -0.48726644121087642 0.21298690825741631 0 -0.48226153920099157 0.23766317590200001 0 -0.49106398183666961 0.22759324404760359 0 -0.47912708394337772 0.2231418845945258 0 -0.47315400564016008 0.2364435414805684 0 -0.48226153920099157 0.23766317590200001 0 -0.47912708394337772 0.2231418845945258 0 -0.47315400564016008 0.2364435414805684 0 -0.47912708394337772 0.2231418845945258 0 -0.46764368341616458 0.22415830119077751 0 -0.47912708394337772 0.2231418845945258 0 -0.47360767850491831 0.20951316246361981 0 -0.46764368341616458 0.22415830119077751 0 -0.47360767850491831 0.20951316246361981 0 -0.48726644121087642 0.21298690825741631 0 -0.49170634683837577 0.1941587336203292 0 -0.47912708394337772 0.2231418845945258 0 -0.47360767850491831 0.20951316246361981 0 -0.48726644121087642 0.21298690825741631 0 -0.49106398183666961 0.22759324404760359 0 -0.50000000000000022 0.21194679828831781 0 -0.48726644121087642 0.21298690825741631 0 -0.50000000000000022 0.21194679828831781 0 -0.48726644121087642 0.21298690825741631 0 -0.49170634683837577 0.1941587336203292 0 -0.50000000000000022 0.21194679828831781 0 -0.49170634683837577 0.1941587336203292 0 -0.50000000000000022 0.21194679828831781 0 -0.5 0.19278741936367841 0 -0.49170634683837577 0.1941587336203292 0 -0.49368671912131301 0.1828531969182482 0 -0.5 0.19278741936367841 0 -0.49170634683837577 0.1941587336203292 0 -0.48341269367675271 0.17637066895233999 0 -0.49170634683837577 0.1941587336203292 0 -0.47274380268756999 0.19288508587190861 0 -0.47360767850491831 0.20951316246361981 0 -0.49170634683837577 0.1941587336203292 0 -0.47274380268756999 0.19288508587190861 0 -0.47360767850491831 0.20951316246361981 0 -0.47274380268756999 0.19288508587190861 0 -0.45820261548712909 0.20353130823034371 0 -0.45591042926964898 0.18268667049205081 0 -0.47274380268756999 0.19288508587190861 0 -0.45820261548712909 0.20353130823034371 0 -0.45591042926964898 0.18268667049205081 0 -0.43516662619925378 0.20614333559983469 0 -0.4284081648625454 0.1890026720317621 0 -0.45591042926964898 0.18268667049205081 0 -0.45820261548712909 0.20353130823034371 0 -0.43516662619925378 0.20614333559983469 0 -0.44192508753596349 0.22328399916790689 0 -0.43516662619925378 0.20614333559983469 0 -0.45032248765871591 0.2151961798839368 0 -0.44192508753596349 0.22328399916790689 0 -0.43516662619925378 0.20614333559983469 0 -0.45032248765871591 0.2151961798839368 0 -0.45820261548712909 0.20353130823034371 0 -0.43516662619925378 0.20614333559983469 0 -0.45032248765871591 0.2151961798839368 0 -0.46109406183397039 0.21551848415653921 0 -0.45620465585954723 0.2251951411450015 0 -0.45032248765871591 0.2151961798839368 0 -0.45820261548712909 0.20353130823034371 0 -0.46109406183397039 0.21551848415653921 0 -0.47360767850491831 0.20951316246361981 0 -0.45820261548712909 0.20353130823034371 0 -0.46109406183397039 0.21551848415653921 0 -0.47360767850491831 0.20951316246361981 0 -0.46109406183397039 0.21551848415653921 0 -0.46764368341616458 0.22415830119077751 0 -0.47315400564016008 0.2364435414805684 0 -0.46764368341616458 0.22415830119077751 0 -0.45925329591452863 0.2407771106774913 0 -0.46764368341616458 0.22415830119077751 0 -0.45620465585954723 0.2251951411450015 0 -0.45925329591452863 0.2407771106774913 0 -0.46109406183397039 0.21551848415653921 0 -0.46764368341616458 0.22415830119077751 0 -0.45620465585954723 0.2251951411450015 0 -0.45032248765871591 0.2151961798839368 0 -0.45620465585954723 0.2251951411450015 0 -0.44192508753596349 0.22328399916790689 0 -0.44192508753596349 0.22328399916790689 0 -0.44062222049055039 0.24203477259657111 0 -0.43146145522804691 0.2313120115293863 0 -0.45620465585954723 0.2251951411450015 0 -0.44062222049055039 0.24203477259657111 0 -0.45620465585954723 0.2251951411450015 0 -0.44192508753596349 0.22328399916790689 0 -0.44062222049055039 0.24203477259657111 0 -0.44062222049055039 0.24203477259657111 0 -0.45046339488490522 0.249057113070103 0 -0.44442574262614493 0.25832327296872359 0 -0.44062222049055039 0.24203477259657111 0 -0.45046339488490522 0.249057113070103 0 -0.45925329591452863 0.2407771106774913 0 -0.45620465585954723 0.2251951411450015 0 -0.44062222049055039 0.24203477259657111 0 -0.45925329591452863 0.2407771106774913 0 -0.45046339488490522 0.249057113070103 0 -0.45925329591452863 0.2407771106774913 0 -0.45807104112411212 0.25534721177055669 0 -0.45925329591452863 0.2407771106774913 0 -0.46938038244821267 0.25133041049185839 0 -0.45807104112411212 0.25534721177055669 0 -0.47315400564016008 0.2364435414805684 0 -0.45925329591452863 0.2407771106774913 0 -0.46938038244821267 0.25133041049185839 0 -0.4198454647722451 0.23985190764030939 0 -0.40081965837488509 0.24074316727492401 0 -0.40585136056822319 0.25674789398696107 0 -0.4198454647722451 0.23985190764030939 0 -0.405480724964072 0.22581663549259839 0 -0.40081965837488509 0.24074316727492401 0 -0.44062222049055039 0.24203477259657111 0 -0.4198454647722451 0.23985190764030939 0 -0.42503978512155383 0.25887440404814072 0 -0.44062222049055039 0.24203477259657111 0 -0.4198454647722451 0.23985190764030939 0 -0.43146145522804691 0.2313120115293863 0 -0.4198454647722451 0.23985190764030939 0 -0.43146145522804691 0.2313120115293863 0 -0.42370673975344808 0.22056464269113771 0 -0.44192508753596349 0.22328399916790689 0 -0.43146145522804691 0.2313120115293863 0 -0.42370673975344808 0.22056464269113771 0 -0.4198454647722451 0.23985190764030939 0 -0.42370673975344808 0.22056464269113771 0 -0.405480724964072 0.22581663549259839 0 -0.42370673975344808 0.22056464269113771 0 -0.40708390191205951 0.20882890034131879 0 -0.405480724964072 0.22581663549259839 0 -0.42370673975344808 0.22056464269113771 0 -0.40708390191205951 0.20882890034131879 0 -0.42107335870595469 0.2022269477122331 0 -0.44192508753596349 0.22328399916790689 0 -0.42370673975344808 0.22056464269113771 0 -0.43516662619925378 0.20614333559983469 0 -0.42370673975344808 0.22056464269113771 0 -0.43516662619925378 0.20614333559983469 0 -0.42107335870595469 0.2022269477122331 0 -0.43516662619925378 0.20614333559983469 0 -0.4284081648625454 0.1890026720317621 0 -0.42107335870595469 0.2022269477122331 0 -0.43516662619925378 0.20614333559983469 0 -0.4284081648625454 0.1890026720317621 0 -0.4284081648625454 0.1890026720317621 0 -0.40915969581062839 0.19342315750049971 0 -0.4284081648625454 0.1890026720317621 0 -0.42107335870595469 0.2022269477122331 0 -0.40915969581062839 0.19342315750049971 0 -0.40708390191205951 0.20882890034131879 0 -0.42107335870595469 0.2022269477122331 0 -0.40915969581062839 0.19342315750049971 0 -0.40708390191205951 0.20882890034131879 0 -0.40915969581062839 0.19342315750049971 0 -0.38991122675871148 0.19784364296923759 0 -0.40915969581062839 0.19342315750049971 0 -0.38991122675871148 0.19784364296923759 0 -0.40915969581062839 0.19342315750049971 0 -0.38991122675871148 0.19784364296923759 0 -0.39569501158598158 0.17813944679546001 0 -0.39158905321283283 0.2136173787495643 0 -0.38435338999826391 0.22831720607051781 0 -0.36414166766971379 0.2074649771098355 0 -0.38991122675871148 0.19784364296923759 0 -0.39158905321283283 0.2136173787495643 0 -0.36414166766971379 0.2074649771098355 0 -0.40708390191205951 0.20882890034131879 0 -0.39158905321283283 0.2136173787495643 0 -0.405480724964072 0.22581663549259839 0 -0.40708390191205951 0.20882890034131879 0 -0.38991122675871148 0.19784364296923759 0 -0.39158905321283283 0.2136173787495643 0 -0.405480724964072 0.22581663549259839 0 -0.38435338999826391 0.22831720607051781 0 -0.40081965837488509 0.24074316727492401 0 -0.39158905321283283 0.2136173787495643 0 -0.405480724964072 0.22581663549259839 0 -0.38435338999826391 0.22831720607051781 0 -0.37619177155740557 0.24036243622333081 0 -0.38790582398472923 0.24962922847932231 0 -0.36318679658289171 0.25196182354824148 0 -0.38435338999826391 0.22831720607051781 0 -0.37619177155740557 0.24036243622333081 0 -0.38790582398472923 0.24962922847932231 0 -0.38435338999826391 0.22831720607051781 0 -0.38790582398472923 0.24962922847932231 0 -0.40081965837488509 0.24074316727492401 0 -0.38790582398472923 0.24962922847932231 0 -0.40081965837488509 0.24074316727492401 0 -0.40585136056822319 0.25674789398696107 0 -0.40926453963391513 0.14045102348790381 0 -0.42614672387873248 0.14526589422012931 0 -0.41883635224822963 0.16472684775983329 0 -0.40926453963391513 0.14045102348790381 0 -0.41883635224822963 0.16472684775983329 0 -0.40926453963391513 0.14045102348790381 0 -0.41883635224822963 0.16472684775983329 0 -0.40029434983296169 0.15790366282291429 0 -0.40926453963391513 0.14045102348790381 0 -0.417579207348795 0.13056668242546571 0 -0.40026410281127539 0.13237877311027449 0 -0.40926453963391513 0.14045102348790381 0 -0.417579207348795 0.13056668242546571 0 -0.42614672387873248 0.14526589422012931 0 -0.417579207348795 0.13056668242546571 0 -0.43293323699752101 0.1317554923945817 0 -0.42614672387873248 0.14526589422012931 0 -0.42608096723388439 0.1205091241492761 0 -0.417579207348795 0.13056668242546571 0 -0.43293323699752101 0.1317554923945817 0 -0.43796764784210812 0.14528805014891141 0 -0.43293323699752101 0.1317554923945817 0 -0.42614672387873248 0.14526589422012931 0 -0.43892522612619872 0.15930650560997939 0 -0.43796764784210812 0.14528805014891141 0 -0.42614672387873248 0.14526589422012931 0 -0.43892522612619872 0.15930650560997939 0 -0.42614672387873248 0.14526589422012931 0 -0.41883635224822963 0.16472684775983329 0 -0.43992511097516529 0.17411109905454999 0 -0.43892522612619872 0.15930650560997939 0 -0.41883635224822963 0.16472684775983329 0 -0.4284081648625454 0.1890026720317621 0 -0.41883635224822963 0.16472684775983329 0 -0.43992511097516529 0.17411109905454999 0 -0.4284081648625454 0.1890026720317621 0 -0.41883635224822963 0.16472684775983329 0 -0.40915969581062839 0.19342315750049971 0 -0.41883635224822963 0.16472684775983329 0 -0.39569501158598158 0.17813944679546001 0 -0.4284081648625454 0.1890026720317621 0 -0.40915969581062839 0.19342315750049971 0 -0.41883635224822963 0.16472684775983329 0 -0.40029434983296169 0.15790366282291429 0 -0.39569501158598158 0.17813944679546001 0 -0.38484252596519369 0.16167484958157691 0 -0.41883635224822963 0.16472684775983329 0 -0.40029434983296169 0.15790366282291429 0 -0.39569501158598158 0.17813944679546001 0 -0.39569501158598158 0.17813944679546001 0 -0.38484252596519369 0.16167484958157691 0 -0.36525228834216061 0.17922160577889321 0 -0.38991122675871148 0.19784364296923759 0 -0.39569501158598158 0.17813944679546001 0 -0.36525228834216061 0.17922160577889321 0 -0.39283331973148827 0.14452614648979731 0 -0.38372255811484618 0.13025780258704611 0 -0.36636290901460722 0.1509782344479508 0 -0.38484252596519369 0.16167484958157691 0 -0.39283331973148827 0.14452614648979731 0 -0.36636290901460722 0.1509782344479508 0 -0.40029434983296169 0.15790366282291429 0 -0.38484252596519369 0.16167484958157691 0 -0.39283331973148827 0.14452614648979731 0 -0.40926453963391513 0.14045102348790381 0 -0.40029434983296169 0.15790366282291429 0 -0.39283331973148827 0.14452614648979731 0 -0.39283331973148827 0.14452614648979731 0 -0.40026410281127539 0.13237877311027449 0 -0.38372255811484618 0.13025780258704611 0 -0.39792088922733271 0.1160922105611595 0 -0.417579207348795 0.13056668242546571 0 -0.40026410281127539 0.13237877311027449 0 -0.39792088922733271 0.1160922105611595 0 -0.40026410281127539 0.13237877311027449 0 -0.38372255811484618 0.13025780258704611 0 -0.40926453963391513 0.14045102348790381 0 -0.39283331973148827 0.14452614648979731 0 -0.40026410281127539 0.13237877311027449 0 -0.38372255811484618 0.13025780258704611 0 -0.36636290901460722 0.1509782344479508 0 -0.36747352968705388 0.12273486311700831 0 -0.36636290901460722 0.1509782344479508 0 -0.36747352968705388 0.12273486311700831 0 -0.35528769071996391 0.12689780186549679 0 -0.36636290901460722 0.1509782344479508 0 -0.36747352968705388 0.12273486311700831 0 -0.35528769071996391 0.12689780186549679 0 -0.33512599087492562 0.1447950320020088 0 -0.35528769071996391 0.12689780186549679 0 -0.35168351666373848 0.14314256241625531 0 -0.33512599087492562 0.1447950320020088 0 -0.35528769071996391 0.12689780186549679 0 -0.33512599087492562 0.1447950320020088 0 -0.34115039425197219 0.12498493974687711 0 -0.35528769071996391 0.12689780186549679 0 -0.35168351666373848 0.14314256241625531 0 -0.36636290901460722 0.1509782344479508 0 -0.35168351666373848 0.14314256241625531 0 -0.36636290901460722 0.1509782344479508 0 -0.34333519974196419 0.16612441953572921 0 -0.38484252596519369 0.16167484958157691 0 -0.36636290901460722 0.1509782344479508 0 -0.36525228834216061 0.17922160577889321 0 -0.36636290901460722 0.1509782344479508 0 -0.36525228834216061 0.17922160577889321 0 -0.36525228834216061 0.17922160577889321 0 -0.34333519974196419 0.16612441953572921 0 -0.34654591437965571 0.19533490523866279 0 -0.36636290901460722 0.1509782344479508 0 -0.36525228834216061 0.17922160577889321 0 -0.34333519974196419 0.16612441953572921 0 -0.34333519974196419 0.16612441953572921 0 -0.31496429102988749 0.16269226213852109 0 -0.33512599087492562 0.1447950320020088 0 -0.34333519974196419 0.16612441953572921 0 -0.34654591437965571 0.19533490523866279 0 -0.32412519241006588 0.1878495682783011 0 -0.31496429102988749 0.16269226213852109 0 -0.32412519241006588 0.1878495682783011 0 -0.34333519974196419 0.16612441953572921 0 -0.31496429102988749 0.16269226213852109 0 -0.32412519241006588 0.1878495682783011 0 -0.31303823693556859 0.17707572181323081 0 -0.31496429102988749 0.16269226213852109 0 -0.32412519241006588 0.1878495682783011 0 -0.31303823693556859 0.17707572181323081 0 -0.32412519241006588 0.1878495682783011 0 -0.3108046026399135 0.18379038091696129 0 -0.31496429102988749 0.16269226213852109 0 -0.31353256245119709 0.1587605055712967 0 -0.31354631638020197 0.13395604467094269 0 -0.33512599087492562 0.1447950320020088 0 -0.3122891553291075 0.14635758184588041 0 -0.31353256245119709 0.1587605055712967 0 -0.33512599087492562 0.1447950320020088 0 -0.3122891553291075 0.14635758184588041 0 -0.31496429102988749 0.16269226213852109 0 -0.31353256245119709 0.1587605055712967 0 -0.33512599087492562 0.1447950320020088 0 -0.31496429102988749 0.16269226213852109 0 -0.33512599087492562 0.1447950320020088 0 -0.31354631638020197 0.13395604467094269 0 -0.32917568526667751 0.12578156900391591 0 -0.33512599087492562 0.1447950320020088 0 -0.31354631638020197 0.13395604467094269 0 -0.32917568526667751 0.12578156900391591 0 -0.32114709127587232 0.11611322513389059 0 -0.32917568526667751 0.12578156900391591 0 -0.33512599087492562 0.1447950320020088 0 -0.34115039425197219 0.12498493974687711 0 -0.35168351666373848 0.14314256241625531 0 -0.34333519974196419 0.16612441953572921 0 -0.33512599087492562 0.1447950320020088 0 -0.36303104699726713 0.23570834844077809 0 -0.34244699517042121 0.23816418055786151 0 -0.36318679658289171 0.25196182354824148 0 -0.34244699517042121 0.23816418055786151 0 -0.36318679658289171 0.25196182354824148 0 -0.33952374355129727 0.25899057541505788 0 -0.37619177155740557 0.24036243622333081 0 -0.36303104699726713 0.23570834844077809 0 -0.36318679658289171 0.25196182354824148 0 -0.38435338999826391 0.22831720607051781 0 -0.37619177155740557 0.24036243622333081 0 -0.36303104699726713 0.23570834844077809 0 -0.38435338999826391 0.22831720607051781 0 -0.36303104699726713 0.23570834844077809 0 -0.36414166766971379 0.2074649771098355 0 -0.36303104699726713 0.23570834844077809 0 -0.36414166766971379 0.2074649771098355 0 -0.36303104699726713 0.23570834844077809 0 -0.35084793517488477 0.2210857468323085 0 -0.34244699517042121 0.23816418055786151 0 -0.36303104699726713 0.23570834844077809 0 -0.35084793517488477 0.2210857468323085 0 -0.36414166766971379 0.2074649771098355 0 -0.35084793517488477 0.2210857468323085 0 -0.36414166766971379 0.2074649771098355 0 -0.34654591437965571 0.19533490523866279 0 -0.36525228834216061 0.17922160577889321 0 -0.36414166766971379 0.2074649771098355 0 -0.38991122675871148 0.19784364296923759 0 -0.36525228834216061 0.17922160577889321 0 -0.36414166766971379 0.2074649771098355 0 -0.36525228834216061 0.17922160577889321 0 -0.36414166766971379 0.2074649771098355 0 -0.34654591437965571 0.19533490523866279 0 -0.32412519241006588 0.1878495682783011 0 -0.33328609379024349 0.2130068744180813 0 -0.34654591437965571 0.19533490523866279 0 -0.32412519241006588 0.1878495682783011 0 -0.33328609379024349 0.2130068744180813 0 -0.32412519241006588 0.1878495682783011 0 -0.33328609379024349 0.2130068744180813 0 -0.31080006153106382 0.20197173666100501 0 -0.32412519241006588 0.1878495682783011 0 -0.31080006153106382 0.20197173666100501 0 -0.3108046026399135 0.18379038091696129 0 -0.33328609379024349 0.2130068744180813 0 -0.31873218963182409 0.22654972870499029 0 -0.31080006153106382 0.20197173666100501 0 -0.35084793517488477 0.2210857468323085 0 -0.34654591437965571 0.19533490523866279 0 -0.33328609379024349 0.2130068744180813 0 -0.35084793517488477 0.2210857468323085 0 -0.33328609379024349 0.2130068744180813 0 -0.34244699517042121 0.23816418055786151 0 -0.33328609379024349 0.2130068744180813 0 -0.34244699517042121 0.23816418055786151 0 -0.33328609379024349 0.2130068744180813 0 -0.31873218963182409 0.22654972870499029 0 -0.34244699517042121 0.23816418055786151 0 -0.31873218963182409 0.22654972870499029 0 -0.32200613725511351 0.24850726385495631 0 -0.34244699517042121 0.23816418055786151 0 -0.31873218963182409 0.22654972870499029 0 -0.32200613725511351 0.24850726385495631 0 -0.30672251365844311 0.23743048015470111 0 -0.32200613725511351 0.24850726385495631 0 -0.34244699517042121 0.23816418055786151 0 -0.33952374355129727 0.25899057541505788 0 -0.29125564533142001 0.24067530578368901 0 -0.30672251365844311 0.23743048015470111 0 -0.30640548876467488 0.25787073169030861 0 -0.32200613725511351 0.24850726385495631 0 -0.30672251365844311 0.23743048015470111 0 -0.30640548876467488 0.25787073169030861 0 -0.29125564533142001 0.24067530578368901 0 -0.30672251365844311 0.23743048015470111 0 -0.29521310730918271 0.21354937073956171 0 -0.31873218963182409 0.22654972870499029 0 -0.30672251365844311 0.23743048015470111 0 -0.29521310730918271 0.21354937073956171 0 -0.29125564533142001 0.24067530578368901 0 -0.29521310730918271 0.21354937073956171 0 -0.29125564533142001 0.24067530578368901 0 -0.29521310730918271 0.21354937073956171 0 -0.27258595833473342 0.22149207507906341 0 -0.29521310730918271 0.21354937073956171 0 -0.28878760701375322 0.1984352968903606 0 -0.27490594785389072 0.20112241201531189 0 -0.31873218963182409 0.22654972870499029 0 -0.29521310730918271 0.21354937073956171 0 -0.31080006153106382 0.20197173666100501 0 -0.29521310730918271 0.21354937073956171 0 -0.29917056928694541 0.1864234356954344 0 -0.29521310730918271 0.21354937073956171 0 -0.31080006153106382 0.20197173666100501 0 -0.29917056928694541 0.1864234356954344 0 -0.31080006153106382 0.20197173666100501 0 -0.3108046026399135 0.18379038091696129 0 -0.29917056928694541 0.1864234356954344 0 -0.28878760701375322 0.1984352968903606 0 -0.29917056928694541 0.1864234356954344 0 -0.28955343229492791 0.1852490896997587 0 -0.29521310730918271 0.21354937073956171 0 -0.28878760701375322 0.1984352968903606 0 -0.29917056928694541 0.1864234356954344 0 -0.28878760701375322 0.1984352968903606 0 -0.27938784373491388 0.18917199981814359 0 -0.28955343229492791 0.1852490896997587 0 -0.27938784373491388 0.18917199981814359 0 -0.27490594785389072 0.20112241201531189 0 -0.26439180367967152 0.18225540552070321 0 -0.28878760701375322 0.1984352968903606 0 -0.27938784373491388 0.18917199981814359 0 -0.27490594785389072 0.20112241201531189 0 -0.27490594785389072 0.20112241201531189 0 -0.25370102580463139 0.2052288024824625 0 -0.26439180367967152 0.18225540552070321 0 -0.25370102580463139 0.2052288024824625 0 -0.26439180367967152 0.18225540552070321 0 -0.23359887481107691 0.1809086922627815 0 -0.27490594785389072 0.20112241201531189 0 -0.25370102580463139 0.2052288024824625 0 -0.27258595833473342 0.22149207507906341 0 -0.29521310730918271 0.21354937073956171 0 -0.27490594785389072 0.20112241201531189 0 -0.27258595833473342 0.22149207507906341 0 -0.29125564533142001 0.24067530578368901 0 -0.27258595833473342 0.22149207507906341 0 -0.26834113505385238 0.23837358332174549 0 -0.27258595833473342 0.22149207507906341 0 -0.25272375818517617 0.22994970808158929 0 -0.26834113505385238 0.23837358332174549 0 -0.25370102580463139 0.2052288024824625 0 -0.27258595833473342 0.22149207507906341 0 -0.25272375818517617 0.22994970808158929 0 -0.25272375818517617 0.22994970808158929 0 -0.25621817608628389 0.2460965770837312 0 -0.26834113505385238 0.23837358332174549 0 -0.25621817608628389 0.2460965770837312 0 -0.26834113505385238 0.23837358332174549 0 -0.26892213733164849 0.25365425058065472 0 -0.29125564533142001 0.24067530578368901 0 -0.26834113505385238 0.23837358332174549 0 -0.26892213733164849 0.25365425058065472 0 -0.29370567785695612 0.15770531643225719 0 -0.28412418886142132 0.16518528890623771 0 -0.28065913062351988 0.14575155473079041 0 -0.30159211447790629 0.14759241864651959 0 -0.29370567785695612 0.15770531643225719 0 -0.28065913062351988 0.14575155473079041 0 -0.29682817834931757 0.13068013418198679 0 -0.30159211447790629 0.14759241864651959 0 -0.28065913062351988 0.14575155473079041 0 -0.29682817834931757 0.13068013418198679 0 -0.28065913062351988 0.14575155473079041 0 -0.28285123447775751 0.1183560919224374 0 -0.31354631638020197 0.13395604467094269 0 -0.29682817834931757 0.13068013418198679 0 -0.30159211447790629 0.14759241864651959 0 -0.31354631638020197 0.13395604467094269 0 -0.3122891553291075 0.14635758184588041 0 -0.30159211447790629 0.14759241864651959 0 -0.31353256245119709 0.1587605055712967 0 -0.3122891553291075 0.14635758184588041 0 -0.30159211447790629 0.14759241864651959 0 -0.31496429102988749 0.16269226213852109 0 -0.31353256245119709 0.1587605055712967 0 -0.30488677357152572 0.1641353808659653 0 -0.30159211447790629 0.14759241864651959 0 -0.30488677357152572 0.1641353808659653 0 -0.29370567785695612 0.15770531643225719 0 -0.31353256245119709 0.1587605055712967 0 -0.30159211447790629 0.14759241864651959 0 -0.30488677357152572 0.1641353808659653 0 -0.31496429102988749 0.16269226213852109 0 -0.30225886166240762 0.17397067591913981 0 -0.31303823693556859 0.17707572181323081 0 -0.31496429102988749 0.16269226213852109 0 -0.30225886166240762 0.17397067591913981 0 -0.31496429102988749 0.16269226213852109 0 -0.30488677357152572 0.1641353808659653 0 -0.30225886166240762 0.17397067591913981 0 -0.30488677357152572 0.1641353808659653 0 -0.30225886166240762 0.17397067591913981 0 -0.29597535979189887 0.1670989905046398 0 -0.30488677357152572 0.1641353808659653 0 -0.29370567785695612 0.15770531643225719 0 -0.29597535979189887 0.1670989905046398 0 -0.31303823693556859 0.17707572181323081 0 -0.3108046026399135 0.18379038091696129 0 -0.30225886166240762 0.17397067591913981 0 -0.30225886166240762 0.17397067591913981 0 -0.29917056928694541 0.1864234356954344 0 -0.28955343229492791 0.1852490896997587 0 -0.3108046026399135 0.18379038091696129 0 -0.30225886166240762 0.17397067591913981 0 -0.29917056928694541 0.1864234356954344 0 -0.30225886166240762 0.17397067591913981 0 -0.28955343229492791 0.1852490896997587 0 -0.30225886166240762 0.17397067591913981 0 -0.28955343229492791 0.1852490896997587 0 -0.29024545837739651 0.173916500811098 0 -0.28955343229492791 0.1852490896997587 0 -0.29024545837739651 0.173916500811098 0 -0.27889874324695868 0.17762520371433099 0 -0.29024545837739651 0.173916500811098 0 -0.28412418886142132 0.16518528890623771 0 -0.27889874324695868 0.17762520371433099 0 -0.27938784373491388 0.18917199981814359 0 -0.28955343229492791 0.1852490896997587 0 -0.27889874324695868 0.17762520371433099 0 -0.29370567785695612 0.15770531643225719 0 -0.29597535979189887 0.1670989905046398 0 -0.28412418886142132 0.16518528890623771 0 -0.30225886166240762 0.17397067591913981 0 -0.29024545837739651 0.173916500811098 0 -0.29597535979189887 0.1670989905046398 0 -0.29024545837739651 0.173916500811098 0 -0.29597535979189887 0.1670989905046398 0 -0.28412418886142132 0.16518528890623771 0 -0.28412418886142132 0.16518528890623771 0 -0.26844272787379447 0.16268744982768751 0 -0.27889874324695868 0.17762520371433099 0 -0.28412418886142132 0.16518528890623771 0 -0.26844272787379447 0.16268744982768751 0 -0.28065913062351988 0.14575155473079041 0 -0.26844272787379447 0.16268744982768751 0 -0.27889874324695868 0.17762520371433099 0 -0.26439180367967152 0.18225540552070321 0 -0.27938784373491388 0.18917199981814359 0 -0.27889874324695868 0.17762520371433099 0 -0.26439180367967152 0.18225540552070321 0 -0.26844272787379447 0.16268744982768751 0 -0.26439180367967152 0.18225540552070321 0 -0.247018622616726 0.15992587597476091 0 -0.26844272787379447 0.16268744982768751 0 -0.25846103874104392 0.14702121199507179 0 -0.247018622616726 0.15992587597476091 0 -0.26844272787379447 0.16268744982768751 0 -0.25846103874104392 0.14702121199507179 0 -0.28065913062351988 0.14575155473079041 0 -0.25846103874104392 0.14702121199507179 0 -0.28065913062351988 0.14575155473079041 0 -0.25922316449870308 0.12628093809151891 0 -0.28065913062351988 0.14575155473079041 0 -0.25922316449870308 0.12628093809151891 0 -0.28285123447775751 0.1183560919224374 0 -0.25846103874104392 0.14702121199507179 0 -0.25922316449870308 0.12628093809151891 0 -0.2369615480924761 0.1404602413506009 0 -0.25922316449870308 0.12628093809151891 0 -0.25136603029008331 0.1103208693098497 0 -0.26687835675477128 0.1014348965859585 0 -0.25136603029008331 0.1103208693098497 0 -0.26687835675477128 0.1014348965859585 0 -0.24377998071086901 0.096378574065869249 0 -0.26687835675477128 0.1014348965859585 0 -0.28737892951993471 0.098967158637655914 0 -0.27569457229827071 0.081243623470509244 0 -0.26687835675477128 0.1014348965859585 0 -0.28285123447775751 0.1183560919224374 0 -0.28737892951993471 0.098967158637655914 0 -0.25922316449870308 0.12628093809151891 0 -0.26687835675477128 0.1014348965859585 0 -0.28285123447775751 0.1183560919224374 0 -0.29682817834931757 0.13068013418198679 0 -0.28285123447775751 0.1183560919224374 0 -0.30549209578720232 0.10774456093924389 0 -0.28285123447775751 0.1183560919224374 0 -0.28737892951993471 0.098967158637655914 0 -0.30549209578720232 0.10774456093924389 0 -0.28737892951993471 0.098967158637655914 0 -0.30549209578720232 0.10774456093924389 0 -0.29743787519420251 0.08153307720754506 0 -0.30549209578720232 0.10774456093924389 0 -0.29743787519420251 0.08153307720754506 0 -0.31354631638020197 0.13395604467094269 0 -0.29682817834931757 0.13068013418198679 0 -0.30549209578720232 0.10774456093924389 0 -0.31354631638020197 0.13395604467094269 0 -0.30549209578720232 0.10774456093924389 0 -0.29926204670725021 0.066629363318123747 0 -0.30931237829482389 0.073252958087475881 0 -0.31697319293959142 0.061410437985649477 0 -0.29926204670725021 0.066629363318123747 0 -0.30931237829482389 0.073252958087475881 0 -0.29743787519420251 0.08153307720754506 0 -0.30549209578720232 0.10774456093924389 0 -0.29743787519420251 0.08153307720754506 0 -0.31312795334666071 0.083579729522452809 0 -0.30931237829482389 0.073252958087475881 0 -0.29743787519420251 0.08153307720754506 0 -0.31312795334666071 0.083579729522452809 0 -0.28737892951993471 0.098967158637655914 0 -0.29743787519420251 0.08153307720754506 0 -0.27569457229827071 0.081243623470509244 0 -0.29743787519420251 0.08153307720754506 0 -0.28743776060402371 0.060458689408765323 0 -0.28938365460120269 0.05532159347584624 0 -0.29743787519420251 0.08153307720754506 0 -0.28938365460120269 0.05532159347584624 0 -0.29926204670725021 0.066629363318123747 0 -0.29743787519420251 0.08153307720754506 0 -0.28938365460120269 0.05532159347584624 0 -0.29743787519420251 0.08153307720754506 0 -0.27569457229827071 0.081243623470509244 0 -0.28743776060402371 0.060458689408765323 0 -0.27569457229827071 0.081243623470509244 0 -0.26257114212692878 0.06573449919026883 0 -0.28743776060402371 0.060458689408765323 0 -0.26257114212692878 0.06573449919026883 0 -0.28743776060402371 0.060458689408765323 0 -0.26687835675477128 0.1014348965859585 0 -0.25261226255175379 0.080423606239198905 0 -0.24377998071086901 0.096378574065869249 0 -0.26687835675477128 0.1014348965859585 0 -0.27569457229827071 0.081243623470509244 0 -0.25261226255175379 0.080423606239198905 0 -0.26257114212692878 0.06573449919026883 0 -0.23770452364983391 0.071010308971772351 0 -0.25261226255175379 0.080423606239198905 0 -0.26257114212692878 0.06573449919026883 0 -0.23770452364983391 0.071010308971772351 0 -0.27569457229827071 0.081243623470509244 0 -0.25261226255175379 0.080423606239198905 0 -0.26257114212692878 0.06573449919026883 0 -0.2522816967992324 0.037264740289820159 0 -0.27263172987273521 0.051913181220590639 0 -0.24906194248509719 0.058488871325365822 0 -0.26257114212692878 0.06573449919026883 0 -0.27263172987273521 0.051913181220590639 0 -0.24906194248509719 0.058488871325365822 0 -0.2522816967992324 0.037264740289820159 0 -0.2684979789729644 0.03593820420606865 0 -0.27263172987273521 0.051913181220590639 0 -0.2684979789729644 0.03593820420606865 0 -0.27263172987273521 0.051913181220590639 0 -0.28132943400820298 0.02911010974414751 0 -0.27263172987273521 0.051913181220590639 0 -0.28132943400820298 0.02911010974414751 0 -0.28938365460120269 0.05532159347584624 0 -0.26257114212692878 0.06573449919026883 0 -0.27263172987273521 0.051913181220590639 0 -0.28743776060402371 0.060458689408765323 0 -0.25267499080189931 -0.0034516002120552492 0 -0.26909988492935111 -0.0018655285383734981 0 -0.25157722050270093 0.012682655753942951 0 -0.26909988492935111 -0.0018655285383734981 0 -0.25157722050270093 0.012682655753942951 0 -0.27200359261247947 0.017754051058092819 0 -0.2522816967992324 0.037264740289820159 0 -0.25157722050270093 0.012682655753942951 0 -0.27200359261247947 0.017754051058092819 0 -0.2522816967992324 0.037264740289820159 0 -0.2684979789729644 0.03593820420606865 0 -0.27200359261247947 0.017754051058092819 0 -0.2522816967992324 0.037264740289820159 0 -0.27200359261247947 0.017754051058092819 0 -0.27200359261247947 0.017754051058092819 0 -0.28831373269731447 0.017122983851404761 0 -0.28132943400820298 0.02911010974414751 0 -0.2684979789729644 0.03593820420606865 0 -0.27200359261247947 0.017754051058092819 0 -0.28132943400820298 0.02911010974414751 0 -0.26909988492935111 -0.0018655285383734981 0 -0.2917254884257266 -0.0017566381736345419 0 -0.27200359261247947 0.017754051058092819 0 -0.2917254884257266 -0.0017566381736345419 0 -0.27200359261247947 0.017754051058092819 0 -0.28831373269731447 0.017122983851404761 0 -0.2917254884257266 -0.0017566381736345419 0 -0.28831373269731447 0.017122983851404761 0 -0.29997880334656019 0.01439552450637107 0 -0.2917254884257266 -0.0017566381736345419 0 -0.27200359261247947 0.017754051058092819 0 -0.28831373269731447 0.017122983851404761 0 -0.29656482898857922 0.02610767777843559 0 -0.29997880334656019 0.01439552450637107 0 -0.28831373269731447 0.017122983851404761 0 -0.28132943400820298 0.02911010974414751 0 -0.29656482898857922 0.02610767777843559 0 -0.28132943400820298 0.02911010974414751 0 -0.29656482898857922 0.02610767777843559 0 -0.29344050585463782 0.03493273697686209 0 -0.29656482898857922 0.02610767777843559 0 -0.31039051656375261 0.022327184027059441 0 -0.30541723396373921 0.038711125382435783 0 -0.31039051656375261 0.022327184027059441 0 -0.30541723396373921 0.038711125382435783 0 -0.32038394146944787 0.031620215762440292 0 -0.29656482898857922 0.02610767777843559 0 -0.31039051656375261 0.022327184027059441 0 -0.29997880334656019 0.01439552450637107 0 -0.31039051656375261 0.022327184027059441 0 -0.31177688145040278 0.0050359958776742568 0 -0.29997880334656019 0.01439552450637107 0 -0.2917254884257266 -0.0017566381736345419 0 -0.31177688145040278 0.0050359958776742568 0 -0.29997880334656019 0.01439552450637107 0 -0.27263172987273521 0.051913181220590639 0 -0.28743776060402371 0.060458689408765323 0 -0.28938365460120269 0.05532159347584624 0 -0.28938365460120269 0.05532159347584624 0 -0.29045052645802971 0.045802035002429492 0 -0.29738278035354182 0.050541329601553678 0 -0.28938365460120269 0.05532159347584624 0 -0.29738278035354182 0.050541329601553678 0 -0.29780899910201009 0.056562827273038227 0 -0.29926204670725021 0.066629363318123747 0 -0.28938365460120269 0.05532159347584624 0 -0.29780899910201009 0.056562827273038227 0 -0.28132943400820298 0.02911010974414751 0 -0.28938365460120269 0.05532159347584624 0 -0.29045052645802971 0.045802035002429492 0 -0.28132943400820298 0.02911010974414751 0 -0.28938365460120269 0.05532159347584624 0 -0.28132943400820298 0.02911010974414751 0 -0.29344050585463782 0.03493273697686209 0 -0.29045052645802971 0.045802035002429492 0 -0.29344050585463782 0.03493273697686209 0 -0.29045052645802971 0.045802035002429492 0 -0.30541723396373921 0.038711125382435783 0 -0.29045052645802971 0.045802035002429492 0 -0.30541723396373921 0.038711125382435783 0 -0.29738278035354182 0.050541329601553678 0 -0.29045052645802971 0.045802035002429492 0 -0.30541723396373921 0.038711125382435783 0 -0.29656482898857922 0.02610767777843559 0 -0.29344050585463782 0.03493273697686209 0 -0.30541723396373921 0.038711125382435783 0 -0.30541723396373921 0.038711125382435783 0 -0.30520751474604563 0.05375902269662923 0 -0.31780711793698518 0.045521831715634557 0 -0.29926204670725021 0.066629363318123747 0 -0.30520751474604563 0.05375902269662923 0 -0.31697319293959142 0.061410437985649477 0 -0.30541723396373921 0.038711125382435783 0 -0.30520751474604563 0.05375902269662923 0 -0.29738278035354182 0.050541329601553678 0 -0.30520751474604563 0.05375902269662923 0 -0.29738278035354182 0.050541329601553678 0 -0.29780899910201009 0.056562827273038227 0 -0.29926204670725021 0.066629363318123747 0 -0.30520751474604563 0.05375902269662923 0 -0.29780899910201009 0.056562827273038227 0 -0.32553678940662539 0.052415823907368687 0 -0.31780711793698518 0.045521831715634557 0 -0.33422422494732851 0.04449049745268327 0 -0.31697319293959142 0.061410437985649477 0 -0.32553678940662539 0.052415823907368687 0 -0.31780711793698518 0.045521831715634557 0 -0.30520751474604563 0.05375902269662923 0 -0.31697319293959142 0.061410437985649477 0 -0.31780711793698518 0.045521831715634557 0 -0.31697319293959142 0.061410437985649477 0 -0.32808937753058609 0.059947696530402161 0 -0.32553678940662539 0.052415823907368687 0 -0.31780711793698518 0.045521831715634557 0 -0.32038394146944787 0.031620215762440292 0 -0.33422422494732851 0.04449049745268327 0 -0.30541723396373921 0.038711125382435783 0 -0.31780711793698518 0.045521831715634557 0 -0.32038394146944787 0.031620215762440292 0 -0.30541723396373921 0.038711125382435783 0 -0.32038394146944787 0.031620215762440292 0 -0.32038394146944787 0.031620215762440292 0 -0.33422422494732851 0.04449049745268327 0 -0.33422422494732851 0.04449049745268327 0 -0.34051642268078958 0.02208187176518148 0 -0.34924074101412461 0.03711639968071382 0 -0.32038394146944787 0.031620215762440292 0 -0.33422422494732851 0.04449049745268327 0 -0.34051642268078958 0.02208187176518148 0 -0.33422422494732851 0.04449049745268327 0 -0.34715076893326918 0.04673829876922056 0 -0.34924074101412461 0.03711639968071382 0 -0.33422422494732851 0.04449049745268327 0 -0.34806450842520742 0.057360779142928031 0 -0.34715076893326918 0.04673829876922056 0 -0.33422422494732851 0.04449049745268327 0 -0.34806450842520742 0.057360779142928031 0 -0.33422422494732851 0.04449049745268327 0 -0.33482930480244999 0.055095026294593591 0 -0.34806450842520742 0.057360779142928031 0 -0.3407399656121517 0.06083029771636933 0 -0.33482930480244999 0.055095026294593591 0 -0.33440717105718593 0.063083878638897639 0 -0.3407399656121517 0.06083029771636933 0 -0.33482930480244999 0.055095026294593591 0 -0.34806450842520742 0.057360779142928031 0 -0.32808937753058609 0.059947696530402161 0 -0.33482930480244999 0.055095026294593591 0 -0.33440717105718593 0.063083878638897639 0 -0.32808937753058609 0.059947696530402161 0 -0.32553678940662539 0.052415823907368687 0 -0.33482930480244999 0.055095026294593591 0 -0.32553678940662539 0.052415823907368687 0 -0.33422422494732851 0.04449049745268327 0 -0.33482930480244999 0.055095026294593591 0 -0.31039051656375261 0.022327184027059441 0 -0.31177688145040278 0.0050359958776742568 0 -0.3261420213634148 0.01391490981329808 0 -0.32828291010712762 -0.0049346835118845543 0 -0.31177688145040278 0.0050359958776742568 0 -0.3261420213634148 0.01391490981329808 0 -0.31039051656375261 0.022327184027059441 0 -0.32038394146944787 0.031620215762440292 0 -0.3261420213634148 0.01391490981329808 0 -0.31039051656375261 0.022327184027059441 0 -0.32038394146944787 0.031620215762440292 0 -0.32038394146944787 0.031620215762440292 0 -0.34051642268078958 0.02208187176518148 0 -0.32038394146944787 0.031620215762440292 0 -0.3261420213634148 0.01391490981329808 0 -0.34051642268078958 0.02208187176518148 0 -0.3261420213634148 0.01391490981329808 0 -0.34051642268078958 0.02208187176518148 0 -0.34055428987364128 0.0059527955302196532 0 -0.32828291010712762 -0.0049346835118845543 0 -0.3261420213634148 0.01391490981329808 0 -0.34055428987364128 0.0059527955302196532 0 -0.34051642268078958 0.02208187176518148 0 -0.34055428987364128 0.0059527955302196532 0 -0.36064890389212972 0.0125435277679194 0 -0.34718119132474479 -0.01384164818341615 0 -0.34055428987364128 0.0059527955302196532 0 -0.36064890389212972 0.0125435277679194 0 -0.34051642268078958 0.02208187176518148 0 -0.36064890389212972 0.0125435277679194 0 -0.34051642268078958 0.02208187176518148 0 -0.35699945364537122 0.027147445145089769 0 -0.34924074101412461 0.03711639968071382 0 -0.34051642268078958 0.02208187176518148 0 -0.35699945364537122 0.027147445145089769 0 -0.36064890389212972 0.0125435277679194 0 -0.35699945364537122 0.027147445145089769 0 -0.36163302121541668 0.029781402687577421 0 -0.35940737946489582 0.035374977024224222 0 -0.37998819155715241 0.0057865511937031933 0 -0.36738966121720701 0.029980518529024301 0 -0.37123175334181557 0.027162262264614271 0 -0.37998819155715241 0.0057865511937031933 0 -0.36738966121720701 0.029980518529024301 0 -0.3645477689834325 0.020181962352102071 0 -0.37998819155715241 0.0057865511937031933 0 -0.36738966121720701 0.029980518529024301 0 -0.36273559053419291 0.026622670051971411 0 -0.36738966121720701 0.029980518529024301 0 -0.3645477689834325 0.020181962352102071 0 -0.35699945364537122 0.027147445145089769 0 -0.36163302121541668 0.029781402687577421 0 -0.36273559053419291 0.026622670051971411 0 -0.35699945364537122 0.027147445145089769 0 -0.36273559053419291 0.026622670051971411 0 -0.3645477689834325 0.020181962352102071 0 -0.36163302121541668 0.029781402687577421 0 -0.36273559053419291 0.026622670051971411 0 -0.36738966121720701 0.029980518529024301 0 -0.35699945364537122 0.027147445145089769 0 -0.3645477689834325 0.020181962352102071 0 -0.36064890389212972 0.0125435277679194 0 -0.3645477689834325 0.020181962352102071 0 -0.36064890389212972 0.0125435277679194 0 -0.37998819155715241 0.0057865511937031933 0 -0.3645477689834325 0.020181962352102071 0 -0.36064890389212972 0.0125435277679194 0 -0.38683543611469601 0.0001369023841863784 0 -0.36064890389212972 0.0125435277679194 0 -0.37474494217865062 -0.0022388935110706832 0 -0.38683543611469601 0.0001369023841863784 0 -0.36064890389212972 0.0125435277679194 0 -0.37474494217865062 -0.0022388935110706832 0 -0.36307869926690151 -0.00068504054922277494 0 -0.36064890389212972 0.0125435277679194 0 -0.35479113087726238 0.05417448586434577 0 -0.34715076893326918 0.04673829876922056 0 -0.35593663516940488 0.04278932274017315 0 -0.35479113087726238 0.05417448586434577 0 -0.35147867423579721 0.06053566178096708 0 -0.3622197730044176 0.060127746183944272 0 -0.35479113087726238 0.05417448586434577 0 -0.35147867423579721 0.06053566178096708 0 -0.35479113087726238 0.05417448586434577 0 -0.34806450842520742 0.057360779142928031 0 -0.35147867423579721 0.06053566178096708 0 -0.35479113087726238 0.05417448586434577 0 -0.34806450842520742 0.057360779142928031 0 -0.34806450842520742 0.057360779142928031 0 -0.35147867423579721 0.06053566178096708 0 -0.3447014191436914 0.063951910484466787 0 -0.34806450842520742 0.057360779142928031 0 -0.35147867423579721 0.06053566178096708 0 -0.3407399656121517 0.06083029771636933 0 -0.34806450842520742 0.057360779142928031 0 -0.3407399656121517 0.06083029771636933 0 -0.34806450842520742 0.057360779142928031 0 -0.3447014191436914 0.063951910484466787 0 -0.35479113087726238 0.05417448586434577 0 -0.34806450842520742 0.057360779142928031 0 -0.34715076893326918 0.04673829876922056 0 -0.34715076893326918 0.04673829876922056 0 -0.34924074101412461 0.03711639968071382 0 -0.35593663516940488 0.04278932274017315 0 -0.36738966121720701 0.029980518529024301 0 -0.35479113087726238 0.05417448586434577 0 -0.35593663516940488 0.04278932274017315 0 -0.35699945364537122 0.027147445145089769 0 -0.34924074101412461 0.03711639968071382 0 -0.35940737946489582 0.035374977024224222 0 -0.34924074101412461 0.03711639968071382 0 -0.35593663516940488 0.04278932274017315 0 -0.35940737946489582 0.035374977024224222 0 -0.36738966121720701 0.029980518529024301 0 -0.35479113087726238 0.05417448586434577 0 -0.36677646394688163 0.041367990420506082 0 -0.37123175334181557 0.027162262264614271 0 -0.37046143272875132 0.04675171495388801 0 -0.36738966121720701 0.029980518529024301 0 -0.35479113087726238 0.05417448586434577 0 -0.37123175334181557 0.027162262264614271 0 -0.36677646394688163 0.041367990420506082 0 -0.37046143272875132 0.04675171495388801 0 -0.3764786745208083 0.032098692741998169 0 -0.37123175334181557 0.027162262264614271 0 -0.37046143272875132 0.04675171495388801 0 -0.36163302121541668 0.029781402687577421 0 -0.36738966121720701 0.029980518529024301 0 -0.35940737946489582 0.035374977024224222 0 -0.36738966121720701 0.029980518529024301 0 -0.35593663516940488 0.04278932274017315 0 -0.35940737946489582 0.035374977024224222 0 -0.36738966121720701 0.029980518529024301 0 -0.37123175334181557 0.027162262264614271 0 -0.36677646394688163 0.041367990420506082 0 -0.36677646394688163 0.041367990420506082 0 -0.37046143272875132 0.04675171495388801 0 -0.36802302346639398 0.047906750352184523 0 -0.36677646394688163 0.041367990420506082 0 -0.36802302346639398 0.047906750352184523 0 -0.37046143272875132 0.04675171495388801 0 -0.37000681959492809 0.05831264468359916 0 -0.36802302346639398 0.047906750352184523 0 -0.37000681959492809 0.05831264468359916 0 -0.37046143272875132 0.04675171495388801 0 -0.36802302346639398 0.047906750352184523 0 -0.37000681959492809 0.05831264468359916 0 -0.37046143272875132 0.04675171495388801 0 -0.36802302346639398 0.047906750352184523 0 -0.35479113087726238 0.05417448586434577 0 -0.36802302346639398 0.047906750352184523 0 -0.35479113087726238 0.05417448586434577 0 -0.36802302346639398 0.047906750352184523 0 -0.3622197730044176 0.060127746183944272 0 -0.35479113087726238 0.05417448586434577 0 -0.36677646394688163 0.041367990420506082 0 -0.36802302346639398 0.047906750352184523 0 -0.36802302346639398 0.047906750352184523 0 -0.3622197730044176 0.060127746183944272 0 -0.37000681959492809 0.05831264468359916 0 -0.35147867423579721 0.06053566178096708 0 -0.36926886504626422 0.077079019973005369 0 -0.3622197730044176 0.060127746183944272 0 -0.37000681959492809 0.05831264468359916 0 -0.36926886504626422 0.077079019973005369 0 -0.37000681959492809 0.05831264468359916 0 -0.36926886504626422 0.077079019973005369 0 -0.37079498002478778 0.078498176574577722 0 -0.36926886504626422 0.077079019973005369 0 -0.34551673285671652 0.071984855543133663 0 -0.36912013352382872 0.080861301107253064 0 -0.37000681959492809 0.05831264468359916 0 -0.37079498002478778 0.078498176574577722 0 -0.37470600383380392 0.082961959162170973 0 -0.35147867423579721 0.06053566178096708 0 -0.3622197730044176 0.060127746183944272 0 -0.36926886504626422 0.077079019973005369 0 -0.37000681959492809 0.05831264468359916 0 -0.37470600383380392 0.082961959162170973 0 -0.37000681959492809 0.05831264468359916 0 -0.36926886504626422 0.077079019973005369 0 -0.36926886504626422 0.077079019973005369 0 -0.37079498002478778 0.078498176574577722 0 -0.34551673285671652 0.071984855543133663 0 -0.34763839367566191 0.079069075487607554 0 -0.36912013352382872 0.080861301107253064 0 -0.34551673285671652 0.071984855543133663 0 -0.36912013352382872 0.080861301107253064 0 -0.35147867423579721 0.06053566178096708 0 -0.36926886504626422 0.077079019973005369 0 -0.34551673285671652 0.071984855543133663 0 -0.34408269824063842 0.074738747125954852 0 -0.34763839367566191 0.079069075487607554 0 -0.34179116264722731 0.080399472229040897 0 -0.34408269824063842 0.074738747125954852 0 -0.34551673285671652 0.071984855543133663 0 -0.34763839367566191 0.079069075487607554 0 -0.34408269824063842 0.074738747125954852 0 -0.34551673285671652 0.071984855543133663 0 -0.35147867423579721 0.06053566178096708 0 -0.34551673285671652 0.071984855543133663 0 -0.3447014191436914 0.063951910484466787 0 -0.35147867423579721 0.06053566178096708 0 -0.34551673285671652 0.071984855543133663 0 -0.34763839367566191 0.079069075487607554 0 -0.36858415035949882 0.094491491786065696 0 -0.34763839367566191 0.079069075487607554 0 -0.36858415035949882 0.094491491786065696 0 -0.35198293914272999 0.094145145766245733 0 -0.34456144318064219 0.08667329674911145 0 -0.34763839367566191 0.079069075487607554 0 -0.35198293914272999 0.094145145766245733 0 -0.34456144318064219 0.08667329674911145 0 -0.35198293914272999 0.094145145766245733 0 -0.34431035454597703 0.093789606507308373 0 -0.34456144318064219 0.08667329674911145 0 -0.34763839367566191 0.079069075487607554 0 -0.34179116264722731 0.080399472229040897 0 -0.3782625711058698 0.101617738696854 0 -0.37470600383380392 0.082961959162170973 0 -0.36858415035949882 0.094491491786065696 0 -0.34763839367566191 0.079069075487607554 0 -0.36912013352382872 0.080861301107253064 0 -0.36858415035949882 0.094491491786065696 0 -0.36926886504626422 0.077079019973005369 0 -0.37079498002478778 0.078498176574577722 0 -0.36912013352382872 0.080861301107253064 0 -0.36926886504626422 0.077079019973005369 0 -0.36912013352382872 0.080861301107253064 0 -0.36912013352382872 0.080861301107253064 0 -0.37470600383380392 0.082961959162170973 0 -0.37079498002478778 0.078498176574577722 0 -0.36912013352382872 0.080861301107253064 0 -0.37470600383380392 0.082961959162170973 0 -0.36912013352382872 0.080861301107253064 0 -0.37470600383380392 0.082961959162170973 0 -0.36858415035949882 0.094491491786065696 0 -0.36912013352382872 0.080861301107253064 0 -0.36858415035949882 0.094491491786065696 0 -0.36858415035949882 0.094491491786065696 0 -0.36747352968705388 0.12273486311700831 0 -0.3782625711058698 0.101617738696854 0 -0.36858415035949882 0.094491491786065696 0 -0.36858415035949882 0.094491491786065696 0 -0.36006702585218792 0.10838608290929221 0 -0.35198293914272999 0.094145145766245733 0 -0.36858415035949882 0.094491491786065696 0 -0.36006702585218792 0.10838608290929221 0 -0.36747352968705388 0.12273486311700831 0 -0.3782625711058698 0.101617738696854 0 -0.36858415035949882 0.094491491786065696 0 -0.36747352968705388 0.12273486311700831 0 -0.36006702585218792 0.10838608290929221 0 -0.36747352968705388 0.12273486311700831 0 -0.35832203275528268 0.1183511860346923 0 -0.35528769071996391 0.12689780186549679 0 -0.36747352968705388 0.12273486311700831 0 -0.35832203275528268 0.1183511860346923 0 -0.35528769071996391 0.12689780186549679 0 -0.35832203275528268 0.1183511860346923 0 -0.35045988476192508 0.115385996246972 0 -0.36006702585218792 0.10838608290929221 0 -0.35832203275528268 0.1183511860346923 0 -0.35045988476192508 0.115385996246972 0 -0.35045988476192508 0.115385996246972 0 -0.34547580274860562 0.10394098399483009 0 -0.33570271963636877 0.11206429961599181 0 -0.35528769071996391 0.12689780186549679 0 -0.35045988476192508 0.115385996246972 0 -0.34115039425197219 0.12498493974687711 0 -0.36006702585218792 0.10838608290929221 0 -0.35198293914272999 0.094145145766245733 0 -0.34547580274860562 0.10394098399483009 0 -0.36006702585218792 0.10838608290929221 0 -0.35045988476192508 0.115385996246972 0 -0.34547580274860562 0.10394098399483009 0 -0.35198293914272999 0.094145145766245733 0 -0.34547580274860562 0.10394098399483009 0 -0.34431035454597703 0.093789606507308373 0 -0.34547580274860562 0.10394098399483009 0 -0.34431035454597703 0.093789606507308373 0 -0.335413749579693 0.097286071719103154 0 -0.34547580274860562 0.10394098399483009 0 -0.335413749579693 0.097286071719103154 0 -0.33570271963636877 0.11206429961599181 0 -0.335413749579693 0.097286071719103154 0 -0.33570271963636877 0.11206429961599181 0 -0.32444247844199348 0.1047035033472971 0 -0.35045988476192508 0.115385996246972 0 -0.34115039425197219 0.12498493974687711 0 -0.33570271963636877 0.11206429961599181 0 -0.32917568526667751 0.12578156900391591 0 -0.33570271963636877 0.11206429961599181 0 -0.32114709127587232 0.11611322513389059 0 -0.32917568526667751 0.12578156900391591 0 -0.34115039425197219 0.12498493974687711 0 -0.33570271963636877 0.11206429961599181 0 -0.31354631638020197 0.13395604467094269 0 -0.30549209578720232 0.10774456093924389 0 -0.32114709127587232 0.11611322513389059 0 -0.30549209578720232 0.10774456093924389 0 -0.32114709127587232 0.11611322513389059 0 -0.32444247844199348 0.1047035033472971 0 -0.33570271963636877 0.11206429961599181 0 -0.32114709127587232 0.11611322513389059 0 -0.32444247844199348 0.1047035033472971 0 -0.30549209578720232 0.10774456093924389 0 -0.32444247844199348 0.1047035033472971 0 -0.32445673593083119 0.090309359328255762 0 -0.30549209578720232 0.10774456093924389 0 -0.32445673593083119 0.090309359328255762 0 -0.31312795334666071 0.083579729522452809 0 -0.335413749579693 0.097286071719103154 0 -0.32444247844199348 0.1047035033472971 0 -0.32445673593083119 0.090309359328255762 0 -0.32445673593083119 0.090309359328255762 0 -0.3275606083710243 0.080211281293741998 0 -0.31312795334666071 0.083579729522452809 0 -0.3275606083710243 0.080211281293741998 0 -0.31312795334666071 0.083579729522452809 0 -0.31976082328641481 0.073112182403608325 0 -0.30931237829482389 0.073252958087475881 0 -0.31312795334666071 0.083579729522452809 0 -0.31976082328641481 0.073112182403608325 0 -0.30931237829482389 0.073252958087475881 0 -0.31697319293959142 0.061410437985649477 0 -0.31976082328641481 0.073112182403608325 0 -0.31697319293959142 0.061410437985649477 0 -0.31976082328641481 0.073112182403608325 0 -0.32886731949388731 0.069155273298144179 0 -0.31697319293959142 0.061410437985649477 0 -0.32808937753058609 0.059947696530402161 0 -0.32886731949388731 0.069155273298144179 0 -0.3275606083710243 0.080211281293741998 0 -0.31976082328641481 0.073112182403608325 0 -0.32886731949388731 0.069155273298144179 0 -0.32886731949388731 0.069155273298144179 0 -0.33770721458858299 0.069047958238937293 0 -0.336378655355973 0.076693290193422539 0 -0.3275606083710243 0.080211281293741998 0 -0.32886731949388731 0.069155273298144179 0 -0.336378655355973 0.076693290193422539 0 -0.33440717105718593 0.063083878638897639 0 -0.32886731949388731 0.069155273298144179 0 -0.33770721458858299 0.069047958238937293 0 -0.32808937753058609 0.059947696530402161 0 -0.33440717105718593 0.063083878638897639 0 -0.32886731949388731 0.069155273298144179 0 -0.3407399656121517 0.06083029771636933 0 -0.33440717105718593 0.063083878638897639 0 -0.33770721458858299 0.069047958238937293 0 -0.3407399656121517 0.06083029771636933 0 -0.3447014191436914 0.063951910484466787 0 -0.33770721458858299 0.069047958238937293 0 -0.34551673285671652 0.071984855543133663 0 -0.3447014191436914 0.063951910484466787 0 -0.33770721458858299 0.069047958238937293 0 -0.34408269824063842 0.074738747125954852 0 -0.33770721458858299 0.069047958238937293 0 -0.336378655355973 0.076693290193422539 0 -0.34408269824063842 0.074738747125954852 0 -0.34551673285671652 0.071984855543133663 0 -0.33770721458858299 0.069047958238937293 0 -0.34551673285671652 0.071984855543133663 0 -0.33770721458858299 0.069047958238937293 0 -0.34408269824063842 0.074738747125954852 0 -0.336378655355973 0.076693290193422539 0 -0.34179116264722731 0.080399472229040897 0 -0.336378655355973 0.076693290193422539 0 -0.34179116264722731 0.080399472229040897 0 -0.33708436589161489 0.085963183755354639 0 -0.34456144318064219 0.08667329674911145 0 -0.34179116264722731 0.080399472229040897 0 -0.33708436589161489 0.085963183755354639 0 -0.34456144318064219 0.08667329674911145 0 -0.34431035454597703 0.093789606507308373 0 -0.33708436589161489 0.085963183755354639 0 -0.34431035454597703 0.093789606507308373 0 -0.335413749579693 0.097286071719103154 0 -0.33708436589161489 0.085963183755354639 0 -0.335413749579693 0.097286071719103154 0 -0.32445673593083119 0.090309359328255762 0 -0.33708436589161489 0.085963183755354639 0 -0.32445673593083119 0.090309359328255762 0 -0.3275606083710243 0.080211281293741998 0 -0.33708436589161489 0.085963183755354639 0 -0.3275606083710243 0.080211281293741998 0 -0.336378655355973 0.076693290193422539 0 -0.33708436589161489 0.085963183755354639 0 -0.38891458820749281 0.47713565504117422 0 -0.42172655890518862 0.5 0 -0.3640375775585698 0.5 0 -0.38891458820749281 0.47713565504117422 0 -0.37103467036260362 0.45695891695805302 0 -0.36943712044780219 0.47475959506207249 0 -0.39694697642853649 0.45370639251272787 0 -0.37103467036260362 0.45695891695805302 0 -0.38891458820749281 0.47713565504117422 0 -0.39694697642853649 0.45370639251272787 0 -0.37103467036260362 0.45695891695805302 0 -0.38249991962136642 0.44345487931465249 0 -0.39694697642853649 0.45370639251272787 0 -0.37103467036260362 0.45695891695805302 0 -0.38249991962136642 0.44345487931465249 0 -0.39694697642853649 0.45370639251272787 0 -0.40464661760035381 0.43350824459614162 0 -0.38891458820749281 0.47713565504117422 0 -0.39694697642853649 0.45370639251272787 0 -0.41631826774707797 0.4711213942969617 0 -0.39694697642853649 0.45370639251272787 0 -0.42285928249446952 0.45045386806740279 0 -0.41631826774707797 0.4711213942969617 0 -0.42285928249446952 0.45045386806740279 0 -0.42501824733507809 0.43459816807542118 0 -0.40464661760035381 0.43350824459614162 0 -0.39694697642853649 0.45370639251272787 0 -0.42285928249446952 0.45045386806740279 0 -0.39694697642853649 0.45370639251272787 0 -0.42285928249446952 0.45045386806740279 0 -0.40464661760035381 0.43350824459614162 0 -0.42285928249446952 0.45045386806740279 0 -0.43521244088076849 0.46107148678855758 0 -0.44877158856040261 0.44720134362207808 0 -0.42285928249446952 0.45045386806740279 0 -0.44877158856040261 0.44720134362207808 0 -0.42285928249446952 0.45045386806740279 0 -0.43592409671607729 0.44045812782560079 0 -0.44877158856040261 0.44720134362207808 0 -0.42285928249446952 0.45045386806740279 0 -0.43592409671607729 0.44045812782560079 0 -0.42501824733507809 0.43459816807542118 0 -0.42285928249446952 0.45045386806740279 0 -0.43521244088076849 0.46107148678855758 0 -0.41631826774707797 0.4711213942969617 0 -0.41631826774707797 0.4711213942969617 0 -0.42172655890518862 0.5 0 -0.43935827984199688 0.47473889959161758 0 -0.43521244088076849 0.46107148678855758 0 -0.41631826774707797 0.4711213942969617 0 -0.43935827984199688 0.47473889959161758 0 -0.38891458820749281 0.47713565504117422 0 -0.41631826774707797 0.4711213942969617 0 -0.42172655890518862 0.5 0 -0.42172655890518862 0.5 0 -0.43935827984199688 0.47473889959161758 0 -0.47784082473980471 0.47626967285504462 0 -0.42172655890518862 0.5 0 -0.5 0.5 0 -0.47784082473980471 0.47626967285504462 0 -0.43935827984199688 0.47473889959161758 0 -0.47784082473980471 0.47626967285504462 0 -0.4487547857598953 0.46184192836472759 0 -0.5 0.5 0 -0.47784082473980471 0.47626967285504462 0 -0.49999999999999589 0.44077113011354369 0 -0.47784082473980471 0.47626967285504462 0 -0.47438579428019922 0.44398623686781052 0 -0.4627013265822788 0.4545376326069438 0 -0.47784082473980471 0.47626967285504462 0 -0.49999999999999589 0.44077113011354369 0 -0.47438579428019922 0.44398623686781052 0 -0.49999999999999589 0.44077113011354369 0 -0.47438579428019922 0.44398623686781052 0 -0.48180565015534738 0.42787197640755792 0 -0.49999999999999589 0.44077113011354369 0 -0.47438579428019922 0.44398623686781052 0 -0.47438579428019922 0.44398623686781052 0 -0.4627013265822788 0.4545376326069438 0 -0.44877158856040261 0.44720134362207808 0 -0.47438579428019922 0.44398623686781052 0 -0.44877158856040261 0.44720134362207808 0 -0.47438579428019922 0.44398623686781052 0 -0.44877158856040261 0.44720134362207808 0 -0.46289485375526918 0.43579199928955081 0 -0.44877158856040261 0.44720134362207808 0 -0.44878504691792248 0.43547483269414872 0 -0.46289485375526918 0.43579199928955081 0 -0.47784082473980471 0.47626967285504462 0 -0.4627013265822788 0.4545376326069438 0 -0.4487547857598953 0.46184192836472759 0 -0.4627013265822788 0.4545376326069438 0 -0.4487547857598953 0.46184192836472759 0 -0.44877158856040261 0.44720134362207808 0 -0.4487547857598953 0.46184192836472759 0 -0.44877158856040261 0.44720134362207808 0 -0.43521244088076849 0.46107148678855758 0 -0.4487547857598953 0.46184192836472759 0 -0.44877158856040261 0.44720134362207808 0 -0.43521244088076849 0.46107148678855758 0 -0.43935827984199688 0.47473889959161758 0 -0.4487547857598953 0.46184192836472759 0 -0.44877158856040261 0.44720134362207808 0 -0.44508566455651338 0.43839632914573512 0 -0.44878504691792248 0.43547483269414872 0 -0.44877158856040261 0.44720134362207808 0 -0.44878504691792248 0.43547483269414872 0 -0.43592409671607729 0.44045812782560079 0 -0.44877158856040261 0.44720134362207808 0 -0.44508566455651338 0.43839632914573512 0 -0.44531233658805403 0.42513554986162888 0 -0.44878504691792248 0.43547483269414872 0 -0.44880957839306629 0.41410011360809668 0 -0.44878504691792248 0.43547483269414872 0 -0.44880957839306629 0.41410011360809668 0 -0.43788570063392329 0.43164093021736671 0 -0.44531233658805403 0.42513554986162888 0 -0.44878504691792248 0.43547483269414872 0 -0.43592409671607729 0.44045812782560079 0 -0.44508566455651338 0.43839632914573512 0 -0.43788570063392329 0.43164093021736671 0 -0.44508566455651338 0.43839632914573512 0 -0.43788570063392329 0.43164093021736671 0 -0.44878504691792248 0.43547483269414872 0 -0.44508566455651338 0.43839632914573512 0 -0.44878504691792248 0.43547483269414872 0 -0.44531233658805403 0.42513554986162888 0 -0.44880957839306629 0.41410011360809668 0 -0.42391867717568832 0.41711337076656618 0 -0.44880957839306629 0.41410011360809668 0 -0.46585669794528167 0.42199291516666237 0 -0.4641229039382897 0.40091036417177778 0 -0.44878504691792248 0.43547483269414872 0 -0.46585669794528167 0.42199291516666237 0 -0.44878504691792248 0.43547483269414872 0 -0.44880957839306629 0.41410011360809668 0 -0.46585669794528167 0.42199291516666237 0 -0.44878504691792248 0.43547483269414872 0 -0.46585669794528167 0.42199291516666237 0 -0.46289485375526918 0.43579199928955081 0 -0.47438579428019922 0.44398623686781052 0 -0.46289485375526918 0.43579199928955081 0 -0.48180565015534738 0.42787197640755792 0 -0.46585669794528167 0.42199291516666237 0 -0.46289485375526918 0.43579199928955081 0 -0.48180565015534738 0.42787197640755792 0 -0.46585669794528167 0.42199291516666237 0 -0.48292834897264081 0.4085109976391762 0 -0.4641229039382897 0.40091036417177778 0 -0.46585669794528167 0.42199291516666237 0 -0.48292834897264081 0.4085109976391762 0 -0.46585669794528167 0.42199291516666237 0 -0.48180565015534738 0.42787197640755792 0 -0.48292834897264081 0.4085109976391762 0 -0.48292834897264081 0.4085109976391762 0 -0.5 0.41790010511261683 0 -0.5 0.39502908011169002 0 -0.48180565015534738 0.42787197640755792 0 -0.48292834897264081 0.4085109976391762 0 -0.5 0.41790010511261683 0 -0.49999999999999589 0.44077113011354369 0 -0.48180565015534738 0.42787197640755792 0 -0.5 0.41790010511261683 0 -0.48850556386005051 0.3766603246979251 0 -0.5 0.39502908011169002 0 -0.47832653283541199 0.38608194873200979 0 -0.48850556386005051 0.3766603246979251 0 -0.5 0.39502908011169002 0 -0.5 0.36887446842263683 0 -0.48292834897264081 0.4085109976391762 0 -0.5 0.39502908011169002 0 -0.47832653283541199 0.38608194873200979 0 -0.48292834897264081 0.4085109976391762 0 -0.5 0.39502908011169002 0 -0.48292834897264081 0.4085109976391762 0 -0.47832653283541199 0.38608194873200979 0 -0.4641229039382897 0.40091036417177778 0 -0.48850556386005051 0.3766603246979251 0 -0.47832653283541199 0.38608194873200979 0 -0.48259334700195489 0.36409898273387958 0 -0.47832653283541199 0.38608194873200979 0 -0.46059005399087027 0.38292215568240928 0 -0.4641229039382897 0.40091036417177778 0 -0.47832653283541199 0.38608194873200979 0 -0.46059005399087027 0.38292215568240928 0 -0.46572599417265398 0.36772482908493609 0 -0.44880957839306629 0.41410011360809668 0 -0.4641229039382897 0.40091036417177778 0 -0.44883410986820999 0.3927253945220448 0 -0.46059005399087027 0.38292215568240928 0 -0.4641229039382897 0.40091036417177778 0 -0.44883410986820999 0.3927253945220448 0 -0.44880957839306629 0.41410011360809668 0 -0.44883410986820999 0.3927253945220448 0 -0.43699833754743561 0.40294499431243458 0 -0.44880957839306629 0.41410011360809668 0 -0.44883410986820999 0.3927253945220448 0 -0.44883410986820999 0.3927253945220448 0 -0.43978391516082421 0.3912231797547942 0 -0.43699833754743561 0.40294499431243458 0 -0.44883410986820999 0.3927253945220448 0 -0.43978391516082421 0.3912231797547942 0 -0.44802713623065987 0.37645115623263098 0 -0.44883410986820999 0.3927253945220448 0 -0.44885864134335329 0.37135067543599282 0 -0.44883410986820999 0.3927253945220448 0 -0.44802713623065987 0.37645115623263098 0 -0.44885864134335329 0.37135067543599282 0 -0.43978391516082421 0.3912231797547942 0 -0.44802713623065987 0.37645115623263098 0 -0.42527607699699133 0.39277117395206662 0 -0.46059005399087027 0.38292215568240928 0 -0.44883410986820999 0.3927253945220448 0 -0.44885864134335329 0.37135067543599282 0 -0.44802713623065987 0.37645115623263098 0 -0.4250431626101242 0.37647010748543319 0 -0.42527607699699133 0.39277117395206662 0 -0.44802713623065987 0.37645115623263098 0 -0.42527607699699133 0.39277117395206662 0 -0.4250431626101242 0.37647010748543319 0 -0.4134887672477453 0.38574914578498593 0 -0.40122768387689522 0.38158953953487368 0 -0.4250431626101242 0.37647010748543319 0 -0.40122768387689522 0.38158953953487368 0 -0.4250431626101242 0.37647010748543319 0 -0.4134887672477453 0.38574914578498593 0 -0.42527607699699133 0.39277117395206662 0 -0.4250431626101242 0.37647010748543319 0 -0.40122768387689522 0.38158953953487368 0 -0.40086489287733429 0.37467411733839928 0 -0.4134887672477453 0.38574914578498593 0 -0.40798835104355652 0.39359067917546098 0 -0.40557429982823212 0.38794008425198068 0 -0.4134887672477453 0.38574914578498593 0 -0.40122768387689522 0.38158953953487368 0 -0.40557429982823212 0.38794008425198068 0 -0.40798835104355652 0.39359067917546098 0 -0.42527607699699133 0.39277117395206662 0 -0.40252501776332311 0.40909119167150271 0 -0.42527607699699133 0.39277117395206662 0 -0.40252501776332311 0.40909119167150271 0 -0.4134887672477453 0.38574914578498593 0 -0.40798835104355652 0.39359067917546098 0 -0.42527607699699133 0.39277117395206662 0 -0.42527607699699133 0.39277117395206662 0 -0.43699833754743561 0.40294499431243458 0 -0.42391867717568832 0.41711337076656618 0 -0.43978391516082421 0.3912231797547942 0 -0.42527607699699133 0.39277117395206662 0 -0.43699833754743561 0.40294499431243458 0 -0.44880957839306629 0.41410011360809668 0 -0.43699833754743561 0.40294499431243458 0 -0.42391867717568832 0.41711337076656618 0 -0.44531233658805403 0.42513554986162888 0 -0.42391867717568832 0.41711337076656618 0 -0.43788570063392329 0.43164093021736671 0 -0.44531233658805403 0.42513554986162888 0 -0.42391867717568832 0.41711337076656618 0 -0.43788570063392329 0.43164093021736671 0 -0.42391867717568832 0.41711337076656618 0 -0.42501824733507809 0.43459816807542118 0 -0.43592409671607729 0.44045812782560079 0 -0.43788570063392329 0.43164093021736671 0 -0.42501824733507809 0.43459816807542118 0 -0.42391867717568832 0.41711337076656618 0 -0.42501824733507809 0.43459816807542118 0 -0.40464661760035381 0.43350824459614162 0 -0.42527607699699133 0.39277117395206662 0 -0.42391867717568832 0.41711337076656618 0 -0.40252501776332311 0.40909119167150271 0 -0.42391867717568832 0.41711337076656618 0 -0.40252501776332311 0.40909119167150271 0 -0.40464661760035381 0.43350824459614162 0 -0.42391867717568832 0.41711337076656618 0 -0.40252501776332311 0.40909119167150271 0 -0.40252501776332311 0.40909119167150271 0 -0.37875820238401509 0.42613984176471847 0 -0.40252501776332311 0.40909119167150271 0 -0.40464661760035381 0.43350824459614162 0 -0.37875820238401509 0.42613984176471847 0 -0.38249991962136642 0.44345487931465249 0 -0.40464661760035381 0.43350824459614162 0 -0.37875820238401509 0.42613984176471847 0 -0.40252501776332311 0.40909119167150271 0 -0.37875820238401509 0.42613984176471847 0 -0.37769092578324193 0.39977892163450779 0 -0.37769092578324193 0.39977892163450779 0 -0.38963770449155072 0.39285491215608792 0 -0.37686086334024771 0.38257038446795849 0 -0.40252501776332311 0.40909119167150271 0 -0.37769092578324193 0.39977892163450779 0 -0.38963770449155072 0.39285491215608792 0 -0.40252501776332311 0.40909119167150271 0 -0.37769092578324193 0.39977892163450779 0 -0.37686086334024771 0.38257038446795849 0 -0.39363670834615189 0.38450398520198442 0 -0.40086489287733429 0.37467411733839928 0 -0.38963770449155072 0.39285491215608792 0 -0.37686086334024771 0.38257038446795849 0 -0.39363670834615189 0.38450398520198442 0 -0.37686086334024771 0.38257038446795849 0 -0.40086489287733429 0.37467411733839928 0 -0.37686086334024771 0.38257038446795849 0 -0.40086489287733429 0.37467411733839928 0 -0.39033592763893787 0.37070590072739279 0 -0.39363670834615189 0.38450398520198442 0 -0.40122768387689522 0.38158953953487368 0 -0.39959239714473138 0.39083097251260251 0 -0.38963770449155072 0.39285491215608792 0 -0.39363670834615189 0.38450398520198442 0 -0.39959239714473138 0.39083097251260251 0 -0.39363670834615189 0.38450398520198442 0 -0.40122768387689522 0.38158953953487368 0 -0.40086489287733429 0.37467411733839928 0 -0.40122768387689522 0.38158953953487368 0 -0.40557429982823212 0.38794008425198068 0 -0.39959239714473138 0.39083097251260251 0 -0.40798835104355652 0.39359067917546098 0 -0.40557429982823212 0.38794008425198068 0 -0.39959239714473138 0.39083097251260251 0 -0.40252501776332311 0.40909119167150271 0 -0.38963770449155072 0.39285491215608792 0 -0.39959239714473138 0.39083097251260251 0 -0.40798835104355652 0.39359067917546098 0 -0.40252501776332311 0.40909119167150271 0 -0.39959239714473138 0.39083097251260251 0 -0.3926828114571661 0.35541775914535301 0 -0.40105078960399698 0.34662517948293931 0 -0.40586906590548888 0.3393029225754271 0 -0.3926828114571661 0.35541775914535301 0 -0.39400561065841477 0.34382680172727831 0 -0.40586906590548888 0.3393029225754271 0 -0.3926828114571661 0.35541775914535301 0 -0.40586906590548888 0.3393029225754271 0 -0.3926828114571661 0.35541775914535301 0 -0.39969836615416421 0.35756427730283669 0 -0.39341808057325789 0.36431669671432632 0 -0.3926828114571661 0.35541775914535301 0 -0.40105078960399698 0.34662517948293931 0 -0.39969836615416421 0.35756427730283669 0 -0.3926828114571661 0.35541775914535301 0 -0.39400561065841477 0.34382680172727831 0 -0.38539473684528258 0.34837828204789067 0 -0.40105078960399698 0.34662517948293931 0 -0.40525205349158999 0.35429039595711992 0 -0.40888688292129022 0.34941903462410451 0 -0.40105078960399698 0.34662517948293931 0 -0.4080564418273247 0.34368885170405422 0 -0.40888688292129022 0.34941903462410451 0 -0.40105078960399698 0.34662517948293931 0 -0.40525205349158999 0.35429039595711992 0 -0.39969836615416421 0.35756427730283669 0 -0.40525205349158999 0.35429039595711992 0 -0.39969836615416421 0.35756427730283669 0 -0.40553625032349627 0.36037170931698131 0 -0.40553625032349627 0.36037170931698131 0 -0.40544017780568847 0.3661562974108753 0 -0.40025021147547779 0.36436392320030081 0 -0.40544017780568847 0.3661562974108753 0 -0.40025021147547779 0.36436392320030081 0 -0.397742957241214 0.36844985128713797 0 -0.39969836615416421 0.35756427730283669 0 -0.40553625032349627 0.36037170931698131 0 -0.40025021147547779 0.36436392320030081 0 -0.40544017780568847 0.3661562974108753 0 -0.40086489287733429 0.37467411733839928 0 -0.397742957241214 0.36844985128713797 0 -0.40086489287733429 0.37467411733839928 0 -0.397742957241214 0.36844985128713797 0 -0.39033592763893787 0.37070590072739279 0 -0.397742957241214 0.36844985128713797 0 -0.39341808057325789 0.36431669671432632 0 -0.39033592763893787 0.37070590072739279 0 -0.39969836615416421 0.35756427730283669 0 -0.40025021147547779 0.36436392320030081 0 -0.39341808057325789 0.36431669671432632 0 -0.40025021147547779 0.36436392320030081 0 -0.397742957241214 0.36844985128713797 0 -0.39341808057325789 0.36431669671432632 0 -0.3926828114571661 0.35541775914535301 0 -0.39341808057325789 0.36431669671432632 0 -0.37949655700884349 0.37153259571527891 0 -0.37949655700884349 0.37153259571527891 0 -0.37823932191431281 0.35548757599615399 0 -0.37024808467873749 0.36543132639488701 0 -0.3926828114571661 0.35541775914535301 0 -0.37949655700884349 0.37153259571527891 0 -0.37823932191431281 0.35548757599615399 0 -0.3926828114571661 0.35541775914535301 0 -0.37949655700884349 0.37153259571527891 0 -0.39341808057325789 0.36431669671432632 0 -0.39033592763893787 0.37070590072739279 0 -0.37949655700884349 0.37153259571527891 0 -0.37686086334024771 0.38257038446795849 0 -0.39033592763893787 0.37070590072739279 0 -0.37949655700884349 0.37153259571527891 0 -0.37823932191431281 0.35548757599615399 0 -0.38539473684528258 0.34837828204789067 0 -0.3787015959315434 0.33902802614693439 0 -0.3926828114571661 0.35541775914535301 0 -0.37823932191431281 0.35548757599615399 0 -0.38539473684528258 0.34837828204789067 0 -0.3787015959315434 0.33902802614693439 0 -0.37816355277066899 0.32985684687273281 0 -0.39158393304450312 0.32769252248945308 0 -0.39400561065841477 0.34382680172727831 0 -0.38539473684528258 0.34837828204789067 0 -0.3787015959315434 0.33902802614693439 0 -0.39158393304450312 0.32769252248945308 0 -0.37442838800096029 0.32044424157556423 0 -0.37816355277066899 0.32985684687273281 0 -0.39158393304450312 0.32769252248945308 0 -0.37442838800096029 0.32044424157556423 0 -0.38613629988198012 0.31665983269396758 0 -0.39158393304450312 0.32769252248945308 0 -0.37442838800096029 0.32044424157556423 0 -0.38613629988198012 0.31665983269396758 0 -0.37442838800096029 0.32044424157556423 0 -0.37415321332832258 0.31386652142517069 0 -0.39158393304450312 0.32769252248945308 0 -0.4039094095666334 0.320812311378052 0 -0.40925887999808552 0.33516025262174892 0 -0.38613629988198012 0.31665983269396758 0 -0.39830358576524327 0.31266849694114901 0 -0.39158393304450312 0.32769252248945308 0 -0.39830358576524327 0.31266849694114901 0 -0.39158393304450312 0.32769252248945308 0 -0.4039094095666334 0.320812311378052 0 -0.39830358576524327 0.31266849694114901 0 -0.4039094095666334 0.320812311378052 0 -0.40826549608127172 0.31275764886218971 0 -0.3787015959315434 0.33902802614693439 0 -0.40777024278950652 0.33697950655941222 0 -0.39158393304450312 0.32769252248945308 0 -0.40925887999808552 0.33516025262174892 0 -0.39158393304450312 0.32769252248945308 0 -0.40777024278950652 0.33697950655941222 0 -0.40925887999808552 0.33516025262174892 0 -0.3787015959315434 0.33902802614693439 0 -0.39158393304450312 0.32769252248945308 0 -0.40777024278950652 0.33697950655941222 0 -0.39400561065841477 0.34382680172727831 0 -0.3787015959315434 0.33902802614693439 0 -0.40777024278950652 0.33697950655941222 0 -0.39400561065841477 0.34382680172727831 0 -0.40586906590548888 0.3393029225754271 0 -0.40777024278950652 0.33697950655941222 0 -0.40105078960399698 0.34662517948293931 0 -0.40586906590548888 0.3393029225754271 0 -0.40105078960399698 0.34662517948293931 0 -0.40586906590548888 0.3393029225754271 0 -0.4080564418273247 0.34368885170405422 0 -0.4080564418273247 0.34368885170405422 0 -0.41125860555200922 0.34134685969384471 0 -0.40895905381070002 0.33957121871677393 0 -0.40586906590548888 0.3393029225754271 0 -0.4080564418273247 0.34368885170405422 0 -0.40895905381070002 0.33957121871677393 0 -0.4080564418273247 0.34368885170405422 0 -0.41125860555200922 0.34134685969384471 0 -0.41366919887348358 0.34576378073699821 0 -0.41125860555200922 0.34134685969384471 0 -0.41273643032526569 0.33662953043248711 0 -0.41433336845197538 0.3415594658204692 0 -0.41125860555200922 0.34134685969384471 0 -0.41433336845197538 0.3415594658204692 0 -0.41366919887348358 0.34576378073699821 0 -0.41125860555200922 0.34134685969384471 0 -0.41273643032526569 0.33662953043248711 0 -0.40895905381070002 0.33957121871677393 0 -0.41273643032526569 0.33662953043248711 0 -0.40777024278950652 0.33697950655941222 0 -0.41273643032526569 0.33662953043248711 0 -0.40895905381070002 0.33957121871677393 0 -0.40777024278950652 0.33697950655941222 0 -0.41273643032526569 0.33662953043248711 0 -0.40777024278950652 0.33697950655941222 0 -0.40925887999808552 0.33516025262174892 0 -0.40777024278950652 0.33697950655941222 0 -0.40925887999808552 0.33516025262174892 0 -0.40586906590548888 0.3393029225754271 0 -0.40895905381070002 0.33957121871677393 0 -0.40777024278950652 0.33697950655941222 0 -0.40586906590548888 0.3393029225754271 0 -0.40777024278950652 0.33697950655941222 0 -0.41273643032526569 0.33662953043248711 0 -0.40925887999808552 0.33516025262174892 0 -0.40925887999808552 0.33516025262174892 0 -0.42024067891477529 0.32173946694831868 0 -0.40925887999808552 0.33516025262174892 0 -0.42071708592719742 0.33131558094746122 0 -0.42024067891477529 0.32173946694831868 0 -0.41273643032526569 0.33662953043248711 0 -0.40925887999808552 0.33516025262174892 0 -0.42071708592719742 0.33131558094746122 0 -0.41273643032526569 0.33662953043248711 0 -0.4199209072431685 0.34318781838679219 0 -0.41433336845197538 0.3415594658204692 0 -0.4199209072431685 0.34318781838679219 0 -0.41433336845197538 0.3415594658204692 0 -0.41366919887348358 0.34576378073699821 0 -0.40925887999808552 0.33516025262174892 0 -0.41892768793075841 0.31754462100172592 0 -0.42141481873501418 0.31567829233095179 0 -0.40925887999808552 0.33516025262174892 0 -0.411263050936583 0.31954773430139438 0 -0.41892768793075841 0.31754462100172592 0 -0.40925887999808552 0.33516025262174892 0 -0.42141481873501418 0.31567829233095179 0 -0.40925887999808552 0.33516025262174892 0 -0.42024067891477529 0.32173946694831868 0 -0.42141481873501418 0.31567829233095179 0 -0.411263050936583 0.31954773430139438 0 -0.40826549608127172 0.31275764886218971 0 -0.41647318301620623 0.31168328686166002 0 -0.4039094095666334 0.320812311378052 0 -0.411263050936583 0.31954773430139438 0 -0.40826549608127172 0.31275764886218971 0 -0.4039094095666334 0.320812311378052 0 -0.40925887999808552 0.33516025262174892 0 -0.411263050936583 0.31954773430139438 0 -0.411263050936583 0.31954773430139438 0 -0.41892768793075841 0.31754462100172592 0 -0.41647318301620623 0.31168328686166002 0 -0.41892768793075841 0.31754462100172592 0 -0.42141481873501418 0.31567829233095179 0 -0.41892768793075841 0.31754462100172592 0 -0.42141481873501418 0.31567829233095179 0 -0.41647318301620623 0.31168328686166002 0 -0.42024067891477529 0.32173946694831868 0 -0.43790895006943947 0.32081412042189511 0 -0.43122247783146522 0.30831868127488848 0 -0.42024067891477529 0.32173946694831868 0 -0.42938605365092247 0.3272194948190838 0 -0.43790895006943947 0.32081412042189511 0 -0.42024067891477529 0.32173946694831868 0 -0.42141481873501418 0.31567829233095179 0 -0.43122247783146522 0.30831868127488848 0 -0.42024067891477529 0.32173946694831868 0 -0.43122247783146522 0.30831868127488848 0 -0.42071708592719742 0.33131558094746122 0 -0.42024067891477529 0.32173946694831868 0 -0.42938605365092247 0.3272194948190838 0 -0.42938605365092247 0.3272194948190838 0 -0.43674098495811231 0.33493788649063261 0 -0.43790895006943947 0.32081412042189511 0 -0.43790895006943947 0.32081412042189511 0 -0.4401847358662575 0.3127477530096977 0 -0.43122247783146522 0.30831868127488848 0 -0.41273643032526569 0.33662953043248711 0 -0.43674098495811231 0.33493788649063261 0 -0.42071708592719742 0.33131558094746122 0 -0.42938605365092247 0.3272194948190838 0 -0.43674098495811231 0.33493788649063261 0 -0.41273643032526569 0.33662953043248711 0 -0.4199209072431685 0.34318781838679219 0 -0.43385085243219867 0.34555045147446217 0 -0.41273643032526569 0.33662953043248711 0 -0.42071708592719742 0.33131558094746122 0 -0.43674098495811231 0.33493788649063261 0 -0.41273643032526569 0.33662953043248711 0 -0.43385085243219867 0.34555045147446217 0 -0.41273643032526569 0.33662953043248711 0 -0.43674098495811231 0.33493788649063261 0 -0.43385085243219867 0.34555045147446217 0 -0.43385085243219867 0.34555045147446217 0 -0.4302486007270056 0.35272204188882378 0 -0.42573384958437638 0.34916959158482058 0 -0.43385085243219867 0.34555045147446217 0 -0.43539550265875948 0.35741731211322858 0 -0.44110397924445488 0.35756373905142852 0 -0.43539550265875948 0.35741731211322858 0 -0.4302486007270056 0.35272204188882378 0 -0.42757171946388478 0.35850981688022993 0 -0.43385085243219867 0.34555045147446217 0 -0.43539550265875948 0.35741731211322858 0 -0.4302486007270056 0.35272204188882378 0 -0.4302486007270056 0.35272204188882378 0 -0.42480748600639012 0.35482075793933809 0 -0.42573384958437638 0.34916959158482058 0 -0.4302486007270056 0.35272204188882378 0 -0.42757171946388478 0.35850981688022993 0 -0.42480748600639012 0.35482075793933809 0 -0.42757171946388478 0.35850981688022993 0 -0.42480748600639012 0.35482075793933809 0 -0.42195212413097077 0.36043988011418487 0 -0.4199209072431685 0.34318781838679219 0 -0.43385085243219867 0.34555045147446217 0 -0.42573384958437638 0.34916959158482058 0 -0.42480748600639012 0.35482075793933809 0 -0.42573384958437638 0.34916959158482058 0 -0.41984140151311927 0.3495668882346864 0 -0.4199209072431685 0.34318781838679219 0 -0.42573384958437638 0.34916959158482058 0 -0.41984140151311927 0.3495668882346864 0 -0.4199209072431685 0.34318781838679219 0 -0.41984140151311927 0.3495668882346864 0 -0.41366919887348358 0.34576378073699821 0 -0.41984140151311927 0.3495668882346864 0 -0.41366919887348358 0.34576378073699821 0 -0.41404230344944593 0.35073751764187411 0 -0.42480748600639012 0.35482075793933809 0 -0.41984140151311927 0.3495668882346864 0 -0.41755863725870102 0.35684421707679032 0 -0.42480748600639012 0.35482075793933809 0 -0.41755863725870102 0.35684421707679032 0 -0.42195212413097077 0.36043988011418487 0 -0.41984140151311927 0.3495668882346864 0 -0.41755863725870102 0.35684421707679032 0 -0.41404230344944593 0.35073751764187411 0 -0.41755863725870102 0.35684421707679032 0 -0.41125051028190041 0.35540848222164118 0 -0.41404230344944593 0.35073751764187411 0 -0.41125051028190041 0.35540848222164118 0 -0.40888688292129022 0.34941903462410451 0 -0.41404230344944593 0.35073751764187411 0 -0.41755863725870102 0.35684421707679032 0 -0.41125051028190041 0.35540848222164118 0 -0.41142088061722581 0.36176204086772412 0 -0.40553625032349627 0.36037170931698131 0 -0.41125051028190041 0.35540848222164118 0 -0.41142088061722581 0.36176204086772412 0 -0.40525205349158999 0.35429039595711992 0 -0.40553625032349627 0.36037170931698131 0 -0.41125051028190041 0.35540848222164118 0 -0.40525205349158999 0.35429039595711992 0 -0.41125051028190041 0.35540848222164118 0 -0.40888688292129022 0.34941903462410451 0 -0.4080564418273247 0.34368885170405422 0 -0.40888688292129022 0.34941903462410451 0 -0.41366919887348358 0.34576378073699821 0 -0.40888688292129022 0.34941903462410451 0 -0.41366919887348358 0.34576378073699821 0 -0.41404230344944593 0.35073751764187411 0 -0.4250431626101242 0.37647010748543319 0 -0.40086489287733429 0.37467411733839928 0 -0.42486892241442098 0.36677785020884007 0 -0.40086489287733429 0.37467411733839928 0 -0.42486892241442098 0.36677785020884007 0 -0.40086489287733429 0.37467411733839928 0 -0.41378193274770297 0.36450427419225789 0 -0.42486892241442098 0.36677785020884007 0 -0.40544017780568847 0.3661562974108753 0 -0.40086489287733429 0.37467411733839928 0 -0.41378193274770297 0.36450427419225789 0 -0.40544017780568847 0.3661562974108753 0 -0.41142088061722581 0.36176204086772412 0 -0.41378193274770297 0.36450427419225789 0 -0.40553625032349627 0.36037170931698131 0 -0.40544017780568847 0.3661562974108753 0 -0.41142088061722581 0.36176204086772412 0 -0.41755863725870102 0.35684421707679032 0 -0.41378193274770297 0.36450427419225789 0 -0.42195212413097077 0.36043988011418487 0 -0.41378193274770297 0.36450427419225789 0 -0.42486892241442098 0.36677785020884007 0 -0.42195212413097077 0.36043988011418487 0 -0.41755863725870102 0.35684421707679032 0 -0.41142088061722581 0.36176204086772412 0 -0.41378193274770297 0.36450427419225789 0 -0.4250431626101242 0.37647010748543319 0 -0.44885864134335329 0.37135067543599282 0 -0.4250431626101242 0.37647010748543319 0 -0.42486892241442098 0.36677785020884007 0 -0.44885864134335329 0.37135067543599282 0 -0.42486892241442098 0.36677785020884007 0 -0.448872951951507 0.35888158307927881 0 -0.43539550265875948 0.35741731211322858 0 -0.42486892241442098 0.36677785020884007 0 -0.44110397924445488 0.35756373905142852 0 -0.43539550265875948 0.35741731211322858 0 -0.42757171946388478 0.35850981688022993 0 -0.42486892241442098 0.36677785020884007 0 -0.42757171946388478 0.35850981688022993 0 -0.42486892241442098 0.36677785020884007 0 -0.42195212413097077 0.36043988011418487 0 -0.42486892241442098 0.36677785020884007 0 -0.44885864134335329 0.37135067543599282 0 -0.448872951951507 0.35888158307927881 0 -0.44802713623065987 0.37645115623263098 0 -0.4250431626101242 0.37647010748543319 0 -0.44885864134335329 0.37135067543599282 0 -0.42486892241442098 0.36677785020884007 0 -0.44110397924445488 0.35756373905142852 0 -0.448872951951507 0.35888158307927881 0 -0.44885864134335329 0.37135067543599282 0 -0.448872951951507 0.35888158307927881 0 -0.44885864134335329 0.37135067543599282 0 -0.448872951951507 0.35888158307927881 0 -0.45634368000688869 0.36512471152292858 0 -0.43385085243219867 0.34555045147446217 0 -0.45496527453913199 0.35447137251643651 0 -0.44889299330712729 0.34242966823447613 0 -0.43385085243219867 0.34555045147446217 0 -0.45496527453913199 0.35447137251643651 0 -0.43385085243219867 0.34555045147446217 0 -0.44887533288597797 0.35680703170406669 0 -0.45496527453913199 0.35447137251643651 0 -0.43385085243219867 0.34555045147446217 0 -0.44110397924445488 0.35756373905142852 0 -0.44887533288597797 0.35680703170406669 0 -0.44110397924445488 0.35756373905142852 0 -0.44887533288597797 0.35680703170406669 0 -0.448872951951507 0.35888158307927881 0 -0.44887533288597797 0.35680703170406669 0 -0.448872951951507 0.35888158307927881 0 -0.44887533288597797 0.35680703170406669 0 -0.448872951951507 0.35888158307927881 0 -0.45496527453913199 0.35447137251643651 0 -0.448872951951507 0.35888158307927881 0 -0.45496527453913199 0.35447137251643651 0 -0.47186707529616939 0.3513175305497272 0 -0.448872951951507 0.35888158307927881 0 -0.47186707529616939 0.3513175305497272 0 -0.448872951951507 0.35888158307927881 0 -0.45634368000688869 0.36512471152292858 0 -0.47186707529616939 0.3513175305497272 0 -0.45911772068334677 0.34536620346235469 0 -0.45496527453913199 0.35447137251643651 0 -0.47186707529616939 0.3513175305497272 0 -0.45911772068334677 0.34536620346235469 0 -0.45496527453913199 0.35447137251643651 0 -0.44889299330712729 0.34242966823447613 0 -0.46572599417265398 0.36772482908493609 0 -0.45634368000688869 0.36512471152292858 0 -0.47186707529616939 0.3513175305497272 0 -0.46059005399087027 0.38292215568240928 0 -0.44885864134335329 0.37135067543599282 0 -0.46572599417265398 0.36772482908493609 0 -0.44885864134335329 0.37135067543599282 0 -0.46572599417265398 0.36772482908493609 0 -0.44885864134335329 0.37135067543599282 0 -0.46572599417265398 0.36772482908493609 0 -0.45634368000688869 0.36512471152292858 0 -0.47832653283541199 0.38608194873200979 0 -0.46572599417265398 0.36772482908493609 0 -0.48259334700195489 0.36409898273387958 0 -0.46572599417265398 0.36772482908493609 0 -0.48259334700195489 0.36409898273387958 0 -0.47186707529616939 0.3513175305497272 0 -0.46572599417265398 0.36772482908493609 0 -0.48259334700195489 0.36409898273387958 0 -0.47186707529616939 0.3513175305497272 0 -0.494861198640831 0.34375347802017348 0 -0.47186707529616939 0.3513175305497272 0 -0.48536711719674469 0.35339641184703091 0 -0.494861198640831 0.34375347802017348 0 -0.48259334700195489 0.36409898273387958 0 -0.47186707529616939 0.3513175305497272 0 -0.48536711719674469 0.35339641184703091 0 -0.48259334700195489 0.36409898273387958 0 -0.49214684784802371 0.35441565608434311 0 -0.48536711719674469 0.35339641184703091 0 -0.49214684784802371 0.35441565608434311 0 -0.5 0.36887446842263683 0 -0.5 0.34271985673358363 0 -0.49214684784802371 0.35441565608434311 0 -0.48536711719674469 0.35339641184703091 0 -0.494861198640831 0.34375347802017348 0 -0.49214684784802371 0.35441565608434311 0 -0.494861198640831 0.34375347802017348 0 -0.5 0.34271985673358363 0 -0.48850556386005051 0.3766603246979251 0 -0.48259334700195489 0.36409898273387958 0 -0.5 0.36887446842263683 0 -0.48259334700195489 0.36409898273387958 0 -0.49214684784802371 0.35441565608434311 0 -0.5 0.36887446842263683 0 -0.485708092488497 0.3189911195031831 0 -0.5 0.31656524504453032 0 -0.48475009422380527 0.3315545986069256 0 -0.485708092488497 0.3189911195031831 0 -0.5 0.31656524504453032 0 -0.48583489694974541 0.30845327583860088 0 -0.5 0.31656524504453032 0 -0.5 0.34271985673358363 0 -0.48475009422380527 0.3315545986069256 0 -0.494861198640831 0.34375347802017348 0 -0.5 0.34271985673358363 0 -0.48475009422380527 0.3315545986069256 0 -0.48475009422380527 0.3315545986069256 0 -0.46074553959095882 0.3332462425487791 0 -0.47186707529616939 0.3513175305497272 0 -0.494861198640831 0.34375347802017348 0 -0.48475009422380527 0.3315545986069256 0 -0.47186707529616939 0.3513175305497272 0 -0.48475009422380527 0.3315545986069256 0 -0.46074553959095882 0.3332462425487791 0 -0.48475009422380527 0.3315545986069256 0 -0.47224737878043732 0.31939135852267558 0 -0.46074553959095882 0.3332462425487791 0 -0.485708092488497 0.3189911195031831 0 -0.48475009422380527 0.3315545986069256 0 -0.47224737878043732 0.31939135852267558 0 -0.485708092488497 0.3189911195031831 0 -0.47224737878043732 0.31939135852267558 0 -0.48583489694974541 0.30845327583860088 0 -0.47224737878043732 0.31939135852267558 0 -0.46258830912673421 0.31343425170936878 0 -0.46074553959095882 0.3332462425487791 0 -0.46258830912673421 0.31343425170936878 0 -0.46074553959095882 0.3332462425487791 0 -0.45107709460752138 0.31557533431346357 0 -0.45911772068334677 0.34536620346235469 0 -0.47186707529616939 0.3513175305497272 0 -0.46074553959095882 0.3332462425487791 0 -0.45911772068334677 0.34536620346235469 0 -0.46074553959095882 0.3332462425487791 0 -0.44889299330712729 0.34242966823447613 0 -0.43674098495811231 0.33493788649063261 0 -0.46074553959095882 0.3332462425487791 0 -0.43674098495811231 0.33493788649063261 0 -0.46074553959095882 0.3332462425487791 0 -0.44889299330712729 0.34242966823447613 0 -0.43674098495811231 0.33493788649063261 0 -0.46074553959095882 0.3332462425487791 0 -0.43790895006943947 0.32081412042189511 0 -0.43674098495811231 0.33493788649063261 0 -0.43385085243219867 0.34555045147446217 0 -0.44889299330712729 0.34242966823447613 0 -0.46074553959095882 0.3332462425487791 0 -0.45107709460752138 0.31557533431346357 0 -0.43790895006943947 0.32081412042189511 0 -0.45107709460752138 0.31557533431346357 0 -0.43790895006943947 0.32081412042189511 0 -0.4401847358662575 0.3127477530096977 0 -0.44444415583193408 0.29216055381020578 0 -0.43122247783146522 0.30831868127488848 0 -0.44810052680614793 0.29565349026271098 0 -0.43122247783146522 0.30831868127488848 0 -0.44368336155109173 0.30649675881006838 0 -0.44810052680614793 0.29565349026271098 0 -0.43122247783146522 0.30831868127488848 0 -0.4401847358662575 0.3127477530096977 0 -0.44368336155109173 0.30649675881006838 0 -0.43122247783146522 0.30831868127488848 0 -0.44444415583193408 0.29216055381020578 0 -0.44810052680614793 0.29565349026271098 0 -0.43122247783146522 0.30831868127488848 0 -0.45107709460752138 0.31557533431346357 0 -0.4401847358662575 0.3127477530096977 0 -0.44368336155109173 0.30649675881006838 0 -0.44368336155109173 0.30649675881006838 0 -0.44996115485610377 0.3015940899144034 0 -0.4551770389262465 0.30483297142504889 0 -0.44368336155109173 0.30649675881006838 0 -0.44996115485610377 0.3015940899144034 0 -0.44810052680614793 0.29565349026271098 0 -0.45288369214092922 0.29939313915978533 0 -0.44996115485610377 0.3015940899144034 0 -0.44810052680614793 0.29565349026271098 0 -0.45288369214092922 0.29939313915978533 0 -0.44996115485610377 0.3015940899144034 0 -0.4551770389262465 0.30483297142504889 0 -0.45107709460752138 0.31557533431346357 0 -0.44368336155109173 0.30649675881006838 0 -0.4551770389262465 0.30483297142504889 0 -0.44702735364695217 0.27675533545947301 0 -0.43422108619098299 0.29621681389521232 0 -0.44444415583193408 0.29216055381020578 0 -0.44702735364695217 0.27675533545947301 0 -0.43422108619098299 0.29621681389521232 0 -0.44702735364695217 0.27675533545947301 0 -0.43274811138672559 0.28469846643612018 0 -0.43422108619098299 0.29621681389521232 0 -0.44810052680614793 0.29565349026271098 0 -0.4493542421043164 0.28919027156790111 0 -0.45395006383388498 0.28587005882998617 0 -0.44444415583193408 0.29216055381020578 0 -0.44810052680614793 0.29565349026271098 0 -0.4493542421043164 0.28919027156790111 0 -0.44444415583193408 0.29216055381020578 0 -0.4493542421043164 0.28919027156790111 0 -0.44702735364695217 0.27675533545947301 0 -0.4493542421043164 0.28919027156790111 0 -0.45395006383388498 0.28587005882998617 0 -0.44702735364695217 0.27675533545947301 0 -0.44810052680614793 0.29565349026271098 0 -0.45395006383388498 0.28587005882998617 0 -0.46497857578083068 0.28298829925053381 0 -0.44810052680614793 0.29565349026271098 0 -0.4593999708052337 0.29480301670676529 0 -0.46497857578083068 0.28298829925053381 0 -0.44810052680614793 0.29565349026271098 0 -0.46497857578083068 0.28298829925053381 0 -0.45288369214092922 0.29939313915978533 0 -0.44810052680614793 0.29565349026271098 0 -0.4593999708052337 0.29480301670676529 0 -0.4593999708052337 0.29480301670676529 0 -0.46827174088950307 0.29409138505043392 0 -0.46497857578083068 0.28298829925053381 0 -0.46258830912673421 0.31343425170936878 0 -0.45107709460752138 0.31557533431346357 0 -0.4551770389262465 0.30483297142504889 0 -0.45288369214092922 0.29939313915978533 0 -0.4593999708052337 0.29480301670676529 0 -0.4551770389262465 0.30483297142504889 0 -0.4593999708052337 0.29480301670676529 0 -0.4551770389262465 0.30483297142504889 0 -0.46625021185001803 0.30380681263807602 0 -0.4593999708052337 0.29480301670676529 0 -0.46827174088950307 0.29409138505043392 0 -0.46625021185001803 0.30380681263807602 0 -0.47224737878043732 0.31939135852267558 0 -0.46258830912673421 0.31343425170936878 0 -0.46625021185001803 0.30380681263807602 0 -0.46258830912673421 0.31343425170936878 0 -0.4551770389262465 0.30483297142504889 0 -0.46625021185001803 0.30380681263807602 0 -0.47551717359816043 0.30301602212345602 0 -0.4769183937012712 0.29196404103452073 0 -0.48583489694974541 0.30845327583860088 0 -0.47224737878043732 0.31939135852267558 0 -0.46625021185001803 0.30380681263807602 0 -0.47551717359816043 0.30301602212345602 0 -0.47224737878043732 0.31939135852267558 0 -0.47551717359816043 0.30301602212345602 0 -0.48583489694974541 0.30845327583860088 0 -0.46827174088950307 0.29409138505043392 0 -0.46625021185001803 0.30380681263807602 0 -0.47551717359816043 0.30301602212345602 0 -0.46827174088950307 0.29409138505043392 0 -0.46497857578083068 0.28298829925053381 0 -0.4769183937012712 0.29196404103452073 0 -0.4769183937012712 0.29196404103452073 0 -0.48757792524538679 0.2814999319082685 0 -0.48583489694974541 0.30845327583860088 0 -0.46827174088950307 0.29409138505043392 0 -0.47551717359816043 0.30301602212345602 0 -0.4769183937012712 0.29196404103452073 0 -0.46497857578083068 0.28298829925053381 0 -0.47783287987075052 0.28169384510791978 0 -0.4769183937012712 0.29196404103452073 0 -0.47783287987075052 0.28169384510791978 0 -0.4769183937012712 0.29196404103452073 0 -0.48757792524538679 0.2814999319082685 0 -0.5 0.29041063335547701 0 -0.48757792524538679 0.2814999319082685 0 -0.48583489694974541 0.30845327583860088 0 -0.48757792524538679 0.2814999319082685 0 -0.48583489694974541 0.30845327583860088 0 -0.5 0.31656524504453032 0 -0.5 0.29041063335547701 0 -0.48583489694974541 0.30845327583860088 0 -0.5 0.23810140997737081 0 -0.5 0.26425602166642381 0 -0.48932095354102823 0.25454658797793611 0 -0.48757792524538679 0.2814999319082685 0 -0.48932095354102823 0.25454658797793611 0 -0.48366697684514259 0.26703881783025729 0 -0.48757792524538679 0.2814999319082685 0 -0.5 0.26425602166642381 0 -0.48932095354102823 0.25454658797793611 0 -0.48757792524538679 0.2814999319082685 0 -0.48932095354102823 0.25454658797793611 0 -0.5 0.29041063335547701 0 -0.48757792524538679 0.2814999319082685 0 -0.5 0.26425602166642381 0 -0.46497857578083068 0.28298829925053381 0 -0.48185662475551339 0.27032310823835648 0 -0.46497857578083068 0.28298829925053381 0 -0.47783287987075052 0.28169384510791978 0 -0.48185662475551339 0.27032310823835648 0 -0.48366697684514259 0.26703881783025729 0 -0.45893043448094739 0.2699305570534084 0 -0.48757792524538679 0.2814999319082685 0 -0.48366697684514259 0.26703881783025729 0 -0.48185662475551339 0.27032310823835648 0 -0.48366697684514259 0.26703881783025729 0 -0.48185662475551339 0.27032310823835648 0 -0.47235815296560851 0.27257019559313889 0 -0.46497857578083068 0.28298829925053381 0 -0.48185662475551339 0.27032310823835648 0 -0.47235815296560851 0.27257019559313889 0 -0.48366697684514259 0.26703881783025729 0 -0.46959483388743167 0.25994315597580908 0 -0.45893043448094739 0.2699305570534084 0 -0.48366697684514259 0.26703881783025729 0 -0.47235815296560851 0.27257019559313889 0 -0.45893043448094739 0.2699305570534084 0 -0.47783287987075052 0.28169384510791978 0 -0.48757792524538679 0.2814999319082685 0 -0.48185662475551339 0.27032310823835648 0 -0.48932095354102823 0.25454658797793611 0 -0.48366697684514259 0.26703881783025729 0 -0.47792533453874358 0.25606878273296479 0 -0.48366697684514259 0.26703881783025729 0 -0.46959483388743167 0.25994315597580908 0 -0.47792533453874358 0.25606878273296479 0 -0.47864167104372218 0.246590621409366 0 -0.48932095354102823 0.25454658797793611 0 -0.47792533453874358 0.25606878273296479 0 -0.47864167104372218 0.246590621409366 0 -0.47792533453874358 0.25606878273296479 0 -0.46938038244821267 0.25133041049185839 0 -0.46959483388743167 0.25994315597580908 0 -0.47792533453874358 0.25606878273296479 0 -0.46938038244821267 0.25133041049185839 0 -0.46959483388743167 0.25994315597580908 0 -0.46938038244821267 0.25133041049185839 0 -0.45807104112411212 0.25534721177055669 0 -0.46959483388743167 0.25994315597580908 0 -0.45807104112411212 0.25534721177055669 0 -0.45893043448094739 0.2699305570534084 0 -0.45807104112411212 0.25534721177055669 0 -0.45893043448094739 0.2699305570534084 0 -0.44442574262614493 0.25832327296872359 0 -0.45395006383388498 0.28587005882998617 0 -0.46497857578083068 0.28298829925053381 0 -0.45893043448094739 0.2699305570534084 0 -0.45395006383388498 0.28587005882998617 0 -0.45893043448094739 0.2699305570534084 0 -0.44702735364695217 0.27675533545947301 0 -0.46497857578083068 0.28298829925053381 0 -0.47235815296560851 0.27257019559313889 0 -0.45893043448094739 0.2699305570534084 0 -0.45893043448094739 0.2699305570534084 0 -0.43419389211675241 0.27282229627655952 0 -0.45893043448094739 0.2699305570534084 0 -0.44442574262614493 0.25832327296872359 0 -0.43419389211675241 0.27282229627655952 0 -0.45893043448094739 0.2699305570534084 0 -0.44702735364695217 0.27675533545947301 0 -0.43419389211675241 0.27282229627655952 0 -0.44702735364695217 0.27675533545947301 0 -0.43419389211675241 0.27282229627655952 0 -0.43274811138672559 0.28469846643612018 0 -0.45046339488490522 0.249057113070103 0 -0.45807104112411212 0.25534721177055669 0 -0.44442574262614493 0.25832327296872359 0 -0.44062222049055039 0.24203477259657111 0 -0.44442574262614493 0.25832327296872359 0 -0.42503978512155383 0.25887440404814072 0 -0.44062222049055039 0.24203477259657111 0 -0.42503978512155383 0.25887440404814072 0 -0.44442574262614493 0.25832327296872359 0 -0.42503978512155383 0.25887440404814072 0 -0.43419389211675241 0.27282229627655952 0 -0.42503978512155383 0.25887440404814072 0 -0.40945734975255721 0.27571403549971041 0 -0.40585136056822319 0.25674789398696107 0 -0.4198454647722451 0.23985190764030939 0 -0.42503978512155383 0.25887440404814072 0 -0.40585136056822319 0.25674789398696107 0 -0.40945734975255721 0.27571403549971041 0 -0.43419389211675241 0.27282229627655952 0 -0.42503978512155383 0.25887440404814072 0 -0.40945734975255721 0.27571403549971041 0 -0.42503978512155383 0.25887440404814072 0 -0.40945734975255721 0.27571403549971041 0 -0.43419389211675241 0.27282229627655952 0 -0.40945734975255721 0.27571403549971041 0 -0.43419389211675241 0.27282229627655952 0 -0.4229835889384117 0.28415291652507912 0 -0.43419389211675241 0.27282229627655952 0 -0.43274811138672559 0.28469846643612018 0 -0.4229835889384117 0.28415291652507912 0 -0.43274811138672559 0.28469846643612018 0 -0.43422108619098299 0.29621681389521232 0 -0.42519236151645012 0.29288975242762622 0 -0.43274811138672559 0.28469846643612018 0 -0.42519236151645012 0.29288975242762622 0 -0.4229835889384117 0.28415291652507912 0 -0.42141481873501418 0.31567829233095179 0 -0.43422108619098299 0.29621681389521232 0 -0.42141481873501418 0.31567829233095179 0 -0.43422108619098299 0.29621681389521232 0 -0.42237726971740519 0.30236741203524931 0 -0.44444415583193408 0.29216055381020578 0 -0.43422108619098299 0.29621681389521232 0 -0.43122247783146522 0.30831868127488848 0 -0.42141481873501418 0.31567829233095179 0 -0.43422108619098299 0.29621681389521232 0 -0.43122247783146522 0.30831868127488848 0 -0.43422108619098299 0.29621681389521232 0 -0.42519236151645012 0.29288975242762622 0 -0.42237726971740519 0.30236741203524931 0 -0.42141481873501418 0.31567829233095179 0 -0.43122247783146522 0.30831868127488848 0 -0.42237726971740519 0.30236741203524931 0 -0.41647318301620623 0.31168328686166002 0 -0.40812109447663159 0.30329838776079099 0 -0.42141481873501418 0.31567829233095179 0 -0.42237726971740519 0.30236741203524931 0 -0.41647318301620623 0.31168328686166002 0 -0.42237726971740519 0.30236741203524931 0 -0.40812109447663159 0.30329838776079099 0 -0.41256551749876041 0.29129965580367562 0 -0.40826549608127172 0.31275764886218971 0 -0.41647318301620623 0.31168328686166002 0 -0.40812109447663159 0.30329838776079099 0 -0.40945734975255721 0.27571403549971041 0 -0.4229835889384117 0.28415291652507912 0 -0.41256551749876041 0.29129965580367562 0 -0.42519236151645012 0.29288975242762622 0 -0.4229835889384117 0.28415291652507912 0 -0.41256551749876041 0.29129965580367562 0 -0.42519236151645012 0.29288975242762622 0 -0.42237726971740519 0.30236741203524931 0 -0.41256551749876041 0.29129965580367562 0 -0.40945734975255721 0.27571403549971041 0 -0.39180528154043992 0.29479027846244049 0 -0.39350738277932218 0.27757861076756318 0 -0.40945734975255721 0.27571403549971041 0 -0.39180528154043992 0.29479027846244049 0 -0.40812109447663159 0.30329838776079099 0 -0.41256551749876041 0.29129965580367562 0 -0.39180528154043992 0.29479027846244049 0 -0.40945734975255721 0.27571403549971041 0 -0.41256551749876041 0.29129965580367562 0 -0.39180528154043992 0.29479027846244049 0 -0.38613629988198012 0.31665983269396758 0 -0.39830358576524327 0.31266849694114901 0 -0.39180528154043992 0.29479027846244049 0 -0.39830358576524327 0.31266849694114901 0 -0.40812109447663159 0.30329838776079099 0 -0.39180528154043992 0.29479027846244049 0 -0.39830358576524327 0.31266849694114901 0 -0.40826549608127172 0.31275764886218971 0 -0.40812109447663159 0.30329838776079099 0 -0.39180528154043992 0.29479027846244049 0 -0.37819889022761238 0.29924868842846319 0 -0.37415321332832258 0.31386652142517069 0 -0.38613629988198012 0.31665983269396758 0 -0.39180528154043992 0.29479027846244049 0 -0.37415321332832258 0.31386652142517069 0 -0.39180528154043992 0.29479027846244049 0 -0.37415321332832258 0.31386652142517069 0 -0.39180528154043992 0.29479027846244049 0 -0.37819889022761238 0.29924868842846319 0 -0.37870614451813112 0.28175948497688769 0 -0.39180528154043992 0.29479027846244049 0 -0.37870614451813112 0.28175948497688769 0 -0.39350738277932218 0.27757861076756318 0 -0.37870614451813112 0.28175948497688769 0 -0.37647038179830861 0.26645711442365799 0 -0.39350738277932218 0.27757861076756318 0 -0.37647038179830861 0.26645711442365799 0 -0.39336972403141229 0.26369738761855421 0 -0.39350738277932218 0.27757861076756318 0 -0.38790582398472923 0.24962922847932231 0 -0.37647038179830861 0.26645711442365799 0 -0.39336972403141229 0.26369738761855421 0 -0.38790582398472923 0.24962922847932231 0 -0.37647038179830861 0.26645711442365799 0 -0.36318679658289171 0.25196182354824148 0 -0.40945734975255721 0.27571403549971041 0 -0.40585136056822319 0.25674789398696107 0 -0.39336972403141229 0.26369738761855421 0 -0.38790582398472923 0.24962922847932231 0 -0.40585136056822319 0.25674789398696107 0 -0.39336972403141229 0.26369738761855421 0 -0.40945734975255721 0.27571403549971041 0 -0.39336972403141229 0.26369738761855421 0 -0.39350738277932218 0.27757861076756318 0 -0.40945734975255721 0.27571403549971041 0 -0.39350738277932218 0.27757861076756318 0 -0.35583614606747688 0.27501819518035592 0 -0.36318679658289171 0.25196182354824148 0 -0.33952374355129727 0.25899057541505788 0 -0.37647038179830861 0.26645711442365799 0 -0.35583614606747688 0.27501819518035592 0 -0.36318679658289171 0.25196182354824148 0 -0.37870614451813112 0.28175948497688769 0 -0.37647038179830861 0.26645711442365799 0 -0.35583614606747688 0.27501819518035592 0 -0.37819889022761238 0.29924868842846319 0 -0.37870614451813112 0.28175948497688769 0 -0.36775571630023218 0.2927315942663431 0 -0.37870614451813112 0.28175948497688769 0 -0.35583614606747688 0.27501819518035592 0 -0.36775571630023218 0.2927315942663431 0 -0.37819889022761238 0.29924868842846319 0 -0.36899777432263853 0.30469822459034263 0 -0.37415321332832258 0.31386652142517069 0 -0.36899777432263853 0.30469822459034263 0 -0.36272901898995358 0.31473918551029578 0 -0.37415321332832258 0.31386652142517069 0 -0.37819889022761238 0.29924868842846319 0 -0.36775571630023218 0.2927315942663431 0 -0.36899777432263853 0.30469822459034263 0 -0.36775571630023218 0.2927315942663431 0 -0.36899777432263853 0.30469822459034263 0 -0.35931620367806588 0.30475084950198522 0 -0.36775571630023218 0.2927315942663431 0 -0.35931620367806588 0.30475084950198522 0 -0.35261706249820868 0.29381533636168528 0 -0.36899777432263853 0.30469822459034263 0 -0.35931620367806588 0.30475084950198522 0 -0.36272901898995358 0.31473918551029578 0 -0.35931620367806588 0.30475084950198522 0 -0.35261706249820868 0.29381533636168528 0 -0.34344143829887858 0.30736403781452232 0 -0.35931620367806588 0.30475084950198522 0 -0.34344143829887858 0.30736403781452232 0 -0.35467675850453528 0.31743756764607989 0 -0.35931620367806588 0.30475084950198522 0 -0.35467675850453528 0.31743756764607989 0 -0.36272901898995358 0.31473918551029578 0 -0.35583614606747688 0.27501819518035592 0 -0.36775571630023218 0.2927315942663431 0 -0.35261706249820868 0.29381533636168528 0 -0.35583614606747688 0.27501819518035592 0 -0.35261706249820868 0.29381533636168528 0 -0.33673580814638959 0.28921200504521999 0 -0.35261706249820868 0.29381533636168528 0 -0.33673580814638959 0.28921200504521999 0 -0.34344143829887858 0.30736403781452232 0 -0.33673580814638959 0.28921200504521999 0 -0.32075162894010661 0.28280614760534989 0 -0.33379142081270979 0.2734424933293601 0 -0.34344143829887858 0.30736403781452232 0 -0.31699951866320542 0.30755322334125379 0 -0.34344143829887858 0.30736403781452232 0 -0.31699951866320542 0.30755322334125379 0 -0.33459812393413729 0.32207732583041709 0 -0.33673580814638959 0.28921200504521999 0 -0.34344143829887858 0.30736403781452232 0 -0.31699951866320542 0.30755322334125379 0 -0.33673580814638959 0.28921200504521999 0 -0.31699951866320542 0.30755322334125379 0 -0.32075162894010661 0.28280614760534989 0 -0.31699951866320542 0.30755322334125379 0 -0.32075162894010661 0.28280614760534989 0 -0.30493521127791462 0.28695781074044469 0 -0.32075162894010661 0.28280614760534989 0 -0.31931282352829687 0.26617321261290411 0 -0.33379142081270979 0.2734424933293601 0 -0.32075162894010661 0.28280614760534989 0 -0.31931282352829687 0.26617321261290411 0 -0.30493521127791462 0.28695781074044469 0 -0.35583614606747688 0.27501819518035592 0 -0.33673580814638959 0.28921200504521999 0 -0.33379142081270979 0.2734424933293601 0 -0.35583614606747688 0.27501819518035592 0 -0.33379142081270979 0.2734424933293601 0 -0.33952374355129727 0.25899057541505788 0 -0.31931282352829687 0.26617321261290411 0 -0.33379142081270979 0.2734424933293601 0 -0.33952374355129727 0.25899057541505788 0 -0.32200613725511351 0.24850726385495631 0 -0.31931282352829687 0.26617321261290411 0 -0.33952374355129727 0.25899057541505788 0 -0.32200613725511351 0.24850726385495631 0 -0.31931282352829687 0.26617321261290411 0 -0.30640548876467488 0.25787073169030861 0 -0.31931282352829687 0.26617321261290411 0 -0.30640548876467488 0.25787073169030861 0 -0.3010630097917536 0.27273037638764702 0 -0.31931282352829687 0.26617321261290411 0 -0.3010630097917536 0.27273037638764702 0 -0.30493521127791462 0.28695781074044469 0 -0.31931282352829687 0.26617321261290411 0 -0.30493521127791462 0.28695781074044469 0 -0.3010630097917536 0.27273037638764702 0 -0.29309283898050847 0.28048055459605348 0 -0.30493521127791462 0.28695781074044469 0 -0.3010630097917536 0.27273037638764702 0 -0.29309283898050847 0.28048055459605348 0 -0.28156868640737281 0.27216957229852412 0 -0.30640548876467488 0.25787073169030861 0 -0.3010630097917536 0.27273037638764702 0 -0.28156868640737281 0.27216957229852412 0 -0.30640548876467488 0.25787073169030861 0 -0.28156868640737281 0.27216957229852412 0 -0.28729818335365731 0.26780124082781631 0 -0.28156868640737281 0.27216957229852412 0 -0.28729818335365731 0.26780124082781631 0 -0.27880962639343299 0.26078065685839158 0 -0.29309283898050847 0.28048055459605348 0 -0.28156868640737281 0.27216957229852412 0 -0.28401529333418091 0.28255904946725641 0 -0.30640548876467488 0.25787073169030861 0 -0.28156868640737281 0.27216957229852412 0 -0.29125564533142001 0.24067530578368901 0 -0.30640548876467488 0.25787073169030861 0 -0.28729818335365731 0.26780124082781631 0 -0.29125564533142001 0.24067530578368901 0 -0.28729818335365731 0.26780124082781631 0 -0.27880962639343299 0.26078065685839158 0 -0.29125564533142001 0.24067530578368901 0 -0.28729818335365731 0.26780124082781631 0 -0.29125564533142001 0.24067530578368901 0 -0.26892213733164849 0.25365425058065472 0 -0.27880962639343299 0.26078065685839158 0 -0.26892213733164849 0.25365425058065472 0 -0.27880962639343299 0.26078065685839158 0 -0.26500347954306669 0.26960291480127369 0 -0.28156868640737281 0.27216957229852412 0 -0.25673188405007052 0.28646841290673969 0 -0.28156868640737281 0.27216957229852412 0 -0.26500347954306669 0.26960291480127369 0 -0.25673188405007052 0.28646841290673969 0 -0.28156868640737281 0.27216957229852412 0 -0.27880962639343299 0.26078065685839158 0 -0.26500347954306669 0.26960291480127369 0 -0.28156868640737281 0.27216957229852412 0 -0.27479408276187339 0.28687287199942368 0 -0.28401529333418091 0.28255904946725641 0 -0.26500347954306669 0.26960291480127369 0 -0.25265925142613249 0.26128234508680298 0 -0.25673188405007052 0.28646841290673969 0 -0.26892213733164849 0.25365425058065472 0 -0.26500347954306669 0.26960291480127369 0 -0.25265925142613249 0.26128234508680298 0 -0.25621817608628389 0.2460965770837312 0 -0.26892213733164849 0.25365425058065472 0 -0.25265925142613249 0.26128234508680298 0 -0.25505401324638421 0.30366623925853881 0 -0.26661761067819428 0.2958317928062858 0 -0.26721257633701828 0.30790943684761429 0 -0.25505401324638421 0.30366623925853881 0 -0.26721257633701828 0.30790943684761429 0 -0.25901197930261888 0.31383205914145501 0 -0.26721257633701828 0.30790943684761429 0 -0.25901197930261888 0.31383205914145501 0 -0.26528599585519008 0.31471464054907522 0 -0.25505401324638421 0.30366623925853881 0 -0.25901197930261888 0.31383205914145501 0 -0.24885494741763489 0.31718848033418301 0 -0.25505401324638421 0.30366623925853881 0 -0.25673188405007052 0.28646841290673969 0 -0.26661761067819428 0.2958317928062858 0 -0.26661761067819428 0.2958317928062858 0 -0.27573637841232751 0.29432500902679382 0 -0.27326763327687947 0.30016750757533939 0 -0.28156868640737281 0.27216957229852412 0 -0.25673188405007052 0.28646841290673969 0 -0.27479408276187339 0.28687287199942368 0 -0.26661761067819428 0.2958317928062858 0 -0.27479408276187339 0.28687287199942368 0 -0.27573637841232751 0.29432500902679382 0 -0.25673188405007052 0.28646841290673969 0 -0.26661761067819428 0.2958317928062858 0 -0.27479408276187339 0.28687287199942368 0 -0.27479408276187339 0.28687287199942368 0 -0.28401529333418091 0.28255904946725641 0 -0.28313816676434478 0.29069510378855717 0 -0.27479408276187339 0.28687287199942368 0 -0.27573637841232751 0.29432500902679382 0 -0.28313816676434478 0.29069510378855717 0 -0.27573637841232751 0.29432500902679382 0 -0.28086439858034518 0.29805776896436298 0 -0.28313816676434478 0.29069510378855717 0 -0.28086439858034518 0.29805776896436298 0 -0.27753065875984329 0.30327410754998058 0 -0.28274061889410179 0.30278083970340541 0 -0.27753065875984329 0.30327410754998058 0 -0.27514776209796898 0.30785266251660498 0 -0.28274061889410179 0.30278083970340541 0 -0.27753065875984329 0.30327410754998058 0 -0.27326763327687947 0.30016750757533939 0 -0.27348155140824082 0.30658246875079598 0 -0.28086439858034518 0.29805776896436298 0 -0.27753065875984329 0.30327410754998058 0 -0.27326763327687947 0.30016750757533939 0 -0.27573637841232751 0.29432500902679382 0 -0.28086439858034518 0.29805776896436298 0 -0.27326763327687947 0.30016750757533939 0 -0.26661761067819428 0.2958317928062858 0 -0.27326763327687947 0.30016750757533939 0 -0.26721257633701828 0.30790943684761429 0 -0.26721257633701828 0.30790943684761429 0 -0.27514776209796898 0.30785266251660498 0 -0.27123720609067609 0.3158529302113221 0 -0.26721257633701828 0.30790943684761429 0 -0.27348155140824082 0.30658246875079598 0 -0.27514776209796898 0.30785266251660498 0 -0.26721257633701828 0.30790943684761429 0 -0.27514776209796898 0.30785266251660498 0 -0.27326763327687947 0.30016750757533939 0 -0.26721257633701828 0.30790943684761429 0 -0.27348155140824082 0.30658246875079598 0 -0.27514776209796898 0.30785266251660498 0 -0.2851872012256097 0.31550597615259851 0 -0.27753065875984329 0.30327410754998058 0 -0.27348155140824082 0.30658246875079598 0 -0.27514776209796898 0.30785266251660498 0 -0.27348155140824082 0.30658246875079598 0 -0.27514776209796898 0.30785266251660498 0 -0.27514776209796898 0.30785266251660498 0 -0.2905575990275322 0.30774240886798532 0 -0.27514776209796898 0.30785266251660498 0 -0.2905575990275322 0.30774240886798532 0 -0.2851872012256097 0.31550597615259851 0 -0.2896026760048197 0.2969772506180926 0 -0.2905575990275322 0.30774240886798532 0 -0.30493521127791462 0.28695781074044469 0 -0.27514776209796898 0.30785266251660498 0 -0.28274061889410179 0.30278083970340541 0 -0.2905575990275322 0.30774240886798532 0 -0.2905575990275322 0.30774240886798532 0 -0.2851872012256097 0.31550597615259851 0 -0.28274061889410179 0.30278083970340541 0 -0.2896026760048197 0.2969772506180926 0 -0.2905575990275322 0.30774240886798532 0 -0.28086439858034518 0.29805776896436298 0 -0.28274061889410179 0.30278083970340541 0 -0.2896026760048197 0.2969772506180926 0 -0.28401529333418091 0.28255904946725641 0 -0.28313816676434478 0.29069510378855717 0 -0.29095683727235372 0.28753395384208091 0 -0.28086439858034518 0.29805776896436298 0 -0.2896026760048197 0.2969772506180926 0 -0.28313816676434478 0.29069510378855717 0 -0.2896026760048197 0.2969772506180926 0 -0.28313816676434478 0.29069510378855717 0 -0.29095683727235372 0.28753395384208091 0 -0.2896026760048197 0.2969772506180926 0 -0.29095683727235372 0.28753395384208091 0 -0.30493521127791462 0.28695781074044469 0 -0.29309283898050847 0.28048055459605348 0 -0.29095683727235372 0.28753395384208091 0 -0.30493521127791462 0.28695781074044469 0 -0.29309283898050847 0.28048055459605348 0 -0.28401529333418091 0.28255904946725641 0 -0.29095683727235372 0.28753395384208091 0 -0.31699951866320542 0.30755322334125379 0 -0.2905575990275322 0.30774240886798532 0 -0.30563014257680821 0.31779627416788381 0 -0.31699951866320542 0.30755322334125379 0 -0.2905575990275322 0.30774240886798532 0 -0.2905575990275322 0.30774240886798532 0 -0.30493521127791462 0.28695781074044469 0 -0.31699951866320542 0.30755322334125379 0 -0.2905575990275322 0.30774240886798532 0 -0.30493521127791462 0.28695781074044469 0 -0.30538608464820588 0.33090408634228141 0 -0.28942706780696309 0.31873813168532672 0 -0.30563014257680821 0.31779627416788381 0 -0.30538608464820588 0.33090408634228141 0 -0.31811651498789978 0.32488887006413791 0 -0.30563014257680821 0.31779627416788381 0 -0.30538608464820588 0.33090408634228141 0 -0.2937791937433501 0.31637108240395312 0 -0.30538608464820588 0.33090408634228141 0 -0.3017933608705089 0.344447887165377 0 -0.32134510148944728 0.34307004099923799 0 -0.30538608464820588 0.33090408634228141 0 -0.29093013722955491 0.33661105704622479 0 -0.3017933608705089 0.344447887165377 0 -0.30538608464820588 0.33090408634228141 0 -0.29093013722955491 0.33661105704622479 0 -0.2885751077852815 0.32830696870384862 0 -0.29093013722955491 0.33661105704622479 0 -0.28224162025157051 0.34582573333151501 0 -0.3017933608705089 0.344447887165377 0 -0.2885751077852815 0.32830696870384862 0 -0.28146834572906437 0.33465123959114113 0 -0.2790455690922089 0.3243844570517187 0 -0.29093013722955491 0.33661105704622479 0 -0.2885751077852815 0.32830696870384862 0 -0.28146834572906437 0.33465123959114113 0 -0.29093013722955491 0.33661105704622479 0 -0.28146834572906437 0.33465123959114113 0 -0.28224162025157051 0.34582573333151501 0 -0.30538608464820588 0.33090408634228141 0 -0.2885751077852815 0.32830696870384862 0 -0.28942706780696309 0.31873813168532672 0 -0.30538608464820588 0.33090408634228141 0 -0.28942706780696309 0.31873813168532672 0 -0.2937791937433501 0.31637108240395312 0 -0.28942706780696309 0.31873813168532672 0 -0.2937791937433501 0.31637108240395312 0 -0.2851872012256097 0.31550597615259851 0 -0.2905575990275322 0.30774240886798532 0 -0.30563014257680821 0.31779627416788381 0 -0.2937791937433501 0.31637108240395312 0 -0.2905575990275322 0.30774240886798532 0 -0.2937791937433501 0.31637108240395312 0 -0.2851872012256097 0.31550597615259851 0 -0.28942706780696309 0.31873813168532672 0 -0.2937791937433501 0.31637108240395312 0 -0.2885751077852815 0.32830696870384862 0 -0.28942706780696309 0.31873813168532672 0 -0.2790455690922089 0.3243844570517187 0 -0.28942706780696309 0.31873813168532672 0 -0.2790455690922089 0.3243844570517187 0 -0.2851872012256097 0.31550597615259851 0 -0.2790455690922089 0.3243844570517187 0 -0.28942706780696309 0.31873813168532672 0 -0.2851872012256097 0.31550597615259851 0 -0.2790455690922089 0.3243844570517187 0 -0.28942706780696309 0.31873813168532672 0 -0.2851872012256097 0.31550597615259851 0 -0.27514776209796898 0.30785266251660498 0 -0.2851872012256097 0.31550597615259851 0 -0.27699557949655113 0.31645322234696882 0 -0.2851872012256097 0.31550597615259851 0 -0.27699557949655113 0.31645322234696882 0 -0.2790455690922089 0.3243844570517187 0 -0.27514776209796898 0.30785266251660498 0 -0.27699557949655113 0.31645322234696882 0 -0.27123720609067609 0.3158529302113221 0 -0.27001263578126711 0.32263717043347712 0 -0.2790455690922089 0.3243844570517187 0 -0.25910260253645218 0.33523110656146687 0 -0.26721257633701828 0.30790943684761429 0 -0.27123720609067609 0.3158529302113221 0 -0.26528599585519008 0.31471464054907522 0 -0.27699557949655113 0.31645322234696882 0 -0.27123720609067609 0.3158529302113221 0 -0.27001263578126711 0.32263717043347712 0 -0.27123720609067609 0.3158529302113221 0 -0.26528599585519008 0.31471464054907522 0 -0.26368222169044719 0.32126413599590953 0 -0.27123720609067609 0.3158529302113221 0 -0.27001263578126711 0.32263717043347712 0 -0.26368222169044719 0.32126413599590953 0 -0.27699557949655113 0.31645322234696882 0 -0.27001263578126711 0.32263717043347712 0 -0.2790455690922089 0.3243844570517187 0 -0.2790455690922089 0.3243844570517187 0 -0.25910260253645218 0.33523110656146687 0 -0.2790455690922089 0.3243844570517187 0 -0.26824012707650141 0.34000504592112352 0 -0.28146834572906437 0.33465123959114113 0 -0.2790455690922089 0.3243844570517187 0 -0.26824012707650141 0.34000504592112352 0 -0.2790455690922089 0.3243844570517187 0 -0.26824012707650141 0.34000504592112352 0 -0.25910260253645218 0.33523110656146687 0 -0.28146834572906437 0.33465123959114113 0 -0.26824012707650141 0.34000504592112352 0 -0.28224162025157051 0.34582573333151501 0 -0.25910260253645218 0.33523110656146687 0 -0.25407523553642281 0.3497448278934856 0 -0.23915963598069589 0.34607775607121571 0 -0.25910260253645218 0.33523110656146687 0 -0.25407523553642281 0.3497448278934856 0 -0.26309588156361569 0.34576168367824162 0 -0.26824012707650141 0.34000504592112352 0 -0.25910260253645218 0.33523110656146687 0 -0.26309588156361569 0.34576168367824162 0 -0.25910260253645218 0.33523110656146687 0 -0.25451497659773847 0.32559442806853028 0 -0.24843663428782739 0.33758714710907461 0 -0.25451497659773847 0.32559442806853028 0 -0.25901197930261888 0.31383205914145501 0 -0.24885494741763489 0.31718848033418301 0 -0.25451497659773847 0.32559442806853028 0 -0.25901197930261888 0.31383205914145501 0 -0.26368222169044719 0.32126413599590953 0 -0.25901197930261888 0.31383205914145501 0 -0.26528599585519008 0.31471464054907522 0 -0.26368222169044719 0.32126413599590953 0 -0.27001263578126711 0.32263717043347712 0 -0.25910260253645218 0.33523110656146687 0 -0.26368222169044719 0.32126413599590953 0 -0.25910260253645218 0.33523110656146687 0 -0.25451497659773847 0.32559442806853028 0 -0.26368222169044719 0.32126413599590953 0 -0.26470209097228098 0.37140351159401941 0 -0.25562758441007077 0.36194187249828802 0 -0.266880351992417 0.3582272519812631 0 -0.26470209097228098 0.37140351159401941 0 -0.25213085833087667 0.37355178257669552 0 -0.25562758441007077 0.36194187249828802 0 -0.25213085833087667 0.37355178257669552 0 -0.25562758441007077 0.36194187249828802 0 -0.24329038266145239 0.36134909741814653 0 -0.25562758441007077 0.36194187249828802 0 -0.25407523553642281 0.3497448278934856 0 -0.24329038266145239 0.36134909741814653 0 -0.25407523553642281 0.3497448278934856 0 -0.26309588156361569 0.34576168367824162 0 -0.266880351992417 0.3582272519812631 0 -0.25562758441007077 0.36194187249828802 0 -0.25407523553642281 0.3497448278934856 0 -0.266880351992417 0.3582272519812631 0 -0.266880351992417 0.3582272519812631 0 -0.27640009279511962 0.35155878343443242 0 -0.28837447244510311 0.36628710188532532 0 -0.26309588156361569 0.34576168367824162 0 -0.266880351992417 0.3582272519812631 0 -0.27640009279511962 0.35155878343443242 0 -0.26824012707650141 0.34000504592112352 0 -0.26309588156361569 0.34576168367824162 0 -0.27640009279511962 0.35155878343443242 0 -0.26824012707650141 0.34000504592112352 0 -0.27640009279511962 0.35155878343443242 0 -0.28224162025157051 0.34582573333151501 0 -0.266880351992417 0.3582272519812631 0 -0.28837447244510311 0.36628710188532532 0 -0.266880351992417 0.3582272519812631 0 -0.28837447244510311 0.36628710188532532 0 -0.27747916353329311 0.37529003384729942 0 -0.26470209097228098 0.37140351159401941 0 -0.266880351992417 0.3582272519812631 0 -0.27747916353329311 0.37529003384729942 0 -0.28837447244510311 0.36628710188532532 0 -0.28714059247178902 0.37543321948423419 0 -0.27747916353329311 0.37529003384729942 0 -0.28837447244510311 0.36628710188532532 0 -0.28956810344150979 0.35324588380912608 0 -0.30292150033679799 0.36018321991941088 0 -0.28837447244510311 0.36628710188532532 0 -0.29874239202075642 0.37528196759933868 0 -0.28714059247178902 0.37543321948423419 0 -0.28224162025157051 0.34582573333151501 0 -0.3017933608705089 0.344447887165377 0 -0.28224162025157051 0.34582573333151501 0 -0.28956810344150979 0.35324588380912608 0 -0.3017933608705089 0.344447887165377 0 -0.27640009279511962 0.35155878343443242 0 -0.28224162025157051 0.34582573333151501 0 -0.28956810344150979 0.35324588380912608 0 -0.27640009279511962 0.35155878343443242 0 -0.28837447244510311 0.36628710188532532 0 -0.28956810344150979 0.35324588380912608 0 -0.3017933608705089 0.344447887165377 0 -0.31193410579265052 0.3536039280541286 0 -0.30292150033679799 0.36018321991941088 0 -0.28956810344150979 0.35324588380912608 0 -0.3017933608705089 0.344447887165377 0 -0.30292150033679799 0.36018321991941088 0 -0.3017933608705089 0.344447887165377 0 -0.32134510148944728 0.34307004099923799 0 -0.3017933608705089 0.344447887165377 0 -0.31193410579265052 0.3536039280541286 0 -0.32134510148944728 0.34307004099923799 0 -0.31193410579265052 0.3536039280541286 0 -0.30292150033679799 0.36018321991941088 0 -0.31340485972314069 0.36375751913665871 0 -0.28837447244510311 0.36628710188532532 0 -0.30292150033679799 0.36018321991941088 0 -0.30986859289778912 0.37434695178938759 0 -0.28837447244510311 0.36628710188532532 0 -0.30986859289778912 0.37434695178938759 0 -0.28837447244510311 0.36628710188532532 0 -0.30986859289778912 0.37434695178938759 0 -0.29874239202075642 0.37528196759933868 0 -0.30292150033679799 0.36018321991941088 0 -0.30986859289778912 0.37434695178938759 0 -0.31340485972314069 0.36375751913665871 0 -0.30986859289778912 0.37434695178938759 0 -0.31340485972314069 0.36375751913665871 0 -0.32167824364597858 0.36970754211250728 0 -0.31340485972314069 0.36375751913665871 0 -0.32243327870136801 0.35950699838777223 0 -0.32167824364597858 0.36970754211250728 0 -0.32243327870136801 0.35950699838777223 0 -0.32167824364597858 0.36970754211250728 0 -0.33132177355711989 0.36851943955526861 0 -0.32167824364597858 0.36970754211250728 0 -0.33132177355711989 0.36851943955526861 0 -0.33136271335047512 0.38240680169344993 0 -0.32243327870136801 0.35950699838777223 0 -0.33132177355711989 0.36851943955526861 0 -0.33989838930305449 0.35721367281084643 0 -0.33132177355711989 0.36851943955526861 0 -0.34304766554360439 0.37232322735168022 0 -0.33136271335047512 0.38240680169344993 0 -0.33132177355711989 0.36851943955526861 0 -0.34304766554360439 0.37232322735168022 0 -0.33989838930305449 0.35721367281084643 0 -0.33989838930305449 0.35721367281084643 0 -0.32134510148944728 0.34307004099923799 0 -0.33989838930305449 0.35721367281084643 0 -0.32134510148944728 0.34307004099923799 0 -0.3500233487104954 0.34104903357308669 0 -0.32243327870136801 0.35950699838777223 0 -0.33989838930305449 0.35721367281084643 0 -0.32134510148944728 0.34307004099923799 0 -0.31193410579265052 0.3536039280541286 0 -0.32243327870136801 0.35950699838777223 0 -0.32134510148944728 0.34307004099923799 0 -0.31193410579265052 0.3536039280541286 0 -0.31340485972314069 0.36375751913665871 0 -0.32243327870136801 0.35950699838777223 0 -0.30538608464820588 0.33090408634228141 0 -0.32134510148944728 0.34307004099923799 0 -0.30538608464820588 0.33090408634228141 0 -0.32134510148944728 0.34307004099923799 0 -0.31811651498789978 0.32488887006413791 0 -0.32134510148944728 0.34307004099923799 0 -0.31811651498789978 0.32488887006413791 0 -0.33459812393413729 0.32207732583041709 0 -0.31699951866320542 0.30755322334125379 0 -0.30563014257680821 0.31779627416788381 0 -0.31811651498789978 0.32488887006413791 0 -0.31699951866320542 0.30755322334125379 0 -0.31811651498789978 0.32488887006413791 0 -0.33459812393413729 0.32207732583041709 0 -0.32134510148944728 0.34307004099923799 0 -0.34342889555096417 0.33131534648734451 0 -0.3500233487104954 0.34104903357308669 0 -0.32134510148944728 0.34307004099923799 0 -0.33459812393413729 0.32207732583041709 0 -0.34342889555096417 0.33131534648734451 0 -0.32134510148944728 0.34307004099923799 0 -0.3500233487104954 0.34104903357308669 0 -0.3500233487104954 0.34104903357308669 0 -0.35650114511620551 0.33294276438790088 0 -0.36794029410566942 0.33226259727897972 0 -0.34342889555096417 0.33131534648734451 0 -0.3500233487104954 0.34104903357308669 0 -0.35650114511620551 0.33294276438790088 0 -0.33459812393413729 0.32207732583041709 0 -0.34342889555096417 0.33131534648734451 0 -0.35467675850453528 0.31743756764607989 0 -0.34344143829887858 0.30736403781452232 0 -0.33459812393413729 0.32207732583041709 0 -0.35467675850453528 0.31743756764607989 0 -0.35650114511620551 0.33294276438790088 0 -0.35467675850453528 0.31743756764607989 0 -0.36272901898995358 0.31473918551029578 0 -0.34342889555096417 0.33131534648734451 0 -0.35650114511620551 0.33294276438790088 0 -0.35467675850453528 0.31743756764607989 0 -0.35650114511620551 0.33294276438790088 0 -0.36272901898995358 0.31473918551029578 0 -0.37415321332832258 0.31386652142517069 0 -0.35650114511620551 0.33294276438790088 0 -0.37415321332832258 0.31386652142517069 0 -0.35650114511620551 0.33294276438790088 0 -0.37442838800096029 0.32044424157556423 0 -0.37415321332832258 0.31386652142517069 0 -0.37816355277066899 0.32985684687273281 0 -0.37442838800096029 0.32044424157556423 0 -0.36794029410566942 0.33226259727897972 0 -0.3787015959315434 0.33902802614693439 0 -0.3500233487104954 0.34104903357308669 0 -0.36794029410566942 0.33226259727897972 0 -0.35650114511620551 0.33294276438790088 0 -0.37442838800096029 0.32044424157556423 0 -0.36794029410566942 0.33226259727897972 0 -0.3787015959315434 0.33902802614693439 0 -0.3500233487104954 0.34104903357308669 0 -0.3787015959315434 0.33902802614693439 0 -0.37816355277066899 0.32985684687273281 0 -0.36794029410566942 0.33226259727897972 0 -0.3787015959315434 0.33902802614693439 0 -0.3500233487104954 0.34104903357308669 0 -0.36501658974902518 0.35367198233662939 0 -0.37823932191431281 0.35548757599615399 0 -0.3787015959315434 0.33902802614693439 0 -0.36501658974902518 0.35367198233662939 0 -0.37823932191431281 0.35548757599615399 0 -0.36501658974902518 0.35367198233662939 0 -0.37024808467873749 0.36543132639488701 0 -0.36501658974902518 0.35367198233662939 0 -0.37024808467873749 0.36543132639488701 0 -0.35845167711666143 0.37135730462245548 0 -0.37949655700884349 0.37153259571527891 0 -0.37024808467873749 0.36543132639488701 0 -0.36758280318953013 0.37627165255961892 0 -0.37024808467873749 0.36543132639488701 0 -0.35845167711666143 0.37135730462245548 0 -0.36758280318953013 0.37627165255961892 0 -0.36501658974902518 0.35367198233662939 0 -0.35845167711666143 0.37135730462245548 0 -0.35334750121980912 0.35582299833575448 0 -0.34304766554360439 0.37232322735168022 0 -0.33989838930305449 0.35721367281084643 0 -0.35845167711666143 0.37135730462245548 0 -0.33989838930305449 0.35721367281084643 0 -0.35845167711666143 0.37135730462245548 0 -0.35334750121980912 0.35582299833575448 0 -0.33989838930305449 0.35721367281084643 0 -0.35845167711666143 0.37135730462245548 0 -0.33989838930305449 0.35721367281084643 0 -0.3500233487104954 0.34104903357308669 0 -0.35334750121980912 0.35582299833575448 0 -0.3500233487104954 0.34104903357308669 0 -0.36501658974902518 0.35367198233662939 0 -0.35334750121980912 0.35582299833575448 0 -0.35285683380316007 0.39046665159751448 0 -0.36027192889352422 0.40897543894708011 0 -0.34270265381785459 0.40768080501023862 0 -0.34304766554360439 0.37232322735168022 0 -0.35845167711666143 0.37135730462245548 0 -0.35285683380316007 0.39046665159751448 0 -0.37686086334024771 0.38257038446795849 0 -0.35285683380316007 0.39046665159751448 0 -0.37686086334024771 0.38257038446795849 0 -0.35285683380316007 0.39046665159751448 0 -0.36758280318953013 0.37627165255961892 0 -0.35845167711666143 0.37135730462245548 0 -0.35285683380316007 0.39046665159751448 0 -0.36758280318953013 0.37627165255961892 0 -0.37686086334024771 0.38257038446795849 0 -0.37949655700884349 0.37153259571527891 0 -0.36758280318953013 0.37627165255961892 0 -0.37769092578324193 0.39977892163450779 0 -0.35285683380316007 0.39046665159751448 0 -0.37769092578324193 0.39977892163450779 0 -0.37686086334024771 0.38257038446795849 0 -0.35285683380316007 0.39046665159751448 0 -0.37769092578324193 0.39977892163450779 0 -0.35285683380316007 0.39046665159751448 0 -0.36027192889352422 0.40897543894708011 0 -0.37875820238401509 0.42613984176471847 0 -0.37769092578324193 0.39977892163450779 0 -0.36027192889352422 0.40897543894708011 0 -0.37875820238401509 0.42613984176471847 0 -0.36027192889352422 0.40897543894708011 0 -0.36048507512927641 0.42545129427310208 0 -0.37875820238401509 0.42613984176471847 0 -0.36048507512927641 0.42545129427310208 0 -0.35499138700470761 0.44318849185793469 0 -0.37875820238401509 0.42613984176471847 0 -0.35499138700470761 0.44318849185793469 0 -0.34691622899781399 0.42161541908905831 0 -0.33223168701086447 0.43660936806356893 0 -0.35499138700470761 0.44318849185793469 0 -0.36048507512927641 0.42545129427310208 0 -0.34691622899781399 0.42161541908905831 0 -0.35499138700470761 0.44318849185793469 0 -0.36027192889352422 0.40897543894708011 0 -0.34691622899781399 0.42161541908905831 0 -0.34270265381785459 0.40768080501023862 0 -0.36027192889352422 0.40897543894708011 0 -0.36048507512927641 0.42545129427310208 0 -0.34691622899781399 0.42161541908905831 0 -0.34270265381785459 0.40768080501023862 0 -0.32841174735063311 0.41773478988879181 0 -0.32505653004414181 0.39961172552874852 0 -0.34691622899781399 0.42161541908905831 0 -0.34270265381785459 0.40768080501023862 0 -0.32841174735063311 0.41773478988879181 0 -0.34691622899781399 0.42161541908905831 0 -0.32841174735063311 0.41773478988879181 0 -0.33223168701086447 0.43660936806356893 0 -0.32841174735063311 0.41773478988879181 0 -0.33223168701086447 0.43660936806356893 0 -0.31148998866141242 0.43181261152586448 0 -0.32841174735063311 0.41773478988879181 0 -0.31441363705571701 0.41408607272300291 0 -0.32505653004414181 0.39961172552874852 0 -0.32841174735063311 0.41773478988879181 0 -0.31441363705571701 0.41408607272300291 0 -0.31148998866141242 0.43181261152586448 0 -0.32505653004414181 0.39961172552874852 0 -0.31219235154091651 0.39185403334122892 0 -0.30619500853749271 0.39725637532293351 0 -0.32505653004414181 0.39961172552874852 0 -0.31778050989885959 0.38527433798844479 0 -0.31219235154091651 0.39185403334122892 0 -0.35285683380316007 0.39046665159751448 0 -0.32505653004414181 0.39961172552874852 0 -0.33136271335047512 0.38240680169344993 0 -0.35285683380316007 0.39046665159751448 0 -0.34270265381785459 0.40768080501023862 0 -0.32505653004414181 0.39961172552874852 0 -0.35285683380316007 0.39046665159751448 0 -0.32505653004414181 0.39961172552874852 0 -0.35285683380316007 0.39046665159751448 0 -0.33136271335047512 0.38240680169344993 0 -0.34304766554360439 0.37232322735168022 0 -0.35285683380316007 0.39046665159751448 0 -0.33136271335047512 0.38240680169344993 0 -0.30986859289778912 0.37434695178938759 0 -0.32167824364597858 0.36970754211250728 0 -0.33136271335047512 0.38240680169344993 0 -0.30986859289778912 0.37434695178938759 0 -0.33136271335047512 0.38240680169344993 0 -0.32505653004414181 0.39961172552874852 0 -0.33136271335047512 0.38240680169344993 0 -0.31778050989885959 0.38527433798844479 0 -0.30986859289778912 0.37434695178938759 0 -0.33136271335047512 0.38240680169344993 0 -0.31778050989885959 0.38527433798844479 0 -0.30986859289778912 0.37434695178938759 0 -0.31778050989885959 0.38527433798844479 0 -0.30574515252343709 0.38648905476423068 0 -0.30986859289778912 0.37434695178938759 0 -0.30574515252343709 0.38648905476423068 0 -0.29874239202075642 0.37528196759933868 0 -0.30574515252343709 0.38648905476423068 0 -0.29874239202075642 0.37528196759933868 0 -0.29146244090030071 0.40289140707507309 0 -0.31778050989885959 0.38527433798844479 0 -0.30574515252343709 0.38648905476423068 0 -0.31219235154091651 0.39185403334122892 0 -0.32505653004414181 0.39961172552874852 0 -0.30619500853749271 0.39725637532293351 0 -0.29725622628512233 0.40875679945997928 0 -0.32505653004414181 0.39961172552874852 0 -0.29725622628512233 0.40875679945997928 0 -0.30574515252343709 0.38648905476423068 0 -0.30619500853749271 0.39725637532293351 0 -0.29146244090030071 0.40289140707507309 0 -0.30574515252343709 0.38648905476423068 0 -0.31219235154091651 0.39185403334122892 0 -0.30619500853749271 0.39725637532293351 0 -0.30619500853749271 0.39725637532293351 0 -0.29146244090030071 0.40289140707507309 0 -0.29725622628512233 0.40875679945997928 0 -0.29146244090030071 0.40289140707507309 0 -0.2882496590958894 0.39023794275143442 0 -0.278827461574497 0.39790462172635238 0 -0.28396634188800352 0.38487377460497352 0 -0.2882496590958894 0.39023794275143442 0 -0.278827461574497 0.39790462172635238 0 -0.29146244090030071 0.40289140707507309 0 -0.278827461574497 0.39790462172635238 0 -0.27940045790464241 0.41220012044695847 0 -0.29874239202075642 0.37528196759933868 0 -0.29146244090030071 0.40289140707507309 0 -0.29874239202075642 0.37528196759933868 0 -0.29146244090030071 0.40289140707507309 0 -0.2882496590958894 0.39023794275143442 0 -0.29874239202075642 0.37528196759933868 0 -0.28396634188800352 0.38487377460497352 0 -0.28714059247178902 0.37543321948423419 0 -0.29874239202075642 0.37528196759933868 0 -0.28396634188800352 0.38487377460497352 0 -0.2882496590958894 0.39023794275143442 0 -0.28396634188800352 0.38487377460497352 0 -0.28714059247178902 0.37543321948423419 0 -0.27747916353329311 0.37529003384729942 0 -0.28396634188800352 0.38487377460497352 0 -0.27747916353329311 0.37529003384729942 0 -0.26775424033426293 0.38456849691175748 0 -0.28396634188800352 0.38487377460497352 0 -0.26775424033426293 0.38456849691175748 0 -0.278827461574497 0.39790462172635238 0 -0.26470209097228098 0.37140351159401941 0 -0.27747916353329311 0.37529003384729942 0 -0.26775424033426293 0.38456849691175748 0 -0.278827461574497 0.39790462172635238 0 -0.26298604578065232 0.3973558675440883 0 -0.2677584473194361 0.40899541659639099 0 -0.26775424033426293 0.38456849691175748 0 -0.278827461574497 0.39790462172635238 0 -0.26298604578065232 0.3973558675440883 0 -0.26298604578065232 0.3973558675440883 0 -0.25152819264859128 0.38883491631829081 0 -0.2490618870264745 0.40647588616764979 0 -0.26298604578065232 0.3973558675440883 0 -0.2677584473194361 0.40899541659639099 0 -0.2490618870264745 0.40647588616764979 0 -0.25213085833087667 0.37355178257669552 0 -0.26775424033426293 0.38456849691175748 0 -0.25152819264859128 0.38883491631829081 0 -0.26775424033426293 0.38456849691175748 0 -0.26298604578065232 0.3973558675440883 0 -0.25152819264859128 0.38883491631829081 0 -0.26470209097228098 0.37140351159401941 0 -0.25213085833087667 0.37355178257669552 0 -0.26775424033426293 0.38456849691175748 0 -0.2572482915111563 0.42152384209731297 0 -0.26330490497154813 0.43976041958731371 0 -0.24092688658692171 0.43286849171069308 0 -0.2572482915111563 0.42152384209731297 0 -0.27163392734069919 0.42205675226444578 0 -0.26330490497154813 0.43976041958731371 0 -0.2572482915111563 0.42152384209731297 0 -0.2677584473194361 0.40899541659639099 0 -0.2490618870264745 0.40647588616764979 0 -0.2572482915111563 0.42152384209731297 0 -0.2677584473194361 0.40899541659639099 0 -0.27163392734069919 0.42205675226444578 0 -0.27940045790464241 0.41220012044695847 0 -0.27163392734069919 0.42205675226444578 0 -0.28418248977984512 0.43050084655080739 0 -0.2677584473194361 0.40899541659639099 0 -0.27940045790464241 0.41220012044695847 0 -0.27163392734069919 0.42205675226444578 0 -0.278827461574497 0.39790462172635238 0 -0.2677584473194361 0.40899541659639099 0 -0.27940045790464241 0.41220012044695847 0 -0.27163392734069919 0.42205675226444578 0 -0.28418248977984512 0.43050084655080739 0 -0.26330490497154813 0.43976041958731371 0 -0.28418248977984512 0.43050084655080739 0 -0.29943060469912958 0.42576946359573847 0 -0.28981068171355151 0.44369098771903792 0 -0.29146244090030071 0.40289140707507309 0 -0.28418248977984512 0.43050084655080739 0 -0.29146244090030071 0.40289140707507309 0 -0.27940045790464241 0.41220012044695847 0 -0.28418248977984512 0.43050084655080739 0 -0.28418248977984512 0.43050084655080739 0 -0.29725622628512233 0.40875679945997928 0 -0.29943060469912958 0.42576946359573847 0 -0.29146244090030071 0.40289140707507309 0 -0.28418248977984512 0.43050084655080739 0 -0.29725622628512233 0.40875679945997928 0 -0.31441363705571701 0.41408607272300291 0 -0.32505653004414181 0.39961172552874852 0 -0.29725622628512233 0.40875679945997928 0 -0.31441363705571701 0.41408607272300291 0 -0.29725622628512233 0.40875679945997928 0 -0.29943060469912958 0.42576946359573847 0 -0.31441363705571701 0.41408607272300291 0 -0.29943060469912958 0.42576946359573847 0 -0.31148998866141242 0.43181261152586448 0 -0.29943060469912958 0.42576946359573847 0 -0.31148998866141242 0.43181261152586448 0 -0.28981068171355151 0.44369098771903792 0 -0.31148998866141242 0.43181261152586448 0 -0.30120616623050861 0.45239726712555162 0 -0.31718999816658727 0.45065056632578487 0 -0.31148998866141242 0.43181261152586448 0 -0.30120616623050861 0.45239726712555162 0 -0.31148998866141242 0.43181261152586448 0 -0.30120616623050861 0.45239726712555162 0 -0.28981068171355151 0.44369098771903792 0 -0.30120616623050861 0.45239726712555162 0 -0.29092234379960469 0.47298192272523881 0 -0.30745775624609217 0.47728579204436761 0 -0.30120616623050861 0.45239726712555162 0 -0.30745775624609217 0.47728579204436761 0 -0.31718999816658727 0.45065056632578487 0 -0.2852957606144535 0.45730244818253718 0 -0.28186649269177161 0.46567885888970018 0 -0.29092234379960469 0.47298192272523881 0 -0.30120616623050861 0.45239726712555162 0 -0.29092234379960469 0.47298192272523881 0 -0.30120616623050861 0.45239726712555162 0 -0.2852957606144535 0.45730244818253718 0 -0.29092234379960469 0.47298192272523881 0 -0.2852957606144535 0.45730244818253718 0 -0.28186649269177161 0.46567885888970018 0 -0.27690253865938408 0.45811028602654041 0 -0.28418248977984512 0.43050084655080739 0 -0.28981068171355151 0.44369098771903792 0 -0.27690253865938408 0.45811028602654041 0 -0.30120616623050861 0.45239726712555162 0 -0.2852957606144535 0.45730244818253718 0 -0.28981068171355151 0.44369098771903792 0 -0.2852957606144535 0.45730244818253718 0 -0.28981068171355151 0.44369098771903792 0 -0.27690253865938408 0.45811028602654041 0 -0.28418248977984512 0.43050084655080739 0 -0.27690253865938408 0.45811028602654041 0 -0.28418248977984512 0.43050084655080739 0 -0.27690253865938408 0.45811028602654041 0 -0.26330490497154813 0.43976041958731371 0 -0.2852957606144535 0.45730244818253718 0 -0.27690253865938408 0.45811028602654041 0 -0.28186649269177161 0.46567885888970018 0 -0.27690253865938408 0.45811028602654041 0 -0.27835780074514338 0.47366975871288508 0 -0.27690253865938408 0.45811028602654041 0 -0.25345677561811758 0.46036691342989022 0 -0.27690253865938408 0.45811028602654041 0 -0.25345677561811758 0.46036691342989022 0 -0.26590293397843329 0.47057525233348851 0 -0.25345677561811758 0.46036691342989022 0 -0.25315469521642581 0.4750486889203015 0 -0.26590293397843329 0.47057525233348851 0 -0.25345677561811758 0.46036691342989022 0 -0.26330490497154813 0.43976041958731371 0 -0.24129970279445639 0.44943490890582899 0 -0.27690253865938408 0.45811028602654041 0 -0.25345677561811758 0.46036691342989022 0 -0.26330490497154813 0.43976041958731371 0 -0.26169037092037989 0.4910190989046625 0 -0.25397816739109252 0.5 0 -0.27113802145370669 0.49283981386083792 0 -0.26169037092037989 0.4910190989046625 0 -0.25474868654415728 0.48692894813519849 0 -0.26689660829256312 0.48430763362261348 0 -0.26169037092037989 0.4910190989046625 0 -0.25397816739109252 0.5 0 -0.25474868654415728 0.48692894813519849 0 -0.25315469521642581 0.4750486889203015 0 -0.26689660829256312 0.48430763362261348 0 -0.25315469521642581 0.4750486889203015 0 -0.26689660829256312 0.48430763362261348 0 -0.26590293397843329 0.47057525233348851 0 -0.25474868654415728 0.48692894813519849 0 -0.25315469521642581 0.4750486889203015 0 -0.26689660829256312 0.48430763362261348 0 -0.27690253865938408 0.45811028602654041 0 -0.26590293397843329 0.47057525233348851 0 -0.26946370716205509 0.4860372782758946 0 -0.27690253865938408 0.45811028602654041 0 -0.26946370716205509 0.4860372782758946 0 -0.27690253865938408 0.45811028602654041 0 -0.27835780074514338 0.47366975871288508 0 -0.26946370716205509 0.4860372782758946 0 -0.26689660829256312 0.48430763362261348 0 -0.26590293397843329 0.47057525233348851 0 -0.26946370716205509 0.4860372782758946 0 -0.28186649269177161 0.46567885888970018 0 -0.27835780074514338 0.47366975871288508 0 -0.28298297564177088 0.4743823417855309 0 -0.27835780074514338 0.47366975871288508 0 -0.2798907507987049 0.48286402398659151 0 -0.28298297564177088 0.4743823417855309 0 -0.27835780074514338 0.47366975871288508 0 -0.2798907507987049 0.48286402398659151 0 -0.26946370716205509 0.4860372782758946 0 -0.26946370716205509 0.4860372782758946 0 -0.28063852136870049 0.49356657832492562 0 -0.26946370716205509 0.4860372782758946 0 -0.27113802145370669 0.49283981386083792 0 -0.28063852136870049 0.49356657832492562 0 -0.2798907507987049 0.48286402398659151 0 -0.26946370716205509 0.4860372782758946 0 -0.28063852136870049 0.49356657832492562 0 -0.25397816739109252 0.5 0 -0.27113802145370669 0.49283981386083792 0 -0.27742446875513049 0.50000000000000155 0 -0.26689660829256312 0.48430763362261348 0 -0.26946370716205509 0.4860372782758946 0 -0.27113802145370669 0.49283981386083792 0 -0.26169037092037989 0.4910190989046625 0 -0.26689660829256312 0.48430763362261348 0 -0.27113802145370669 0.49283981386083792 0 -0.26689660829256312 0.48430763362261348 0 -0.26946370716205509 0.4860372782758946 0 -0.27113802145370669 0.49283981386083792 0 -0.28063852136870049 0.49356657832492562 0 -0.27742446875513049 0.50000000000000155 0 -0.28063852136870049 0.49356657832492562 0 -0.27742446875513049 0.50000000000000155 0 -0.28063852136870049 0.49356657832492562 0 -0.27742446875513049 0.50000000000000155 0 -0.29018685806186229 0.50000000000000122 0 -0.28063852136870049 0.49356657832492562 0 -0.29018685806186229 0.50000000000000122 0 -0.29092234379960469 0.47298192272523881 0 -0.28063852136870049 0.49356657832492562 0 -0.29018685806186229 0.50000000000000122 0 -0.29018685806186229 0.50000000000000122 0 -0.29092234379960469 0.47298192272523881 0 -0.30745775624609217 0.47728579204436761 0 -0.28063852136870049 0.49356657832492562 0 -0.29092234379960469 0.47298192272523881 0 -0.2798907507987049 0.48286402398659151 0 -0.28063852136870049 0.49356657832492562 0 -0.29092234379960469 0.47298192272523881 0 -0.28186649269177161 0.46567885888970018 0 -0.28298297564177088 0.4743823417855309 0 -0.29092234379960469 0.47298192272523881 0 -0.2798907507987049 0.48286402398659151 0 -0.28298297564177088 0.4743823417855309 0 -0.29092234379960469 0.47298192272523881 0 -0.29018685806186229 0.50000000000000122 0 -0.30745775624609217 0.47728579204436761 0 -0.3640375775585698 0.5 0 -0.30745775624609217 0.47728579204436761 0 -0.33122457162539992 0.46023714195115112 0 -0.3640375775585698 0.5 0 -0.30745775624609217 0.47728579204436761 0 -0.33122457162539992 0.46023714195115112 0 -0.30745775624609217 0.47728579204436761 0 -0.31718999816658727 0.45065056632578487 0 -0.33122457162539992 0.46023714195115112 0 -0.33223168701086447 0.43660936806356893 0 -0.31148998866141242 0.43181261152586448 0 -0.31718999816658727 0.45065056632578487 0 -0.33223168701086447 0.43660936806356893 0 -0.31718999816658727 0.45065056632578487 0 -0.33122457162539992 0.46023714195115112 0 -0.33122457162539992 0.46023714195115112 0 -0.35499138700470761 0.44318849185793469 0 -0.33223168701086447 0.43660936806356893 0 -0.33122457162539992 0.46023714195115112 0 -0.35499138700470761 0.44318849185793469 0 -0.33122457162539992 0.46023714195115112 0 -0.35376164566254242 0.46494380824906301 0 -0.35499138700470761 0.44318849185793469 0 -0.38249991962136642 0.44345487931465249 0 -0.35499138700470761 0.44318849185793469 0 -0.37103467036260362 0.45695891695805302 0 -0.38249991962136642 0.44345487931465249 0 -0.37875820238401509 0.42613984176471847 0 -0.35499138700470761 0.44318849185793469 0 -0.35376164566254242 0.46494380824906301 0 -0.35499138700470761 0.44318849185793469 0 -0.37103467036260362 0.45695891695805302 0 -0.35376164566254242 0.46494380824906301 0 -0.37103467036260362 0.45695891695805302 0 -0.36943712044780219 0.47475959506207249 0 -0.33122457162539992 0.46023714195115112 0 -0.35376164566254242 0.46494380824906301 0 -0.3640375775585698 0.5 0 -0.38891458820749281 0.47713565504117422 0 -0.36943712044780219 0.47475959506207249 0 -0.3640375775585698 0.5 0 -0.35376164566254242 0.46494380824906301 0 -0.36943712044780219 0.47475959506207249 0 -0.3640375775585698 0.5 0 -0.1410608215807003 0.47118489318428192 0 -0.1506389915883973 0.47451242435581331 0 -0.15779819732271971 0.4695739402503486 0 -0.1410608215807003 0.47118489318428192 0 -0.15779819732271971 0.4695739402503486 0 -0.1455325599989582 0.47665965757352818 0 -0.14983465253105441 0.48099067897208148 0 -0.1405957742956809 0.47995063378193648 0 -0.14983465253105441 0.48099067897208148 0 -0.14427471349546869 0.48965289008050411 0 -0.1405957742956809 0.47995063378193648 0 -0.1455325599989582 0.47665965757352818 0 -0.1410608215807003 0.47118489318428192 0 -0.1506389915883973 0.47451242435581331 0 -0.1455325599989582 0.47665965757352818 0 -0.1410608215807003 0.47118489318428192 0 -0.1405957742956809 0.47995063378193648 0 -0.1506389915883973 0.47451242435581331 0 -0.15682389603308189 0.47748605108520858 0 -0.15779819732271971 0.4695739402503486 0 -0.1506389915883973 0.47451242435581331 0 -0.14983465253105441 0.48099067897208148 0 -0.15682389603308189 0.47748605108520858 0 -0.1455325599989582 0.47665965757352818 0 -0.1506389915883973 0.47451242435581331 0 -0.14983465253105441 0.48099067897208148 0 -0.14983465253105441 0.48099067897208148 0 -0.1558122254133027 0.48316327461493752 0 -0.15682389603308189 0.47748605108520858 0 -0.14983465253105441 0.48099067897208148 0 -0.1558122254133027 0.48316327461493752 0 -0.15140604362779489 0.486968875654338 0 -0.1558122254133027 0.48316327461493752 0 -0.15140604362779489 0.486968875654338 0 -0.15545271364459581 0.49281799385228547 0 -0.14983465253105441 0.48099067897208148 0 -0.15140604362779489 0.486968875654338 0 -0.14427471349546869 0.48965289008050411 0 -0.15140604362779489 0.486968875654338 0 -0.15545271364459581 0.49281799385228547 0 -0.14427471349546869 0.48965289008050411 0 -0.15453849507163009 0.5 0 -0.14427471349546869 0.48965289008050411 0 -0.12543772684428189 0.5 0 -0.15453849507163009 0.5 0 -0.15545271364459581 0.49281799385228547 0 -0.14427471349546869 0.48965289008050411 0 -0.14427471349546869 0.48965289008050411 0 -0.12543772684428189 0.5 0 -0.13178312884530541 0.48627570230508688 0 -0.14427471349546869 0.48965289008050411 0 -0.13178312884530541 0.48627570230508688 0 -0.1405957742956809 0.47995063378193648 0 -0.13178312884530541 0.48627570230508688 0 -0.1317912103042716 0.47600940211286807 0 -0.11642361318749669 0.48420448820259387 0 -0.1317912103042716 0.47600940211286807 0 -0.14083201439797821 0.46516349611765162 0 -0.12052644250191399 0.4682622397032008 0 -0.13178312884530541 0.48627570230508688 0 -0.1405957742956809 0.47995063378193648 0 -0.1317912103042716 0.47600940211286807 0 -0.1410608215807003 0.47118489318428192 0 -0.1405957742956809 0.47995063378193648 0 -0.1317912103042716 0.47600940211286807 0 -0.1410608215807003 0.47118489318428192 0 -0.1317912103042716 0.47600940211286807 0 -0.14083201439797821 0.46516349611765162 0 -0.12618187852634369 0.45882241462805679 0 -0.14083201439797821 0.46516349611765162 0 -0.12052644250191399 0.4682622397032008 0 -0.14083201439797821 0.46516349611765162 0 -0.12052644250191399 0.4682622397032008 0 -0.12618187852634369 0.45882241462805679 0 -0.13621980461969219 0.45775649261309698 0 -0.13482926781972801 0.45201676164804122 0 -0.13621980461969219 0.45775649261309698 0 -0.13482926781972801 0.45201676164804122 0 -0.1430360577347192 0.45502329805863873 0 -0.13621980461969219 0.45775649261309698 0 -0.14083201439797821 0.46516349611765162 0 -0.1430360577347192 0.45502329805863873 0 -0.12618187852634369 0.45882241462805679 0 -0.13621980461969219 0.45775649261309698 0 -0.14083201439797821 0.46516349611765162 0 -0.12618187852634369 0.45882241462805679 0 -0.13482926781972801 0.45201676164804122 0 -0.1248743097581413 0.44162978393037222 0 -0.13482926781972801 0.45201676164804122 0 -0.13973201497409549 0.44099892737807922 0 -0.1415241139788854 0.4488412036993919 0 -0.13482926781972801 0.45201676164804122 0 -0.1415241139788854 0.4488412036993919 0 -0.1430360577347192 0.45502329805863873 0 -0.13973201497409549 0.44099892737807922 0 -0.13491063247587859 0.43073185275000708 0 -0.1248743097581413 0.44162978393037222 0 -0.13482926781972801 0.45201676164804122 0 -0.13973201497409549 0.44099892737807922 0 -0.1248743097581413 0.44162978393037222 0 -0.13973201497409549 0.44099892737807922 0 -0.14849911538699881 0.44732582771280882 0 -0.14949031039727409 0.43903968606904947 0 -0.14849911538699881 0.44732582771280882 0 -0.1430360577347192 0.45502329805863873 0 -0.15230793746503779 0.45507497120342549 0 -0.13973201497409549 0.44099892737807922 0 -0.1415241139788854 0.4488412036993919 0 -0.14849911538699881 0.44732582771280882 0 -0.1415241139788854 0.4488412036993919 0 -0.14849911538699881 0.44732582771280882 0 -0.1430360577347192 0.45502329805863873 0 -0.14849911538699881 0.44732582771280882 0 -0.15230793746503779 0.45507497120342549 0 -0.15767924869329919 0.44641741059368378 0 -0.14949031039727409 0.43903968606904947 0 -0.15767924869329919 0.44641741059368378 0 -0.15912083936695831 0.4347249498771325 0 -0.14849911538699881 0.44732582771280882 0 -0.14949031039727409 0.43903968606904947 0 -0.15767924869329919 0.44641741059368378 0 -0.14083201439797821 0.46516349611765162 0 -0.16113758629404229 0.46206475253210239 0 -0.15779819732271971 0.4695739402503486 0 -0.1410608215807003 0.47118489318428192 0 -0.14083201439797821 0.46516349611765162 0 -0.15779819732271971 0.4695739402503486 0 -0.14083201439797821 0.46516349611765162 0 -0.16113758629404229 0.46206475253210239 0 -0.14083201439797821 0.46516349611765162 0 -0.15230793746503779 0.45507497120342549 0 -0.16113758629404229 0.46206475253210239 0 -0.14083201439797821 0.46516349611765162 0 -0.1430360577347192 0.45502329805863873 0 -0.15230793746503779 0.45507497120342549 0 -0.16113758629404229 0.46206475253210239 0 -0.16940388650370539 0.44815354093755089 0 -0.18144315819010631 0.45896600894655282 0 -0.16113758629404229 0.46206475253210239 0 -0.18144315819010631 0.45896600894655282 0 -0.16113758629404229 0.46206475253210239 0 -0.17453557306473899 0.46796298731641428 0 -0.15779819732271971 0.4695739402503486 0 -0.15230793746503779 0.45507497120342549 0 -0.16113758629404229 0.46206475253210239 0 -0.16013216473902109 0.45292766881669072 0 -0.16113758629404229 0.46206475253210239 0 -0.16013216473902109 0.45292766881669072 0 -0.16940388650370539 0.44815354093755089 0 -0.15767924869329919 0.44641741059368378 0 -0.16940388650370539 0.44815354093755089 0 -0.15912083936695831 0.4347249498771325 0 -0.15230793746503779 0.45507497120342549 0 -0.16013216473902109 0.45292766881669072 0 -0.15767924869329919 0.44641741059368378 0 -0.16013216473902109 0.45292766881669072 0 -0.15767924869329919 0.44641741059368378 0 -0.16940388650370539 0.44815354093755089 0 -0.1829590266345629 0.45699162349075462 0 -0.18255950863604661 0.43173185523385532 0 -0.1829590266345629 0.45699162349075462 0 -0.19557533522393281 0.44055915781337712 0 -0.18255950863604661 0.43173185523385532 0 -0.16940388650370539 0.44815354093755089 0 -0.1829590266345629 0.45699162349075462 0 -0.18255950863604661 0.43173185523385532 0 -0.16113758629404229 0.46206475253210239 0 -0.17453557306473899 0.46796298731641428 0 -0.18144315819010631 0.45896600894655282 0 -0.17453557306473899 0.46796298731641428 0 -0.18144315819010631 0.45896600894655282 0 -0.17453557306473899 0.46796298731641428 0 -0.18311948649431831 0.46713679563994498 0 -0.16940388650370539 0.44815354093755089 0 -0.18144315819010631 0.45896600894655282 0 -0.1829590266345629 0.45699162349075462 0 -0.18144315819010631 0.45896600894655282 0 -0.1829590266345629 0.45699162349075462 0 -0.18144315819010631 0.45896600894655282 0 -0.1829865290739871 0.45873048193697258 0 -0.1829590266345629 0.45699162349075462 0 -0.18144315819010631 0.45896600894655282 0 -0.1829865290739871 0.45873048193697258 0 -0.1829865290739871 0.45873048193697258 0 -0.1829590266345629 0.45699162349075462 0 -0.17453557306473899 0.46796298731641428 0 -0.18144315819010631 0.45896600894655282 0 -0.18311948649431831 0.46713679563994498 0 -0.1829865290739871 0.45873048193697258 0 -0.18311948649431831 0.46713679563994498 0 -0.18144315819010631 0.45896600894655282 0 -0.1829865290739871 0.45873048193697258 0 -0.18311948649431831 0.46713679563994498 0 -0.18311948649431831 0.46713679563994498 0 -0.18337937489664821 0.48356839781997168 0 -0.19511197543601369 0.47606725323690458 0 -0.18311948649431831 0.46713679563994498 0 -0.18337937489664821 0.48356839781997168 0 -0.18311948649431831 0.46713679563994498 0 -0.18337937489664821 0.48356839781997168 0 -0.17485937494801759 0.47808814193434568 0 -0.17453557306473899 0.46796298731641428 0 -0.18311948649431831 0.46713679563994498 0 -0.17485937494801759 0.47808814193434568 0 -0.17453557306473899 0.46796298731641428 0 -0.15779819732271971 0.4695739402503486 0 -0.17453557306473899 0.46796298731641428 0 -0.16499414335466689 0.48039049058434952 0 -0.17453557306473899 0.46796298731641428 0 -0.16499414335466689 0.48039049058434952 0 -0.15779819732271971 0.4695739402503486 0 -0.17453557306473899 0.46796298731641428 0 -0.17485937494801759 0.47808814193434568 0 -0.16499414335466689 0.48039049058434952 0 -0.17485937494801759 0.47808814193434568 0 -0.16499414335466689 0.48039049058434952 0 -0.1699453859209171 0.49288017845899518 0 -0.1558122254133027 0.48316327461493752 0 -0.16499414335466689 0.48039049058434952 0 -0.15682389603308189 0.47748605108520858 0 -0.16499414335466689 0.48039049058434952 0 -0.15682389603308189 0.47748605108520858 0 -0.15779819732271971 0.4695739402503486 0 -0.15453849507163009 0.5 0 -0.1699453859209171 0.49288017845899518 0 -0.18363926329897839 0.49999999999999828 0 -0.15453849507163009 0.5 0 -0.15545271364459581 0.49281799385228547 0 -0.1699453859209171 0.49288017845899518 0 -0.15545271364459581 0.49281799385228547 0 -0.16499414335466689 0.48039049058434952 0 -0.1699453859209171 0.49288017845899518 0 -0.15545271364459581 0.49281799385228547 0 -0.16499414335466689 0.48039049058434952 0 -0.1558122254133027 0.48316327461493752 0 -0.15545271364459581 0.49281799385228547 0 -0.16499414335466689 0.48039049058434952 0 -0.18337937489664821 0.48356839781997168 0 -0.18363926329897839 0.49999999999999828 0 -0.18337937489664821 0.48356839781997168 0 -0.1699453859209171 0.49288017845899518 0 -0.18363926329897839 0.49999999999999828 0 -0.18337937489664821 0.48356839781997168 0 -0.17485937494801759 0.47808814193434568 0 -0.1699453859209171 0.49288017845899518 0 -0.18337937489664821 0.48356839781997168 0 -0.18363926329897839 0.49999999999999828 0 -0.19848883175809501 0.48685236178056529 0 -0.18363926329897839 0.49999999999999828 0 -0.19848883175809501 0.48685236178056529 0 -0.20708556466301639 0.5 0 -0.18311948649431831 0.46713679563994498 0 -0.19511197543601369 0.47606725323690458 0 -0.20656524953558469 0.46488016823659339 0 -0.18337937489664821 0.48356839781997168 0 -0.19848883175809501 0.48685236178056529 0 -0.19511197543601369 0.47606725323690458 0 -0.19848883175809501 0.48685236178056529 0 -0.19511197543601369 0.47606725323690458 0 -0.206747867840962 0.47700509082497228 0 -0.19511197543601369 0.47606725323690458 0 -0.206747867840962 0.47700509082497228 0 -0.20656524953558469 0.46488016823659339 0 -0.19848883175809501 0.48685236178056529 0 -0.206747867840962 0.47700509082497228 0 -0.21585796601610141 0.48648558657266339 0 -0.206747867840962 0.47700509082497228 0 -0.21852396914967101 0.47285401242330122 0 -0.20656524953558469 0.46488016823659339 0 -0.206747867840962 0.47700509082497228 0 -0.21852396914967101 0.47285401242330122 0 -0.21585796601610141 0.48648558657266339 0 -0.20708556466301639 0.5 0 -0.21585796601610141 0.48648558657266339 0 -0.23053186602705439 0.5 0 -0.19848883175809501 0.48685236178056529 0 -0.20708556466301639 0.5 0 -0.21585796601610141 0.48648558657266339 0 -0.21585796601610141 0.48648558657266339 0 -0.23053186602705439 0.5 0 -0.2373192826940049 0.48342253064983348 0 -0.21852396914967101 0.47285401242330122 0 -0.2373192826940049 0.48342253064983348 0 -0.23001101257685119 0.46262354083324181 0 -0.21852396914967101 0.47285401242330122 0 -0.21585796601610141 0.48648558657266339 0 -0.2373192826940049 0.48342253064983348 0 -0.25474868654415728 0.48692894813519849 0 -0.25315469521642581 0.4750486889203015 0 -0.2373192826940049 0.48342253064983348 0 -0.25315469521642581 0.4750486889203015 0 -0.2373192826940049 0.48342253064983348 0 -0.23001101257685119 0.46262354083324181 0 -0.25397816739109252 0.5 0 -0.23053186602705439 0.5 0 -0.2373192826940049 0.48342253064983348 0 -0.25397816739109252 0.5 0 -0.25474868654415728 0.48692894813519849 0 -0.2373192826940049 0.48342253064983348 0 -0.26330490497154813 0.43976041958731371 0 -0.24129970279445639 0.44943490890582899 0 -0.24092688658692171 0.43286849171069308 0 -0.24129970279445639 0.44943490890582899 0 -0.2242493546558077 0.44235471361969553 0 -0.24092688658692171 0.43286849171069308 0 -0.25345677561811758 0.46036691342989022 0 -0.23001101257685119 0.46262354083324181 0 -0.25345677561811758 0.46036691342989022 0 -0.24129970279445639 0.44943490890582899 0 -0.23001101257685119 0.46262354083324181 0 -0.25345677561811758 0.46036691342989022 0 -0.25315469521642581 0.4750486889203015 0 -0.23001101257685119 0.46262354083324181 0 -0.24129970279445639 0.44943490890582899 0 -0.23001101257685119 0.46262354083324181 0 -0.2242493546558077 0.44235471361969553 0 -0.23001101257685119 0.46262354083324181 0 -0.2242493546558077 0.44235471361969553 0 -0.2144914677851314 0.45380351874251162 0 -0.2242493546558077 0.44235471361969553 0 -0.20880164963731279 0.443380440886459 0 -0.2144914677851314 0.45380351874251162 0 -0.20880164963731279 0.443380440886459 0 -0.2144914677851314 0.45380351874251162 0 -0.20415969833182021 0.45549933815243238 0 -0.23001101257685119 0.46262354083324181 0 -0.2144914677851314 0.45380351874251162 0 -0.20656524953558469 0.46488016823659339 0 -0.21852396914967101 0.47285401242330122 0 -0.23001101257685119 0.46262354083324181 0 -0.20656524953558469 0.46488016823659339 0 -0.23001101257685119 0.46262354083324181 0 -0.20656524953558469 0.46488016823659339 0 -0.2144914677851314 0.45380351874251162 0 -0.20415969833182021 0.45549933815243238 0 -0.20656524953558469 0.46488016823659339 0 -0.1829865290739871 0.45873048193697258 0 -0.1829590266345629 0.45699162349075462 0 -0.20415969833182021 0.45549933815243238 0 -0.1829865290739871 0.45873048193697258 0 -0.20415969833182021 0.45549933815243238 0 -0.18311948649431831 0.46713679563994498 0 -0.20415969833182021 0.45549933815243238 0 -0.20656524953558469 0.46488016823659339 0 -0.1829865290739871 0.45873048193697258 0 -0.18311948649431831 0.46713679563994498 0 -0.20415969833182021 0.45549933815243238 0 -0.18311948649431831 0.46713679563994498 0 -0.20656524953558469 0.46488016823659339 0 -0.1829590266345629 0.45699162349075462 0 -0.19557533522393281 0.44055915781337712 0 -0.1829590266345629 0.45699162349075462 0 -0.20415969833182021 0.45549933815243238 0 -0.19557533522393281 0.44055915781337712 0 -0.20880164963731279 0.443380440886459 0 -0.20415969833182021 0.45549933815243238 0 -0.19557533522393281 0.44055915781337712 0 -0.19557533522393281 0.44055915781337712 0 -0.20819164381331129 0.42412669213600601 0 -0.19557533522393281 0.44055915781337712 0 -0.19413142888046839 0.4217351031076268 0 -0.18255950863604661 0.43173185523385532 0 -0.19557533522393281 0.44055915781337712 0 -0.19413142888046839 0.4217351031076268 0 -0.20819164381331129 0.42412669213600601 0 -0.19413142888046839 0.4217351031076268 0 -0.20819164381331129 0.42412669213600601 0 -0.2021706660915297 0.40578572337793972 0 -0.19413142888046839 0.4217351031076268 0 -0.2021706660915297 0.40578572337793972 0 -0.18215999063752189 0.40647208697695608 0 -0.20819164381331129 0.42412669213600601 0 -0.22405449890785839 0.40643558214578251 0 -0.2021706660915297 0.40578572337793972 0 -0.20880164963731279 0.443380440886459 0 -0.19557533522393281 0.44055915781337712 0 -0.20819164381331129 0.42412669213600601 0 -0.2242493546558077 0.44235471361969553 0 -0.20880164963731279 0.443380440886459 0 -0.20819164381331129 0.42412669213600601 0 -0.2242493546558077 0.44235471361969553 0 -0.20819164381331129 0.42412669213600601 0 -0.22600929792909111 0.42518400498706249 0 -0.2242493546558077 0.44235471361969553 0 -0.22600929792909111 0.42518400498706249 0 -0.24092688658692171 0.43286849171069308 0 -0.20819164381331129 0.42412669213600601 0 -0.22600929792909111 0.42518400498706249 0 -0.22405449890785839 0.40643558214578251 0 -0.22600929792909111 0.42518400498706249 0 -0.22405449890785839 0.40643558214578251 0 -0.2382988550227183 0.41778448946306668 0 -0.2572482915111563 0.42152384209731297 0 -0.2382988550227183 0.41778448946306668 0 -0.2490618870264745 0.40647588616764979 0 -0.22405449890785839 0.40643558214578251 0 -0.2382988550227183 0.41778448946306668 0 -0.2490618870264745 0.40647588616764979 0 -0.2572482915111563 0.42152384209731297 0 -0.2382988550227183 0.41778448946306668 0 -0.24092688658692171 0.43286849171069308 0 -0.22600929792909111 0.42518400498706249 0 -0.2382988550227183 0.41778448946306668 0 -0.24092688658692171 0.43286849171069308 0 -0.24000210142933509 0.37809552861286783 0 -0.23801773827758249 0.39392053259368742 0 -0.22567210936962789 0.38582584627882549 0 -0.25152819264859128 0.38883491631829081 0 -0.24000210142933509 0.37809552861286783 0 -0.23801773827758249 0.39392053259368742 0 -0.25213085833087667 0.37355178257669552 0 -0.25152819264859128 0.38883491631829081 0 -0.24000210142933509 0.37809552861286783 0 -0.25152819264859128 0.38883491631829081 0 -0.2490618870264745 0.40647588616764979 0 -0.23801773827758249 0.39392053259368742 0 -0.22405449890785839 0.40643558214578251 0 -0.2490618870264745 0.40647588616764979 0 -0.23801773827758249 0.39392053259368742 0 -0.22405449890785839 0.40643558214578251 0 -0.22567210936962789 0.38582584627882549 0 -0.2099895612515065 0.38861519238670661 0 -0.22405449890785839 0.40643558214578251 0 -0.23801773827758249 0.39392053259368742 0 -0.22567210936962789 0.38582584627882549 0 -0.22567210936962789 0.38582584627882549 0 -0.21752164111765379 0.37637519474985792 0 -0.23054114355980421 0.3681661286558337 0 -0.24000210142933509 0.37809552861286783 0 -0.22567210936962789 0.38582584627882549 0 -0.23054114355980421 0.3681661286558337 0 -0.22567210936962789 0.38582584627882549 0 -0.21752164111765379 0.37637519474985792 0 -0.2099895612515065 0.38861519238670661 0 -0.21752164111765379 0.37637519474985792 0 -0.2099895612515065 0.38861519238670661 0 -0.20825127389149589 0.37038948781896619 0 -0.2099895612515065 0.38861519238670661 0 -0.1956253707180633 0.37355818799515828 0 -0.20825127389149589 0.37038948781896619 0 -0.22405449890785839 0.40643558214578251 0 -0.2099895612515065 0.38861519238670661 0 -0.2021706660915297 0.40578572337793972 0 -0.2021706660915297 0.40578572337793972 0 -0.19434121226752371 0.39112870189136351 0 -0.18215999063752189 0.40647208697695608 0 -0.2099895612515065 0.38861519238670661 0 -0.2021706660915297 0.40578572337793972 0 -0.19434121226752371 0.39112870189136351 0 -0.2099895612515065 0.38861519238670661 0 -0.19434121226752371 0.39112870189136351 0 -0.1956253707180633 0.37355818799515828 0 -0.19434121226752371 0.39112870189136351 0 -0.18176047263899719 0.38121231872005679 0 -0.1956253707180633 0.37355818799515828 0 -0.18176047263899719 0.38121231872005679 0 -0.16585623702428451 0.39107516703040651 0 -0.16689278400863089 0.37048631692620287 0 -0.16585623702428451 0.39107516703040651 0 -0.1532541744773912 0.375434017343177 0 -0.15169756500005979 0.38990146883471011 0 -0.16585623702428451 0.39107516703040651 0 -0.1532541744773912 0.375434017343177 0 -0.16689278400863089 0.37048631692620287 0 -0.16585623702428451 0.39107516703040651 0 -0.1665369108918931 0.40914444316194981 0 -0.1556916669008335 0.40278409093046019 0 -0.16585623702428451 0.39107516703040651 0 -0.18215999063752189 0.40647208697695608 0 -0.1665369108918931 0.40914444316194981 0 -0.16585623702428451 0.39107516703040651 0 -0.15169756500005979 0.38990146883471011 0 -0.1556916669008335 0.40278409093046019 0 -0.18176047263899719 0.38121231872005679 0 -0.16585623702428451 0.39107516703040651 0 -0.18215999063752189 0.40647208697695608 0 -0.18176047263899719 0.38121231872005679 0 -0.18215999063752189 0.40647208697695608 0 -0.19434121226752371 0.39112870189136351 0 -0.18176047263899719 0.38121231872005679 0 -0.18215999063752189 0.40647208697695608 0 -0.18215999063752189 0.40647208697695608 0 -0.18255950863604661 0.43173185523385532 0 -0.18215999063752189 0.40647208697695608 0 -0.16958367679162159 0.42493542776846188 0 -0.1665369108918931 0.40914444316194981 0 -0.19413142888046839 0.4217351031076268 0 -0.18215999063752189 0.40647208697695608 0 -0.18255950863604661 0.43173185523385532 0 -0.18215999063752189 0.40647208697695608 0 -0.18255950863604661 0.43173185523385532 0 -0.16958367679162159 0.42493542776846188 0 -0.16940388650370539 0.44815354093755089 0 -0.18255950863604661 0.43173185523385532 0 -0.16958367679162159 0.42493542776846188 0 -0.16940388650370539 0.44815354093755089 0 -0.16958367679162159 0.42493542776846188 0 -0.15912083936695831 0.4347249498771325 0 -0.16958367679162159 0.42493542776846188 0 -0.15912083936695831 0.4347249498771325 0 -0.15604886632200479 0.41831593774319042 0 -0.16958367679162159 0.42493542776846188 0 -0.1665369108918931 0.40914444316194981 0 -0.15604886632200479 0.41831593774319042 0 -0.1665369108918931 0.40914444316194981 0 -0.15604886632200479 0.41831593774319042 0 -0.1556916669008335 0.40278409093046019 0 -0.15604886632200479 0.41831593774319042 0 -0.14768726638806501 0.40958107086639878 0 -0.1556916669008335 0.40278409093046019 0 -0.15604886632200479 0.41831593774319042 0 -0.1455440964649429 0.41771164433310332 0 -0.14575226394851429 0.42876386523653243 0 -0.15604886632200479 0.41831593774319042 0 -0.1455440964649429 0.41771164433310332 0 -0.14768726638806501 0.40958107086639878 0 -0.1455440964649429 0.41771164433310332 0 -0.14768726638806501 0.40958107086639878 0 -0.13820848934052041 0.41088683445876423 0 -0.15912083936695831 0.4347249498771325 0 -0.15604886632200479 0.41831593774319042 0 -0.14575226394851429 0.42876386523653243 0 -0.14949031039727409 0.43903968606904947 0 -0.15912083936695831 0.4347249498771325 0 -0.14575226394851429 0.42876386523653243 0 -0.1455440964649429 0.41771164433310332 0 -0.14575226394851429 0.42876386523653243 0 -0.13557398954387551 0.42076075412316039 0 -0.13973201497409549 0.44099892737807922 0 -0.14949031039727409 0.43903968606904947 0 -0.14575226394851429 0.42876386523653243 0 -0.13491063247587859 0.43073185275000708 0 -0.1242188050129694 0.42501783294758849 0 -0.1248743097581413 0.44162978393037222 0 -0.13973201497409549 0.44099892737807922 0 -0.14575226394851429 0.42876386523653243 0 -0.13491063247587859 0.43073185275000708 0 -0.14575226394851429 0.42876386523653243 0 -0.13491063247587859 0.43073185275000708 0 -0.13557398954387551 0.42076075412316039 0 -0.13491063247587859 0.43073185275000708 0 -0.13557398954387551 0.42076075412316039 0 -0.1242188050129694 0.42501783294758849 0 -0.13820848934052041 0.41088683445876423 0 -0.13557398954387551 0.42076075412316039 0 -0.12623023605756489 0.41143854881348008 0 -0.1455440964649429 0.41771164433310332 0 -0.13820848934052041 0.41088683445876423 0 -0.13557398954387551 0.42076075412316039 0 -0.13557398954387551 0.42076075412316039 0 -0.12623023605756489 0.41143854881348008 0 -0.1242188050129694 0.42501783294758849 0 -0.13820848934052041 0.41088683445876423 0 -0.12623023605756489 0.41143854881348008 0 -0.13398515235888339 0.40371564514020769 0 -0.12997925716256209 0.39431640422262348 0 -0.14074253368576661 0.38200722200303072 0 -0.1429432129120235 0.39820684686647628 0 -0.12623023605756489 0.41143854881348008 0 -0.13398515235888339 0.40371564514020769 0 -0.12997925716256209 0.39431640422262348 0 -0.13398515235888339 0.40371564514020769 0 -0.12997925716256209 0.39431640422262348 0 -0.1429432129120235 0.39820684686647628 0 -0.13820848934052041 0.41088683445876423 0 -0.13398515235888339 0.40371564514020769 0 -0.1429432129120235 0.39820684686647628 0 -0.12997925716256209 0.39431640422262348 0 -0.14074253368576661 0.38200722200303072 0 -0.12523428666698541 0.37069662222368049 0 -0.12997925716256209 0.39431640422262348 0 -0.12523428666698541 0.37069662222368049 0 -0.12103247972044499 0.39311621374447298 0 -0.14074253368576661 0.38200722200303072 0 -0.15169756500005979 0.38990146883471011 0 -0.1429432129120235 0.39820684686647628 0 -0.14074253368576661 0.38200722200303072 0 -0.1532541744773912 0.375434017343177 0 -0.15169756500005979 0.38990146883471011 0 -0.15169756500005979 0.38990146883471011 0 -0.1556916669008335 0.40278409093046019 0 -0.1429432129120235 0.39820684686647628 0 -0.14768726638806501 0.40958107086639878 0 -0.1556916669008335 0.40278409093046019 0 -0.1429432129120235 0.39820684686647628 0 -0.14768726638806501 0.40958107086639878 0 -0.13820848934052041 0.41088683445876423 0 -0.1429432129120235 0.39820684686647628 0 -0.14407255521749979 0.34403263722221961 0 -0.15504053286571459 0.3545366000593369 0 -0.14129669608781389 0.36249735492572199 0 -0.14407255521749979 0.34403263722221961 0 -0.15504053286571459 0.3545366000593369 0 -0.1549481930100888 0.34056708499864929 0 -0.14074253368576661 0.38200722200303072 0 -0.1532541744773912 0.375434017343177 0 -0.14129669608781389 0.36249735492572199 0 -0.1532541744773912 0.375434017343177 0 -0.15504053286571459 0.3545366000593369 0 -0.14129669608781389 0.36249735492572199 0 -0.14129669608781389 0.36249735492572199 0 -0.12523428666698541 0.37069662222368049 0 -0.1294360936135257 0.3482770307028879 0 -0.12523428666698541 0.37069662222368049 0 -0.1294360936135257 0.3482770307028879 0 -0.14074253368576661 0.38200722200303072 0 -0.14129669608781389 0.36249735492572199 0 -0.12523428666698541 0.37069662222368049 0 -0.14407255521749979 0.34403263722221961 0 -0.14129669608781389 0.36249735492572199 0 -0.1294360936135257 0.3482770307028879 0 -0.1294360936135257 0.3482770307028879 0 -0.13363790056006589 0.32585743918209531 0 -0.14407255521749979 0.34403263722221961 0 -0.1294360936135257 0.3482770307028879 0 -0.13363790056006589 0.32585743918209531 0 -0.1294360936135257 0.3482770307028879 0 -0.13363790056006589 0.32585743918209531 0 -0.1154499742120704 0.34086754873962172 0 -0.12722248981549561 0.3181430308760943 0 -0.13363790056006589 0.32585743918209531 0 -0.1360408951285694 0.3130357752318072 0 -0.12722248981549561 0.3181430308760943 0 -0.1360408951285694 0.3130357752318072 0 -0.12136448477009221 0.30951812845445109 0 -0.12722248981549561 0.3181430308760943 0 -0.13363790056006589 0.32585743918209531 0 -0.12142985306419619 0.32461006626398298 0 -0.13363790056006589 0.32585743918209531 0 -0.12142985306419619 0.32461006626398298 0 -0.13363790056006589 0.32585743918209531 0 -0.1360408951285694 0.3130357752318072 0 -0.14290423209994971 0.32095809222069871 0 -0.13363790056006589 0.32585743918209531 0 -0.1360408951285694 0.3130357752318072 0 -0.14290423209994971 0.32095809222069871 0 -0.1532404752523272 0.32269894785805692 0 -0.1464174014568787 0.29836992735667278 0 -0.13363790056006589 0.32585743918209531 0 -0.14290423209994971 0.32095809222069871 0 -0.15729966860100811 0.32827511069417059 0 -0.13363790056006589 0.32585743918209531 0 -0.15729966860100811 0.32827511069417059 0 -0.14290423209994971 0.32095809222069871 0 -0.1532404752523272 0.32269894785805692 0 -0.15729966860100811 0.32827511069417059 0 -0.1532404752523272 0.32269894785805692 0 -0.15943794807189979 0.31595908059817063 0 -0.1547819877644892 0.3091453549012102 0 -0.14407255521749979 0.34403263722221961 0 -0.13363790056006589 0.32585743918209531 0 -0.14748957934716561 0.33468306802428371 0 -0.13363790056006589 0.32585743918209531 0 -0.14748957934716561 0.33468306802428371 0 -0.15729966860100811 0.32827511069417059 0 -0.14748957934716561 0.33468306802428371 0 -0.1549481930100888 0.34056708499864929 0 -0.15729966860100811 0.32827511069417059 0 -0.14407255521749979 0.34403263722221961 0 -0.14748957934716561 0.33468306802428371 0 -0.1549481930100888 0.34056708499864929 0 -0.15729966860100811 0.32827511069417059 0 -0.18096143664194889 0.33069278220625808 0 -0.1549481930100888 0.34056708499864929 0 -0.15729966860100811 0.32827511069417059 0 -0.16781010436956259 0.34240718275037813 0 -0.15729966860100811 0.32827511069417059 0 -0.16781010436956259 0.34240718275037813 0 -0.18096143664194889 0.33069278220625808 0 -0.15729966860100811 0.32827511069417059 0 -0.17028988351433311 0.32233995817617028 0 -0.18096143664194889 0.33069278220625808 0 -0.15943794807189979 0.31595908059817063 0 -0.16495134068588049 0.31685297469802859 0 -0.1638395481514221 0.30983277085387728 0 -0.1532404752523272 0.32269894785805692 0 -0.15943794807189979 0.31595908059817063 0 -0.16037638850537991 0.32126535467967993 0 -0.15943794807189979 0.31595908059817063 0 -0.16037638850537991 0.32126535467967993 0 -0.16495134068588049 0.31685297469802859 0 -0.15729966860100811 0.32827511069417059 0 -0.16037638850537991 0.32126535467967993 0 -0.17028988351433311 0.32233995817617028 0 -0.1532404752523272 0.32269894785805692 0 -0.15729966860100811 0.32827511069417059 0 -0.16037638850537991 0.32126535467967993 0 -0.16495134068588049 0.31685297469802859 0 -0.17285953122972289 0.31090601179704258 0 -0.1638395481514221 0.30983277085387728 0 -0.17028988351433311 0.32233995817617028 0 -0.16495134068588049 0.31685297469802859 0 -0.17285953122972289 0.31090601179704258 0 -0.16037638850537991 0.32126535467967993 0 -0.17028988351433311 0.32233995817617028 0 -0.16495134068588049 0.31685297469802859 0 -0.18077272512400111 0.31876138179813301 0 -0.17285953122972289 0.31090601179704258 0 -0.17028988351433311 0.32233995817617028 0 -0.18077272512400111 0.31876138179813301 0 -0.17285953122972289 0.31090601179704258 0 -0.17028988351433311 0.32233995817617028 0 -0.18077272512400111 0.31876138179813301 0 -0.18096143664194889 0.33069278220625808 0 -0.18077272512400111 0.31876138179813301 0 -0.19386790912735871 0.33176087567547108 0 -0.18077272512400111 0.31876138179813301 0 -0.18096143664194889 0.33069278220625808 0 -0.18077272512400111 0.31876138179813301 0 -0.18096143664194889 0.33069278220625808 0 -0.19386790912735871 0.33176087567547108 0 -0.18096143664194889 0.33069278220625808 0 -0.1813609546404725 0.35595255046315749 0 -0.18096143664194889 0.33069278220625808 0 -0.1813609546404725 0.35595255046315749 0 -0.19258948339875709 0.33633707034479371 0 -0.16781010436956259 0.34240718275037813 0 -0.18096143664194889 0.33069278220625808 0 -0.1813609546404725 0.35595255046315749 0 -0.18096143664194889 0.33069278220625808 0 -0.19386790912735871 0.33176087567547108 0 -0.15504053286571459 0.3545366000593369 0 -0.16781010436956259 0.34240718275037813 0 -0.1813609546404725 0.35595255046315749 0 -0.15504053286571459 0.3545366000593369 0 -0.1549481930100888 0.34056708499864929 0 -0.16781010436956259 0.34240718275037813 0 -0.1532541744773912 0.375434017343177 0 -0.15504053286571459 0.3545366000593369 0 -0.16689278400863089 0.37048631692620287 0 -0.15504053286571459 0.3545366000593369 0 -0.1813609546404725 0.35595255046315749 0 -0.16689278400863089 0.37048631692620287 0 -0.18176047263899719 0.38121231872005679 0 -0.1813609546404725 0.35595255046315749 0 -0.18176047263899719 0.38121231872005679 0 -0.1813609546404725 0.35595255046315749 0 -0.1956253707180633 0.37355818799515828 0 -0.18176047263899719 0.38121231872005679 0 -0.1813609546404725 0.35595255046315749 0 -0.16689278400863089 0.37048631692620287 0 -0.1813609546404725 0.35595255046315749 0 -0.1956253707180633 0.37355818799515828 0 -0.2000380028121157 0.35856944723279938 0 -0.1956253707180633 0.37355818799515828 0 -0.2000380028121157 0.35856944723279938 0 -0.20825127389149589 0.37038948781896619 0 -0.1813609546404725 0.35595255046315749 0 -0.1951678646333711 0.34883535218340811 0 -0.19258948339875709 0.33633707034479371 0 -0.1813609546404725 0.35595255046315749 0 -0.1951678646333711 0.34883535218340811 0 -0.2000380028121157 0.35856944723279938 0 -0.1951678646333711 0.34883535218340811 0 -0.2000380028121157 0.35856944723279938 0 -0.20668301768213909 0.34448234069288158 0 -0.20668301768213909 0.34448234069288158 0 -0.2120127789660084 0.36084248239747968 0 -0.21921666942493959 0.3569244055809645 0 -0.2000380028121157 0.35856944723279938 0 -0.20668301768213909 0.34448234069288158 0 -0.2120127789660084 0.36084248239747968 0 -0.2120127789660084 0.36084248239747968 0 -0.21921666942493959 0.3569244055809645 0 -0.20668301768213909 0.34448234069288158 0 -0.21921666942493959 0.3569244055809645 0 -0.22158808080033929 0.34557455345049992 0 -0.20668301768213909 0.34448234069288158 0 -0.21921666942493959 0.3569244055809645 0 -0.2000380028121157 0.35856944723279938 0 -0.20825127389149589 0.37038948781896619 0 -0.2120127789660084 0.36084248239747968 0 -0.2120127789660084 0.36084248239747968 0 -0.2199937556016836 0.36693485901855288 0 -0.21921666942493959 0.3569244055809645 0 -0.20825127389149589 0.37038948781896619 0 -0.2120127789660084 0.36084248239747968 0 -0.2199937556016836 0.36693485901855288 0 -0.21752164111765379 0.37637519474985792 0 -0.20825127389149589 0.37038948781896619 0 -0.2199937556016836 0.36693485901855288 0 -0.21752164111765379 0.37637519474985792 0 -0.23054114355980421 0.3681661286558337 0 -0.2199937556016836 0.36693485901855288 0 -0.23054114355980421 0.3681661286558337 0 -0.21921666942493959 0.3569244055809645 0 -0.23305195790672301 0.35812934693154008 0 -0.23054114355980421 0.3681661286558337 0 -0.2199937556016836 0.36693485901855288 0 -0.21921666942493959 0.3569244055809645 0 -0.23054114355980421 0.3681661286558337 0 -0.21921666942493959 0.3569244055809645 0 -0.21921666942493959 0.3569244055809645 0 -0.22158808080033929 0.34557455345049992 0 -0.23915963598069589 0.34607775607121571 0 -0.21921666942493959 0.3569244055809645 0 -0.23915963598069589 0.34607775607121571 0 -0.21921666942493959 0.3569244055809645 0 -0.23305195790672301 0.35812934693154008 0 -0.23915963598069589 0.34607775607121571 0 -0.23305195790672301 0.35812934693154008 0 -0.23915963598069589 0.34607775607121571 0 -0.24329038266145239 0.36134909741814653 0 -0.25407523553642281 0.3497448278934856 0 -0.23915963598069589 0.34607775607121571 0 -0.24329038266145239 0.36134909741814653 0 -0.25213085833087667 0.37355178257669552 0 -0.24000210142933509 0.37809552861286783 0 -0.24329038266145239 0.36134909741814653 0 -0.24000210142933509 0.37809552861286783 0 -0.23054114355980421 0.3681661286558337 0 -0.24329038266145239 0.36134909741814653 0 -0.23054114355980421 0.3681661286558337 0 -0.23305195790672301 0.35812934693154008 0 -0.24329038266145239 0.36134909741814653 0 -0.23582541811145999 0.32679902143390172 0 -0.24885494741763489 0.31718848033418301 0 -0.23189508169276829 0.30076725351495531 0 -0.23582541811145999 0.32679902143390172 0 -0.24885494741763489 0.31718848033418301 0 -0.24633099797708269 0.32737693631841108 0 -0.25451497659773847 0.32559442806853028 0 -0.24885494741763489 0.31718848033418301 0 -0.24633099797708269 0.32737693631841108 0 -0.24843663428782739 0.33758714710907461 0 -0.22129300011358269 0.33481371145693772 0 -0.25451497659773847 0.32559442806853028 0 -0.24633099797708269 0.32737693631841108 0 -0.24843663428782739 0.33758714710907461 0 -0.25910260253645218 0.33523110656146687 0 -0.23915963598069589 0.34607775607121571 0 -0.23582541811145999 0.32679902143390172 0 -0.24633099797708269 0.32737693631841108 0 -0.24843663428782739 0.33758714710907461 0 -0.25910260253645218 0.33523110656146687 0 -0.23915963598069589 0.34607775607121571 0 -0.24843663428782739 0.33758714710907461 0 -0.23582541811145999 0.32679902143390172 0 -0.24843663428782739 0.33758714710907461 0 -0.22129300011358269 0.33481371145693772 0 -0.23915963598069589 0.34607775607121571 0 -0.24843663428782739 0.33758714710907461 0 -0.22129300011358269 0.33481371145693772 0 -0.22158808080033929 0.34557455345049992 0 -0.23915963598069589 0.34607775607121571 0 -0.22129300011358269 0.33481371145693772 0 -0.23582541811145999 0.32679902143390172 0 -0.21954464392232159 0.31820766509236142 0 -0.23189508169276829 0.30076725351495531 0 -0.23582541811145999 0.32679902143390172 0 -0.22129300011358269 0.33481371145693772 0 -0.21954464392232159 0.31820766509236142 0 -0.21954464392232159 0.31820766509236142 0 -0.20492818889453221 0.32276220977772679 0 -0.20060783596013981 0.3076349397264902 0 -0.22129300011358269 0.33481371145693772 0 -0.21954464392232159 0.31820766509236142 0 -0.20492818889453221 0.32276220977772679 0 -0.22129300011358269 0.33481371145693772 0 -0.20492818889453221 0.32276220977772679 0 -0.19386790912735871 0.33176087567547108 0 -0.22129300011358269 0.33481371145693772 0 -0.19386790912735871 0.33176087567547108 0 -0.20668301768213909 0.34448234069288158 0 -0.22129300011358269 0.33481371145693772 0 -0.19386790912735871 0.33176087567547108 0 -0.20668301768213909 0.34448234069288158 0 -0.22158808080033929 0.34557455345049992 0 -0.22129300011358269 0.33481371145693772 0 -0.20668301768213909 0.34448234069288158 0 -0.19386790912735871 0.33176087567547108 0 -0.19258948339875709 0.33633707034479371 0 -0.20668301768213909 0.34448234069288158 0 -0.19386790912735871 0.33176087567547108 0 -0.1951678646333711 0.34883535218340811 0 -0.20668301768213909 0.34448234069288158 0 -0.19258948339875709 0.33633707034479371 0 -0.18096143664194889 0.33069278220625808 0 -0.19386790912735871 0.33176087567547108 0 -0.19258948339875709 0.33633707034479371 0 -0.19386790912735871 0.33176087567547108 0 -0.19258948339875709 0.33633707034479371 0 -0.18077272512400111 0.31876138179813301 0 -0.19386790912735871 0.33176087567547108 0 -0.20060783596013981 0.3076349397264902 0 -0.20492818889453221 0.32276220977772679 0 -0.19386790912735871 0.33176087567547108 0 -0.20060783596013981 0.3076349397264902 0 -0.19386790912735871 0.33176087567547108 0 -0.20060783596013981 0.3076349397264902 0 -0.20060783596013981 0.3076349397264902 0 -0.20734776279292019 0.28350900377750898 0 -0.23189508169276829 0.30076725351495531 0 -0.21954464392232159 0.31820766509236142 0 -0.20060783596013981 0.3076349397264902 0 -0.23189508169276829 0.30076725351495531 0 -0.20060783596013981 0.3076349397264902 0 -0.20734776279292019 0.28350900377750898 0 -0.18034630435624241 0.29180066960649809 0 -0.20734776279292019 0.28350900377750898 0 -0.19375927737912041 0.2730469699042487 0 -0.18034630435624241 0.29180066960649809 0 -0.20060783596013981 0.3076349397264902 0 -0.20734776279292019 0.28350900377750898 0 -0.20734776279292019 0.28350900377750898 0 -0.23189508169276829 0.30076725351495531 0 -0.22396762922540969 0.27514125130055722 0 -0.23189508169276829 0.30076725351495531 0 -0.2378434694439332 0.28391349183279069 0 -0.22396762922540969 0.27514125130055722 0 -0.25673188405007052 0.28646841290673969 0 -0.23189508169276829 0.30076725351495531 0 -0.2378434694439332 0.28391349183279069 0 -0.25673188405007052 0.28646841290673969 0 -0.23189508169276829 0.30076725351495531 0 -0.25505401324638421 0.30366623925853881 0 -0.25673188405007052 0.28646841290673969 0 -0.23189508169276829 0.30076725351495531 0 -0.25505401324638421 0.30366623925853881 0 -0.24885494741763489 0.31718848033418301 0 -0.23189508169276829 0.30076725351495531 0 -0.25265925142613249 0.26128234508680298 0 -0.23885305679183191 0.2684477152547543 0 -0.23951274761537589 0.2474853768326048 0 -0.23885305679183191 0.2684477152547543 0 -0.22811192938500721 0.25829645972706228 0 -0.23951274761537589 0.2474853768326048 0 -0.25621817608628389 0.2460965770837312 0 -0.25265925142613249 0.26128234508680298 0 -0.23951274761537589 0.2474853768326048 0 -0.25673188405007052 0.28646841290673969 0 -0.2378434694439332 0.28391349183279069 0 -0.23885305679183191 0.2684477152547543 0 -0.25265925142613249 0.26128234508680298 0 -0.25673188405007052 0.28646841290673969 0 -0.23885305679183191 0.2684477152547543 0 -0.23885305679183191 0.2684477152547543 0 -0.22396762922540969 0.27514125130055722 0 -0.22811192938500721 0.25829645972706228 0 -0.2378434694439332 0.28391349183279069 0 -0.23885305679183191 0.2684477152547543 0 -0.22396762922540969 0.27514125130055722 0 -0.22811192938500721 0.25829645972706228 0 -0.22371849106378741 0.2462845034026982 0 -0.23951274761537589 0.2474853768326048 0 -0.22396762922540969 0.27514125130055722 0 -0.22811192938500721 0.25829645972706228 0 -0.21408768962570049 0.25938306782852782 0 -0.22811192938500721 0.25829645972706228 0 -0.21408768962570049 0.25938306782852782 0 -0.22371849106378741 0.2462845034026982 0 -0.21408768962570049 0.25938306782852782 0 -0.19928355658839081 0.25766712263582692 0 -0.2066863838603582 0.24242880758937649 0 -0.21408768962570049 0.25938306782852782 0 -0.20163280817849061 0.26608937016207479 0 -0.19928355658839081 0.25766712263582692 0 -0.20734776279292019 0.28350900377750898 0 -0.21408768962570049 0.25938306782852782 0 -0.20734776279292019 0.28350900377750898 0 -0.22396762922540969 0.27514125130055722 0 -0.21408768962570049 0.25938306782852782 0 -0.20734776279292019 0.28350900377750898 0 -0.21408768962570049 0.25938306782852782 0 -0.20163280817849061 0.26608937016207479 0 -0.20734776279292019 0.28350900377750898 0 -0.20163280817849061 0.26608937016207479 0 -0.19375927737912041 0.2730469699042487 0 -0.20163280817849061 0.26608937016207479 0 -0.19375927737912041 0.2730469699042487 0 -0.19160269433399771 0.26436194023610149 0 -0.19375927737912041 0.2730469699042487 0 -0.19160269433399771 0.26436194023610149 0 -0.17991988358848049 0.26483995741486333 0 -0.19928355658839081 0.25766712263582692 0 -0.18259587964237009 0.2606558300825601 0 -0.2066863838603582 0.24242880758937649 0 -0.18259587964237009 0.2606558300825601 0 -0.19333963139412971 0.24385714112684301 0 -0.19928355658839081 0.25766712263582692 0 -0.19160269433399771 0.26436194023610149 0 -0.18259587964237009 0.2606558300825601 0 -0.18259587964237009 0.2606558300825601 0 -0.2066863838603582 0.24242880758937649 0 -0.20163280817849061 0.26608937016207479 0 -0.19928355658839081 0.25766712263582692 0 -0.19160269433399771 0.26436194023610149 0 -0.17991988358848049 0.26483995741486333 0 -0.17951502337729761 0.2392424245160312 0 -0.17991988358848049 0.26483995741486333 0 -0.17042143569771079 0.26099360542817968 0 -0.17951502337729761 0.2392424245160312 0 -0.18259587964237009 0.2606558300825601 0 -0.17991988358848049 0.26483995741486333 0 -0.17951502337729761 0.2392424245160312 0 -0.19160269433399771 0.26436194023610149 0 -0.18259587964237009 0.2606558300825601 0 -0.17991988358848049 0.26483995741486333 0 -0.18259587964237009 0.2606558300825601 0 -0.17991988358848049 0.26483995741486333 0 -0.17991988358848049 0.26483995741486333 0 -0.17042143569771079 0.26099360542817968 0 -0.17716480609589361 0.26914773470870201 0 -0.17042143569771079 0.26099360542817968 0 -0.1627301728603629 0.26968240911070368 0 -0.1532221513837192 0.25419418888983192 0 -0.17042143569771079 0.26099360542817968 0 -0.1532221513837192 0.25419418888983192 0 -0.17951502337729761 0.2392424245160312 0 -0.1627301728603629 0.26968240911070368 0 -0.1620479085915319 0.28265904931380531 0 -0.15271877240598841 0.27446820953958367 0 -0.17042143569771079 0.26099360542817968 0 -0.1627301728603629 0.26968240911070368 0 -0.1699765768805111 0.26885491792894611 0 -0.1627301728603629 0.26968240911070368 0 -0.1699765768805111 0.26885491792894611 0 -0.16860704672851359 0.27535934789532951 0 -0.1627301728603629 0.26968240911070368 0 -0.16860704672851359 0.27535934789532951 0 -0.1620479085915319 0.28265904931380531 0 -0.16860704672851359 0.27535934789532951 0 -0.17077339862397739 0.28423195702734899 0 -0.1620479085915319 0.28265904931380531 0 -0.17991988358848049 0.26483995741486333 0 -0.18034630435624241 0.29180066960649809 0 -0.17991988358848049 0.26483995741486333 0 -0.17716480609589361 0.26914773470870201 0 -0.18034630435624241 0.29180066960649809 0 -0.16860704672851359 0.27535934789532951 0 -0.17716480609589361 0.26914773470870201 0 -0.17077339862397739 0.28423195702734899 0 -0.19375927737912041 0.2730469699042487 0 -0.17991988358848049 0.26483995741486333 0 -0.18034630435624241 0.29180066960649809 0 -0.17042143569771079 0.26099360542817968 0 -0.1699765768805111 0.26885491792894611 0 -0.17716480609589361 0.26914773470870201 0 -0.1699765768805111 0.26885491792894611 0 -0.16860704672851359 0.27535934789532951 0 -0.17716480609589361 0.26914773470870201 0 -0.17991988358848049 0.26483995741486333 0 -0.17716480609589361 0.26914773470870201 0 -0.17716480609589361 0.26914773470870201 0 -0.18034630435624241 0.29180066960649809 0 -0.17077339862397739 0.28423195702734899 0 -0.18034630435624241 0.29180066960649809 0 -0.16501618616712291 0.29775164083812761 0 -0.17077339862397739 0.28423195702734899 0 -0.18077272512400111 0.31876138179813301 0 -0.18034630435624241 0.29180066960649809 0 -0.18077272512400111 0.31876138179813301 0 -0.18034630435624241 0.29180066960649809 0 -0.17285953122972289 0.31090601179704258 0 -0.18034630435624241 0.29180066960649809 0 -0.17285953122972289 0.31090601179704258 0 -0.16501618616712291 0.29775164083812761 0 -0.18077272512400111 0.31876138179813301 0 -0.20060783596013981 0.3076349397264902 0 -0.18034630435624241 0.29180066960649809 0 -0.16501618616712291 0.29775164083812761 0 -0.15329008091572741 0.28945008379417048 0 -0.1547819877644892 0.3091453549012102 0 -0.17285953122972289 0.31090601179704258 0 -0.16501618616712291 0.29775164083812761 0 -0.1638395481514221 0.30983277085387728 0 -0.16501618616712291 0.29775164083812761 0 -0.1638395481514221 0.30983277085387728 0 -0.1547819877644892 0.3091453549012102 0 -0.15943794807189979 0.31595908059817063 0 -0.1638395481514221 0.30983277085387728 0 -0.1547819877644892 0.3091453549012102 0 -0.16501618616712291 0.29775164083812761 0 -0.17077339862397739 0.28423195702734899 0 -0.1620479085915319 0.28265904931380531 0 -0.16501618616712291 0.29775164083812761 0 -0.1620479085915319 0.28265904931380531 0 -0.15329008091572741 0.28945008379417048 0 -0.1464174014568787 0.29836992735667278 0 -0.13959432766143021 0.2740409068552887 0 -0.1620479085915319 0.28265904931380531 0 -0.15329008091572741 0.28945008379417048 0 -0.15271877240598841 0.27446820953958367 0 -0.15329008091572741 0.28945008379417048 0 -0.1464174014568787 0.29836992735667278 0 -0.13959432766143021 0.2740409068552887 0 -0.15329008091572741 0.28945008379417048 0 -0.1464174014568787 0.29836992735667278 0 -0.1547819877644892 0.3091453549012102 0 -0.1532404752523272 0.32269894785805692 0 -0.1464174014568787 0.29836992735667278 0 -0.1360408951285694 0.3130357752318072 0 -0.14290423209994971 0.32095809222069871 0 -0.1464174014568787 0.29836992735667278 0 -0.1532404752523272 0.32269894785805692 0 -0.1464174014568787 0.29836992735667278 0 -0.1547819877644892 0.3091453549012102 0 -0.1360408951285694 0.3130357752318072 0 -0.1264253840414637 0.29528772621663357 0 -0.12136448477009221 0.30951812845445109 0 -0.1360408951285694 0.3130357752318072 0 -0.1464174014568787 0.29836992735667278 0 -0.1264253840414637 0.29528772621663357 0 -0.1464174014568787 0.29836992735667278 0 -0.1264253840414637 0.29528772621663357 0 -0.13959432766143021 0.2740409068552887 0 -0.1264253840414637 0.29528772621663357 0 -0.13959432766143021 0.2740409068552887 0 -0.1185373796182298 0.27837978510360878 0 -0.13959432766143021 0.2740409068552887 0 -0.1327712538659816 0.24971188635390451 0 -0.13959432766143021 0.2740409068552887 0 -0.116744543106582 0.25728181003509248 0 -0.1327712538659816 0.24971188635390451 0 -0.13959432766143021 0.2740409068552887 0 -0.1532221513837192 0.25419418888983192 0 -0.1327712538659816 0.24971188635390451 0 -0.1627301728603629 0.26968240911070368 0 -0.1532221513837192 0.25419418888983192 0 -0.15271877240598841 0.27446820953958367 0 -0.13959432766143021 0.2740409068552887 0 -0.1532221513837192 0.25419418888983192 0 -0.15271877240598841 0.27446820953958367 0 -0.15329008091572741 0.28945008379417048 0 -0.13959432766143021 0.2740409068552887 0 -0.15271877240598841 0.27446820953958367 0 -0.1061606963602142 0.26761343855331338 0 -0.1001789302111205 0.27974269320078388 0 -0.1185373796182298 0.27837978510360878 0 -0.1061606963602142 0.26761343855331338 0 -0.1001789302111205 0.27974269320078388 0 -0.092613028744971265 0.26767711662392979 0 -0.1061606963602142 0.26761343855331338 0 -0.10005120432924321 0.25626016583208688 0 -0.116744543106582 0.25728181003509248 0 -0.1061606963602142 0.26761343855331338 0 -0.10005120432924321 0.25626016583208688 0 -0.092613028744971265 0.26767711662392979 0 -0.10005120432924321 0.25626016583208688 0 -0.116744543106582 0.25728181003509248 0 -0.1045487088169635 0.24438495162540061 0 -0.13959432766143021 0.2740409068552887 0 -0.116744543106582 0.25728181003509248 0 -0.1185373796182298 0.27837978510360878 0 -0.1061606963602142 0.26761343855331338 0 -0.116744543106582 0.25728181003509248 0 -0.1185373796182298 0.27837978510360878 0 -0.1264253840414637 0.29528772621663357 0 -0.1127724140037699 0.30190213115774378 0 -0.1091517300735869 0.29135078386346752 0 -0.1264253840414637 0.29528772621663357 0 -0.1185373796182298 0.27837978510360878 0 -0.1091517300735869 0.29135078386346752 0 -0.1264253840414637 0.29528772621663357 0 -0.12136448477009221 0.30951812845445109 0 -0.1127724140037699 0.30190213115774378 0 -0.12136448477009221 0.30951812845445109 0 -0.1127724140037699 0.30190213115774378 0 -0.1061991548417472 0.31213959050036899 0 -0.1127724140037699 0.30190213115774378 0 -0.1061991548417472 0.31213959050036899 0 -0.1005146973405663 0.30141191014932889 0 -0.1127724140037699 0.30190213115774378 0 -0.1005146973405663 0.30141191014932889 0 -0.1091517300735869 0.29135078386346752 0 -0.1005146973405663 0.30141191014932889 0 -0.094430836728355921 0.29177030977787999 0 -0.089068024122243669 0.30112896568664949 0 -0.1061991548417472 0.31213959050036899 0 -0.1005146973405663 0.30141191014932889 0 -0.090928135519314904 0.31087631578889069 0 -0.1001789302111205 0.27974269320078388 0 -0.1185373796182298 0.27837978510360878 0 -0.1091517300735869 0.29135078386346752 0 -0.1005146973405663 0.30141191014932889 0 -0.1091517300735869 0.29135078386346752 0 -0.094430836728355921 0.29177030977787999 0 -0.1001789302111205 0.27974269320078388 0 -0.1091517300735869 0.29135078386346752 0 -0.094430836728355921 0.29177030977787999 0 -0.1001789302111205 0.27974269320078388 0 -0.094430836728355921 0.29177030977787999 0 -0.086145563619835275 0.2816538088019015 0 -0.094430836728355921 0.29177030977787999 0 -0.086145563619835275 0.2816538088019015 0 -0.081526075002782958 0.29533369696514911 0 -0.094430836728355921 0.29177030977787999 0 -0.081526075002782958 0.29533369696514911 0 -0.089068024122243669 0.30112896568664949 0 -0.086145563619835275 0.2816538088019015 0 -0.081526075002782958 0.29533369696514911 0 -0.070830210313899522 0.29195808219782299 0 -0.090928135519314904 0.31087631578889069 0 -0.079482369404140468 0.30560554845979909 0 -0.074915307566508993 0.31649039264194578 0 -0.090928135519314904 0.31087631578889069 0 -0.089068024122243669 0.30112896568664949 0 -0.079482369404140468 0.30560554845979909 0 -0.1005146973405663 0.30141191014932889 0 -0.090928135519314904 0.31087631578889069 0 -0.089068024122243669 0.30112896568664949 0 -0.081526075002782958 0.29533369696514911 0 -0.089068024122243669 0.30112896568664949 0 -0.079482369404140468 0.30560554845979909 0 -0.054647974243728172 0.30430181459310768 0 -0.074915307566508993 0.31649039264194578 0 -0.079482369404140468 0.30560554845979909 0 -0.068661557073843291 0.3005821027458685 0 -0.074915307566508993 0.31649039264194578 0 -0.068661557073843291 0.3005821027458685 0 -0.054647974243728172 0.30430181459310768 0 -0.074915307566508993 0.31649039264194578 0 -0.081526075002782958 0.29533369696514911 0 -0.079482369404140468 0.30560554845979909 0 -0.068661557073843291 0.3005821027458685 0 -0.070830210313899522 0.29195808219782299 0 -0.067453711470644842 0.27023673344429472 0 -0.052574645638654917 0.28480468584225688 0 -0.081526075002782958 0.29533369696514911 0 -0.068661557073843291 0.3005821027458685 0 -0.070830210313899522 0.29195808219782299 0 -0.068661557073843291 0.3005821027458685 0 -0.070830210313899522 0.29195808219782299 0 -0.068661557073843291 0.3005821027458685 0 -0.070830210313899522 0.29195808219782299 0 -0.059610011597539182 0.29372125904316332 0 -0.086145563619835275 0.2816538088019015 0 -0.070830210313899522 0.29195808219782299 0 -0.077256670317037021 0.26667642926106078 0 -0.070830210313899522 0.29195808219782299 0 -0.067453711470644842 0.27023673344429472 0 -0.070830210313899522 0.29195808219782299 0 -0.077256670317037021 0.26667642926106078 0 -0.070830210313899522 0.29195808219782299 0 -0.067453711470644842 0.27023673344429472 0 -0.077256670317037021 0.26667642926106078 0 -0.086145563619835275 0.2816538088019015 0 -0.077256670317037021 0.26667642926106078 0 -0.092613028744971265 0.26767711662392979 0 -0.1001789302111205 0.27974269320078388 0 -0.086145563619835275 0.2816538088019015 0 -0.092613028744971265 0.26767711662392979 0 -0.077256670317037021 0.26667642926106078 0 -0.086302411784292182 0.25447467192259482 0 -0.083666647235009842 0.24139059785004849 0 -0.077256670317037021 0.26667642926106078 0 -0.083666647235009842 0.24139059785004849 0 -0.10005120432924321 0.25626016583208688 0 -0.086302411784292182 0.25447467192259482 0 -0.094679029848152713 0.24609146959404629 0 -0.10005120432924321 0.25626016583208688 0 -0.092613028744971265 0.26767711662392979 0 -0.086302411784292182 0.25447467192259482 0 -0.077256670317037021 0.26667642926106078 0 -0.092613028744971265 0.26767711662392979 0 -0.086302411784292182 0.25447467192259482 0 -0.077256670317037021 0.26667642926106078 0 -0.064077212627390134 0.24851538469076631 0 -0.083666647235009842 0.24139059785004849 0 -0.067453711470644842 0.27023673344429472 0 -0.077256670317037021 0.26667642926106078 0 -0.064077212627390134 0.24851538469076631 0 -0.067453711470644842 0.27023673344429472 0 -0.064077212627390134 0.24851538469076631 0 -0.067453711470644842 0.27023673344429472 0 -0.04634179854296408 0.26632715615711849 0 -0.064077212627390134 0.24851538469076631 0 -0.04634179854296408 0.26632715615711849 0 -0.064077212627390134 0.24851538469076631 0 -0.046578861792199937 0.24361118962503389 0 -0.067453711470644842 0.27023673344429472 0 -0.04634179854296408 0.26632715615711849 0 -0.052574645638654917 0.28480468584225688 0 -0.04634179854296408 0.26632715615711849 0 -0.034380640920947357 0.29211323654426968 0 -0.052574645638654917 0.28480468584225688 0 -0.04634179854296408 0.26632715615711849 0 -0.022607631921228569 0.27169805167723737 0 -0.034380640920947357 0.29211323654426968 0 -0.04634179854296408 0.26632715615711849 0 -0.03068766995985707 0.25286978792993342 0 -0.022607631921228569 0.27169805167723737 0 -0.04634179854296408 0.26632715615711849 0 -0.03068766995985707 0.25286978792993342 0 -0.046578861792199937 0.24361118962503389 0 -0.03068766995985707 0.25286978792993342 0 -0.022607631921228569 0.27169805167723737 0 -0.0098044441781452579 0.25473951632571468 0 -0.022607631921228569 0.27169805167723737 0 -0.015153941911089409 0.29208252597919021 0 3.3590645499582607e-05 0.27236849017123349 0 -0.022607631921228569 0.27169805167723737 0 -0.0098044441781452579 0.25473951632571468 0 3.3590645499582607e-05 0.27236849017123349 0 -0.0098044441781452579 0.25473951632571468 0 0.0073806355134042019 0.25529449578482938 0 3.3590645499582607e-05 0.27236849017123349 0 -0.0088759444352828343 0.31092800175718183 0 -0.015153941911089409 0.29208252597919021 0 0.0083336089875100904 0.29343585490586271 0 -0.015153941911089409 0.29208252597919021 0 0.0083336089875100904 0.29343585490586271 0 3.3590645499582607e-05 0.27236849017123349 0 -0.022607631921228569 0.27169805167723737 0 -0.015153941911089409 0.29208252597919021 0 -0.034380640920947357 0.29211323654426968 0 -0.0088759444352828343 0.31092800175718183 0 -0.015153941911089409 0.29208252597919021 0 -0.03508050583840458 0.3127012881250415 0 -0.015153941911089409 0.29208252597919021 0 -0.034380640920947357 0.29211323654426968 0 -0.03508050583840458 0.3127012881250415 0 -0.034380640920947357 0.29211323654426968 0 -0.054647974243728172 0.30430181459310768 0 -0.034380640920947357 0.29211323654426968 0 -0.054647974243728172 0.30430181459310768 0 -0.03508050583840458 0.3127012881250415 0 -0.034380640920947357 0.29211323654426968 0 -0.052574645638654917 0.28480468584225688 0 -0.054647974243728172 0.30430181459310768 0 -0.052574645638654917 0.28480468584225688 0 -0.059610011597539182 0.29372125904316332 0 -0.054647974243728172 0.30430181459310768 0 -0.070830210313899522 0.29195808219782299 0 -0.052574645638654917 0.28480468584225688 0 -0.059610011597539182 0.29372125904316332 0 -0.068661557073843291 0.3005821027458685 0 -0.059610011597539182 0.29372125904316332 0 -0.054647974243728172 0.30430181459310768 0 -0.058679851530075752 0.32054224196392622 0 -0.045885169747561752 0.33132665820789581 0 -0.073191842414501496 0.33174208285196288 0 -0.054647974243728172 0.30430181459310768 0 -0.058679851530075752 0.32054224196392622 0 -0.03508050583840458 0.3127012881250415 0 -0.045885169747561752 0.33132665820789581 0 -0.067541502003893042 0.3482616942848048 0 -0.073191842414501496 0.33174208285196288 0 -0.045885169747561752 0.33132665820789581 0 -0.073191842414501496 0.33174208285196288 0 -0.045885169747561752 0.33132665820789581 0 -0.018578497080621779 0.33091123356382868 0 -0.045885169747561752 0.33132665820789581 0 -0.03508050583840458 0.3127012881250415 0 -0.018578497080621779 0.33091123356382868 0 -0.058679851530075752 0.32054224196392622 0 -0.045885169747561752 0.33132665820789581 0 -0.03508050583840458 0.3127012881250415 0 -0.0088759444352828343 0.31092800175718183 0 -0.03508050583840458 0.3127012881250415 0 -0.018578497080621779 0.33091123356382868 0 -0.018578497080621779 0.33091123356382868 0 -0.0050552824635438226 0.34569829691311771 0 -0.02749858990914332 0.35301881799134821 0 -0.045885169747561752 0.33132665820789581 0 -0.018578497080621779 0.33091123356382868 0 -0.02749858990914332 0.35301881799134821 0 -0.018578497080621779 0.33091123356382868 0 -0.0050552824635438226 0.34569829691311771 0 0.0064742168078369342 0.3347740657525386 0 -0.018578497080621779 0.33091123356382868 0 0.0087281755863181168 0.33049580891976171 0 -0.018578497080621779 0.33091123356382868 0 0.0064742168078369342 0.3347740657525386 0 0.0087281755863181168 0.33049580891976171 0 -0.018578497080621779 0.33091123356382868 0 -0.003280447873963227 0.32161399115684158 0 0.0087281755863181168 0.33049580891976171 0 -0.0088759444352828343 0.31092800175718183 0 -0.018578497080621779 0.33091123356382868 0 -0.003280447873963227 0.32161399115684158 0 -0.0088759444352828343 0.31092800175718183 0 -0.003280447873963227 0.32161399115684158 0 0.0056044744337335906 0.31412092038659428 0 -0.0052616759920083916 0.36132776784546622 0 -0.0045342830833226501 0.3863935686212247 0 -0.0052616759920083916 0.36132776784546622 0 -0.024169526760701381 0.37267007813580277 0 -0.0045342830833226501 0.3863935686212247 0 -0.0052616759920083916 0.36132776784546622 0 -0.0045342830833226501 0.3863935686212247 0 0.0079023355216259559 0.37348921158265391 0 -0.0052616759920083916 0.36132776784546622 0 -0.0050552824635438226 0.34569829691311771 0 0.0061318462344260851 0.35417601161121459 0 -0.0052616759920083916 0.36132776784546622 0 -0.0050552824635438226 0.34569829691311771 0 -0.02749858990914332 0.35301881799134821 0 -0.02749858990914332 0.35301881799134821 0 -0.024169526760701381 0.37267007813580277 0 -0.04149310004589906 0.37124785083274592 0 -0.0052616759920083916 0.36132776784546622 0 -0.02749858990914332 0.35301881799134821 0 -0.024169526760701381 0.37267007813580277 0 -0.02749858990914332 0.35301881799134821 0 -0.04149310004589906 0.37124785083274592 0 -0.051818441616049399 0.35735321764765782 0 -0.045885169747561752 0.33132665820789581 0 -0.02749858990914332 0.35301881799134821 0 -0.051818441616049399 0.35735321764765782 0 -0.045885169747561752 0.33132665820789581 0 -0.051818441616049399 0.35735321764765782 0 -0.067541502003893042 0.3482616942848048 0 -0.04149310004589906 0.37124785083274592 0 -0.051818441616049399 0.35735321764765782 0 -0.056875823715872062 0.37631267096962301 0 -0.051818441616049399 0.35735321764765782 0 -0.069616273344600341 0.3650636543096733 0 -0.056875823715872062 0.37631267096962301 0 -0.069616273344600341 0.3650636543096733 0 -0.085055645225370236 0.37193713089684588 0 -0.071788917171084016 0.3809272333041443 0 -0.069616273344600341 0.3650636543096733 0 -0.071788917171084016 0.3809272333041443 0 -0.056875823715872062 0.37631267096962301 0 -0.069616273344600341 0.3650636543096733 0 -0.085055645225370236 0.37193713089684588 0 -0.084100884505446297 0.3554636863979832 0 -0.085055645225370236 0.37193713089684588 0 -0.084100884505446297 0.3554636863979832 0 -0.1008292236537022 0.36036332390371462 0 -0.084100884505446297 0.3554636863979832 0 -0.067541502003893042 0.3482616942848048 0 -0.085709514220790303 0.34113927750747819 0 -0.084100884505446297 0.3554636863979832 0 -0.085709514220790303 0.34113927750747819 0 -0.099722393067727538 0.34687368244968458 0 -0.069616273344600341 0.3650636543096733 0 -0.084100884505446297 0.3554636863979832 0 -0.067541502003893042 0.3482616942848048 0 -0.051818441616049399 0.35735321764765782 0 -0.069616273344600341 0.3650636543096733 0 -0.067541502003893042 0.3482616942848048 0 -0.067541502003893042 0.3482616942848048 0 -0.073191842414501496 0.33174208285196288 0 -0.085709514220790303 0.34113927750747819 0 -0.058679851530075752 0.32054224196392622 0 -0.073191842414501496 0.33174208285196288 0 -0.074915307566508993 0.31649039264194578 0 -0.054647974243728172 0.30430181459310768 0 -0.058679851530075752 0.32054224196392622 0 -0.074915307566508993 0.31649039264194578 0 -0.073191842414501496 0.33174208285196288 0 -0.074915307566508993 0.31649039264194578 0 -0.095182640889289766 0.32867897069078372 0 -0.090928135519314904 0.31087631578889069 0 -0.074915307566508993 0.31649039264194578 0 -0.095182640889289766 0.32867897069078372 0 -0.074915307566508993 0.31649039264194578 0 -0.095182640889289766 0.32867897069078372 0 -0.073191842414501496 0.33174208285196288 0 -0.085709514220790303 0.34113927750747819 0 -0.095182640889289766 0.32867897069078372 0 -0.085709514220790303 0.34113927750747819 0 -0.095182640889289766 0.32867897069078372 0 -0.099722393067727538 0.34687368244968458 0 -0.095182640889289766 0.32867897069078372 0 -0.1154499742120704 0.34086754873962172 0 -0.095182640889289766 0.32867897069078372 0 -0.1098512680755149 0.32470257897991811 0 -0.1154499742120704 0.34086754873962172 0 -0.095182640889289766 0.32867897069078372 0 -0.1154499742120704 0.34086754873962172 0 -0.099722393067727538 0.34687368244968458 0 -0.1061991548417472 0.31213959050036899 0 -0.090928135519314904 0.31087631578889069 0 -0.095182640889289766 0.32867897069078372 0 -0.1061991548417472 0.31213959050036899 0 -0.095182640889289766 0.32867897069078372 0 -0.1098512680755149 0.32470257897991811 0 -0.1061991548417472 0.31213959050036899 0 -0.115330384384618 0.31728312261503783 0 -0.1098512680755149 0.32470257897991811 0 -0.12136448477009221 0.30951812845445109 0 -0.1061991548417472 0.31213959050036899 0 -0.115330384384618 0.31728312261503783 0 -0.115330384384618 0.31728312261503783 0 -0.1098512680755149 0.32470257897991811 0 -0.12142985306419619 0.32461006626398298 0 -0.12722248981549561 0.3181430308760943 0 -0.115330384384618 0.31728312261503783 0 -0.12142985306419619 0.32461006626398298 0 -0.12722248981549561 0.3181430308760943 0 -0.12136448477009221 0.30951812845445109 0 -0.115330384384618 0.31728312261503783 0 -0.1098512680755149 0.32470257897991811 0 -0.12142985306419619 0.32461006626398298 0 -0.1154499742120704 0.34086754873962172 0 -0.13363790056006589 0.32585743918209531 0 -0.12142985306419619 0.32461006626398298 0 -0.1154499742120704 0.34086754873962172 0 -0.12523428666698541 0.37069662222368049 0 -0.1294360936135257 0.3482770307028879 0 -0.1154159689866658 0.35521970897278921 0 -0.1154499742120704 0.34086754873962172 0 -0.1154159689866658 0.35521970897278921 0 -0.099722393067727538 0.34687368244968458 0 -0.1294360936135257 0.3482770307028879 0 -0.1154499742120704 0.34086754873962172 0 -0.1154159689866658 0.35521970897278921 0 -0.12523428666698541 0.37069662222368049 0 -0.1154159689866658 0.35521970897278921 0 -0.11117961403065831 0.36839673047223442 0 -0.12523428666698541 0.37069662222368049 0 -0.11117961403065831 0.36839673047223442 0 -0.1123930043347208 0.38073562172137532 0 -0.11117961403065831 0.36839673047223442 0 -0.1008292236537022 0.36036332390371462 0 -0.09970079949094271 0.37763208900548878 0 -0.1154159689866658 0.35521970897278921 0 -0.11117961403065831 0.36839673047223442 0 -0.1008292236537022 0.36036332390371462 0 -0.085055645225370236 0.37193713089684588 0 -0.1008292236537022 0.36036332390371462 0 -0.09970079949094271 0.37763208900548878 0 -0.084100884505446297 0.3554636863979832 0 -0.1008292236537022 0.36036332390371462 0 -0.099722393067727538 0.34687368244968458 0 -0.1154159689866658 0.35521970897278921 0 -0.1008292236537022 0.36036332390371462 0 -0.099722393067727538 0.34687368244968458 0 -0.1036554482544351 0.39516830989393792 0 -0.1102807352191843 0.41378788895710661 0 -0.09259379641793411 0.40948313349934218 0 -0.1036554482544351 0.39516830989393792 0 -0.09970079949094271 0.37763208900548878 0 -0.1123930043347208 0.38073562172137532 0 -0.1036554482544351 0.39516830989393792 0 -0.09970079949094271 0.37763208900548878 0 -0.084297773186445962 0.39217279846007119 0 -0.11117961403065831 0.36839673047223442 0 -0.09970079949094271 0.37763208900548878 0 -0.1123930043347208 0.38073562172137532 0 -0.12523428666698541 0.37069662222368049 0 -0.1123930043347208 0.38073562172137532 0 -0.12103247972044499 0.39311621374447298 0 -0.1036554482544351 0.39516830989393792 0 -0.1123930043347208 0.38073562172137532 0 -0.12103247972044499 0.39311621374447298 0 -0.12523428666698541 0.37069662222368049 0 -0.12103247972044499 0.39311621374447298 0 -0.1036554482544351 0.39516830989393792 0 -0.12103247972044499 0.39311621374447298 0 -0.1102807352191843 0.41378788895710661 0 -0.12997925716256209 0.39431640422262348 0 -0.1102807352191843 0.41378788895710661 0 -0.12997925716256209 0.39431640422262348 0 -0.12103247972044499 0.39311621374447298 0 -0.1102807352191843 0.41378788895710661 0 -0.12623023605756489 0.41143854881348008 0 -0.1102807352191843 0.41378788895710661 0 -0.1242188050129694 0.42501783294758849 0 -0.12623023605756489 0.41143854881348008 0 -0.12997925716256209 0.39431640422262348 0 -0.1102807352191843 0.41378788895710661 0 -0.1102807352191843 0.41378788895710661 0 -0.1104760497445479 0.43296770510105842 0 -0.1242188050129694 0.42501783294758849 0 -0.1104760497445479 0.43296770510105842 0 -0.1242188050129694 0.42501783294758849 0 -0.1248743097581413 0.44162978393037222 0 -0.1102807352191843 0.41378788895710661 0 -0.090582213275806372 0.43325937369158968 0 -0.1102807352191843 0.41378788895710661 0 -0.1104760497445479 0.43296770510105842 0 -0.090582213275806372 0.43325937369158968 0 -0.1102807352191843 0.41378788895710661 0 -0.09259379641793411 0.40948313349934218 0 -0.090582213275806372 0.43325937369158968 0 -0.09259379641793411 0.40948313349934218 0 -0.090582213275806372 0.43325937369158968 0 -0.074152812153798875 0.41302729649400538 0 -0.090582213275806372 0.43325937369158968 0 -0.066022972602334681 0.42956105407568013 0 -0.074152812153798875 0.41302729649400538 0 -0.066022972602334681 0.42956105407568013 0 -0.074152812153798875 0.41302729649400538 0 -0.049329429094603867 0.41198700835812702 0 -0.074152812153798875 0.41302729649400538 0 -0.063154715464804681 0.39516467689365731 0 -0.084297773186445962 0.39217279846007119 0 -0.09259379641793411 0.40948313349934218 0 -0.074152812153798875 0.41302729649400538 0 -0.084297773186445962 0.39217279846007119 0 -0.1036554482544351 0.39516830989393792 0 -0.09259379641793411 0.40948313349934218 0 -0.084297773186445962 0.39217279846007119 0 -0.085055645225370236 0.37193713089684588 0 -0.09970079949094271 0.37763208900548878 0 -0.084297773186445962 0.39217279846007119 0 -0.085055645225370236 0.37193713089684588 0 -0.084297773186445962 0.39217279846007119 0 -0.071788917171084016 0.3809272333041443 0 -0.063154715464804681 0.39516467689365731 0 -0.084297773186445962 0.39217279846007119 0 -0.071788917171084016 0.3809272333041443 0 -0.063154715464804681 0.39516467689365731 0 -0.071788917171084016 0.3809272333041443 0 -0.056875823715872062 0.37631267096962301 0 -0.04149310004589906 0.37124785083274592 0 -0.056875823715872062 0.37631267096962301 0 -0.04338349465279491 0.38811939282985902 0 -0.063154715464804681 0.39516467689365731 0 -0.056875823715872062 0.37631267096962301 0 -0.04338349465279491 0.38811939282985902 0 -0.063154715464804681 0.39516467689365731 0 -0.04338349465279491 0.38811939282985902 0 -0.049329429094603867 0.41198700835812702 0 -0.04338349465279491 0.38811939282985902 0 -0.024844401122877391 0.39948633252540261 0 -0.049329429094603867 0.41198700835812702 0 -0.024169526760701381 0.37267007813580277 0 -0.04149310004589906 0.37124785083274592 0 -0.04338349465279491 0.38811939282985902 0 -0.024169526760701381 0.37267007813580277 0 -0.04338349465279491 0.38811939282985902 0 -0.024844401122877391 0.39948633252540261 0 -0.024169526760701381 0.37267007813580277 0 -0.024844401122877391 0.39948633252540261 0 -0.0045342830833226501 0.3863935686212247 0 -0.024844401122877391 0.39948633252540261 0 -0.0045342830833226501 0.3863935686212247 0 -0.0038092142255275289 0.41137928311071797 0 -0.0045342830833226501 0.3863935686212247 0 -0.0038092142255275289 0.41137928311071797 0 -0.024169526760701381 0.37267007813580277 0 -0.0045342830833226501 0.3863935686212247 0 -0.0030841453677343121 0.43636499760021141 0 -0.0038092142255275289 0.41137928311071797 0 -0.026324668085478481 0.42779129271708288 0 -0.0030841453677343121 0.43636499760021141 0 -0.0038092142255275289 0.41137928311071797 0 -0.024844401122877391 0.39948633252540261 0 -0.0038092142255275289 0.41137928311071797 0 -0.026324668085478481 0.42779129271708288 0 -0.026324668085478481 0.42779129271708288 0 -0.049329429094603867 0.41198700835812702 0 -0.049413859365407042 0.43472239834070731 0 -0.024844401122877391 0.39948633252540261 0 -0.026324668085478481 0.42779129271708288 0 -0.049329429094603867 0.41198700835812702 0 -0.074152812153798875 0.41302729649400538 0 -0.063154715464804681 0.39516467689365731 0 -0.049329429094603867 0.41198700835812702 0 -0.066022972602334681 0.42956105407568013 0 -0.049329429094603867 0.41198700835812702 0 -0.049413859365407042 0.43472239834070731 0 -0.066022972602334681 0.42956105407568013 0 -0.049413859365407042 0.43472239834070731 0 -0.0708836913324285 0.45273085842607269 0 -0.0393713920190637 0.45112048084748302 0 -0.052402143273794041 0.47435943831340011 0 -0.0708836913324285 0.45273085842607269 0 -0.049413859365407042 0.43472239834070731 0 -0.0393713920190637 0.45112048084748302 0 -0.0708836913324285 0.45273085842607269 0 -0.0393713920190637 0.45112048084748302 0 -0.02876560419008364 0.47203163756026523 0 -0.052402143273794041 0.47435943831340011 0 -0.026324668085478481 0.42779129271708288 0 -0.049413859365407042 0.43472239834070731 0 -0.0393713920190637 0.45112048084748302 0 -0.0030841453677343121 0.43636499760021141 0 -0.026324668085478481 0.42779129271708288 0 -0.01888650882967766 0.45329231687868837 0 -0.026324668085478481 0.42779129271708288 0 -0.0393713920190637 0.45112048084748302 0 -0.01888650882967766 0.45329231687868837 0 -0.0393713920190637 0.45112048084748302 0 -0.01888650882967766 0.45329231687868837 0 -0.02876560419008364 0.47203163756026523 0 -0.01888650882967766 0.45329231687868837 0 -0.01341416680576474 0.47109478045738301 0 -0.02876560419008364 0.47203163756026523 0 -0.01888650882967766 0.45329231687868837 0 -0.002359076509941094 0.46135071208970457 0 -0.01341416680576474 0.47109478045738301 0 -0.0030841453677343121 0.43636499760021141 0 -0.01888650882967766 0.45329231687868837 0 -0.002359076509941094 0.46135071208970457 0 -0.0030841453677343121 0.43636499760021141 0 -0.002359076509941094 0.46135071208970457 0 -0.0090346539348886701 0.5 0 -0.0016340076521478781 0.48633642657919801 0 -0.017460482120078509 0.48648722646036041 0 -0.0016340076521478781 0.48633642657919801 0 -0.01341416680576474 0.47109478045738301 0 -0.017460482120078509 0.48648722646036041 0 -0.002359076509941094 0.46135071208970457 0 -0.0016340076521478781 0.48633642657919801 0 -0.01341416680576474 0.47109478045738301 0 -0.002359076509941094 0.46135071208970457 0 -0.0016340076521478781 0.48633642657919801 0 -0.002359076509941094 0.46135071208970457 0 -0.0016340076521478781 0.48633642657919801 0 0.0036787250480955699 0.47408322248379448 0 -0.01341416680576474 0.47109478045738301 0 -0.02876560419008364 0.47203163756026523 0 -0.017460482120078509 0.48648722646036041 0 -0.02876560419008364 0.47203163756026523 0 -0.017460482120078509 0.48648722646036041 0 -0.038135422162237087 0.5 0 -0.0090346539348886701 0.5 0 -0.017460482120078509 0.48648722646036041 0 -0.038135422162237087 0.5 0 -0.02876560419008364 0.47203163756026523 0 -0.038135422162237087 0.5 0 -0.052402143273794041 0.47435943831340011 0 -0.038135422162237087 0.5 0 -0.052402143273794041 0.47435943831340011 0 -0.067236190389585393 0.5 0 -0.052402143273794041 0.47435943831340011 0 -0.067236190389585393 0.5 0 -0.073349005429332273 0.47921852398434828 0 -0.067236190389585393 0.5 0 -0.073349005429332273 0.47921852398434828 0 -0.096336958616933588 0.5 0 -0.073349005429332273 0.47921852398434828 0 -0.096336958616933588 0.5 0 -0.093805091172543903 0.47224368257650851 0 -0.052402143273794041 0.47435943831340011 0 -0.073349005429332273 0.47921852398434828 0 -0.0708836913324285 0.45273085842607269 0 -0.0708836913324285 0.45273085842607269 0 -0.1043361340672995 0.45358667135048331 0 -0.093805091172543903 0.47224368257650851 0 -0.090582213275806372 0.43325937369158968 0 -0.0708836913324285 0.45273085842607269 0 -0.1043361340672995 0.45358667135048331 0 -0.090582213275806372 0.43325937369158968 0 -0.066022972602334681 0.42956105407568013 0 -0.0708836913324285 0.45273085842607269 0 -0.090582213275806372 0.43325937369158968 0 -0.0708836913324285 0.45273085842607269 0 -0.073349005429332273 0.47921852398434828 0 -0.0708836913324285 0.45273085842607269 0 -0.093805091172543903 0.47224368257650851 0 -0.1043361340672995 0.45358667135048331 0 -0.12052644250191399 0.4682622397032008 0 -0.093805091172543903 0.47224368257650851 0 -0.1104760497445479 0.43296770510105842 0 -0.090582213275806372 0.43325937369158968 0 -0.1043361340672995 0.45358667135048331 0 -0.12618187852634369 0.45882241462805679 0 -0.1043361340672995 0.45358667135048331 0 -0.1248743097581413 0.44162978393037222 0 -0.1104760497445479 0.43296770510105842 0 -0.1043361340672995 0.45358667135048331 0 -0.1248743097581413 0.44162978393037222 0 -0.12618187852634369 0.45882241462805679 0 -0.1043361340672995 0.45358667135048331 0 -0.12052644250191399 0.4682622397032008 0 -0.1317912103042716 0.47600940211286807 0 -0.12052644250191399 0.4682622397032008 0 -0.11642361318749669 0.48420448820259387 0 -0.12052644250191399 0.4682622397032008 0 -0.11642361318749669 0.48420448820259387 0 -0.093805091172543903 0.47224368257650851 0 -0.12543772684428189 0.5 0 -0.11642361318749669 0.48420448820259387 0 -0.096336958616933588 0.5 0 -0.12543772684428189 0.5 0 -0.13178312884530541 0.48627570230508688 0 -0.11642361318749669 0.48420448820259387 0 -0.11642361318749669 0.48420448820259387 0 -0.096336958616933588 0.5 0 -0.093805091172543903 0.47224368257650851 0 -0.1693268494853358 0.079538523923443544 0 -0.16945340910355561 0.089496265134995978 0 -0.1618062267740645 0.07958177760614682 0 -0.16945340910355561 0.089496265134995978 0 -0.1618062267740645 0.07958177760614682 0 -0.1616157516695074 0.095139316102685473 0 -0.1618062267740645 0.07958177760614682 0 -0.1616157516695074 0.095139316102685473 0 -0.14767322655010931 0.084806545451415583 0 -0.1618062267740645 0.07958177760614682 0 -0.16640070467345031 0.07104807823334372 0 -0.15517576509654349 0.068304766057398533 0 -0.16640070467345031 0.07104807823334372 0 -0.15517576509654349 0.068304766057398533 0 -0.16451238623864939 0.061110077383343737 0 -0.16640070467345031 0.07104807823334372 0 -0.17354141001077031 0.063798093567348918 0 -0.16451238623864939 0.061110077383343737 0 -0.17157411485926041 0.074087910936242465 0 -0.16640070467345031 0.07104807823334372 0 -0.17354141001077031 0.063798093567348918 0 -0.1693268494853358 0.079538523923443544 0 -0.17157411485926041 0.074087910936242465 0 -0.16640070467345031 0.07104807823334372 0 -0.1693268494853358 0.079538523923443544 0 -0.1618062267740645 0.07958177760614682 0 -0.16640070467345031 0.07104807823334372 0 -0.17354141001077031 0.063798093567348918 0 -0.17702749526748529 0.081966948020833708 0 -0.17656426821359539 0.052679136019797047 0 -0.18185637422210199 0.067243003367259677 0 -0.17702749526748529 0.081966948020833708 0 -0.17656426821359539 0.052679136019797047 0 -0.17702749526748529 0.081966948020833708 0 -0.17656426821359539 0.052679136019797047 0 -0.17157411485926041 0.074087910936242465 0 -0.17354141001077031 0.063798093567348918 0 -0.17702749526748529 0.081966948020833708 0 -0.18185637422210199 0.067243003367259677 0 -0.1853153676200878 0.058850167416455039 0 -0.18892740292417859 0.064703221589215376 0 -0.18185637422210199 0.067243003367259677 0 -0.19050021368002351 0.072419239531055349 0 -0.18892740292417859 0.064703221589215376 0 -0.18185637422210199 0.067243003367259677 0 -0.18141962227324601 0.075216957450553817 0 -0.17702749526748529 0.081966948020833708 0 -0.18185637422210199 0.067243003367259677 0 -0.18141962227324601 0.075216957450553817 0 -0.19050021368002351 0.072419239531055349 0 -0.18141962227324601 0.075216957450553817 0 -0.1867192510276118 0.077748512173410014 0 -0.19050021368002351 0.072419239531055349 0 -0.18141962227324601 0.075216957450553817 0 -0.1867192510276118 0.077748512173410014 0 -0.1819129998543452 0.079414551687582866 0 -0.18248563084903771 0.082725789105533951 0 -0.17702749526748529 0.081966948020833708 0 -0.17749072232138041 0.1112547600218704 0 -0.1867192510276118 0.077748512173410014 0 -0.18248563084903771 0.082725789105533951 0 -0.1819129998543452 0.079414551687582866 0 -0.18141962227324601 0.075216957450553817 0 -0.1819129998543452 0.079414551687582866 0 -0.17702749526748529 0.081966948020833708 0 -0.18248563084903771 0.082725789105533951 0 -0.1819129998543452 0.079414551687582866 0 -0.17702749526748529 0.081966948020833708 0 -0.1693268494853358 0.079538523923443544 0 -0.16945340910355561 0.089496265134995978 0 -0.17702749526748529 0.081966948020833708 0 -0.1693268494853358 0.079538523923443544 0 -0.17157411485926041 0.074087910936242465 0 -0.17702749526748529 0.081966948020833708 0 -0.17702749526748529 0.081966948020833708 0 -0.17749072232138041 0.1112547600218704 0 -0.16945340910355561 0.089496265134995978 0 -0.17702749526748529 0.081966948020833708 0 -0.17749072232138041 0.1112547600218704 0 -0.17749072232138041 0.1112547600218704 0 -0.1951643137470572 0.093770439387570487 0 -0.18248563084903771 0.082725789105533951 0 -0.17749072232138041 0.1112547600218704 0 -0.1951643137470572 0.093770439387570487 0 -0.17749072232138041 0.1112547600218704 0 -0.19150979458678249 0.1243728737611647 0 -0.17789558253256721 0.1368522929207025 0 -0.17749072232138041 0.1112547600218704 0 -0.17789558253256721 0.1368522929207025 0 -0.17749072232138041 0.1112547600218704 0 -0.16113979031376621 0.12743058591966341 0 -0.17749072232138041 0.1112547600218704 0 -0.15084139672814201 0.110160429760413 0 -0.16113979031376621 0.12743058591966341 0 -0.17749072232138041 0.1112547600218704 0 -0.1616157516695074 0.095139316102685473 0 -0.15084139672814201 0.110160429760413 0 -0.16945340910355561 0.089496265134995978 0 -0.17749072232138041 0.1112547600218704 0 -0.1616157516695074 0.095139316102685473 0 -0.1616157516695074 0.095139316102685473 0 -0.15084139672814201 0.110160429760413 0 -0.14767322655010931 0.084806545451415583 0 -0.15084139672814201 0.110160429760413 0 -0.1348328660863515 0.097215266237156234 0 -0.14767322655010931 0.084806545451415583 0 -0.15084139672814201 0.110160429760413 0 -0.13137241316615089 0.11357835761918721 0 -0.14300315410871919 0.1253406317882016 0 -0.15084139672814201 0.110160429760413 0 -0.16113979031376621 0.12743058591966341 0 -0.14300315410871919 0.1253406317882016 0 -0.13137241316615089 0.11357835761918721 0 -0.14300315410871919 0.1253406317882016 0 -0.12687331202938101 0.13192737382428379 0 -0.13137241316615089 0.11357835761918721 0 -0.1348328660863515 0.097215266237156234 0 -0.1198812247159142 0.095002477965890675 0 -0.15084139672814201 0.110160429760413 0 -0.13137241316615089 0.11357835761918721 0 -0.1348328660863515 0.097215266237156234 0 -0.1348328660863515 0.097215266237156234 0 -0.12533951967512769 0.078274991835817334 0 -0.1198812247159142 0.095002477965890675 0 -0.1348328660863515 0.097215266237156234 0 -0.12533951967512769 0.078274991835817334 0 -0.14767322655010931 0.084806545451415583 0 -0.1618062267740645 0.07958177760614682 0 -0.14767322655010931 0.084806545451415583 0 -0.15517576509654349 0.068304766057398533 0 -0.14767322655010931 0.084806545451415583 0 -0.15517576509654349 0.068304766057398533 0 -0.14001017723872511 0.063978020277280875 0 -0.12533951967512769 0.078274991835817334 0 -0.14767322655010931 0.084806545451415583 0 -0.14001017723872511 0.063978020277280875 0 -0.12533951967512769 0.078274991835817334 0 -0.14001017723872511 0.063978020277280875 0 -0.1248745965026067 0.059896082918310993 0 -0.14001017723872511 0.063978020277280875 0 -0.13626681081840961 0.042829268155062397 0 -0.1248745965026067 0.059896082918310993 0 -0.13626681081840961 0.042829268155062397 0 -0.1339340902388827 0.022300844741854581 0 -0.1180188049733784 0.030804183747700629 0 -0.13626681081840961 0.042829268155062397 0 -0.1339340902388827 0.022300844741854581 0 -0.15968783393996419 0.037567277286728401 0 -0.13626681081840961 0.042829268155062397 0 -0.15351002702878311 0.053877414325468623 0 -0.15968783393996419 0.037567277286728401 0 -0.13626681081840961 0.042829268155062397 0 -0.15968783393996419 0.037567277286728401 0 -0.14001017723872511 0.063978020277280875 0 -0.13626681081840961 0.042829268155062397 0 -0.15351002702878311 0.053877414325468623 0 -0.15517576509654349 0.068304766057398533 0 -0.14001017723872511 0.063978020277280875 0 -0.15351002702878311 0.053877414325468623 0 -0.12735709500343681 0.004015926865657337 0 -0.15177498865293759 0.016606981474429749 0 -0.12735709500343681 0.004015926865657337 0 -0.1339340902388827 0.022300844741854581 0 -0.15177498865293759 0.016606981474429749 0 -0.12735709500343681 0.004015926865657337 0 -0.1339340902388827 0.022300844741854581 0 -0.11835839359799651 0.016938700943610479 0 -0.1339340902388827 0.022300844741854581 0 -0.15177498865293759 0.016606981474429749 0 -0.15968783393996419 0.037567277286728401 0 -0.1339340902388827 0.022300844741854581 0 -0.15968783393996419 0.037567277286728401 0 -0.12735709500343681 0.004015926865657337 0 -0.15177498865293759 0.016606981474429749 0 -0.14801408494475049 0.0031182785745780331 0 -0.15177498865293759 0.016606981474429749 0 -0.14801408494475049 0.0031182785745780331 0 -0.1619193683370386 0.0066468078375689294 0 -0.15773416148281841 -0.0035868741371463562 0 -0.14801408494475049 0.0031182785745780331 0 -0.1619193683370386 0.0066468078375689294 0 -0.15177498865293759 0.016606981474429749 0 -0.1619193683370386 0.0066468078375689294 0 -0.16760309597538539 0.015861310899326669 0 -0.16716832075785379 -0.0032078365625175 0 -0.1619193683370386 0.0066468078375689294 0 -0.17584419881677341 0.0071523107965592754 0 -0.1619193683370386 0.0066468078375689294 0 -0.16760309597538539 0.015861310899326669 0 -0.17584419881677341 0.0071523107965592754 0 -0.15177498865293759 0.016606981474429749 0 -0.17619288230243149 0.029198036083215671 0 -0.15177498865293759 0.016606981474429749 0 -0.17619288230243149 0.029198036083215671 0 -0.15968783393996419 0.037567277286728401 0 -0.15177498865293759 0.016606981474429749 0 -0.16760309597538539 0.015861310899326669 0 -0.17619288230243149 0.029198036083215671 0 -0.17619288230243149 0.029198036083215671 0 -0.1852069371874478 0.015311100034367831 0 -0.17584419881677341 0.0071523107965592754 0 -0.17619288230243149 0.029198036083215671 0 -0.17584419881677341 0.0071523107965592754 0 -0.16760309597538539 0.015861310899326669 0 -0.17619288230243149 0.029198036083215671 0 -0.17584419881677341 0.0071523107965592754 0 -0.17619288230243149 0.029198036083215671 0 -0.19572946351785711 0.039272048382664133 0 -0.19029700863621521 0.024089069561314659 0 -0.17619288230243149 0.029198036083215671 0 -0.1852069371874478 0.015311100034367831 0 -0.19029700863621521 0.024089069561314659 0 -0.1852069371874478 0.015311100034367831 0 -0.18717715497560061 0.0062623078557712403 0 -0.17584419881677341 0.0071523107965592754 0 -0.18154179604087481 -0.0036104187285780349 0 -0.18717715497560061 0.0062623078557712403 0 -0.17584419881677341 0.0071523107965592754 0 -0.15351002702878311 0.053877414325468623 0 -0.1659033968134131 0.050269055427132232 0 -0.15968783393996419 0.037567277286728401 0 -0.1659033968134131 0.050269055427132232 0 -0.16451238623864939 0.061110077383343737 0 -0.17656426821359539 0.052679136019797047 0 -0.17354141001077031 0.063798093567348918 0 -0.16451238623864939 0.061110077383343737 0 -0.17656426821359539 0.052679136019797047 0 -0.16451238623864939 0.061110077383343737 0 -0.17656426821359539 0.052679136019797047 0 -0.15351002702878311 0.053877414325468623 0 -0.1659033968134131 0.050269055427132232 0 -0.16451238623864939 0.061110077383343737 0 -0.15517576509654349 0.068304766057398533 0 -0.15351002702878311 0.053877414325468623 0 -0.16451238623864939 0.061110077383343737 0 -0.15968783393996419 0.037567277286728401 0 -0.1762663423330757 0.033842591165095401 0 -0.1659033968134131 0.050269055427132232 0 -0.15968783393996419 0.037567277286728401 0 -0.1764827173319595 0.047523031967639129 0 -0.17619288230243149 0.029198036083215671 0 -0.15968783393996419 0.037567277286728401 0 -0.1762663423330757 0.033842591165095401 0 -0.15968783393996419 0.037567277286728401 0 -0.1764827173319595 0.047523031967639129 0 -0.15968783393996419 0.037567277286728401 0 -0.1762663423330757 0.033842591165095401 0 -0.1764827173319595 0.047523031967639129 0 -0.17619288230243149 0.029198036083215671 0 -0.19572946351785711 0.039272048382664133 0 -0.181281627628781 0.040827380692469641 0 -0.18051660755046151 0.049914261515807259 0 -0.1764827173319595 0.047523031967639129 0 -0.17619288230243149 0.029198036083215671 0 -0.1762663423330757 0.033842591165095401 0 -0.19572946351785711 0.039272048382664133 0 -0.1762663423330757 0.033842591165095401 0 -0.181281627628781 0.040827380692469641 0 -0.19572946351785711 0.039272048382664133 0 -0.1762663423330757 0.033842591165095401 0 -0.181281627628781 0.040827380692469641 0 -0.1764827173319595 0.047523031967639129 0 -0.1762663423330757 0.033842591165095401 0 -0.1764827173319595 0.047523031967639129 0 -0.17619288230243149 0.029198036083215671 0 -0.1762663423330757 0.033842591165095401 0 -0.181281627628781 0.040827380692469641 0 -0.18051660755046151 0.049914261515807259 0 -0.19572946351785711 0.039272048382664133 0 -0.18051660755046151 0.049914261515807259 0 -0.17656426821359539 0.052679136019797047 0 -0.1853153676200878 0.058850167416455039 0 -0.18051660755046151 0.049914261515807259 0 -0.1764827173319595 0.047523031967639129 0 -0.1764827173319595 0.047523031967639129 0 -0.17656426821359539 0.052679136019797047 0 -0.1659033968134131 0.050269055427132232 0 -0.1764827173319595 0.047523031967639129 0 -0.17656426821359539 0.052679136019797047 0 -0.18051660755046151 0.049914261515807259 0 -0.1764827173319595 0.047523031967639129 0 -0.17656426821359539 0.052679136019797047 0 -0.18051660755046151 0.049914261515807259 0 -0.17656426821359539 0.052679136019797047 0 -0.18185637422210199 0.067243003367259677 0 -0.17656426821359539 0.052679136019797047 0 -0.1853153676200878 0.058850167416455039 0 -0.1853153676200878 0.058850167416455039 0 -0.19803765617450109 0.060300476042091433 0 -0.18892740292417859 0.064703221589215376 0 -0.18051660755046151 0.049914261515807259 0 -0.19803765617450109 0.060300476042091433 0 -0.1977866825790292 0.05007637869738242 0 -0.18051660755046151 0.049914261515807259 0 -0.1853153676200878 0.058850167416455039 0 -0.19803765617450109 0.060300476042091433 0 -0.18051660755046151 0.049914261515807259 0 -0.19803765617450109 0.060300476042091433 0 -0.19803765617450109 0.060300476042091433 0 -0.1977866825790292 0.05007637869738242 0 -0.2066297839190599 0.054855205218219752 0 -0.18051660755046151 0.049914261515807259 0 -0.1977866825790292 0.05007637869738242 0 -0.19572946351785711 0.039272048382664133 0 -0.18051660755046151 0.049914261515807259 0 -0.19572946351785711 0.039272048382664133 0 -0.19572946351785711 0.039272048382664133 0 -0.2098237389609823 0.029412342647955388 0 -0.1977866825790292 0.05007637869738242 0 -0.19572946351785711 0.039272048382664133 0 -0.2073344650466164 0.045256152092875389 0 -0.19572946351785711 0.039272048382664133 0 -0.2073344650466164 0.045256152092875389 0 -0.2073344650466164 0.045256152092875389 0 -0.21702036639386221 0.038769314305699548 0 -0.2098237389609823 0.029412342647955388 0 -0.19572946351785711 0.039272048382664133 0 -0.2073344650466164 0.045256152092875389 0 -0.2098237389609823 0.029412342647955388 0 -0.21702036639386221 0.038769314305699548 0 -0.2098237389609823 0.029412342647955388 0 -0.2284051488343061 0.035137669629428533 0 -0.2073344650466164 0.045256152092875389 0 -0.21702036639386221 0.038769314305699548 0 -0.22251811273354419 0.045271092852538893 0 -0.2073344650466164 0.045256152092875389 0 -0.21769334509658461 0.055951218203848879 0 -0.22251811273354419 0.045271092852538893 0 -0.21769334509658461 0.055951218203848879 0 -0.20947987249717179 0.060448397508133619 0 -0.2066297839190599 0.054855205218219752 0 -0.21769334509658461 0.055951218203848879 0 -0.20947987249717179 0.060448397508133619 0 -0.2155587047985415 0.070686690568374386 0 -0.19803765617450109 0.060300476042091433 0 -0.20947987249717179 0.060448397508133619 0 -0.2066297839190599 0.054855205218219752 0 -0.1977866825790292 0.05007637869738242 0 -0.2073344650466164 0.045256152092875389 0 -0.2066297839190599 0.054855205218219752 0 -0.2073344650466164 0.045256152092875389 0 -0.21769334509658461 0.055951218203848879 0 -0.2066297839190599 0.054855205218219752 0 -0.1989264366345522 -0.0080023544535597537 0 -0.1965234412062255 0.0098537758749781944 0 -0.20713549204565579 6.5395444916274768e-05 0 -0.19066530249761049 -0.0041303576494283751 0 -0.18717715497560061 0.0062623078557712403 0 -0.1965234412062255 0.0098537758749781944 0 -0.1852069371874478 0.015311100034367831 0 -0.18717715497560061 0.0062623078557712403 0 -0.1965234412062255 0.0098537758749781944 0 -0.1965234412062255 0.0098537758749781944 0 -0.20113962024173071 0.02227838771243261 0 -0.2107847094499361 0.011405203725301251 0 -0.19572946351785711 0.039272048382664133 0 -0.20113962024173071 0.02227838771243261 0 -0.2098237389609823 0.029412342647955388 0 -0.19572946351785711 0.039272048382664133 0 -0.20113962024173071 0.02227838771243261 0 -0.19029700863621521 0.024089069561314659 0 -0.1965234412062255 0.0098537758749781944 0 -0.20113962024173071 0.02227838771243261 0 -0.19029700863621521 0.024089069561314659 0 -0.1852069371874478 0.015311100034367831 0 -0.1965234412062255 0.0098537758749781944 0 -0.19029700863621521 0.024089069561314659 0 -0.2098237389609823 0.029412342647955388 0 -0.2107847094499361 0.011405203725301251 0 -0.22391801440410891 0.019552636913248388 0 -0.20113962024173071 0.02227838771243261 0 -0.2098237389609823 0.029412342647955388 0 -0.2107847094499361 0.011405203725301251 0 -0.2098237389609823 0.029412342647955388 0 -0.22391801440410891 0.019552636913248388 0 -0.21702438745170211 -0.0043907958627755336 0 -0.2107847094499361 0.011405203725301251 0 -0.20713549204565579 6.5395444916274768e-05 0 -0.21702438745170211 -0.0043907958627755336 0 -0.2107847094499361 0.011405203725301251 0 -0.22391801440410891 0.019552636913248388 0 -0.1965234412062255 0.0098537758749781944 0 -0.2107847094499361 0.011405203725301251 0 -0.20713549204565579 6.5395444916274768e-05 0 -0.22867745033346079 0.0038692188645070222 0 -0.22391801440410891 0.019552636913248388 0 -0.2344599051246074 0.012178015861532989 0 -0.21702438745170211 -0.0043907958627755336 0 -0.22391801440410891 0.019552636913248388 0 -0.21702438745170211 -0.0043907958627755336 0 -0.22867745033346079 0.0038692188645070222 0 -0.22391801440410891 0.019552636913248388 0 -0.22391801440410891 0.019552636913248388 0 -0.2403792472176362 0.02548084658656756 0 -0.2344599051246074 0.012178015861532989 0 -0.2098237389609823 0.029412342647955388 0 -0.22391801440410891 0.019552636913248388 0 -0.2284051488343061 0.035137669629428533 0 -0.22391801440410891 0.019552636913248388 0 -0.2403792472176362 0.02548084658656756 0 -0.2284051488343061 0.035137669629428533 0 -0.22391801440410891 0.019552636913248388 0 -0.2344599051246074 0.012178015861532989 0 -0.22391801440410891 0.019552636913248388 0 -0.2284051488343061 0.035137669629428533 0 -0.2522816967992324 0.037264740289820159 0 -0.25157722050270093 0.012682655753942951 0 -0.2403792472176362 0.02548084658656756 0 -0.25157722050270093 0.012682655753942951 0 -0.2403792472176362 0.02548084658656756 0 -0.2344599051246074 0.012178015861532989 0 -0.25267499080189931 -0.0034516002120552492 0 -0.25157722050270093 0.012682655753942951 0 -0.2401015516947359 0.00075261550232862703 0 -0.25157722050270093 0.012682655753942951 0 -0.2344599051246074 0.012178015861532989 0 -0.2401015516947359 0.00075261550232862703 0 -0.22867745033346079 0.0038692188645070222 0 -0.2344599051246074 0.012178015861532989 0 -0.2401015516947359 0.00075261550232862703 0 -0.21769334509658461 0.055951218203848879 0 -0.23255980098598539 0.056775429521547523 0 -0.2155587047985415 0.070686690568374386 0 -0.23289228326450309 0.050722702345608793 0 -0.22641588552015429 0.052180110730886013 0 -0.22251811273354419 0.045271092852538893 0 -0.23289228326450309 0.050722702345608793 0 -0.23255980098598539 0.056775429521547523 0 -0.22641588552015429 0.052180110730886013 0 -0.21769334509658461 0.055951218203848879 0 -0.23255980098598539 0.056775429521547523 0 -0.22641588552015429 0.052180110730886013 0 -0.21769334509658461 0.055951218203848879 0 -0.22641588552015429 0.052180110730886013 0 -0.22251811273354419 0.045271092852538893 0 -0.21702036639386221 0.038769314305699548 0 -0.22251811273354419 0.045271092852538893 0 -0.2284051488343061 0.035137669629428533 0 -0.23289228326450309 0.050722702345608793 0 -0.22251811273354419 0.045271092852538893 0 -0.2284051488343061 0.035137669629428533 0 -0.23289228326450309 0.050722702345608793 0 -0.2284051488343061 0.035137669629428533 0 -0.2522816967992324 0.037264740289820159 0 -0.2403792472176362 0.02548084658656756 0 -0.2284051488343061 0.035137669629428533 0 -0.2522816967992324 0.037264740289820159 0 -0.23289228326450309 0.050722702345608793 0 -0.2284051488343061 0.035137669629428533 0 -0.2522816967992324 0.037264740289820159 0 -0.23289228326450309 0.050722702345608793 0 -0.23255980098598539 0.056775429521547523 0 -0.2522816967992324 0.037264740289820159 0 -0.23255980098598539 0.056775429521547523 0 -0.2522816967992324 0.037264740289820159 0 -0.23255980098598539 0.056775429521547523 0 -0.24906194248509719 0.058488871325365822 0 -0.23255980098598539 0.056775429521547523 0 -0.24906194248509719 0.058488871325365822 0 -0.23770452364983391 0.071010308971772351 0 -0.26257114212692878 0.06573449919026883 0 -0.24906194248509719 0.058488871325365822 0 -0.23770452364983391 0.071010308971772351 0 -0.25261226255175379 0.080423606239198905 0 -0.23770452364983391 0.071010308971772351 0 -0.23158356521460469 0.085326977986282804 0 -0.25261226255175379 0.080423606239198905 0 -0.23158356521460469 0.085326977986282804 0 -0.24377998071086901 0.096378574065869249 0 -0.23158356521460469 0.085326977986282804 0 -0.21283790517273879 0.076286118753275345 0 -0.22135706029896429 0.097751395037259853 0 -0.23158356521460469 0.085326977986282804 0 -0.22135706029896429 0.097751395037259853 0 -0.24377998071086901 0.096378574065869249 0 -0.23255980098598539 0.056775429521547523 0 -0.21283790517273879 0.076286118753275345 0 -0.23770452364983391 0.071010308971772351 0 -0.23158356521460469 0.085326977986282804 0 -0.21283790517273879 0.076286118753275345 0 -0.23255980098598539 0.056775429521547523 0 -0.23770452364983391 0.071010308971772351 0 -0.21283790517273879 0.076286118753275345 0 -0.23255980098598539 0.056775429521547523 0 -0.21283790517273879 0.076286118753275345 0 -0.2155587047985415 0.070686690568374386 0 -0.23770452364983391 0.071010308971772351 0 -0.21283790517273879 0.076286118753275345 0 -0.19803765617450109 0.060300476042091433 0 -0.20947987249717179 0.060448397508133619 0 -0.2155587047985415 0.070686690568374386 0 -0.19803765617450109 0.060300476042091433 0 -0.20333782300263301 0.070680183335342567 0 -0.2155587047985415 0.070686690568374386 0 -0.19803765617450109 0.060300476042091433 0 -0.2155587047985415 0.070686690568374386 0 -0.21283790517273879 0.076286118753275345 0 -0.19766176801088831 0.079505953929404904 0 -0.20333782300263301 0.070680183335342567 0 -0.21283790517273879 0.076286118753275345 0 -0.19766176801088831 0.079505953929404904 0 -0.20333782300263301 0.070680183335342567 0 -0.21283790517273879 0.076286118753275345 0 -0.2155587047985415 0.070686690568374386 0 -0.21283790517273879 0.076286118753275345 0 -0.1951643137470572 0.093770439387570487 0 -0.22135706029896429 0.097751395037259853 0 -0.21283790517273879 0.076286118753275345 0 -0.1951643137470572 0.093770439387570487 0 -0.21283790517273879 0.076286118753275345 0 -0.19766176801088831 0.079505953929404904 0 -0.1951643137470572 0.093770439387570487 0 -0.18248563084903771 0.082725789105533951 0 -0.19766176801088831 0.079505953929404904 0 -0.1951643137470572 0.093770439387570487 0 -0.1867192510276118 0.077748512173410014 0 -0.18248563084903771 0.082725789105533951 0 -0.19766176801088831 0.079505953929404904 0 -0.18248563084903771 0.082725789105533951 0 -0.19766176801088831 0.079505953929404904 0 -0.1867192510276118 0.077748512173410014 0 -0.19766176801088831 0.079505953929404904 0 -0.19050021368002351 0.072419239531055349 0 -0.19803765617450109 0.060300476042091433 0 -0.19050021368002351 0.072419239531055349 0 -0.18892740292417859 0.064703221589215376 0 -0.19803765617450109 0.060300476042091433 0 -0.20333782300263301 0.070680183335342567 0 -0.19050021368002351 0.072419239531055349 0 -0.20333782300263301 0.070680183335342567 0 -0.19766176801088831 0.079505953929404904 0 -0.19050021368002351 0.072419239531055349 0 -0.17749072232138041 0.1112547600218704 0 -0.19150979458678249 0.1243728737611647 0 -0.1951643137470572 0.093770439387570487 0 -0.19150979458678249 0.1243728737611647 0 -0.1951643137470572 0.093770439387570487 0 -0.20994497012605751 0.11823125198409511 0 -0.1951643137470572 0.093770439387570487 0 -0.20994497012605751 0.11823125198409511 0 -0.22135706029896429 0.097751395037259853 0 -0.20994497012605751 0.11823125198409511 0 -0.2348316268224595 0.11651500804646669 0 -0.2235388627286797 0.12965651036182041 0 -0.20994497012605751 0.11823125198409511 0 -0.22135706029896429 0.097751395037259853 0 -0.2348316268224595 0.11651500804646669 0 -0.22135706029896429 0.097751395037259853 0 -0.24377998071086901 0.096378574065869249 0 -0.2348316268224595 0.11651500804646669 0 -0.25136603029008331 0.1103208693098497 0 -0.24377998071086901 0.096378574065869249 0 -0.2348316268224595 0.11651500804646669 0 -0.25922316449870308 0.12628093809151891 0 -0.25136603029008331 0.1103208693098497 0 -0.2348316268224595 0.11651500804646669 0 -0.25922316449870308 0.12628093809151891 0 -0.2348316268224595 0.11651500804646669 0 -0.2369615480924761 0.1404602413506009 0 -0.2369615480924761 0.1404602413506009 0 -0.2235388627286797 0.12965651036182041 0 -0.2124173058737257 0.14341954006611901 0 -0.2348316268224595 0.11651500804646669 0 -0.2369615480924761 0.1404602413506009 0 -0.2235388627286797 0.12965651036182041 0 -0.2369615480924761 0.1404602413506009 0 -0.22679867445049531 0.16064067306310431 0 -0.2124173058737257 0.14341954006611901 0 -0.2369615480924761 0.1404602413506009 0 -0.247018622616726 0.15992587597476091 0 -0.22679867445049531 0.16064067306310431 0 -0.25846103874104392 0.14702121199507179 0 -0.2369615480924761 0.1404602413506009 0 -0.247018622616726 0.15992587597476091 0 -0.247018622616726 0.15992587597476091 0 -0.23359887481107691 0.1809086922627815 0 -0.247018622616726 0.15992587597476091 0 -0.23359887481107691 0.1809086922627815 0 -0.22679867445049531 0.16064067306310431 0 -0.26439180367967152 0.18225540552070321 0 -0.247018622616726 0.15992587597476091 0 -0.23359887481107691 0.1809086922627815 0 -0.23359887481107691 0.1809086922627815 0 -0.20517995294037331 0.17379218369948349 0 -0.2201791270054278 0.2018915085508021 0 -0.23359887481107691 0.1809086922627815 0 -0.22679867445049531 0.16064067306310431 0 -0.20517995294037331 0.17379218369948349 0 -0.22679867445049531 0.16064067306310431 0 -0.20517995294037331 0.17379218369948349 0 -0.2124173058737257 0.14341954006611901 0 -0.20517995294037331 0.17379218369948349 0 -0.19274338499996449 0.14807478539393409 0 -0.17830044274374979 0.16244982581953471 0 -0.19150979458678249 0.1243728737611647 0 -0.19274338499996449 0.14807478539393409 0 -0.2124173058737257 0.14341954006611901 0 -0.20994497012605751 0.11823125198409511 0 -0.2235388627286797 0.12965651036182041 0 -0.2124173058737257 0.14341954006611901 0 -0.19150979458678249 0.1243728737611647 0 -0.20994497012605751 0.11823125198409511 0 -0.2124173058737257 0.14341954006611901 0 -0.20517995294037331 0.17379218369948349 0 -0.19274338499996449 0.14807478539393409 0 -0.2124173058737257 0.14341954006611901 0 -0.22371849106378741 0.2462845034026982 0 -0.23019370483249479 0.22382880503591951 0 -0.2066863838603582 0.24242880758937649 0 -0.22371849106378741 0.2462845034026982 0 -0.23951274761537589 0.2474853768326048 0 -0.23019370483249479 0.22382880503591951 0 -0.25272375818517617 0.22994970808158929 0 -0.25621817608628389 0.2460965770837312 0 -0.23951274761537589 0.2474853768326048 0 -0.25370102580463139 0.2052288024824625 0 -0.25272375818517617 0.22994970808158929 0 -0.23019370483249479 0.22382880503591951 0 -0.25272375818517617 0.22994970808158929 0 -0.23951274761537589 0.2474853768326048 0 -0.23019370483249479 0.22382880503591951 0 -0.25370102580463139 0.2052288024824625 0 -0.23359887481107691 0.1809086922627815 0 -0.2201791270054278 0.2018915085508021 0 -0.25370102580463139 0.2052288024824625 0 -0.23019370483249479 0.22382880503591951 0 -0.2201791270054278 0.2018915085508021 0 -0.23019370483249479 0.22382880503591951 0 -0.2201791270054278 0.2018915085508021 0 -0.20675937919977869 0.22287432483882261 0 -0.25370102580463139 0.2052288024824625 0 -0.23019370483249479 0.22382880503591951 0 -0.23359887481107691 0.1809086922627815 0 -0.2201791270054278 0.2018915085508021 0 -0.20517995294037331 0.17379218369948349 0 -0.2201791270054278 0.2018915085508021 0 -0.19686056424972551 0.20437535499954981 0 -0.20517995294037331 0.17379218369948349 0 -0.19686056424972551 0.20437535499954981 0 -0.17870530295493239 0.18804735871836689 0 -0.19686056424972551 0.20437535499954981 0 -0.20675937919977869 0.22287432483882261 0 -0.19122946023172571 0.22600186257262461 0 -0.19686056424972551 0.20437535499954981 0 -0.19122946023172571 0.22600186257262461 0 -0.179110163166115 0.21364489161719899 0 -0.2201791270054278 0.2018915085508021 0 -0.19686056424972551 0.20437535499954981 0 -0.20675937919977869 0.22287432483882261 0 -0.2201791270054278 0.2018915085508021 0 -0.20675937919977869 0.22287432483882261 0 -0.23019370483249479 0.22382880503591951 0 -0.2066863838603582 0.24242880758937649 0 -0.23019370483249479 0.22382880503591951 0 -0.20675937919977869 0.22287432483882261 0 -0.2066863838603582 0.24242880758937649 0 -0.20675937919977869 0.22287432483882261 0 -0.19333963139412971 0.24385714112684301 0 -0.20675937919977869 0.22287432483882261 0 -0.19122946023172571 0.22600186257262461 0 -0.19333963139412971 0.24385714112684301 0 -0.19122946023172571 0.22600186257262461 0 -0.19333963139412971 0.24385714112684301 0 -0.17951502337729761 0.2392424245160312 0 -0.20675937919977869 0.22287432483882261 0 -0.19333963139412971 0.24385714112684301 0 -0.2066863838603582 0.24242880758937649 0 -0.18259587964237009 0.2606558300825601 0 -0.19333963139412971 0.24385714112684301 0 -0.2066863838603582 0.24242880758937649 0 -0.21408768962570049 0.25938306782852782 0 -0.22371849106378741 0.2462845034026982 0 -0.2066863838603582 0.24242880758937649 0 -0.1532221513837192 0.25419418888983192 0 -0.17951502337729761 0.2392424245160312 0 -0.15110003921584569 0.22881829817408891 0 -0.18259587964237009 0.2606558300825601 0 -0.19333963139412971 0.24385714112684301 0 -0.17951502337729761 0.2392424245160312 0 -0.17951502337729761 0.2392424245160312 0 -0.1619547442009632 0.2162214427956837 0 -0.179110163166115 0.21364489161719899 0 -0.19122946023172571 0.22600186257262461 0 -0.17951502337729761 0.2392424245160312 0 -0.179110163166115 0.21364489161719899 0 -0.17951502337729761 0.2392424245160312 0 -0.179110163166115 0.21364489161719899 0 -0.17951502337729761 0.2392424245160312 0 -0.1619547442009632 0.2162214427956837 0 -0.15110003921584569 0.22881829817408891 0 -0.1619547442009632 0.2162214427956837 0 -0.179110163166115 0.21364489161719899 0 -0.17870530295493239 0.18804735871836689 0 -0.19686056424972551 0.20437535499954981 0 -0.179110163166115 0.21364489161719899 0 -0.17870530295493239 0.18804735871836689 0 -0.179110163166115 0.21364489161719899 0 -0.17870530295493239 0.18804735871836689 0 -0.1619547442009632 0.2162214427956837 0 -0.17870530295493239 0.18804735871836689 0 -0.15775407484820861 0.18727827749961631 0 -0.14804225966403101 0.20585853828705919 0 -0.15775407484820861 0.18727827749961631 0 -0.13876353146598761 0.18223131465273959 0 -0.1619547442009632 0.2162214427956837 0 -0.14804225966403101 0.20585853828705919 0 -0.15775407484820861 0.18727827749961631 0 -0.13876353146598761 0.18223131465273959 0 -0.1245765098090509 0.17966052017845999 0 -0.1190175871807343 0.20067046473278771 0 -0.14804225966403101 0.20585853828705919 0 -0.13876353146598761 0.18223131465273959 0 -0.1190175871807343 0.20067046473278771 0 -0.14804225966403101 0.20585853828705919 0 -0.13479108425045189 0.2189379304695287 0 -0.1190175871807343 0.20067046473278771 0 -0.13479108425045189 0.2189379304695287 0 -0.12594818007053379 0.2253828658525201 0 -0.1190175871807343 0.20067046473278771 0 -0.1619547442009632 0.2162214427956837 0 -0.14804225966403101 0.20585853828705919 0 -0.15110003921584569 0.22881829817408891 0 -0.14804225966403101 0.20585853828705919 0 -0.15110003921584569 0.22881829817408891 0 -0.13479108425045189 0.2189379304695287 0 -0.15110003921584569 0.22881829817408891 0 -0.13479108425045189 0.2189379304695287 0 -0.1378537507735782 0.22769286600650679 0 -0.15110003921584569 0.22881829817408891 0 -0.1378537507735782 0.22769286600650679 0 -0.13827307027013019 0.2362506378269415 0 -0.13479108425045189 0.2189379304695287 0 -0.12594818007053379 0.2253828658525201 0 -0.1378537507735782 0.22769286600650679 0 -0.12594818007053379 0.2253828658525201 0 -0.1378537507735782 0.22769286600650679 0 -0.13827307027013019 0.2362506378269415 0 -0.12594818007053379 0.2253828658525201 0 -0.13827307027013019 0.2362506378269415 0 -0.1327712538659816 0.24971188635390451 0 -0.12594818007053379 0.2253828658525201 0 -0.1327712538659816 0.24971188635390451 0 -0.1532221513837192 0.25419418888983192 0 -0.15110003921584569 0.22881829817408891 0 -0.13827307027013019 0.2362506378269415 0 -0.1532221513837192 0.25419418888983192 0 -0.13827307027013019 0.2362506378269415 0 -0.1327712538659816 0.24971188635390451 0 -0.16317411874061041 0.14897554401654969 0 -0.16113979031376621 0.12743058591966341 0 -0.1447888583061562 0.1436064118174607 0 -0.16317411874061041 0.14897554401654969 0 -0.16113979031376621 0.12743058591966341 0 -0.17789558253256721 0.1368522929207025 0 -0.17749072232138041 0.1112547600218704 0 -0.16113979031376621 0.12743058591966341 0 -0.17789558253256721 0.1368522929207025 0 -0.19150979458678249 0.1243728737611647 0 -0.19274338499996449 0.14807478539393409 0 -0.17789558253256721 0.1368522929207025 0 -0.16317411874061041 0.14897554401654969 0 -0.17789558253256721 0.1368522929207025 0 -0.17830044274374979 0.16244982581953471 0 -0.17789558253256721 0.1368522929207025 0 -0.17830044274374979 0.16244982581953471 0 -0.19274338499996449 0.14807478539393409 0 -0.17789558253256721 0.1368522929207025 0 -0.17830044274374979 0.16244982581953471 0 -0.20517995294037331 0.17379218369948349 0 -0.17870530295493239 0.18804735871836689 0 -0.17830044274374979 0.16244982581953471 0 -0.17870530295493239 0.18804735871836689 0 -0.17830044274374979 0.16244982581953471 0 -0.17870530295493239 0.18804735871836689 0 -0.17830044274374979 0.16244982581953471 0 -0.15775407484820861 0.18727827749961631 0 -0.17830044274374979 0.16244982581953471 0 -0.15775407484820861 0.18727827749961631 0 -0.15245232938168229 0.1648839185887534 0 -0.16317411874061041 0.14897554401654969 0 -0.17830044274374979 0.16244982581953471 0 -0.15245232938168229 0.1648839185887534 0 -0.15775407484820861 0.18727827749961631 0 -0.15245232938168229 0.1648839185887534 0 -0.13876353146598761 0.18223131465273959 0 -0.13876353146598761 0.18223131465273959 0 -0.12843792629854631 0.15978223771525801 0 -0.1245765098090509 0.17966052017845999 0 -0.15245232938168229 0.1648839185887534 0 -0.13876353146598761 0.18223131465273959 0 -0.12843792629854631 0.15978223771525801 0 -0.12843792629854631 0.15978223771525801 0 -0.1447888583061562 0.1436064118174607 0 -0.12843792629854631 0.15978223771525801 0 -0.1447888583061562 0.1436064118174607 0 -0.1204435081575875 0.14623213693654391 0 -0.16317411874061041 0.14897554401654969 0 -0.15245232938168229 0.1648839185887534 0 -0.1447888583061562 0.1436064118174607 0 -0.15245232938168229 0.1648839185887534 0 -0.12843792629854631 0.15978223771525801 0 -0.1447888583061562 0.1436064118174607 0 -0.16113979031376621 0.12743058591966341 0 -0.1447888583061562 0.1436064118174607 0 -0.14300315410871919 0.1253406317882016 0 -0.16113979031376621 0.12743058591966341 0 -0.1447888583061562 0.1436064118174607 0 -0.1447888583061562 0.1436064118174607 0 -0.12687331202938101 0.13192737382428379 0 -0.1204435081575875 0.14623213693654391 0 -0.1447888583061562 0.1436064118174607 0 -0.14300315410871919 0.1253406317882016 0 -0.12687331202938101 0.13192737382428379 0 -0.12687331202938101 0.13192737382428379 0 -0.1130049083687871 0.13722853083192951 0 -0.10667563132183119 0.1260080396076822 0 -0.12687331202938101 0.13192737382428379 0 -0.1130049083687871 0.13722853083192951 0 -0.1204435081575875 0.14623213693654391 0 -0.10667563132183119 0.1260080396076822 0 -0.081978849477511453 0.1384377215961772 0 -0.096577670607123245 0.1239972751083621 0 -0.10667563132183119 0.1260080396076822 0 -0.1008242758955458 0.1385116675773613 0 -0.081978849477511453 0.1384377215961772 0 -0.10667563132183119 0.1260080396076822 0 -0.081978849477511453 0.1384377215961772 0 -0.1130049083687871 0.13722853083192951 0 -0.10667563132183119 0.1260080396076822 0 -0.1008242758955458 0.1385116675773613 0 -0.1130049083687871 0.13722853083192951 0 -0.1008242758955458 0.1385116675773613 0 -0.1078791741402548 0.14587794917826699 0 -0.094422293866394627 0.1556947047027778 0 -0.094582816169344081 0.14500609667275041 0 -0.1078791741402548 0.14587794917826699 0 -0.1008242758955458 0.1385116675773613 0 -0.094582816169344081 0.14500609667275041 0 -0.1078791741402548 0.14587794917826699 0 -0.12843792629854631 0.15978223771525801 0 -0.1204435081575875 0.14623213693654391 0 -0.1073217141416921 0.15896651377475199 0 -0.1078791741402548 0.14587794917826699 0 -0.1204435081575875 0.14623213693654391 0 -0.1073217141416921 0.15896651377475199 0 -0.1130049083687871 0.13722853083192951 0 -0.1078791741402548 0.14587794917826699 0 -0.1204435081575875 0.14623213693654391 0 -0.12843792629854631 0.15978223771525801 0 -0.1245765098090509 0.17966052017845999 0 -0.1120869942909358 0.17595806361305491 0 -0.1120869942909358 0.17595806361305491 0 -0.1073217141416921 0.15896651377475199 0 -0.12843792629854631 0.15978223771525801 0 -0.1120869942909358 0.17595806361305491 0 -0.12843792629854631 0.15978223771525801 0 -0.1120869942909358 0.17595806361305491 0 -0.1073217141416921 0.15896651377475199 0 -0.1245765098090509 0.17966052017845999 0 -0.1120869942909358 0.17595806361305491 0 -0.1190175871807343 0.20067046473278771 0 -0.1120869942909358 0.17595806361305491 0 -0.1020860412129876 0.1687304780430319 0 -0.095149617161195271 0.19271405424946009 0 -0.1020860412129876 0.1687304780430319 0 -0.095149617161195271 0.19271405424946009 0 -0.1120869942909358 0.17595806361305491 0 -0.095149617161195271 0.19271405424946009 0 -0.1020860412129876 0.1687304780430319 0 -0.093279947424905002 0.17994671451597891 0 -0.095149617161195271 0.19271405424946009 0 -0.1020860412129876 0.1687304780430319 0 -0.089956478385260899 0.16811851343374709 0 -0.093279947424905002 0.17994671451597891 0 -0.094422293866394627 0.1556947047027778 0 -0.1078791741402548 0.14587794917826699 0 -0.1020860412129876 0.1687304780430319 0 -0.1078791741402548 0.14587794917826699 0 -0.1073217141416921 0.15896651377475199 0 -0.1020860412129876 0.1687304780430319 0 -0.1120869942909358 0.17595806361305491 0 -0.1073217141416921 0.15896651377475199 0 -0.1020860412129876 0.1687304780430319 0 -0.1078791741402548 0.14587794917826699 0 -0.1020860412129876 0.1687304780430319 0 -0.094422293866394627 0.1556947047027778 0 -0.1020860412129876 0.1687304780430319 0 -0.089956478385260899 0.16811851343374709 0 -0.094422293866394627 0.1556947047027778 0 -0.089956478385260899 0.16811851343374709 0 -0.084742563178951485 0.15922574422532609 0 -0.089956478385260899 0.16811851343374709 0 -0.080023232193096983 0.1657260639694961 0 -0.084742563178951485 0.15922574422532609 0 -0.089956478385260899 0.16811851343374709 0 -0.080023232193096983 0.1657260639694961 0 -0.081293191825158789 0.17801619480298669 0 -0.080023232193096983 0.1657260639694961 0 -0.084742563178951485 0.15922574422532609 0 -0.074930767296401246 0.15918989644816289 0 -0.081293191825158789 0.17801619480298669 0 -0.095149617161195271 0.19271405424946009 0 -0.073474196407973841 0.19079473501472519 0 -0.081293191825158789 0.17801619480298669 0 -0.095149617161195271 0.19271405424946009 0 -0.093279947424905002 0.17994671451597891 0 -0.081293191825158789 0.17801619480298669 0 -0.095149617161195271 0.19271405424946009 0 -0.089956478385260899 0.16811851343374709 0 -0.093279947424905002 0.17994671451597891 0 -0.081293191825158789 0.17801619480298669 0 -0.064604308801312821 0.18244611143699499 0 -0.069549912031587807 0.17131438064227461 0 -0.073474196407973841 0.19079473501472519 0 -0.081293191825158789 0.17801619480298669 0 -0.069549912031587807 0.17131438064227461 0 -0.073474196407973841 0.19079473501472519 0 -0.069549912031587807 0.17131438064227461 0 -0.073474196407973841 0.19079473501472519 0 -0.064604308801312821 0.18244611143699499 0 -0.069549912031587807 0.17131438064227461 0 -0.062041409668937363 0.1723934095439342 0 -0.084742563178951485 0.15922574422532609 0 -0.074930767296401246 0.15918989644816289 0 -0.074588176879671189 0.15080810715310269 0 -0.080023232193096983 0.1657260639694961 0 -0.074930767296401246 0.15918989644816289 0 -0.06743676648912228 0.16331833535651319 0 -0.081293191825158789 0.17801619480298669 0 -0.069549912031587807 0.17131438064227461 0 -0.06743676648912228 0.16331833535651319 0 -0.080023232193096983 0.1657260639694961 0 -0.081293191825158789 0.17801619480298669 0 -0.06743676648912228 0.16331833535651319 0 -0.081293191825158789 0.17801619480298669 0 -0.06743676648912228 0.16331833535651319 0 -0.069549912031587807 0.17131438064227461 0 -0.062031688412593149 0.16441565219234799 0 -0.062041409668937363 0.1723934095439342 0 -0.069549912031587807 0.17131438064227461 0 -0.06743676648912228 0.16331833535651319 0 -0.062031688412593149 0.16441565219234799 0 -0.06743676648912228 0.16331833535651319 0 -0.06725389334219653 0.15771987894696021 0 -0.062031688412593149 0.16441565219234799 0 -0.074930767296401246 0.15918989644816289 0 -0.06743676648912228 0.16331833535651319 0 -0.06725389334219653 0.15771987894696021 0 -0.081978849477511453 0.1384377215961772 0 -0.05728206763319247 0.1508674035846734 0 -0.06725389334219653 0.15771987894696021 0 -0.074588176879671189 0.15080810715310269 0 -0.05728206763319247 0.1508674035846734 0 -0.074588176879671189 0.15080810715310269 0 -0.081978849477511453 0.1384377215961772 0 -0.05728206763319247 0.1508674035846734 0 -0.081978849477511453 0.1384377215961772 0 -0.06070043620975589 0.134524720015781 0 -0.05728206763319247 0.1508674035846734 0 -0.074930767296401246 0.15918989644816289 0 -0.06725389334219653 0.15771987894696021 0 -0.074588176879671189 0.15080810715310269 0 -0.071786582042575819 0.1280585334591178 0 -0.081978849477511453 0.1384377215961772 0 -0.08034823769671974 0.121089655777625 0 -0.071786582042575819 0.1280585334591178 0 -0.081978849477511453 0.1384377215961772 0 -0.06070043620975589 0.134524720015781 0 -0.071786582042575819 0.1280585334591178 0 -0.06070043620975589 0.134524720015781 0 -0.06411880478631618 0.11818203644688791 0 -0.081978849477511453 0.1384377215961772 0 -0.08034823769671974 0.121089655777625 0 -0.096577670607123245 0.1239972751083621 0 -0.1008242758955458 0.1385116675773613 0 -0.094582816169344081 0.14500609667275041 0 -0.081978849477511453 0.1384377215961772 0 -0.094582816169344081 0.14500609667275041 0 -0.081978849477511453 0.1384377215961772 0 -0.0854808471676783 0.14892295327365951 0 -0.094422293866394627 0.1556947047027778 0 -0.084742563178951485 0.15922574422532609 0 -0.0854808471676783 0.14892295327365951 0 -0.094422293866394627 0.1556947047027778 0 -0.094582816169344081 0.14500609667275041 0 -0.0854808471676783 0.14892295327365951 0 -0.084742563178951485 0.15922574422532609 0 -0.074588176879671189 0.15080810715310269 0 -0.0854808471676783 0.14892295327365951 0 -0.074588176879671189 0.15080810715310269 0 -0.081978849477511453 0.1384377215961772 0 -0.0854808471676783 0.14892295327365951 0 -0.1045487088169635 0.24438495162540061 0 -0.11455994162881621 0.23631135170566109 0 -0.098826177075254387 0.23394696074010041 0 -0.10005120432924321 0.25626016583208688 0 -0.094679029848152713 0.24609146959404629 0 -0.1045487088169635 0.24438495162540061 0 -0.094679029848152713 0.24609146959404629 0 -0.1045487088169635 0.24438495162540061 0 -0.098826177075254387 0.23394696074010041 0 -0.116744543106582 0.25728181003509248 0 -0.1045487088169635 0.24438495162540061 0 -0.11455994162881621 0.23631135170566109 0 -0.116744543106582 0.25728181003509248 0 -0.1327712538659816 0.24971188635390451 0 -0.11455994162881621 0.23631135170566109 0 -0.12594818007053379 0.2253828658525201 0 -0.1327712538659816 0.24971188635390451 0 -0.11455994162881621 0.23631135170566109 0 -0.11455994162881621 0.23631135170566109 0 -0.1144435087069731 0.2232582902708152 0 -0.1063794885369051 0.22193246116811141 0 -0.12594818007053379 0.2253828658525201 0 -0.1144435087069731 0.2232582902708152 0 -0.1108864245916369 0.20940648235696879 0 -0.12594818007053379 0.2253828658525201 0 -0.11455994162881621 0.23631135170566109 0 -0.1144435087069731 0.2232582902708152 0 -0.11455994162881621 0.23631135170566109 0 -0.1063794885369051 0.22193246116811141 0 -0.098826177075254387 0.23394696074010041 0 -0.1063794885369051 0.22193246116811141 0 -0.098826177075254387 0.23394696074010041 0 -0.089950704149474564 0.21660149084549701 0 -0.1063794885369051 0.22193246116811141 0 -0.089950704149474564 0.21660149084549701 0 -0.10053720550511509 0.21148400771379949 0 -0.095149617161195271 0.19271405424946009 0 -0.089950704149474564 0.21660149084549701 0 -0.1063794885369051 0.22193246116811141 0 -0.10053720550511509 0.21148400771379949 0 -0.089950704149474564 0.21660149084549701 0 -0.10053720550511509 0.21148400771379949 0 -0.1108864245916369 0.20940648235696879 0 -0.095149617161195271 0.19271405424946009 0 -0.1063794885369051 0.22193246116811141 0 -0.10053720550511509 0.21148400771379949 0 -0.1108864245916369 0.20940648235696879 0 -0.12594818007053379 0.2253828658525201 0 -0.1190175871807343 0.20067046473278771 0 -0.12594818007053379 0.2253828658525201 0 -0.1108864245916369 0.20940648235696879 0 -0.1190175871807343 0.20067046473278771 0 -0.12594818007053379 0.2253828658525201 0 -0.1108864245916369 0.20940648235696879 0 -0.1144435087069731 0.2232582902708152 0 -0.1063794885369051 0.22193246116811141 0 -0.1108864245916369 0.20940648235696879 0 -0.1120869942909358 0.17595806361305491 0 -0.1190175871807343 0.20067046473278771 0 -0.1108864245916369 0.20940648235696879 0 -0.1190175871807343 0.20067046473278771 0 -0.10682171669235439 0.1942096232944058 0 -0.1120869942909358 0.17595806361305491 0 -0.1190175871807343 0.20067046473278771 0 -0.10682171669235439 0.1942096232944058 0 -0.1108864245916369 0.20940648235696879 0 -0.095149617161195271 0.19271405424946009 0 -0.1108864245916369 0.20940648235696879 0 -0.10682171669235439 0.1942096232944058 0 -0.095149617161195271 0.19271405424946009 0 -0.1120869942909358 0.17595806361305491 0 -0.10682171669235439 0.1942096232944058 0 -0.095149617161195271 0.19271405424946009 0 -0.095149617161195271 0.19271405424946009 0 -0.077398480784349299 0.2102750893871779 0 -0.095149617161195271 0.19271405424946009 0 -0.073474196407973841 0.19079473501472519 0 -0.077398480784349299 0.2102750893871779 0 -0.095149617161195271 0.19271405424946009 0 -0.077398480784349299 0.2102750893871779 0 -0.087241526055590657 0.20514135106535239 0 -0.073474196407973841 0.19079473501472519 0 -0.077398480784349299 0.2102750893871779 0 -0.073474196407973841 0.19079473501472519 0 -0.077398480784349299 0.2102750893871779 0 -0.068984895145132993 0.20348567813270921 0 -0.064604308801312821 0.18244611143699499 0 -0.073474196407973841 0.19079473501472519 0 -0.062951628171730722 0.19451437844324071 0 -0.073474196407973841 0.19079473501472519 0 -0.062951628171730722 0.19451437844324071 0 -0.068984895145132993 0.20348567813270921 0 -0.062951628171730722 0.19451437844324071 0 -0.068984895145132993 0.20348567813270921 0 -0.057478398324341332 0.20606456403591589 0 -0.068984895145132993 0.20348567813270921 0 -0.075683327299925024 0.21197187487555791 0 -0.057478398324341332 0.20606456403591589 0 -0.075683327299925024 0.21197187487555791 0 -0.060700713784132942 0.2267940359372384 0 -0.057478398324341332 0.20606456403591589 0 -0.075683327299925024 0.21197187487555791 0 -0.057478398324341332 0.20606456403591589 0 -0.077398480784349299 0.2102750893871779 0 -0.068984895145132993 0.20348567813270921 0 -0.075683327299925024 0.21197187487555791 0 -0.075683327299925024 0.21197187487555791 0 -0.077884159070199604 0.2126860219832131 0 -0.060700713784132942 0.2267940359372384 0 -0.075683327299925024 0.21197187487555791 0 -0.077884159070199604 0.2126860219832131 0 -0.077398480784349299 0.2102750893871779 0 -0.075683327299925024 0.21197187487555791 0 -0.077884159070199604 0.2126860219832131 0 -0.077398480784349299 0.2102750893871779 0 -0.077884159070199604 0.2126860219832131 0 -0.077398480784349299 0.2102750893871779 0 -0.075683327299925024 0.21197187487555791 0 -0.077884159070199604 0.2126860219832131 0 -0.089950704149474564 0.21660149084549701 0 -0.077884159070199604 0.2126860219832131 0 -0.087241526055590657 0.20514135106535239 0 -0.089950704149474564 0.21660149084549701 0 -0.095149617161195271 0.19271405424946009 0 -0.087241526055590657 0.20514135106535239 0 -0.089950704149474564 0.21660149084549701 0 -0.095149617161195271 0.19271405424946009 0 -0.089950704149474564 0.21660149084549701 0 -0.077398480784349299 0.2102750893871779 0 -0.077884159070199604 0.2126860219832131 0 -0.087241526055590657 0.20514135106535239 0 -0.077884159070199604 0.2126860219832131 0 -0.083666647235009842 0.24139059785004849 0 -0.089950704149474564 0.21660149084549701 0 -0.083666647235009842 0.24139059785004849 0 -0.077884159070199604 0.2126860219832131 0 -0.089950704149474564 0.21660149084549701 0 -0.083666647235009842 0.24139059785004849 0 -0.098826177075254387 0.23394696074010041 0 -0.089950704149474564 0.21660149084549701 0 -0.083666647235009842 0.24139059785004849 0 -0.077884159070199604 0.2126860219832131 0 -0.083666647235009842 0.24139059785004849 0 -0.060700713784132942 0.2267940359372384 0 -0.075683327299925024 0.21197187487555791 0 -0.060700713784132942 0.2267940359372384 0 -0.064077212627390134 0.24851538469076631 0 -0.083666647235009842 0.24139059785004849 0 -0.060700713784132942 0.2267940359372384 0 -0.086302411784292182 0.25447467192259482 0 -0.083666647235009842 0.24139059785004849 0 -0.094679029848152713 0.24609146959404629 0 -0.098826177075254387 0.23394696074010041 0 -0.083666647235009842 0.24139059785004849 0 -0.086302411784292182 0.25447467192259482 0 -0.094679029848152713 0.24609146959404629 0 -0.083666647235009842 0.24139059785004849 0 -0.03068766995985707 0.25286978792993342 0 -0.034335222642673788 0.23481172099035691 0 -0.046578861792199937 0.24361118962503389 0 -0.034335222642673788 0.23481172099035691 0 -0.046578861792199937 0.24361118962503389 0 -0.045510089746351297 0.2289623102588538 0 -0.064077212627390134 0.24851538469076631 0 -0.046578861792199937 0.24361118962503389 0 -0.055802081643016588 0.23164020743468811 0 -0.064077212627390134 0.24851538469076631 0 -0.055802081643016588 0.23164020743468811 0 -0.060700713784132942 0.2267940359372384 0 -0.064077212627390134 0.24851538469076631 0 -0.060700713784132942 0.2267940359372384 0 -0.046578861792199937 0.24361118962503389 0 -0.055802081643016588 0.23164020743468811 0 -0.045510089746351297 0.2289623102588538 0 -0.055802081643016588 0.23164020743468811 0 -0.053252725762674542 0.2222055350902031 0 -0.045510089746351297 0.2289623102588538 0 -0.055802081643016588 0.23164020743468811 0 -0.060700713784132942 0.2267940359372384 0 -0.053252725762674542 0.2222055350902031 0 -0.055802081643016588 0.23164020743468811 0 -0.060700713784132942 0.2267940359372384 0 -0.053252725762674542 0.2222055350902031 0 -0.045510089746351297 0.2289623102588538 0 -0.046772345315528908 0.21756655778431969 0 -0.045510089746351297 0.2289623102588538 0 -0.036443083940353373 0.22210497005765251 0 -0.046772345315528908 0.21756655778431969 0 -0.034335222642673788 0.23481172099035691 0 -0.045510089746351297 0.2289623102588538 0 -0.036443083940353373 0.22210497005765251 0 -0.034335222642673788 0.23481172099035691 0 -0.036443083940353373 0.22210497005765251 0 -0.024866254401544021 0.22078734426404351 0 -0.036443083940353373 0.22210497005765251 0 -0.046772345315528908 0.21756655778431969 0 -0.031637039445344017 0.19767931081015269 0 -0.046772345315528908 0.21756655778431969 0 -0.057478398324341332 0.20606456403591589 0 -0.031637039445344017 0.19767931081015269 0 -0.060700713784132942 0.2267940359372384 0 -0.053252725762674542 0.2222055350902031 0 -0.057478398324341332 0.20606456403591589 0 -0.060700713784132942 0.2267940359372384 0 -0.057478398324341332 0.20606456403591589 0 -0.053252725762674542 0.2222055350902031 0 -0.046772345315528908 0.21756655778431969 0 -0.057478398324341332 0.20606456403591589 0 -0.062951628171730722 0.19451437844324071 0 -0.057478398324341332 0.20606456403591589 0 -0.054948738746262903 0.1897910154656581 0 -0.057478398324341332 0.20606456403591589 0 -0.054948738746262903 0.1897910154656581 0 -0.031637039445344017 0.19767931081015269 0 -0.057478398324341332 0.20606456403591589 0 -0.054948738746262903 0.1897910154656581 0 -0.054948738746262903 0.1897910154656581 0 -0.031637039445344017 0.19767931081015269 0 -0.039999697082172873 0.18418677263352329 0 -0.057478398324341332 0.20606456403591589 0 -0.031637039445344017 0.19767931081015269 0 -0.031637039445344017 0.19767931081015269 0 -0.0057956805663459468 0.1892940575843915 0 -0.031637039445344017 0.19767931081015269 0 -0.0057956805663459468 0.1892940575843915 0 -0.024775833668462071 0.17590936267321361 0 -0.031637039445344017 0.19767931081015269 0 -0.0057956805663459468 0.1892940575843915 0 -0.01019634689217482 0.20814994011246479 0 -0.0057956805663459468 0.1892940575843915 0 -0.01019634689217482 0.20814994011246479 0 0.0090806704795409685 0.20996839310177981 0 -0.01019634689217482 0.20814994011246479 0 0.00014186162909880781 0.2338185852574263 0 0.0090806704795409685 0.20996839310177981 0 -0.036443083940353373 0.22210497005765251 0 -0.031637039445344017 0.19767931081015269 0 -0.024866254401544021 0.22078734426404351 0 -0.031637039445344017 0.19767931081015269 0 -0.01019634689217482 0.20814994011246479 0 -0.024866254401544021 0.22078734426404351 0 -0.034335222642673788 0.23481172099035691 0 -0.024866254401544021 0.22078734426404351 0 -0.01991034591062427 0.239405390953495 0 -0.024866254401544021 0.22078734426404351 0 0.00014186162909880781 0.2338185852574263 0 -0.024866254401544021 0.22078734426404351 0 -0.01991034591062427 0.239405390953495 0 0.00014186162909880781 0.2338185852574263 0 -0.01019634689217482 0.20814994011246479 0 -0.024866254401544021 0.22078734426404351 0 0.00014186162909880781 0.2338185852574263 0 -0.0098044441781452579 0.25473951632571468 0 0.00014186162909880781 0.2338185852574263 0 0.0073806355134042019 0.25529449578482938 0 -0.0098044441781452579 0.25473951632571468 0 -0.01991034591062427 0.239405390953495 0 0.00014186162909880781 0.2338185852574263 0 -0.03068766995985707 0.25286978792993342 0 -0.034335222642673788 0.23481172099035691 0 -0.01991034591062427 0.239405390953495 0 -0.03068766995985707 0.25286978792993342 0 -0.0098044441781452579 0.25473951632571468 0 -0.01991034591062427 0.239405390953495 0 -0.045513089216113363 0.1481501368583191 0 -0.039963318838929777 0.1583549670989208 0 -0.028048700007850699 0.14601834090005769 0 -0.045513089216113363 0.1481501368583191 0 -0.037584816749385713 0.12707105787504261 0 -0.028048700007850699 0.14601834090005769 0 -0.037584816749385713 0.12707105787504261 0 -0.028048700007850699 0.14601834090005769 0 -0.045513089216113363 0.1481501368583191 0 -0.037584816749385713 0.12707105787504261 0 -0.045513089216113363 0.1481501368583191 0 -0.037584816749385713 0.12707105787504261 0 -0.049753839012929922 0.13582205838018921 0 -0.037584816749385713 0.12707105787504261 0 -0.049753839012929922 0.13582205838018921 0 -0.051208231868337763 0.1260313133231428 0 -0.049753839012929922 0.13582205838018921 0 -0.06070043620975589 0.134524720015781 0 -0.052276118599972977 0.1457036522838337 0 -0.051208231868337763 0.1260313133231428 0 -0.06070043620975589 0.134524720015781 0 -0.06411880478631618 0.11818203644688791 0 -0.06070043620975589 0.134524720015781 0 -0.06411880478631618 0.11818203644688791 0 -0.049753839012929922 0.13582205838018921 0 -0.051208231868337763 0.1260313133231428 0 -0.06070043620975589 0.134524720015781 0 -0.06070043620975589 0.134524720015781 0 -0.052276118599972977 0.1457036522838337 0 -0.05728206763319247 0.1508674035846734 0 -0.06070043620975589 0.134524720015781 0 -0.05728206763319247 0.1508674035846734 0 -0.045513089216113363 0.1481501368583191 0 -0.049753839012929922 0.13582205838018921 0 -0.052276118599972977 0.1457036522838337 0 -0.045513089216113363 0.1481501368583191 0 -0.052276118599972977 0.1457036522838337 0 -0.053440893212920608 0.15280063427064891 0 -0.052276118599972977 0.1457036522838337 0 -0.053440893212920608 0.15280063427064891 0 -0.05728206763319247 0.1508674035846734 0 -0.053440893212920608 0.15280063427064891 0 -0.05728206763319247 0.1508674035846734 0 -0.05728206763319247 0.1508674035846734 0 -0.062031688412593149 0.16441565219234799 0 -0.053441361682841117 0.16922921584159559 0 -0.053440893212920608 0.15280063427064891 0 -0.05728206763319247 0.1508674035846734 0 -0.053441361682841117 0.16922921584159559 0 -0.045513089216113363 0.1481501368583191 0 -0.053440893212920608 0.15280063427064891 0 -0.053441361682841117 0.16922921584159559 0 -0.045513089216113363 0.1481501368583191 0 -0.053441361682841117 0.16922921584159559 0 -0.05728206763319247 0.1508674035846734 0 -0.053441361682841117 0.16922921584159559 0 -0.06725389334219653 0.15771987894696021 0 -0.05728206763319247 0.1508674035846734 0 -0.062031688412593149 0.16441565219234799 0 -0.062031688412593149 0.16441565219234799 0 -0.053441361682841117 0.16922921584159559 0 -0.062041409668937363 0.1723934095439342 0 -0.053441361682841117 0.16922921584159559 0 -0.047633738945979477 0.17108968717192211 0 -0.039963318838929777 0.1583549670989208 0 -0.052991971448818453 0.17137768000779441 0 -0.053441361682841117 0.16922921584159559 0 -0.047633738945979477 0.17108968717192211 0 -0.052991971448818453 0.17137768000779441 0 -0.053441361682841117 0.16922921584159559 0 -0.054948738746262903 0.1897910154656581 0 -0.052419079168185397 0.17351746689540021 0 -0.046888846475854867 0.17837904804597579 0 -0.062951628171730722 0.19451437844324071 0 -0.054948738746262903 0.1897910154656581 0 -0.052419079168185397 0.17351746689540021 0 -0.062951628171730722 0.19451437844324071 0 -0.052991971448818453 0.17137768000779441 0 -0.052419079168185397 0.17351746689540021 0 -0.064604308801312821 0.18244611143699499 0 -0.062951628171730722 0.19451437844324071 0 -0.053441361682841117 0.16922921584159559 0 -0.062951628171730722 0.19451437844324071 0 -0.052991971448818453 0.17137768000779441 0 -0.053441361682841117 0.16922921584159559 0 -0.054948738746262903 0.1897910154656581 0 -0.052419079168185397 0.17351746689540021 0 -0.062951628171730722 0.19451437844324071 0 -0.053441361682841117 0.16922921584159559 0 -0.064604308801312821 0.18244611143699499 0 -0.053441361682841117 0.16922921584159559 0 -0.062041409668937363 0.1723934095439342 0 -0.052991971448818453 0.17137768000779441 0 -0.047633738945979477 0.17108968717192211 0 -0.052419079168185397 0.17351746689540021 0 -0.047633738945979477 0.17108968717192211 0 -0.052419079168185397 0.17351746689540021 0 -0.046888846475854867 0.17837904804597579 0 -0.054948738746262903 0.1897910154656581 0 -0.046888846475854867 0.17837904804597579 0 -0.039999697082172873 0.18418677263352329 0 -0.031637039445344017 0.19767931081015269 0 -0.039999697082172873 0.18418677263352329 0 -0.024775833668462071 0.17590936267321361 0 -0.046888846475854867 0.17837904804597579 0 -0.039999697082172873 0.18418677263352329 0 -0.039442978436673673 0.17331029806337539 0 -0.047633738945979477 0.17108968717192211 0 -0.046888846475854867 0.17837904804597579 0 -0.039442978436673673 0.17331029806337539 0 -0.039442978436673673 0.17331029806337539 0 -0.032139483942643897 0.16694135859911591 0 -0.024775833668462071 0.17590936267321361 0 -0.039999697082172873 0.18418677263352329 0 -0.039442978436673673 0.17331029806337539 0 -0.024775833668462071 0.17590936267321361 0 -0.045513089216113363 0.1481501368583191 0 -0.053441361682841117 0.16922921584159559 0 -0.039963318838929777 0.1583549670989208 0 -0.039963318838929777 0.1583549670989208 0 -0.032139483942643897 0.16694135859911591 0 -0.02343924065842673 0.15869802647678349 0 -0.047633738945979477 0.17108968717192211 0 -0.039442978436673673 0.17331029806337539 0 -0.039963318838929777 0.1583549670989208 0 -0.039442978436673673 0.17331029806337539 0 -0.039963318838929777 0.1583549670989208 0 -0.032139483942643897 0.16694135859911591 0 -0.032139483942643897 0.16694135859911591 0 -0.02343924065842673 0.15869802647678349 0 -0.024775833668462071 0.17590936267321361 0 -0.02343924065842673 0.15869802647678349 0 -0.024775833668462071 0.17590936267321361 0 -0.0048034666842798916 0.1614245706846468 0 -0.0057956805663459468 0.1892940575843915 0 -0.024775833668462071 0.17590936267321361 0 -0.0048034666842798916 0.1614245706846468 0 -0.0048034666842798916 0.1614245706846468 0 -0.01090464080839405 0.14353955890474629 0 0.011098566836083609 0.13484946890849181 0 -0.02343924065842673 0.15869802647678349 0 -0.0048034666842798916 0.1614245706846468 0 -0.01090464080839405 0.14353955890474629 0 -0.039963318838929777 0.1583549670989208 0 -0.02343924065842673 0.15869802647678349 0 -0.028048700007850699 0.14601834090005769 0 -0.02343924065842673 0.15869802647678349 0 -0.01090464080839405 0.14353955890474629 0 -0.028048700007850699 0.14601834090005769 0 -0.037584816749385713 0.12707105787504261 0 -0.0187932077553963 0.1304023687453105 0 -0.02482114599867602 0.1199028763409456 0 -0.01090464080839405 0.14353955890474629 0 -0.028048700007850699 0.14601834090005769 0 -0.0187932077553963 0.1304023687453105 0 -0.037584816749385713 0.12707105787504261 0 -0.028048700007850699 0.14601834090005769 0 -0.0187932077553963 0.1304023687453105 0 -0.0064436606074630637 0.13109611639504981 0 -0.007175360702145514 0.1155930690216506 0 0.011098566836083609 0.13484946890849181 0 -0.01090464080839405 0.14353955890474629 0 -0.0064436606074630637 0.13109611639504981 0 0.011098566836083609 0.13484946890849181 0 -0.0187932077553963 0.1304023687453105 0 -0.0064436606074630637 0.13109611639504981 0 -0.007175360702145514 0.1155930690216506 0 -0.01090464080839405 0.14353955890474629 0 -0.0187932077553963 0.1304023687453105 0 -0.0064436606074630637 0.13109611639504981 0 -0.007175360702145514 0.1155930690216506 0 -0.0040088977147468936 0.097024336429998151 0 -0.013655752966245171 0.094180689311720855 0 -0.007175360702145514 0.1155930690216506 0 -0.0040088977147468936 0.097024336429998151 0 0.0025937760044158291 0.1064596481343341 0 -0.007175360702145514 0.1155930690216506 0 -0.013655752966245171 0.094180689311720855 0 -0.02544928824037461 0.096336669134809427 0 -0.029459919491476121 0.1011230655410132 0 -0.021580178673492881 0.1105609364200745 0 -0.037915498494119543 0.10215930426450601 0 -0.007175360702145514 0.1155930690216506 0 -0.02544928824037461 0.096336669134809427 0 -0.007175360702145514 0.1155930690216506 0 -0.02544928824037461 0.096336669134809427 0 -0.0241566231860777 0.1021061234229471 0 -0.02544928824037461 0.096336669134809427 0 -0.029459919491476121 0.1011230655410132 0 -0.035034026511796899 0.0954599165668297 0 -0.02544928824037461 0.096336669134809427 0 -0.029459919491476121 0.1011230655410132 0 -0.0241566231860777 0.1021061234229471 0 -0.02544928824037461 0.096336669134809427 0 -0.0241566231860777 0.1021061234229471 0 -0.029459919491476121 0.1011230655410132 0 -0.0241566231860777 0.1021061234229471 0 -0.021580178673492881 0.1105609364200745 0 -0.02482114599867602 0.1199028763409456 0 -0.021580178673492881 0.1105609364200745 0 -0.032585978911933711 0.11378053360982859 0 -0.007175360702145514 0.1155930690216506 0 -0.0241566231860777 0.1021061234229471 0 -0.021580178673492881 0.1105609364200745 0 -0.0187932077553963 0.1304023687453105 0 -0.007175360702145514 0.1155930690216506 0 -0.02482114599867602 0.1199028763409456 0 -0.007175360702145514 0.1155930690216506 0 -0.02482114599867602 0.1199028763409456 0 -0.021580178673492881 0.1105609364200745 0 -0.01109578586274463 0.07592966442077155 0 -0.01963881101933795 0.057650575484614511 0 -0.0089029190745683329 0.062319161291970238 0 -0.0031702267477386531 0.067180855403790804 0 -0.01109578586274463 0.07592966442077155 0 0.0065236609159091173 0.071671444604676282 0 -0.0031702267477386531 0.067180855403790804 0 -0.0089029190745683329 0.062319161291970238 0 0.00079413703044923156 0.058803151297745167 0 -0.0031702267477386531 0.067180855403790804 0 -0.01109578586274463 0.07592966442077155 0 -0.0089029190745683329 0.062319161291970238 0 -0.0040088977147468936 0.097024336429998151 0 -0.01109578586274463 0.07592966442077155 0 0.011643404763696401 0.092949868607662828 0 -0.0040088977147468936 0.097024336429998151 0 -0.013655752966245171 0.094180689311720855 0 -0.01109578586274463 0.07592966442077155 0 -0.013655752966245171 0.094180689311720855 0 -0.01109578586274463 0.07592966442077155 0 -0.02054943231121421 0.086019707551374502 0 -0.02544928824037461 0.096336669134809427 0 -0.02054943231121421 0.086019707551374502 0 -0.029642132364781061 0.077623064684345475 0 -0.02544928824037461 0.096336669134809427 0 -0.029642132364781061 0.077623064684345475 0 -0.036673455980692451 0.084509049595857907 0 -0.01109578586274463 0.07592966442077155 0 -0.02054943231121421 0.086019707551374502 0 -0.029642132364781061 0.077623064684345475 0 -0.02544928824037461 0.096336669134809427 0 -0.029642132364781061 0.077623064684345475 0 -0.013655752966245171 0.094180689311720855 0 -0.02544928824037461 0.096336669134809427 0 -0.02054943231121421 0.086019707551374502 0 -0.02544928824037461 0.096336669134809427 0 -0.036673455980692451 0.084509049595857907 0 -0.01109578586274463 0.07592966442077155 0 -0.033834976489186493 0.058909460233881362 0 -0.01109578586274463 0.07592966442077155 0 -0.029642132364781061 0.077623064684345475 0 -0.033834976489186493 0.058909460233881362 0 -0.01109578586274463 0.07592966442077155 0 -0.033834976489186493 0.058909460233881362 0 -0.01963881101933795 0.057650575484614511 0 -0.029642132364781061 0.077623064684345475 0 -0.033834976489186493 0.058909460233881362 0 -0.029642132364781061 0.077623064684345475 0 -0.036732086871232597 0.066761861307427367 0 -0.033834976489186493 0.058909460233881362 0 -0.042969512877196837 0.063698159366550891 0 -0.036732086871232597 0.066761861307427367 0 -0.038306240480512441 0.072768089837317376 0 -0.042969512877196837 0.063698159366550891 0 -0.038306240480512441 0.072768089837317376 0 -0.046136221960229658 0.070392563092827029 0 -0.042969512877196837 0.063698159366550891 0 -0.036732086871232597 0.066761861307427367 0 -0.038907572144486188 0.060810532415041758 0 -0.029642132364781061 0.077623064684345475 0 -0.036732086871232597 0.066761861307427367 0 -0.038306240480512441 0.072768089837317376 0 -0.038306240480512441 0.072768089837317376 0 -0.046136221960229658 0.070392563092827029 0 -0.043586306971417507 0.077534071189344175 0 -0.038306240480512441 0.072768089837317376 0 -0.043586306971417507 0.077534071189344175 0 -0.036673455980692451 0.084509049595857907 0 -0.043586306971417507 0.077534071189344175 0 -0.036673455980692451 0.084509049595857907 0 -0.046978765451358998 0.084182386091036676 0 -0.029642132364781061 0.077623064684345475 0 -0.038306240480512441 0.072768089837317376 0 -0.036673455980692451 0.084509049595857907 0 -0.02544928824037461 0.096336669134809427 0 -0.036673455980692451 0.084509049595857907 0 -0.035034026511796899 0.0954599165668297 0 -0.036673455980692451 0.084509049595857907 0 -0.044089979176562301 0.093675305350012283 0 -0.035034026511796899 0.0954599165668297 0 -0.036673455980692451 0.084509049595857907 0 -0.044089979176562301 0.093675305350012283 0 -0.046978765451358998 0.084182386091036676 0 -0.044089979176562301 0.093675305350012283 0 -0.057144835734191893 0.088207312209507505 0 -0.046978765451358998 0.084182386091036676 0 -0.057144835734191893 0.088207312209507505 0 -0.046978765451358998 0.084182386091036676 0 -0.053399249393930842 0.076986192110461482 0 -0.043586306971417507 0.077534071189344175 0 -0.046978765451358998 0.084182386091036676 0 -0.053399249393930842 0.076986192110461482 0 -0.053399249393930842 0.076986192110461482 0 -0.070406408885084593 0.061857930521202607 0 -0.059815066152941319 0.061788281472960463 0 -0.057144835734191893 0.088207312209507505 0 -0.053399249393930842 0.076986192110461482 0 -0.070406408885084593 0.061857930521202607 0 -0.046136221960229658 0.070392563092827029 0 -0.043586306971417507 0.077534071189344175 0 -0.053399249393930842 0.076986192110461482 0 -0.046136221960229658 0.070392563092827029 0 -0.053399249393930842 0.076986192110461482 0 -0.05257832837313995 0.068950164376806455 0 -0.053399249393930842 0.076986192110461482 0 -0.05257832837313995 0.068950164376806455 0 -0.059815066152941319 0.061788281472960463 0 -0.05257832837313995 0.068950164376806455 0 -0.052166049838275927 0.062310195238599278 0 -0.059815066152941319 0.061788281472960463 0 -0.046136221960229658 0.070392563092827029 0 -0.05257832837313995 0.068950164376806455 0 -0.052166049838275927 0.062310195238599278 0 -0.042969512877196837 0.063698159366550891 0 -0.046136221960229658 0.070392563092827029 0 -0.052166049838275927 0.062310195238599278 0 -0.021580178673492881 0.1105609364200745 0 -0.043883262583300407 0.11455669389781301 0 -0.021580178673492881 0.1105609364200745 0 -0.043883262583300407 0.11455669389781301 0 -0.032585978911933711 0.11378053360982859 0 -0.037584816749385713 0.12707105787504261 0 -0.051208231868337763 0.1260313133231428 0 -0.043883262583300407 0.11455669389781301 0 -0.037584816749385713 0.12707105787504261 0 -0.043883262583300407 0.11455669389781301 0 -0.037584816749385713 0.12707105787504261 0 -0.032585978911933711 0.11378053360982859 0 -0.037584816749385713 0.12707105787504261 0 -0.043883262583300407 0.11455669389781301 0 -0.032585978911933711 0.11378053360982859 0 -0.037584816749385713 0.12707105787504261 0 -0.02482114599867602 0.1199028763409456 0 -0.032585978911933711 0.11378053360982859 0 -0.021580178673492881 0.1105609364200745 0 -0.043883262583300407 0.11455669389781301 0 -0.037915498494119543 0.10215930426450601 0 -0.044089979176562301 0.093675305350012283 0 -0.043883262583300407 0.11455669389781301 0 -0.037915498494119543 0.10215930426450601 0 -0.044089979176562301 0.093675305350012283 0 -0.037915498494119543 0.10215930426450601 0 -0.035034026511796899 0.0954599165668297 0 -0.029459919491476121 0.1011230655410132 0 -0.037915498494119543 0.10215930426450601 0 -0.035034026511796899 0.0954599165668297 0 -0.044089979176562301 0.093675305350012283 0 -0.057144835734191893 0.088207312209507505 0 -0.043883262583300407 0.11455669389781301 0 -0.057144835734191893 0.088207312209507505 0 -0.043883262583300407 0.11455669389781301 0 -0.057144835734191893 0.088207312209507505 0 -0.043883262583300407 0.11455669389781301 0 -0.056175626513735713 0.104231459755559 0 -0.056175626513735713 0.104231459755559 0 -0.061770267295803899 0.1005995653590098 0 -0.06411880478631618 0.11818203644688791 0 -0.057144835734191893 0.088207312209507505 0 -0.056175626513735713 0.104231459755559 0 -0.061770267295803899 0.1005995653590098 0 -0.043883262583300407 0.11455669389781301 0 -0.06411880478631618 0.11818203644688791 0 -0.051208231868337763 0.1260313133231428 0 -0.043883262583300407 0.11455669389781301 0 -0.06411880478631618 0.11818203644688791 0 -0.043883262583300407 0.11455669389781301 0 -0.056175626513735713 0.104231459755559 0 -0.06411880478631618 0.11818203644688791 0 -0.071786582042575819 0.1280585334591178 0 -0.06411880478631618 0.11818203644688791 0 -0.08034823769671974 0.121089655777625 0 -0.06411880478631618 0.11818203644688791 0 -0.08034823769671974 0.121089655777625 0 -0.075381325115152609 0.106019298300689 0 -0.06411880478631618 0.11818203644688791 0 -0.08034823769671974 0.121089655777625 0 -0.08034823769671974 0.121089655777625 0 -0.096577670607123245 0.1239972751083621 0 -0.08034823769671974 0.121089655777625 0 -0.092569001324263961 0.1124699312803344 0 -0.096577670607123245 0.1239972751083621 0 -0.08034823769671974 0.121089655777625 0 -0.083967771981719092 0.1102844810624737 0 -0.092569001324263961 0.1124699312803344 0 -0.08034823769671974 0.121089655777625 0 -0.083967771981719092 0.1102844810624737 0 -0.075381325115152609 0.106019298300689 0 -0.087572523790740042 0.10155903889124659 0 -0.082071947835387321 0.094412947715560025 0 -0.09233625647768956 0.091651488650119919 0 -0.083967771981719092 0.1102844810624737 0 -0.092569001324263961 0.1124699312803344 0 -0.087572523790740042 0.10155903889124659 0 -0.083967771981719092 0.1102844810624737 0 -0.087572523790740042 0.10155903889124659 0 -0.075381325115152609 0.106019298300689 0 -0.087572523790740042 0.10155903889124659 0 -0.082071947835387321 0.094412947715560025 0 -0.075381325115152609 0.106019298300689 0 -0.06411880478631618 0.11818203644688791 0 -0.06964180214897181 0.091777453024084701 0 -0.082071947835387321 0.094412947715560025 0 -0.075381325115152609 0.106019298300689 0 -0.06964180214897181 0.091777453024084701 0 -0.06411880478631618 0.11818203644688791 0 -0.075381325115152609 0.106019298300689 0 -0.06964180214897181 0.091777453024084701 0 -0.061770267295803899 0.1005995653590098 0 -0.06411880478631618 0.11818203644688791 0 -0.06964180214897181 0.091777453024084701 0 -0.057144835734191893 0.088207312209507505 0 -0.061770267295803899 0.1005995653590098 0 -0.06964180214897181 0.091777453024084701 0 -0.06964180214897181 0.091777453024084701 0 -0.075164799511626648 0.065372869601281192 0 -0.057144835734191893 0.088207312209507505 0 -0.06964180214897181 0.091777453024084701 0 -0.068089461569968729 0.076803891339018993 0 -0.06964180214897181 0.091777453024084701 0 -0.068089461569968729 0.076803891339018993 0 -0.075164799511626648 0.065372869601281192 0 -0.057144835734191893 0.088207312209507505 0 -0.068089461569968729 0.076803891339018993 0 -0.070406408885084593 0.061857930521202607 0 -0.06964180214897181 0.091777453024084701 0 -0.075164799511626648 0.065372869601281192 0 -0.08073347634316104 0.073575546631144614 0 -0.057144835734191893 0.088207312209507505 0 -0.070406408885084593 0.061857930521202607 0 -0.068089461569968729 0.076803891339018993 0 -0.075164799511626648 0.065372869601281192 0 -0.070406408885084593 0.061857930521202607 0 -0.089923560922876636 0.068178037636278263 0 -0.08578586832533959 0.082170087930996366 0 -0.103675070998617 0.083967309240415983 0 -0.08073347634316104 0.073575546631144614 0 -0.089923560922876636 0.068178037636278263 0 -0.083186879645449088 0.059889597987781727 0 -0.075164799511626648 0.065372869601281192 0 -0.08073347634316104 0.073575546631144614 0 -0.083186879645449088 0.059889597987781727 0 -0.08073347634316104 0.073575546631144614 0 -0.089923560922876636 0.068178037636278263 0 -0.08578586832533959 0.082170087930996366 0 -0.06964180214897181 0.091777453024084701 0 -0.08073347634316104 0.073575546631144614 0 -0.08578586832533959 0.082170087930996366 0 -0.082071947835387321 0.094412947715560025 0 -0.06964180214897181 0.091777453024084701 0 -0.08578586832533959 0.082170087930996366 0 -0.082071947835387321 0.094412947715560025 0 -0.08578586832533959 0.082170087930996366 0 -0.09233625647768956 0.091651488650119919 0 -0.09233625647768956 0.091651488650119919 0 -0.103675070998617 0.083967309240415983 0 -0.10429444750695741 0.1014886749251958 0 -0.08578586832533959 0.082170087930996366 0 -0.09233625647768956 0.091651488650119919 0 -0.103675070998617 0.083967309240415983 0 -0.103675070998617 0.083967309240415983 0 -0.1198812247159142 0.095002477965890675 0 -0.10429444750695741 0.1014886749251958 0 -0.089923560922876636 0.068178037636278263 0 -0.103675070998617 0.083967309240415983 0 -0.10785209906359081 0.065371441260914459 0 -0.12533951967512769 0.078274991835817334 0 -0.103675070998617 0.083967309240415983 0 -0.10785209906359081 0.065371441260914459 0 -0.12533951967512769 0.078274991835817334 0 -0.10785209906359081 0.065371441260914459 0 -0.1248745965026067 0.059896082918310993 0 -0.12533951967512769 0.078274991835817334 0 -0.103675070998617 0.083967309240415983 0 -0.1198812247159142 0.095002477965890675 0 -0.13137241316615089 0.11357835761918721 0 -0.1198812247159142 0.095002477965890675 0 -0.10429444750695741 0.1014886749251958 0 -0.13137241316615089 0.11357835761918721 0 -0.12687331202938101 0.13192737382428379 0 -0.10667563132183119 0.1260080396076822 0 -0.13137241316615089 0.11357835761918721 0 -0.10667563132183119 0.1260080396076822 0 -0.1062978327852654 0.11550845570815239 0 -0.13137241316615089 0.11357835761918721 0 -0.1062978327852654 0.11550845570815239 0 -0.10429444750695741 0.1014886749251958 0 -0.13137241316615089 0.11357835761918721 0 -0.10667563132183119 0.1260080396076822 0 -0.10667563132183119 0.1260080396076822 0 -0.1062978327852654 0.11550845570815239 0 -0.096577670607123245 0.1239972751083621 0 -0.092569001324263961 0.1124699312803344 0 -0.1062978327852654 0.11550845570815239 0 -0.096577670607123245 0.1239972751083621 0 -0.092569001324263961 0.1124699312803344 0 -0.1062978327852654 0.11550845570815239 0 -0.10429444750695741 0.1014886749251958 0 -0.092569001324263961 0.1124699312803344 0 -0.087572523790740042 0.10155903889124659 0 -0.10429444750695741 0.1014886749251958 0 -0.087572523790740042 0.10155903889124659 0 -0.09233625647768956 0.091651488650119919 0 -0.10429444750695741 0.1014886749251958 0 -0.10370969952600501 0.019997694726909911 0 -0.098524362227562057 0.035744340183224317 0 -0.08645931971955316 0.02325136753113614 0 -0.10370969952600501 0.019997694726909911 0 -0.08645931971955316 0.02325136753113614 0 -0.091682611010439896 0.0063963380850077774 0 -0.10370969952600501 0.019997694726909911 0 -0.1180188049733784 0.030804183747700629 0 -0.098524362227562057 0.035744340183224317 0 -0.10370969952600501 0.019997694726909911 0 -0.10877227824827949 0.0075748546359299482 0 -0.091682611010439896 0.0063963380850077774 0 -0.1029392013539359 -0.0085751277431150782 0 -0.10877227824827949 0.0075748546359299482 0 -0.091682611010439896 0.0063963380850077774 0 -0.10370969952600501 0.019997694726909911 0 -0.10877227824827949 0.0075748546359299482 0 -0.11835839359799651 0.016938700943610479 0 -0.1029392013539359 -0.0085751277431150782 0 -0.12735709500343681 0.004015926865657337 0 -0.10877227824827949 0.0075748546359299482 0 -0.12735709500343681 0.004015926865657337 0 -0.10877227824827949 0.0075748546359299482 0 -0.11835839359799651 0.016938700943610479 0 -0.1339340902388827 0.022300844741854581 0 -0.11835839359799651 0.016938700943610479 0 -0.1180188049733784 0.030804183747700629 0 -0.10370969952600501 0.019997694726909911 0 -0.11835839359799651 0.016938700943610479 0 -0.1180188049733784 0.030804183747700629 0 -0.1180188049733784 0.030804183747700629 0 -0.1128457876968547 0.048091259023394652 0 -0.098524362227562057 0.035744340183224317 0 -0.13626681081840961 0.042829268155062397 0 -0.1128457876968547 0.048091259023394652 0 -0.13626681081840961 0.042829268155062397 0 -0.1180188049733784 0.030804183747700629 0 -0.1128457876968547 0.048091259023394652 0 -0.13626681081840961 0.042829268155062397 0 -0.1128457876968547 0.048091259023394652 0 -0.1248745965026067 0.059896082918310993 0 -0.10785209906359081 0.065371441260914459 0 -0.1128457876968547 0.048091259023394652 0 -0.1248745965026067 0.059896082918310993 0 -0.1128457876968547 0.048091259023394652 0 -0.089424764575299687 0.053353249891726941 0 -0.089923560922876636 0.068178037636278263 0 -0.10785209906359081 0.065371441260914459 0 -0.089424764575299687 0.053353249891726941 0 -0.10785209906359081 0.065371441260914459 0 -0.1128457876968547 0.048091259023394652 0 -0.089424764575299687 0.053353249891726941 0 -0.1128457876968547 0.048091259023394652 0 -0.098524362227562057 0.035744340183224317 0 -0.089424764575299687 0.053353249891726941 0 -0.098524362227562057 0.035744340183224317 0 -0.080687796874281473 0.038968286178477703 0 -0.08645931971955316 0.02325136753113614 0 -0.098524362227562057 0.035744340183224317 0 -0.080687796874281473 0.038968286178477703 0 -0.089424764575299687 0.053353249891726941 0 -0.080687796874281473 0.038968286178477703 0 -0.089424764575299687 0.053353249891726941 0 -0.083186879645449088 0.059889597987781727 0 -0.075164799511626648 0.065372869601281192 0 -0.080687796874281473 0.038968286178477703 0 -0.083186879645449088 0.059889597987781727 0 -0.089923560922876636 0.068178037636278263 0 -0.089424764575299687 0.053353249891726941 0 -0.083186879645449088 0.059889597987781727 0 -0.075164799511626648 0.065372869601281192 0 -0.080687796874281473 0.038968286178477703 0 -0.071303082845968715 0.053347503409362687 0 -0.075164799511626648 0.065372869601281192 0 -0.080687796874281473 0.038968286178477703 0 -0.075164799511626648 0.065372869601281192 0 -0.070406408885084593 0.061857930521202607 0 -0.071303082845968715 0.053347503409362687 0 -0.071303082845968715 0.053347503409362687 0 -0.064856269609628314 0.055117702274744398 0 -0.065400139349222536 0.045420728471107522 0 -0.070406408885084593 0.061857930521202607 0 -0.071303082845968715 0.053347503409362687 0 -0.064856269609628314 0.055117702274744398 0 -0.070406408885084593 0.061857930521202607 0 -0.064856269609628314 0.055117702274744398 0 -0.059815066152941319 0.061788281472960463 0 -0.080687796874281473 0.038968286178477703 0 -0.065400139349222536 0.045420728471107522 0 -0.063264057366842208 0.031259222641012697 0 -0.080687796874281473 0.038968286178477703 0 -0.063264057366842208 0.031259222641012697 0 -0.073460039823911166 0.024685388153665749 0 -0.080687796874281473 0.038968286178477703 0 -0.071303082845968715 0.053347503409362687 0 -0.065400139349222536 0.045420728471107522 0 -0.063264057366842208 0.031259222641012697 0 -0.073460039823911166 0.024685388153665749 0 -0.061440697951084179 0.017621877449499421 0 -0.073460039823911166 0.024685388153665749 0 -0.076769634387976737 0.01135693610240161 0 -0.061440697951084179 0.017621877449499421 0 -0.080687796874281473 0.038968286178477703 0 -0.073460039823911166 0.024685388153665749 0 -0.08645931971955316 0.02325136753113614 0 -0.073460039823911166 0.024685388153665749 0 -0.08645931971955316 0.02325136753113614 0 -0.076769634387976737 0.01135693610240161 0 -0.08645931971955316 0.02325136753113614 0 -0.091682611010439896 0.0063963380850077774 0 -0.076769634387976737 0.01135693610240161 0 -0.091682611010439896 0.0063963380850077774 0 -0.078933949510919491 0.00072378658541613432 0 -0.076769634387976737 0.01135693610240161 0 -0.086097875964997059 -0.0058870606910941042 0 -0.091682611010439896 0.0063963380850077774 0 -0.078933949510919491 0.00072378658541613432 0 -0.078933949510919491 0.00072378658541613432 0 -0.076769634387976737 0.01135693610240161 0 -0.068462160169621672 0.0025537029525893409 0 -0.068462160169621672 0.0025537029525893409 0 -0.057836245250817257 0.0062936453779614283 0 -0.061440697951084179 0.017621877449499421 0 -0.076769634387976737 0.01135693610240161 0 -0.068462160169621672 0.0025537029525893409 0 -0.061440697951084179 0.017621877449499421 0 -0.057836245250817257 0.0062936453779614283 0 -0.061440697951084179 0.017621877449499421 0 -0.042678209040760022 0.019440128409622049 0 -0.057836245250817257 0.0062936453779614283 0 -0.042678209040760022 0.019440128409622049 0 -0.044352522143416888 0.0050416822031405977 0 -0.063264057366842208 0.031259222641012697 0 -0.042678209040760022 0.019440128409622049 0 -0.05195897498334151 0.039592758420259042 0 -0.063264057366842208 0.031259222641012697 0 -0.061440697951084179 0.017621877449499421 0 -0.042678209040760022 0.019440128409622049 0 -0.042678209040760022 0.019440128409622049 0 -0.038256592764973757 0.039174794321751791 0 -0.042678209040760022 0.019440128409622049 0 -0.038256592764973757 0.039174794321751791 0 -0.027511467414372541 0.03001296694831072 0 -0.042678209040760022 0.019440128409622049 0 -0.028180513839983729 0.018098474401369 0 -0.027511467414372541 0.03001296694831072 0 -0.042678209040760022 0.019440128409622049 0 -0.032770024037711037 0.0084985419153508525 0 -0.028180513839983729 0.018098474401369 0 -0.032770024037711037 0.0084985419153508525 0 -0.03614709390981162 0.0015378833132510439 0 -0.044352522143416888 0.0050416822031405977 0 -0.029539197120254941 -0.00051038393964639519 0 -0.032770024037711037 0.0084985419153508525 0 -0.03614709390981162 0.0015378833132510439 0 -0.042678209040760022 0.019440128409622049 0 -0.032770024037711037 0.0084985419153508525 0 -0.044352522143416888 0.0050416822031405977 0 -0.042969512877196837 0.063698159366550891 0 -0.047980875447113908 0.056604040506729722 0 -0.052166049838275927 0.062310195238599278 0 -0.047980875447113908 0.056604040506729722 0 -0.052166049838275927 0.062310195238599278 0 -0.055804220694704088 0.051985500715961808 0 -0.064856269609628314 0.055117702274744398 0 -0.059815066152941319 0.061788281472960463 0 -0.055804220694704088 0.051985500715961808 0 -0.052166049838275927 0.062310195238599278 0 -0.059815066152941319 0.061788281472960463 0 -0.055804220694704088 0.051985500715961808 0 -0.064856269609628314 0.055117702274744398 0 -0.065400139349222536 0.045420728471107522 0 -0.055804220694704088 0.051985500715961808 0 -0.047980875447113908 0.056604040506729722 0 -0.055804220694704088 0.051985500715961808 0 -0.046350630683546529 0.050276175962098407 0 -0.055804220694704088 0.051985500715961808 0 -0.05195897498334151 0.039592758420259042 0 -0.046350630683546529 0.050276175962098407 0 -0.065400139349222536 0.045420728471107522 0 -0.055804220694704088 0.051985500715961808 0 -0.05195897498334151 0.039592758420259042 0 -0.065400139349222536 0.045420728471107522 0 -0.063264057366842208 0.031259222641012697 0 -0.05195897498334151 0.039592758420259042 0 -0.042678209040760022 0.019440128409622049 0 -0.05195897498334151 0.039592758420259042 0 -0.038256592764973757 0.039174794321751791 0 -0.05195897498334151 0.039592758420259042 0 -0.038256592764973757 0.039174794321751791 0 -0.046350630683546529 0.050276175962098407 0 -0.038256592764973757 0.039174794321751791 0 -0.033834976489186493 0.058909460233881362 0 -0.038256592764973757 0.039174794321751791 0 -0.038513274033404883 0.055407770980391423 0 -0.033834976489186493 0.058909460233881362 0 -0.038256592764973757 0.039174794321751791 0 -0.046350630683546529 0.050276175962098407 0 -0.038513274033404883 0.055407770980391423 0 -0.038256592764973757 0.039174794321751791 0 -0.033834976489186493 0.058909460233881362 0 -0.02879531395286377 0.050132256585483953 0 -0.046350630683546529 0.050276175962098407 0 -0.038513274033404883 0.055407770980391423 0 -0.042914570065583427 0.057802329486214707 0 -0.036732086871232597 0.066761861307427367 0 -0.033834976489186493 0.058909460233881362 0 -0.038907572144486188 0.060810532415041758 0 -0.038513274033404883 0.055407770980391423 0 -0.033834976489186493 0.058909460233881362 0 -0.038513274033404883 0.055407770980391423 0 -0.033834976489186493 0.058909460233881362 0 -0.038907572144486188 0.060810532415041758 0 -0.042969512877196837 0.063698159366550891 0 -0.038907572144486188 0.060810532415041758 0 -0.042914570065583427 0.057802329486214707 0 -0.038513274033404883 0.055407770980391423 0 -0.038907572144486188 0.060810532415041758 0 -0.042914570065583427 0.057802329486214707 0 -0.047980875447113908 0.056604040506729722 0 -0.046350630683546529 0.050276175962098407 0 -0.042914570065583427 0.057802329486214707 0 -0.042969512877196837 0.063698159366550891 0 -0.047980875447113908 0.056604040506729722 0 -0.042914570065583427 0.057802329486214707 0 -0.033834976489186493 0.058909460233881362 0 -0.01963881101933795 0.057650575484614511 0 -0.02879531395286377 0.050132256585483953 0 -0.01963881101933795 0.057650575484614511 0 -0.02879531395286377 0.050132256585483953 0 -0.02345087553795689 0.044794196301688183 0 -0.01963881101933795 0.057650575484614511 0 -0.02345087553795689 0.044794196301688183 0 -0.012175026131353321 0.050402421608982242 0 -0.02345087553795689 0.044794196301688183 0 -0.014695186475719159 0.0359408453649432 0 -0.012175026131353321 0.050402421608982242 0 -0.038256592764973757 0.039174794321751791 0 -0.02879531395286377 0.050132256585483953 0 -0.02345087553795689 0.044794196301688183 0 -0.038256592764973757 0.039174794321751791 0 -0.02345087553795689 0.044794196301688183 0 -0.027511467414372541 0.03001296694831072 0 -0.02345087553795689 0.044794196301688183 0 -0.014695186475719159 0.0359408453649432 0 -0.027511467414372541 0.03001296694831072 0 -0.014695186475719159 0.0359408453649432 0 -0.0023331541944977092 0.045311556235899067 0 0.00074240361007229996 0.028778475488121531 0 -0.014695186475719159 0.0359408453649432 0 -0.0023331541944977092 0.045311556235899067 0 -0.012175026131353321 0.050402421608982242 0 -0.0023331541944977092 0.045311556235899067 0 -0.012175026131353321 0.050402421608982242 0 0.00079413703044923156 0.058803151297745167 0 -0.012175026131353321 0.050402421608982242 0 -0.0089029190745683329 0.062319161291970238 0 0.00079413703044923156 0.058803151297745167 0 -0.01963881101933795 0.057650575484614511 0 -0.012175026131353321 0.050402421608982242 0 -0.0089029190745683329 0.062319161291970238 0 -0.021996997598287969 0.010981086364913869 0 -0.02112675760807068 0.0030512678310729521 0 -0.0083058662928979787 0.012079608812324741 0 -0.021996997598287969 0.010981086364913869 0 -0.01661374249992489 0.02103319015209278 0 -0.0083058662928979787 0.012079608812324741 0 -0.021996997598287969 0.010981086364913869 0 -0.02112675760807068 0.0030512678310729521 0 -0.02631380729169577 0.0053104208567875946 0 -0.029539197120254941 -0.00051038393964639519 0 -0.02112675760807068 0.0030512678310729521 0 -0.02631380729169577 0.0053104208567875946 0 -0.029539197120254941 -0.00051038393964639519 0 -0.032770024037711037 0.0084985419153508525 0 -0.02631380729169577 0.0053104208567875946 0 -0.032770024037711037 0.0084985419153508525 0 -0.021996997598287969 0.010981086364913869 0 -0.02631380729169577 0.0053104208567875946 0 -0.032770024037711037 0.0084985419153508525 0 -0.021996997598287969 0.010981086364913869 0 -0.028180513839983729 0.018098474401369 0 -0.028180513839983729 0.018098474401369 0 -0.027511467414372541 0.03001296694831072 0 -0.01661374249992489 0.02103319015209278 0 -0.014695186475719159 0.0359408453649432 0 -0.027511467414372541 0.03001296694831072 0 -0.01661374249992489 0.02103319015209278 0 -0.021996997598287969 0.010981086364913869 0 -0.028180513839983729 0.018098474401369 0 -0.01661374249992489 0.02103319015209278 0 -0.01661374249992489 0.02103319015209278 0 0.00074240361007229996 0.028778475488121531 0 -0.0083058662928979787 0.012079608812324741 0 0.0060294939382754481 0.01286563290641534 0 0.00074240361007229996 0.028778475488121531 0 -0.014695186475719159 0.0359408453649432 0 -0.01661374249992489 0.02103319015209278 0 0.00074240361007229996 0.028778475488121531 0 -0.0083058662928979787 0.012079608812324741 0 0.00074240361007229996 0.028778475488121531 0 -0.01661374249992489 0.02103319015209278 0 -0.0083058662928979787 0.012079608812324741 0 0.00074240361007229996 0.028778475488121531 0 -0.0072764121498596901 -0.0036325873431357339 0 -0.0083058662928979787 0.012079608812324741 0 0.0012074066645448821 -0.00065723147797176382 0 -0.0072764121498596901 -0.0036325873431357339 0 -0.013607688627124061 -0.00178224205395049 0 -0.0083058662928979787 0.012079608812324741 0 -0.017354136195868258 -0.0046192578634720229 0 -0.0083058662928979787 0.012079608812324741 0 -0.017354136195868258 -0.0046192578634720229 0 -0.013607688627124061 -0.00178224205395049 0 -0.0083058662928979787 0.012079608812324741 0 -0.0083058662928979787 0.012079608812324741 0 0.0060294939382754481 0.01286563290641534 0 0.0012074066645448821 -0.00065723147797176382 0 -0.017354136195868258 -0.0046192578634720229 0 -0.02112675760807068 0.0030512678310729521 0 -0.0083058662928979787 0.012079608812324741 0 0.0060294939382754481 0.01286563290641534 0 0.0012074066645448821 -0.00065723147797176382 0 0.01265631079038235 -0.01012693536007268 0 0.0060294939382754481 0.01286563290641534 0 0.020311547060899309 0.014329649790385431 0 0.01265631079038235 -0.01012693536007268 0 0.00074240361007229996 0.028778475488121531 0 0.015746539320639769 0.024046632949657649 0 0.022626785018342459 0.038544513255683338 0 0.0060294939382754481 0.01286563290641534 0 0.00074240361007229996 0.028778475488121531 0 0.015746539320639769 0.024046632949657649 0 0.0060294939382754481 0.01286563290641534 0 0.015746539320639769 0.024046632949657649 0 0.020311547060899309 0.014329649790385431 0 0.015746539320639769 0.024046632949657649 0 0.029022466975609298 0.02571489330768258 0 0.020311547060899309 0.014329649790385431 0 0.015746539320639769 0.024046632949657649 0 0.029022466975609298 0.02571489330768258 0 0.022626785018342459 0.038544513255683338 0 0.020311547060899309 0.014329649790385431 0 0.034885408484197772 0.0062912350017927032 0 0.01265631079038235 -0.01012693536007268 0 0.029022466975609298 0.02571489330768258 0 0.020311547060899309 0.014329649790385431 0 0.034885408484197772 0.0062912350017927032 0 0.00079413703044923156 0.058803151297745167 0 0.01366790099406239 0.052632887419703241 0 0.0065236609159091173 0.071671444604676282 0 -0.0023331541944977092 0.045311556235899067 0 0.00079413703044923156 0.058803151297745167 0 0.01366790099406239 0.052632887419703241 0 0.00074240361007229996 0.028778475488121531 0 0.01366790099406239 0.052632887419703241 0 0.022626785018342459 0.038544513255683338 0 0.00074240361007229996 0.028778475488121531 0 0.022626785018342459 0.038544513255683338 0 -0.0023331541944977092 0.045311556235899067 0 0.00074240361007229996 0.028778475488121531 0 0.01366790099406239 0.052632887419703241 0 0.00074240361007229996 0.028778475488121531 0 0.01366790099406239 0.052632887419703241 0 0.029022466975609298 0.02571489330768258 0 0.022626785018342459 0.038544513255683338 0 0.037630953216902623 0.033668105561091018 0 0.01366790099406239 0.052632887419703241 0 0.022626785018342459 0.038544513255683338 0 0.025434983742737761 0.055249644843112657 0 0.022626785018342459 0.038544513255683338 0 0.025434983742737761 0.055249644843112657 0 0.034616451435572633 0.051242168749322393 0 0.025434983742737761 0.055249644843112657 0 0.034062632092931817 0.061255223706808547 0 0.02703491536905472 0.067401080742933134 0 0.01366790099406239 0.052632887419703241 0 0.025434983742737761 0.055249644843112657 0 0.02703491536905472 0.067401080742933134 0 0.034616451435572633 0.051242168749322393 0 0.044511166426612833 0.04831055102324476 0 0.060132464308973767 0.062986029428160187 0 0.034616451435572633 0.051242168749322393 0 0.060132464308973767 0.062986029428160187 0 0.044258496001147778 0.063884183083345675 0 0.034062632092931817 0.061255223706808547 0 0.034616451435572633 0.051242168749322393 0 0.044258496001147778 0.063884183083345675 0 0.025434983742737761 0.055249644843112657 0 0.034062632092931817 0.061255223706808547 0 0.034616451435572633 0.051242168749322393 0 0.022626785018342459 0.038544513255683338 0 0.044511166426612833 0.04831055102324476 0 0.022626785018342459 0.038544513255683338 0 0.034616451435572633 0.051242168749322393 0 0.044511166426612833 0.04831055102324476 0 0.022626785018342459 0.038544513255683338 0 0.044511166426612833 0.04831055102324476 0 0.037630953216902623 0.033668105561091018 0 0.044511166426612833 0.04831055102324476 0 0.037630953216902623 0.033668105561091018 0 0.0484135161167236 0.034205204957136963 0 0.0484135161167236 0.034205204957136963 0 0.060669767880595721 0.038134724015348051 0 0.0518117103670514 0.042737821036878322 0 0.0484135161167236 0.034205204957136963 0 0.060669767880595721 0.038134724015348051 0 0.057623658326613529 0.02352368721002385 0 0.060669767880595721 0.038134724015348051 0 0.0518117103670514 0.042737821036878322 0 0.059559274975242667 0.047504887075434543 0 0.044511166426612833 0.04831055102324476 0 0.0518117103670514 0.042737821036878322 0 0.059559274975242667 0.047504887075434543 0 0.044511166426612833 0.04831055102324476 0 0.0484135161167236 0.034205204957136963 0 0.0518117103670514 0.042737821036878322 0 0.044511166426612833 0.04831055102324476 0 0.066395547834883203 0.05807658879080619 0 0.060132464308973767 0.062986029428160187 0 0.034616451435572633 0.051242168749322393 0 0.060132464308973767 0.062986029428160187 0 0.044511166426612833 0.04831055102324476 0 0.066395547834883203 0.05807658879080619 0 0.044511166426612833 0.04831055102324476 0 0.059559274975242667 0.047504887075434543 0 0.066395547834883203 0.05807658879080619 0 0.034885408484197772 0.0062912350017927032 0 0.052968053050369737 0.0090809173488315582 0 0.042517259973231587 -0.011683923625132649 0 0.034885408484197772 0.0062912350017927032 0 0.043580831547224863 0.021565365261707499 0 0.052968053050369737 0.0090809173488315582 0 0.029022466975609298 0.02571489330768258 0 0.034885408484197772 0.0062912350017927032 0 0.043580831547224863 0.021565365261707499 0 0.029022466975609298 0.02571489330768258 0 0.037630953216902623 0.033668105561091018 0 0.043580831547224863 0.021565365261707499 0 0.037630953216902623 0.033668105561091018 0 0.0484135161167236 0.034205204957136963 0 0.043580831547224863 0.021565365261707499 0 0.057623658326613529 0.02352368721002385 0 0.052968053050369737 0.0090809173488315582 0 0.071708216805815503 0.016768608491387289 0 0.043580831547224863 0.021565365261707499 0 0.057623658326613529 0.02352368721002385 0 0.052968053050369737 0.0090809173488315582 0 0.0484135161167236 0.034205204957136963 0 0.043580831547224863 0.021565365261707499 0 0.057623658326613529 0.02352368721002385 0 0.052968053050369737 0.0090809173488315582 0 0.071708216805815503 0.016768608491387289 0 0.067492943165135169 -0.0019794682467893379 0 0.083930998993742512 0.0059737405228527038 0 0.071708216805815503 0.016768608491387289 0 0.067492943165135169 -0.0019794682467893379 0 0.083930998993742512 0.0059737405228527038 0 0.098495163759696414 0.0029673617968291321 0 0.094917995650245529 0.021722354499223519 0 0.083930998993742512 0.0059737405228527038 0 0.071708216805815503 0.016768608491387289 0 0.094917995650245529 0.021722354499223519 0 0.071708216805815503 0.016768608491387289 0 0.07449934060461412 0.03258063005354956 0 0.094917995650245529 0.021722354499223519 0 0.07449934060461412 0.03258063005354956 0 0.087237150257314613 0.037926204838731957 0 0.094917995650245529 0.021722354499223519 0 0.057623658326613529 0.02352368721002385 0 0.071708216805815503 0.016768608491387289 0 0.07449934060461412 0.03258063005354956 0 0.060669767880595721 0.038134724015348051 0 0.057623658326613529 0.02352368721002385 0 0.07449934060461412 0.03258063005354956 0 0.060669767880595721 0.038134724015348051 0 0.069155187538762042 0.045022305850501279 0 0.07449934060461412 0.03258063005354956 0 0.060669767880595721 0.038134724015348051 0 0.059559274975242667 0.047504887075434543 0 0.069155187538762042 0.045022305850501279 0 0.069155187538762042 0.045022305850501279 0 0.07449934060461412 0.03258063005354956 0 0.079692196512252927 0.044953406994506007 0 0.059559274975242667 0.047504887075434543 0 0.069155187538762042 0.045022305850501279 0 0.067326156772233525 0.050603546620565112 0 0.059559274975242667 0.047504887075434543 0 0.066395547834883203 0.05807658879080619 0 0.067326156772233525 0.050603546620565112 0 0.066395547834883203 0.05807658879080619 0 0.067326156772233525 0.050603546620565112 0 0.074194616740046182 0.051810404765518438 0 0.069155187538762042 0.045022305850501279 0 0.067326156772233525 0.050603546620565112 0 0.074194616740046182 0.051810404765518438 0 0.069155187538762042 0.045022305850501279 0 0.074194616740046182 0.051810404765518438 0 0.079692196512252927 0.044953406994506007 0 0.066395547834883203 0.05807658879080619 0 0.074194616740046182 0.051810404765518438 0 0.080343143758095259 0.058335218209008277 0 0.066395547834883203 0.05807658879080619 0 0.080343143758095259 0.058335218209008277 0 0.08827992924315356 0.067842626558367619 0 0.080343143758095259 0.058335218209008277 0 0.083306510346727383 0.05351440315152866 0 0.090416084875221875 0.058235299142909973 0 0.074194616740046182 0.051810404765518438 0 0.083306510346727383 0.05351440315152866 0 0.079692196512252927 0.044953406994506007 0 0.083306510346727383 0.05351440315152866 0 0.089760373586053266 0.048866493307206167 0 0.079692196512252927 0.044953406994506007 0 0.074194616740046182 0.051810404765518438 0 0.080343143758095259 0.058335218209008277 0 0.083306510346727383 0.05351440315152866 0 0.083306510346727383 0.05351440315152866 0 0.089760373586053266 0.048866493307206167 0 0.090416084875221875 0.058235299142909973 0 0.089760373586053266 0.048866493307206167 0 0.090416084875221875 0.058235299142909973 0 0.099395501669828634 0.055681054702382278 0 0.080343143758095259 0.058335218209008277 0 0.090416084875221875 0.058235299142909973 0 0.08827992924315356 0.067842626558367619 0 0.087237150257314613 0.037926204838731957 0 0.098930039005792711 0.04227996871225087 0 0.094917995650245529 0.021722354499223519 0 0.07449934060461412 0.03258063005354956 0 0.079692196512252927 0.044953406994506007 0 0.087237150257314613 0.037926204838731957 0 0.089760373586053266 0.048866493307206167 0 0.079692196512252927 0.044953406994506007 0 0.087237150257314613 0.037926204838731957 0 0.089760373586053266 0.048866493307206167 0 0.087237150257314613 0.037926204838731957 0 0.098930039005792711 0.04227996871225087 0 0.10894092886672049 0.033503019923715648 0 0.098930039005792711 0.04227996871225087 0 0.11550376979223601 0.054551475820320147 0 0.10894092886672049 0.033503019923715648 0 0.098930039005792711 0.04227996871225087 0 0.094917995650245529 0.021722354499223519 0 0.098930039005792711 0.04227996871225087 0 0.099395501669828634 0.055681054702382278 0 0.11550376979223601 0.054551475820320147 0 0.099395501669828634 0.055681054702382278 0 0.11550376979223601 0.054551475820320147 0 0.10561354398445311 0.069921878226714862 0 0.090416084875221875 0.058235299142909973 0 0.099395501669828634 0.055681054702382278 0 0.095618088847860577 0.065038419849084594 0 0.089760373586053266 0.048866493307206167 0 0.098930039005792711 0.04227996871225087 0 0.099395501669828634 0.055681054702382278 0 0.10894092886672049 0.033503019923715648 0 0.11961069471150609 0.02296590295220987 0 0.12977361784467401 0.039215218793308727 0 0.10894092886672049 0.033503019923715648 0 0.11550376979223601 0.054551475820320147 0 0.12977361784467401 0.039215218793308727 0 0.11961069471150609 0.02296590295220987 0 0.1158546052028349 0.0064685721448778594 0 0.094917995650245529 0.021722354499223519 0 0.11961069471150609 0.02296590295220987 0 0.1158546052028349 0.0064685721448778594 0 0.13894824890776639 0.02136224913872127 0 0.1158546052028349 0.0064685721448778594 0 0.098495163759696414 0.0029673617968291321 0 0.094917995650245529 0.021722354499223519 0 0.10894092886672049 0.033503019923715648 0 0.11961069471150609 0.02296590295220987 0 0.094917995650245529 0.021722354499223519 0 0.097728221435088053 0.099184528615223033 0 0.110275064223293 0.10236359857942121 0 0.11116449005577619 0.086473750785835857 0 0.099894961061174667 0.1104201015940532 0 0.11150799601301251 0.1117412241471519 0 0.110275064223293 0.10236359857942121 0 0.097728221435088053 0.099184528615223033 0 0.099894961061174667 0.1104201015940532 0 0.110275064223293 0.10236359857942121 0 0.097728221435088053 0.099184528615223033 0 0.099894961061174667 0.1104201015940532 0 0.084925795867796111 0.1103515185161017 0 0.099894961061174667 0.1104201015940532 0 0.096984900528893664 0.1212489081817222 0 0.084925795867796111 0.1103515185161017 0 0.099894961061174667 0.1104201015940532 0 0.096984900528893664 0.1212489081817222 0 0.10712684862241641 0.1210429748963526 0 0.096984900528893664 0.1212489081817222 0 0.10712684862241641 0.1210429748963526 0 0.10589272808503949 0.13156516273042271 0 0.099894961061174667 0.1104201015940532 0 0.10712684862241641 0.1210429748963526 0 0.11150799601301251 0.1117412241471519 0 0.10712684862241641 0.1210429748963526 0 0.11150799601301251 0.1117412241471519 0 0.1187293914863337 0.1182846474287873 0 0.11150799601301251 0.1117412241471519 0 0.1187293914863337 0.1182846474287873 0 0.1197878353292403 0.1092484053650479 0 0.10712684862241641 0.1210429748963526 0 0.1187293914863337 0.1182846474287873 0 0.114987521205969 0.1268010028982309 0 0.1187293914863337 0.1182846474287873 0 0.12813823657366311 0.12049833089676459 0 0.12624189261331301 0.1140678077034443 0 0.1187293914863337 0.1182846474287873 0 0.12212988809696081 0.1249307776834532 0 0.12813823657366311 0.12049833089676459 0 0.1187293914863337 0.1182846474287873 0 0.12212988809696081 0.1249307776834532 0 0.114987521205969 0.1268010028982309 0 0.1187293914863337 0.1182846474287873 0 0.1197878353292403 0.1092484053650479 0 0.12624189261331301 0.1140678077034443 0 0.1216961693062274 0.1020981758197984 0 0.110275064223293 0.10236359857942121 0 0.11116449005577619 0.086473750785835857 0 0.1197878353292403 0.1092484053650479 0 0.1216961693062274 0.1020981758197984 0 0.1302764983332621 0.10693497851168419 0 0.1216961693062274 0.1020981758197984 0 0.11116449005577619 0.086473750785835857 0 0.13668050292917741 0.098217611464673699 0 0.1197878353292403 0.1092484053650479 0 0.1216961693062274 0.1020981758197984 0 0.110275064223293 0.10236359857942121 0 0.11150799601301251 0.1117412241471519 0 0.1197878353292403 0.1092484053650479 0 0.110275064223293 0.10236359857942121 0 0.11116449005577619 0.086473750785835857 0 0.1207366242219714 0.074251990558816788 0 0.1300820653953097 0.084166932106396392 0 0.11116449005577619 0.086473750785835857 0 0.13668050292917741 0.098217611464673699 0 0.11116449005577619 0.086473750785835857 0 0.1207366242219714 0.074251990558816788 0 0.10561354398445311 0.069921878226714862 0 0.11550376979223601 0.054551475820320147 0 0.1207366242219714 0.074251990558816788 0 0.13255022158949201 0.068763676371196639 0 0.11550376979223601 0.054551475820320147 0 0.1207366242219714 0.074251990558816788 0 0.10561354398445311 0.069921878226714862 0 0.11116449005577619 0.086473750785835857 0 0.10561354398445311 0.069921878226714862 0 0.085648477182374977 0.074729890106998029 0 0.10561354398445311 0.069921878226714862 0 0.095618088847860577 0.065038419849084594 0 0.085648477182374977 0.074729890106998029 0 0.099395501669828634 0.055681054702382278 0 0.10561354398445311 0.069921878226714862 0 0.095618088847860577 0.065038419849084594 0 0.11116449005577619 0.086473750785835857 0 0.085648477182374977 0.074729890106998029 0 0.11116449005577619 0.086473750785835857 0 0.090808031879269946 0.087622927320568048 0 0.085648477182374977 0.074729890106998029 0 0.097728221435088053 0.099184528615223033 0 0.11116449005577619 0.086473750785835857 0 0.090808031879269946 0.087622927320568048 0 0.097728221435088053 0.099184528615223033 0 0.090808031879269946 0.087622927320568048 0 0.080235742217082393 0.093435287859391092 0 0.090808031879269946 0.087622927320568048 0 0.078675001300488379 0.083882301042573534 0 0.085648477182374977 0.074729890106998029 0 0.090808031879269946 0.087622927320568048 0 0.078675001300488379 0.083882301042573534 0 0.080235742217082393 0.093435287859391092 0 0.066395547834883203 0.05807658879080619 0 0.08827992924315356 0.067842626558367619 0 0.085648477182374977 0.074729890106998029 0 0.095618088847860577 0.065038419849084594 0 0.08827992924315356 0.067842626558367619 0 0.085648477182374977 0.074729890106998029 0 0.090416084875221875 0.058235299142909973 0 0.095618088847860577 0.065038419849084594 0 0.08827992924315356 0.067842626558367619 0 0.066395547834883203 0.05807658879080619 0 0.085648477182374977 0.074729890106998029 0 0.060132464308973767 0.062986029428160187 0 0.066395547834883203 0.05807658879080619 0 0.08827992924315356 0.067842626558367619 0 0.085648477182374977 0.074729890106998029 0 0.068637102026180674 0.07792917868559901 0 0.060132464308973767 0.062986029428160187 0 0.085648477182374977 0.074729890106998029 0 0.060132464308973767 0.062986029428160187 0 0.078675001300488379 0.083882301042573534 0 0.085648477182374977 0.074729890106998029 0 0.068637102026180674 0.07792917868559901 0 0.080235742217082393 0.093435287859391092 0 0.069503799956795384 0.087722797055870286 0 0.068523875558259784 0.095111972458496966 0 0.078675001300488379 0.083882301042573534 0 0.080235742217082393 0.093435287859391092 0 0.069503799956795384 0.087722797055870286 0 0.078675001300488379 0.083882301042573534 0 0.068637102026180674 0.07792917868559901 0 0.069503799956795384 0.087722797055870286 0 0.068637102026180674 0.07792917868559901 0 0.069503799956795384 0.087722797055870286 0 0.060111091978902922 0.083782113849914977 0 0.069503799956795384 0.087722797055870286 0 0.06135777996986308 0.093915161513068182 0 0.060111091978902922 0.083782113849914977 0 0.069503799956795384 0.087722797055870286 0 0.068523875558259784 0.095111972458496966 0 0.06135777996986308 0.093915161513068182 0 0.068523875558259784 0.095111972458496966 0 0.071520258741129425 0.10189571548122769 0 0.062413973273008162 0.1018934272394761 0 0.068523875558259784 0.095111972458496966 0 0.062413973273008162 0.1018934272394761 0 0.06135777996986308 0.093915161513068182 0 0.071520258741129425 0.10189571548122769 0 0.072821304814728441 0.1108529925529516 0 0.063718101814298073 0.11016590081819259 0 0.071520258741129425 0.10189571548122769 0 0.063718101814298073 0.11016590081819259 0 0.062413973273008162 0.1018934272394761 0 0.071520258741129425 0.10189571548122769 0 0.084925795867796111 0.1103515185161017 0 0.072821304814728441 0.1108529925529516 0 0.080235742217082393 0.093435287859391092 0 0.068523875558259784 0.095111972458496966 0 0.071520258741129425 0.10189571548122769 0 0.097728221435088053 0.099184528615223033 0 0.080235742217082393 0.093435287859391092 0 0.084925795867796111 0.1103515185161017 0 0.080235742217082393 0.093435287859391092 0 0.071520258741129425 0.10189571548122769 0 0.084925795867796111 0.1103515185161017 0 0.084925795867796111 0.1103515185161017 0 0.074154959480044275 0.1204842858357125 0 0.087075880893963842 0.12621803440601359 0 0.096984900528893664 0.1212489081817222 0 0.084925795867796111 0.1103515185161017 0 0.087075880893963842 0.12621803440601359 0 0.084925795867796111 0.1103515185161017 0 0.074154959480044275 0.1204842858357125 0 0.072821304814728441 0.1108529925529516 0 0.074154959480044275 0.1204842858357125 0 0.072821304814728441 0.1108529925529516 0 0.063718101814298073 0.11016590081819259 0 0.074154959480044275 0.1204842858357125 0 0.063718101814298073 0.11016590081819259 0 0.060124536552058239 0.11864948812996751 0 0.074154959480044275 0.1204842858357125 0 0.060124536552058239 0.11864948812996751 0 0.061109117960118017 0.12720913792676911 0 0.060124536552058239 0.11864948812996751 0 0.052595679859244633 0.1236025024456274 0 0.054913207086597561 0.11271600588853189 0 0.060124536552058239 0.11864948812996751 0 0.052595679859244633 0.1236025024456274 0 0.061109117960118017 0.12720913792676911 0 0.052595679859244633 0.1236025024456274 0 0.054913207086597561 0.11271600588853189 0 0.046771683079868627 0.1089772416004138 0 0.063718101814298073 0.11016590081819259 0 0.060124536552058239 0.11864948812996751 0 0.054913207086597561 0.11271600588853189 0 0.063718101814298073 0.11016590081819259 0 0.062413973273008162 0.1018934272394761 0 0.053620768430252298 0.1031656988462608 0 0.063718101814298073 0.11016590081819259 0 0.054913207086597561 0.11271600588853189 0 0.053620768430252298 0.1031656988462608 0 0.06135777996986308 0.093915161513068182 0 0.053620768430252298 0.1031656988462608 0 0.051535176025136201 0.090416251810209708 0 0.062413973273008162 0.1018934272394761 0 0.06135777996986308 0.093915161513068182 0 0.053620768430252298 0.1031656988462608 0 0.053620768430252298 0.1031656988462608 0 0.042875633238578528 0.09739353282270094 0 0.051535176025136201 0.090416251810209708 0 0.053620768430252298 0.1031656988462608 0 0.046771683079868627 0.1089772416004138 0 0.042875633238578528 0.09739353282270094 0 0.054913207086597561 0.11271600588853189 0 0.053620768430252298 0.1031656988462608 0 0.046771683079868627 0.1089772416004138 0 0.046771683079868627 0.1089772416004138 0 0.042875633238578528 0.09739353282270094 0 0.034382595390138257 0.1099700727945534 0 0.042875633238578528 0.09739353282270094 0 0.034382595390138257 0.1099700727945534 0 0.030708755379597181 0.088685576768743155 0 0.034382595390138257 0.1099700727945534 0 0.030708755379597181 0.088685576768743155 0 0.052595679859244633 0.1236025024456274 0 0.046771683079868627 0.1089772416004138 0 0.034382595390138257 0.1099700727945534 0 0.034382595390138257 0.1099700727945534 0 0.02520709702204247 0.1232263280856261 0 0.037354296692750887 0.12718670835402709 0 0.052595679859244633 0.1236025024456274 0 0.034382595390138257 0.1099700727945534 0 0.037354296692750887 0.12718670835402709 0 0.034382595390138257 0.1099700727945534 0 0.037354296692750887 0.12718670835402709 0 0.052595679859244633 0.1236025024456274 0 0.034382595390138257 0.1099700727945534 0 0.060132464308973767 0.062986029428160187 0 0.051537231586459821 0.0703604747810012 0 0.044258496001147778 0.063884183083345675 0 0.051537231586459821 0.0703604747810012 0 0.045053238281461433 0.071665999821029613 0 0.044258496001147778 0.063884183083345675 0 0.060132464308973767 0.062986029428160187 0 0.058160070023191839 0.074213970699792686 0 0.051537231586459821 0.0703604747810012 0 0.068637102026180674 0.07792917868559901 0 0.060132464308973767 0.062986029428160187 0 0.058160070023191839 0.074213970699792686 0 0.051537231586459821 0.0703604747810012 0 0.049495561811348857 0.078896267932753172 0 0.045053238281461433 0.071665999821029613 0 0.058160070023191839 0.074213970699792686 0 0.051537231586459821 0.0703604747810012 0 0.049495561811348857 0.078896267932753172 0 0.049495561811348857 0.078896267932753172 0 0.051535176025136201 0.090416251810209708 0 0.041750220721871581 0.085344735896560275 0 0.049495561811348857 0.078896267932753172 0 0.060111091978902922 0.083782113849914977 0 0.051535176025136201 0.090416251810209708 0 0.068637102026180674 0.07792917868559901 0 0.058160070023191839 0.074213970699792686 0 0.060111091978902922 0.083782113849914977 0 0.058160070023191839 0.074213970699792686 0 0.049495561811348857 0.078896267932753172 0 0.060111091978902922 0.083782113849914977 0 0.06135777996986308 0.093915161513068182 0 0.060111091978902922 0.083782113849914977 0 0.051535176025136201 0.090416251810209708 0 0.042875633238578528 0.09739353282270094 0 0.051535176025136201 0.090416251810209708 0 0.041750220721871581 0.085344735896560275 0 0.042875633238578528 0.09739353282270094 0 0.041750220721871581 0.085344735896560275 0 0.030708755379597181 0.088685576768743155 0 0.041750220721871581 0.085344735896560275 0 0.037489048909448763 0.07466528487264068 0 0.030708755379597181 0.088685576768743155 0 0.049495561811348857 0.078896267932753172 0 0.041750220721871581 0.085344735896560275 0 0.037489048909448763 0.07466528487264068 0 0.037489048909448763 0.07466528487264068 0 0.02703491536905472 0.067401080742933134 0 0.030708755379597181 0.088685576768743155 0 0.049495561811348857 0.078896267932753172 0 0.045053238281461433 0.071665999821029613 0 0.037489048909448763 0.07466528487264068 0 0.045053238281461433 0.071665999821029613 0 0.037489048909448763 0.07466528487264068 0 0.037579666130808903 0.067774354445351542 0 0.034062632092931817 0.061255223706808547 0 0.037579666130808903 0.067774354445351542 0 0.02703491536905472 0.067401080742933134 0 0.037489048909448763 0.07466528487264068 0 0.037579666130808903 0.067774354445351542 0 0.02703491536905472 0.067401080742933134 0 0.034062632092931817 0.061255223706808547 0 0.037579666130808903 0.067774354445351542 0 0.044258496001147778 0.063884183083345675 0 0.045053238281461433 0.071665999821029613 0 0.037579666130808903 0.067774354445351542 0 0.044258496001147778 0.063884183083345675 0 0.02703491536905472 0.067401080742933134 0 0.030708755379597181 0.088685576768743155 0 0.01366790099406239 0.052632887419703241 0 0.026593398378051959 0.076487299351285121 0 0.01366790099406239 0.052632887419703241 0 0.02703491536905472 0.067401080742933134 0 0.026593398378051959 0.076487299351285121 0 0.02703491536905472 0.067401080742933134 0 0.026593398378051959 0.076487299351285121 0 0.030708755379597181 0.088685576768743155 0 0.01366790099406239 0.052632887419703241 0 0.026593398378051959 0.076487299351285121 0 0.01611389888654503 0.070322973248010373 0 0.026593398378051959 0.076487299351285121 0 0.01611389888654503 0.070322973248010373 0 0.01767063525815666 0.080500261616376856 0 0.01767063525815666 0.080500261616376856 0 0.030708755379597181 0.088685576768743155 0 0.011643404763696401 0.092949868607662828 0 0.026593398378051959 0.076487299351285121 0 0.01767063525815666 0.080500261616376856 0 0.030708755379597181 0.088685576768743155 0 0.01767063525815666 0.080500261616376856 0 0.011643404763696401 0.092949868607662828 0 0.0065236609159091173 0.071671444604676282 0 -0.01109578586274463 0.07592966442077155 0 0.011643404763696401 0.092949868607662828 0 0.0065236609159091173 0.071671444604676282 0 -0.01109578586274463 0.07592966442077155 0 0.011643404763696401 0.092949868607662828 0 0.01366790099406239 0.052632887419703241 0 0.01611389888654503 0.070322973248010373 0 0.0065236609159091173 0.071671444604676282 0 0.01611389888654503 0.070322973248010373 0 0.01767063525815666 0.080500261616376856 0 0.0065236609159091173 0.071671444604676282 0 -0.0031702267477386531 0.067180855403790804 0 0.00079413703044923156 0.058803151297745167 0 0.0065236609159091173 0.071671444604676282 0 0.034382595390138257 0.1099700727945534 0 0.02520709702204247 0.1232263280856261 0 0.01356063639681436 0.11371506303709419 0 0.02520709702204247 0.1232263280856261 0 0.01356063639681436 0.11371506303709419 0 0.011098566836083609 0.13484946890849181 0 0.034382595390138257 0.1099700727945534 0 0.011643404763696401 0.092949868607662828 0 0.01356063639681436 0.11371506303709419 0 0.034382595390138257 0.1099700727945534 0 0.011643404763696401 0.092949868607662828 0 0.034382595390138257 0.1099700727945534 0 0.030708755379597181 0.088685576768743155 0 0.011643404763696401 0.092949868607662828 0 -0.0040088977147468936 0.097024336429998151 0 0.011643404763696401 0.092949868607662828 0 0.0025937760044158291 0.1064596481343341 0 0.011643404763696401 0.092949868607662828 0 0.0025937760044158291 0.1064596481343341 0 0.01356063639681436 0.11371506303709419 0 -0.007175360702145514 0.1155930690216506 0 0.0025937760044158291 0.1064596481343341 0 0.01356063639681436 0.11371506303709419 0 -0.007175360702145514 0.1155930690216506 0 0.01356063639681436 0.11371506303709419 0 0.011098566836083609 0.13484946890849181 0 -0.007175360702145514 0.1155930690216506 0 0.011098566836083609 0.13484946890849181 0 0.02520709702204247 0.1232263280856261 0 0.011098566836083609 0.13484946890849181 0 0.028759663239593541 0.13617761485890201 0 0.02520709702204247 0.1232263280856261 0 0.028759663239593541 0.13617761485890201 0 0.037354296692750887 0.12718670835402709 0 0.011098566836083609 0.13484946890849181 0 0.029372494374312729 0.15410586879533311 0 0.013538337341477229 0.1636201682865295 0 0.011098566836083609 0.13484946890849181 0 0.028759663239593541 0.13617761485890201 0 0.029372494374312729 0.15410586879533311 0 0.011098566836083609 0.13484946890849181 0 0.029372494374312729 0.15410586879533311 0 -0.0048034666842798916 0.1614245706846468 0 0.011098566836083609 0.13484946890849181 0 0.013538337341477229 0.1636201682865295 0 -0.0057956805663459468 0.1892940575843915 0 -0.0048034666842798916 0.1614245706846468 0 0.013538337341477229 0.1636201682865295 0 -0.0057956805663459468 0.1892940575843915 0 0.013538337341477229 0.1636201682865295 0 0.020045678312652242 0.18090880435863019 0 -0.0057956805663459468 0.1892940575843915 0 0.020045678312652242 0.18090880435863019 0 0.029372494374312729 0.15410586879533311 0 0.013538337341477229 0.1636201682865295 0 0.020045678312652242 0.18090880435863019 0 0.029372494374312729 0.15410586879533311 0 0.045887037191650451 0.17252355113286891 0 0.04813315871709322 0.1541455757588851 0 0.029372494374312729 0.15410586879533311 0 0.020045678312652242 0.18090880435863019 0 0.045887037191650451 0.17252355113286891 0 0.020045678312652242 0.18090880435863019 0 0.045887037191650451 0.17252355113286891 0 0.020045678312652242 0.18090880435863019 0 0.045887037191650451 0.17252355113286891 0 0.041991232206495782 0.1919910870650737 0 0.045887037191650451 0.17252355113286891 0 0.060802696405823108 0.1787365445376432 0 0.041991232206495782 0.1919910870650737 0 0.045887037191650451 0.17252355113286891 0 0.071728396070648653 0.1641382979071076 0 0.045887037191650451 0.17252355113286891 0 0.060802696405823108 0.1787365445376432 0 0.071728396070648653 0.1641382979071076 0 0.045887037191650451 0.17252355113286891 0 0.059657673584757237 0.15824269734654939 0 0.04813315871709322 0.1541455757588851 0 0.045887037191650451 0.17252355113286891 0 0.059657673584757237 0.15824269734654939 0 0.071728396070648653 0.1641382979071076 0 0.059657673584757237 0.15824269734654939 0 0.04813315871709322 0.1541455757588851 0 0.060329678829100349 0.1474246815113264 0 0.04813315871709322 0.1541455757588851 0 0.050215372913412007 0.1458935282758238 0 0.060329678829100349 0.1474246815113264 0 0.050215372913412007 0.1458935282758238 0 0.060329678829100349 0.1474246815113264 0 0.052072656112092337 0.13760051191958289 0 0.050215372913412007 0.1458935282758238 0 0.052072656112092337 0.13760051191958289 0 0.040325997995362128 0.14440334391350099 0 0.060329678829100349 0.1474246815113264 0 0.062159468211553673 0.13737243366585769 0 0.052072656112092337 0.13760051191958289 0 0.062159468211553673 0.13737243366585769 0 0.054733357378362921 0.13083888414419281 0 0.052072656112092337 0.13760051191958289 0 0.052595679859244633 0.1236025024456274 0 0.054733357378362921 0.13083888414419281 0 0.061109117960118017 0.12720913792676911 0 0.062159468211553673 0.13737243366585769 0 0.054733357378362921 0.13083888414419281 0 0.061109117960118017 0.12720913792676911 0 0.052595679859244633 0.1236025024456274 0 0.054733357378362921 0.13083888414419281 0 0.046346625143134958 0.1312929959830558 0 0.054733357378362921 0.13083888414419281 0 0.052072656112092337 0.13760051191958289 0 0.046346625143134958 0.1312929959830558 0 0.037354296692750887 0.12718670835402709 0 0.040325997995362128 0.14440334391350099 0 0.046346625143134958 0.1312929959830558 0 0.037354296692750887 0.12718670835402709 0 0.040325997995362128 0.14440334391350099 0 0.028759663239593541 0.13617761485890201 0 0.037354296692750887 0.12718670835402709 0 0.040325997995362128 0.14440334391350099 0 0.052072656112092337 0.13760051191958289 0 0.046346625143134958 0.1312929959830558 0 0.040325997995362128 0.14440334391350099 0 0.052595679859244633 0.1236025024456274 0 0.046346625143134958 0.1312929959830558 0 0.037354296692750887 0.12718670835402709 0 0.028759663239593541 0.13617761485890201 0 0.029372494374312729 0.15410586879533311 0 0.040325997995362128 0.14440334391350099 0 0.029372494374312729 0.15410586879533311 0 0.04813315871709322 0.1541455757588851 0 0.040325997995362128 0.14440334391350099 0 0.04813315871709322 0.1541455757588851 0 0.050215372913412007 0.1458935282758238 0 0.040325997995362128 0.14440334391350099 0 0.025149977659741599 0.24684982625080901 0 0.00014186162909880781 0.2338185852574263 0 0.02177620002751179 0.22559840920251981 0 0.025149977659741599 0.24684982625080901 0 0.00014186162909880781 0.2338185852574263 0 0.025149977659741599 0.24684982625080901 0 0.00014186162909880781 0.2338185852574263 0 0.0073806355134042019 0.25529449578482938 0 0.00014186162909880781 0.2338185852574263 0 0.02177620002751179 0.22559840920251981 0 0.0090806704795409685 0.20996839310177981 0 0.025149977659741599 0.24684982625080901 0 0.02177620002751179 0.22559840920251981 0 0.039960986899899173 0.22780444499479169 0 0.02177620002751179 0.22559840920251981 0 0.0090806704795409685 0.20996839310177981 0 0.034547503469278373 0.20955079640779209 0 0.0090806704795409685 0.20996839310177981 0 0.02162293693503077 0.1981024475624624 0 0.034547503469278373 0.20955079640779209 0 -0.0057956805663459468 0.1892940575843915 0 0.0090806704795409685 0.20996839310177981 0 0.02162293693503077 0.1981024475624624 0 -0.0057956805663459468 0.1892940575843915 0 0.020045678312652242 0.18090880435863019 0 0.02162293693503077 0.1981024475624624 0 0.020045678312652242 0.18090880435863019 0 0.02162293693503077 0.1981024475624624 0 0.041991232206495782 0.1919910870650737 0 0.02162293693503077 0.1981024475624624 0 0.041991232206495782 0.1919910870650737 0 0.034547503469278373 0.20955079640779209 0 0.041991232206495782 0.1919910870650737 0 0.05849467095877426 0.1965416733816682 0 0.050764695011206777 0.20916964222725651 0 0.060802696405823108 0.1787365445376432 0 0.041991232206495782 0.1919910870650737 0 0.05849467095877426 0.1965416733816682 0 0.050764695011206777 0.20916964222725651 0 0.066981886553135278 0.20878848804672309 0 0.05849467095877426 0.1965416733816682 0 0.050764695011206777 0.20916964222725651 0 0.066981886553135278 0.20878848804672309 0 0.050764695011206777 0.20916964222725651 0 0.061514006406540499 0.23071042489022231 0 0.066981886553135278 0.20878848804672309 0 0.050764695011206777 0.20916964222725651 0 0.034547503469278373 0.20955079640779209 0 0.039960986899899173 0.22780444499479169 0 0.050764695011206777 0.20916964222725651 0 0.034547503469278373 0.20955079640779209 0 0.041991232206495782 0.1919910870650737 0 0.050764695011206777 0.20916964222725651 0 0.034547503469278373 0.20955079640779209 0 0.02177620002751179 0.22559840920251981 0 0.034547503469278373 0.20955079640779209 0 0.039960986899899173 0.22780444499479169 0 0.039960986899899173 0.22780444499479169 0 0.061514006406540499 0.23071042489022231 0 0.045472231705318063 0.24424317023843681 0 0.050764695011206777 0.20916964222725651 0 0.039960986899899173 0.22780444499479169 0 0.061514006406540499 0.23071042489022231 0 0.061514006406540499 0.23071042489022231 0 0.056046126259945157 0.25263236173372139 0 0.061514006406540499 0.23071042489022231 0 0.056046126259945157 0.25263236173372139 0 0.067905867336300579 0.25358800162702 0 0.061514006406540499 0.23071042489022231 0 0.045472231705318063 0.24424317023843681 0 0.056046126259945157 0.25263236173372139 0 0.025149977659741599 0.24684982625080901 0 0.039960986899899173 0.22780444499479169 0 0.045472231705318063 0.24424317023843681 0 0.092857250133516089 0.24175825718487831 0 0.078525547080241467 0.2465942846531784 0 0.093798877441032588 0.2579700649065903 0 0.092857250133516089 0.24175825718487831 0 0.078525547080241467 0.2465942846531784 0 0.081986142109724491 0.22560265144644431 0 0.061514006406540499 0.23071042489022231 0 0.078525547080241467 0.2465942846531784 0 0.067905867336300579 0.25358800162702 0 0.061514006406540499 0.23071042489022231 0 0.078525547080241467 0.2465942846531784 0 0.081986142109724491 0.22560265144644431 0 0.061514006406540499 0.23071042489022231 0 0.081986142109724491 0.22560265144644431 0 0.066981886553135278 0.20878848804672309 0 0.061514006406540499 0.23071042489022231 0 0.066981886553135278 0.20878848804672309 0 0.081986142109724491 0.22560265144644431 0 0.09236794217301933 0.20819183719001669 0 0.066981886553135278 0.20878848804672309 0 0.09236794217301933 0.20819183719001669 0 0.066981886553135278 0.20878848804672309 0 0.09236794217301933 0.20819183719001669 0 0.066981886553135278 0.20878848804672309 0 0.071445073857882777 0.19089458628000441 0 0.060802696405823108 0.1787365445376432 0 0.05849467095877426 0.1965416733816682 0 0.071445073857882777 0.19089458628000441 0 0.066981886553135278 0.20878848804672309 0 0.071445073857882777 0.19089458628000441 0 0.05849467095877426 0.1965416733816682 0 0.066981886553135278 0.20878848804672309 0 0.071445073857882777 0.19089458628000441 0 0.09236794217301933 0.20819183719001669 0 0.071445073857882777 0.19089458628000441 0 0.086464584236575506 0.1862285865309723 0 0.09236794217301933 0.20819183719001669 0 0.086464584236575506 0.1862285865309723 0 0.1023855527362314 0.18749689463882899 0 0.09236794217301933 0.20819183719001669 0 0.11775399779290339 0.20759518633331239 0 0.1023855527362314 0.18749689463882899 0 0.11775399779290339 0.20759518633331239 0 0.1023855527362314 0.18749689463882899 0 0.12550986450034471 0.186594373040398 0 0.09236794217301933 0.20819183719001669 0 0.11775399779290339 0.20759518633331239 0 0.09236794217301933 0.20819183719001669 0 0.11775399779290339 0.20759518633331239 0 0.10906069526472741 0.22998953009969161 0 0.092857250133516089 0.24175825718487831 0 0.081986142109724491 0.22560265144644431 0 0.10906069526472741 0.22998953009969161 0 0.081986142109724491 0.22560265144644431 0 0.09236794217301933 0.20819183719001669 0 0.10906069526472741 0.22998953009969161 0 0.11775399779290339 0.20759518633331239 0 0.10906069526472741 0.22998953009969161 0 0.1382648444377183 0.22719855966067881 0 0.10906069526472741 0.22998953009969161 0 0.12787711237058769 0.24521089126939841 0 0.1100607559553454 0.25396994184181759 0 0.092857250133516089 0.24175825718487831 0 0.10906069526472741 0.22998953009969161 0 0.1100607559553454 0.25396994184181759 0 0.081151633673542972 0.15313158297098389 0 0.083920606388658545 0.14050817004821939 0 0.0975697549496468 0.15575304468134629 0 0.081151633673542972 0.15313158297098389 0 0.083920606388658545 0.14050817004821939 0 0.071387777285217918 0.15212681924726251 0 0.074154959480044275 0.1204842858357125 0 0.087075880893963842 0.12621803440601359 0 0.083920606388658545 0.14050817004821939 0 0.087075880893963842 0.12621803440601359 0 0.083920606388658545 0.14050817004821939 0 0.097906888154765004 0.1362305538396491 0 0.062159468211553673 0.13737243366585769 0 0.061109117960118017 0.12720913792676911 0 0.083920606388658545 0.14050817004821939 0 0.074154959480044275 0.1204842858357125 0 0.061109117960118017 0.12720913792676911 0 0.083920606388658545 0.14050817004821939 0 0.061109117960118017 0.12720913792676911 0 0.083920606388658545 0.14050817004821939 0 0.062159468211553673 0.13737243366585769 0 0.083920606388658545 0.14050817004821939 0 0.069449382678632612 0.1443580261181665 0 0.060329678829100349 0.1474246815113264 0 0.062159468211553673 0.13737243366585769 0 0.069449382678632612 0.1443580261181665 0 0.060329678829100349 0.1474246815113264 0 0.069449382678632612 0.1443580261181665 0 0.071387777285217918 0.15212681924726251 0 0.083920606388658545 0.14050817004821939 0 0.069449382678632612 0.1443580261181665 0 0.071387777285217918 0.15212681924726251 0 0.059657673584757237 0.15824269734654939 0 0.060329678829100349 0.1474246815113264 0 0.071387777285217918 0.15212681924726251 0 0.059657673584757237 0.15824269734654939 0 0.071387777285217918 0.15212681924726251 0 0.071728396070648653 0.1641382979071076 0 0.081151633673542972 0.15313158297098389 0 0.071387777285217918 0.15212681924726251 0 0.071728396070648653 0.1641382979071076 0 0.071445073857882777 0.19089458628000441 0 0.075908261162629706 0.17300068451328551 0 0.086464584236575506 0.1862285865309723 0 0.060802696405823108 0.1787365445376432 0 0.071445073857882777 0.19089458628000441 0 0.075908261162629706 0.17300068451328551 0 0.071445073857882777 0.19089458628000441 0 0.075908261162629706 0.17300068451328551 0 0.060802696405823108 0.1787365445376432 0 0.071728396070648653 0.1641382979071076 0 0.075908261162629706 0.17300068451328551 0 0.086464584236575506 0.1862285865309723 0 0.090216091253114361 0.17155893003272579 0 0.1023855527362314 0.18749689463882899 0 0.075908261162629706 0.17300068451328551 0 0.086464584236575506 0.1862285865309723 0 0.090216091253114361 0.17155893003272579 0 0.081151633673542972 0.15313158297098389 0 0.071728396070648653 0.1641382979071076 0 0.0975697549496468 0.15575304468134629 0 0.071728396070648653 0.1641382979071076 0 0.090216091253114361 0.17155893003272579 0 0.0975697549496468 0.15575304468134629 0 0.071728396070648653 0.1641382979071076 0 0.075908261162629706 0.17300068451328551 0 0.090216091253114361 0.17155893003272579 0 0.071728396070648653 0.1641382979071076 0 0.0975697549496468 0.15575304468134629 0 0.090216091253114361 0.17155893003272579 0 0.1064810698159025 0.16893633516972181 0 0.0975697549496468 0.15575304468134629 0 0.1064810698159025 0.16893633516972181 0 0.1067320948171991 0.1538072021696697 0 0.0975697549496468 0.15575304468134629 0 0.090216091253114361 0.17155893003272579 0 0.1064810698159025 0.16893633516972181 0 0.1023855527362314 0.18749689463882899 0 0.1064810698159025 0.16893633516972181 0 0.12954358324573961 0.16710623429112001 0 0.12550986450034471 0.186594373040398 0 0.1064810698159025 0.16893633516972181 0 0.1023855527362314 0.18749689463882899 0 0.12550986450034471 0.186594373040398 0 0.1064810698159025 0.16893633516972181 0 0.1067320948171991 0.1538072021696697 0 0.12954358324573961 0.16710623429112001 0 0.1067320948171991 0.1538072021696697 0 0.1262856736452258 0.1537478882528979 0 0.12954358324573961 0.16710623429112001 0 0.1067320948171991 0.1538072021696697 0 0.12954358324573961 0.16710623429112001 0 0.1148569119608701 0.14824987142416859 0 0.1067320948171991 0.1538072021696697 0 0.1262856736452258 0.1537478882528979 0 0.118317888191051 0.14254191757659121 0 0.1148569119608701 0.14824987142416859 0 0.1262856736452258 0.1537478882528979 0 0.118317888191051 0.14254191757659121 0 0.12756241452120801 0.13893694775055651 0 0.1262856736452258 0.1537478882528979 0 0.1148569119608701 0.14824987142416859 0 0.1067320948171991 0.1538072021696697 0 0.1080919911900045 0.14290247769751591 0 0.118317888191051 0.14254191757659121 0 0.1148569119608701 0.14824987142416859 0 0.1080919911900045 0.14290247769751591 0 0.083920606388658545 0.14050817004821939 0 0.1067320948171991 0.1538072021696697 0 0.1067320948171991 0.1538072021696697 0 0.1080919911900045 0.14290247769751591 0 0.097906888154765004 0.1362305538396491 0 0.083920606388658545 0.14050817004821939 0 0.1067320948171991 0.1538072021696697 0 0.097906888154765004 0.1362305538396491 0 0.083920606388658545 0.14050817004821939 0 0.1067320948171991 0.1538072021696697 0 0.0975697549496468 0.15575304468134629 0 0.096984900528893664 0.1212489081817222 0 0.097906888154765004 0.1362305538396491 0 0.10589272808503949 0.13156516273042271 0 0.096984900528893664 0.1212489081817222 0 0.087075880893963842 0.12621803440601359 0 0.097906888154765004 0.1362305538396491 0 0.1080919911900045 0.14290247769751591 0 0.097906888154765004 0.1362305538396491 0 0.10589272808503949 0.13156516273042271 0 0.1080919911900045 0.14290247769751591 0 0.10589272808503949 0.13156516273042271 0 0.11327312463209829 0.13597294690712769 0 0.10712684862241641 0.1210429748963526 0 0.10589272808503949 0.13156516273042271 0 0.114987521205969 0.1268010028982309 0 0.10589272808503949 0.13156516273042271 0 0.114987521205969 0.1268010028982309 0 0.11327312463209829 0.13597294690712769 0 0.114987521205969 0.1268010028982309 0 0.11327312463209829 0.13597294690712769 0 0.1203000125167645 0.13336293759413789 0 0.118317888191051 0.14254191757659121 0 0.1080919911900045 0.14290247769751591 0 0.11327312463209829 0.13597294690712769 0 0.118317888191051 0.14254191757659121 0 0.1203000125167645 0.13336293759413789 0 0.12756241452120801 0.13893694775055651 0 0.118317888191051 0.14254191757659121 0 0.11327312463209829 0.13597294690712769 0 0.1203000125167645 0.13336293759413789 0 0.12212988809696081 0.1249307776834532 0 0.114987521205969 0.1268010028982309 0 0.1203000125167645 0.13336293759413789 0 0.12212988809696081 0.1249307776834532 0 0.1203000125167645 0.13336293759413789 0 0.12788127083107459 0.1291064789800366 0 0.12788127083107459 0.1291064789800366 0 0.13409394305489639 0.1257339851238449 0 0.12813823657366311 0.12049833089676459 0 0.12788127083107459 0.1291064789800366 0 0.13410827310584911 0.13282331674432049 0 0.13409394305489639 0.1257339851238449 0 0.12788127083107459 0.1291064789800366 0 0.12756241452120801 0.13893694775055651 0 0.13410827310584911 0.13282331674432049 0 0.1203000125167645 0.13336293759413789 0 0.12788127083107459 0.1291064789800366 0 0.12756241452120801 0.13893694775055651 0 0.13410827310584911 0.13282331674432049 0 0.14295710802469111 0.12768772724150559 0 0.13848136883728299 0.14203914735535511 0 0.12756241452120801 0.13893694775055651 0 0.13410827310584911 0.13282331674432049 0 0.13848136883728299 0.14203914735535511 0 0.13410827310584911 0.13282331674432049 0 0.13409394305489639 0.1257339851238449 0 0.14295710802469111 0.12768772724150559 0 0.14295710802469111 0.12768772724150559 0 0.15698787762036359 0.14007723406829989 0 0.15364605026385231 0.1227496740475859 0 0.14295710802469111 0.12768772724150559 0 0.13848136883728299 0.14203914735535511 0 0.15698787762036359 0.14007723406829989 0 0.13848136883728299 0.14203914735535511 0 0.1441447949138806 0.1573716891147208 0 0.15698787762036359 0.14007723406829989 0 0.1441447949138806 0.1573716891147208 0 0.1598153361361678 0.15982657838785511 0 0.15698787762036359 0.14007723406829989 0 0.13848136883728299 0.14203914735535511 0 0.1262856736452258 0.1537478882528979 0 0.1441447949138806 0.1573716891147208 0 0.12756241452120801 0.13893694775055651 0 0.13848136883728299 0.14203914735535511 0 0.1262856736452258 0.1537478882528979 0 0.1262856736452258 0.1537478882528979 0 0.12954358324573961 0.16710623429112001 0 0.1441447949138806 0.1573716891147208 0 0.12954358324573961 0.16710623429112001 0 0.12550986450034471 0.186594373040398 0 0.15375492999850379 0.1814330523327968 0 0.12954358324573961 0.16710623429112001 0 0.15375492999850379 0.1814330523327968 0 0.1441447949138806 0.1573716891147208 0 0.15375492999850379 0.1814330523327968 0 0.1441447949138806 0.1573716891147208 0 0.1598153361361678 0.15982657838785511 0 0.1598153361361678 0.15982657838785511 0 0.17205847002769489 0.1711246398383999 0 0.17247097746626519 0.1464629757798975 0 0.15375492999850379 0.1814330523327968 0 0.1598153361361678 0.15982657838785511 0 0.17205847002769489 0.1711246398383999 0 0.15375492999850379 0.1814330523327968 0 0.17205847002769489 0.1711246398383999 0 0.18411838942066619 0.18828130780555291 0 0.17205847002769489 0.1711246398383999 0 0.18411838942066619 0.18828130780555291 0 0.19050902449260759 0.164433536692701 0 0.17205847002769489 0.1711246398383999 0 0.17247097746626519 0.1464629757798975 0 0.19050902449260759 0.164433536692701 0 0.17247097746626519 0.1464629757798975 0 0.1903693880120208 0.14015559280000461 0 0.19050902449260759 0.164433536692701 0 0.17247097746626519 0.1464629757798975 0 0.18002451345814399 0.12716596121819479 0 0.1903693880120208 0.14015559280000461 0 0.17247097746626519 0.1464629757798975 0 0.18002451345814399 0.12716596121819479 0 0.16417220099380411 0.12505127510387981 0 0.15698787762036359 0.14007723406829989 0 0.16417220099380411 0.12505127510387981 0 0.15364605026385231 0.1227496740475859 0 0.17247097746626519 0.1464629757798975 0 0.15698787762036359 0.14007723406829989 0 0.16417220099380411 0.12505127510387981 0 0.1598153361361678 0.15982657838785511 0 0.17247097746626519 0.1464629757798975 0 0.15698787762036359 0.14007723406829989 0 0.14702044576598061 0.2478904659134552 0 0.1382648444377183 0.22719855966067881 0 0.15828943790025421 0.22969507774947781 0 0.14702044576598061 0.2478904659134552 0 0.12787711237058769 0.24521089126939841 0 0.1382648444377183 0.22719855966067881 0 0.10906069526472741 0.22998953009969161 0 0.12787711237058769 0.24521089126939841 0 0.1382648444377183 0.22719855966067881 0 0.1382648444377183 0.22719855966067881 0 0.14314005341278749 0.20699853547660821 0 0.15828943790025421 0.22969507774947781 0 0.14314005341278749 0.20699853547660821 0 0.16852610903267151 0.206401884619904 0 0.11775399779290339 0.20759518633331239 0 0.1382648444377183 0.22719855966067881 0 0.14314005341278749 0.20699853547660821 0 0.11775399779290339 0.20759518633331239 0 0.14314005341278749 0.20699853547660821 0 0.11775399779290339 0.20759518633331239 0 0.12550986450034471 0.186594373040398 0 0.14314005341278749 0.20699853547660821 0 0.15375492999850379 0.1814330523327968 0 0.14314005341278749 0.20699853547660821 0 0.16852610903267151 0.206401884619904 0 0.12550986450034471 0.186594373040398 0 0.15375492999850379 0.1814330523327968 0 0.14314005341278749 0.20699853547660821 0 0.15375492999850379 0.1814330523327968 0 0.18411838942066619 0.18828130780555291 0 0.16852610903267151 0.206401884619904 0 0.18411838942066619 0.18828130780555291 0 0.16852610903267151 0.206401884619904 0 0.1878214256448299 0.20672411698152671 0 0.16852610903267151 0.206401884619904 0 0.17766068788986381 0.23020170431202469 0 0.1878214256448299 0.20672411698152671 0 0.14314005341278749 0.20699853547660821 0 0.16852610903267151 0.206401884619904 0 0.15828943790025421 0.22969507774947781 0 0.16852610903267151 0.206401884619904 0 0.15828943790025421 0.22969507774947781 0 0.17766068788986381 0.23020170431202469 0 0.17766068788986381 0.23020170431202469 0 0.19353513124668931 0.22246748781277501 0 0.1878214256448299 0.20672411698152671 0 0.17766068788986381 0.23020170431202469 0 0.18692125413578081 0.24552837502103991 0 0.19379669244916639 0.23440003217329089 0 0.17766068788986381 0.23020170431202469 0 0.18692125413578081 0.24552837502103991 0 0.16774616909827719 0.2460930353984315 0 0.15828943790025421 0.22969507774947781 0 0.17766068788986381 0.23020170431202469 0 0.16774616909827719 0.2460930353984315 0 0.14702044576598061 0.2478904659134552 0 0.15828943790025421 0.22969507774947781 0 0.16774616909827719 0.2460930353984315 0 0.21557305570370441 0.24515722135805329 0 0.2029257889591993 0.24295866219667439 0 0.23007231546290949 0.2334513308517342 0 0.2029257889591993 0.24295866219667439 0 0.23007231546290949 0.2334513308517342 0 0.21557305570370441 0.24515722135805329 0 0.2029257889591993 0.24295866219667439 0 0.20107379594449931 0.25686311186437227 0 0.18692125413578081 0.24552837502103991 0 0.2029257889591993 0.24295866219667439 0 0.20107379594449931 0.25686311186437227 0 0.18692125413578081 0.24552837502103991 0 0.19379669244916639 0.23440003217329089 0 0.2029257889591993 0.24295866219667439 0 0.17766068788986381 0.23020170431202469 0 0.19379669244916639 0.23440003217329089 0 0.19353513124668931 0.22246748781277501 0 0.19379669244916639 0.23440003217329089 0 0.2029257889591993 0.24295866219667439 0 0.20920449219815451 0.22515354045629349 0 0.19379669244916639 0.23440003217329089 0 0.19353513124668931 0.22246748781277501 0 0.20920449219815451 0.22515354045629349 0 0.2029257889591993 0.24295866219667439 0 0.20920449219815451 0.22515354045629349 0 0.23007231546290949 0.2334513308517342 0 0.19353513124668931 0.22246748781277501 0 0.20920449219815451 0.22515354045629349 0 0.20732414099141369 0.20672295990195361 0 0.20920449219815451 0.22515354045629349 0 0.20732414099141369 0.20672295990195361 0 0.22783619495118521 0.20973527166224001 0 0.19353513124668931 0.22246748781277501 0 0.20732414099141369 0.20672295990195361 0 0.1878214256448299 0.20672411698152671 0 0.18411838942066619 0.18828130780555291 0 0.1878214256448299 0.20672411698152671 0 0.20343121377691101 0.18825927067945539 0 0.20732414099141369 0.20672295990195361 0 0.1878214256448299 0.20672411698152671 0 0.20343121377691101 0.18825927067945539 0 0.20732414099141369 0.20672295990195361 0 0.20343121377691101 0.18825927067945539 0 0.2219787971027708 0.18678942035429349 0 0.20732414099141369 0.20672295990195361 0 0.22783619495118521 0.20973527166224001 0 0.2219787971027708 0.18678942035429349 0 0.24528107816237801 0.1907036486386274 0 0.22783619495118521 0.20973527166224001 0 0.2219787971027708 0.18678942035429349 0 0.24528107816237801 0.1907036486386274 0 0.25242827713160498 0.21540237912569379 0 0.24528107816237801 0.1907036486386274 0 0.22783619495118521 0.20973527166224001 0 0.25242827713160498 0.21540237912569379 0 0.20920449219815451 0.22515354045629349 0 0.22783619495118521 0.20973527166224001 0 0.23007231546290949 0.2334513308517342 0 0.23007231546290949 0.2334513308517342 0 0.25242827713160498 0.21540237912569379 0 0.23007231546290949 0.2334513308517342 0 0.25511338863332461 0.22468137717712711 0 0.25242827713160498 0.21540237912569379 0 0.23007231546290949 0.2334513308517342 0 0.25511338863332461 0.22468137717712711 0 0.23007231546290949 0.2334513308517342 0 0.2457442494512444 0.24022391879071339 0 0.25511338863332461 0.22468137717712711 0 0.22783619495118521 0.20973527166224001 0 0.23007231546290949 0.2334513308517342 0 0.25242827713160498 0.21540237912569379 0 0.2457442494512444 0.24022391879071339 0 0.23628031136540401 0.25597328662156199 0 0.26221447651104962 0.2479993693513689 0 0.23007231546290949 0.2334513308517342 0 0.2457442494512444 0.24022391879071339 0 0.23628031136540401 0.25597328662156199 0 0.21557305570370441 0.24515722135805329 0 0.23007231546290949 0.2334513308517342 0 0.23628031136540401 0.25597328662156199 0 0.21557305570370441 0.24515722135805329 0 0.23007231546290949 0.2334513308517342 0 0.21023583046185859 0.14706018503428281 0 0.22521494488481819 0.12557893006429149 0 0.2001236667938262 0.1180422718546187 0 0.18002451345814399 0.12716596121819479 0 0.1903693880120208 0.14015559280000461 0 0.2001236667938262 0.1180422718546187 0 0.21023583046185859 0.14706018503428281 0 0.1903693880120208 0.14015559280000461 0 0.2001236667938262 0.1180422718546187 0 0.21023583046185859 0.14706018503428281 0 0.1903693880120208 0.14015559280000461 0 0.19050902449260759 0.164433536692701 0 0.18411838942066619 0.18828130780555291 0 0.20343121377691101 0.18825927067945539 0 0.19050902449260759 0.164433536692701 0 0.20343121377691101 0.18825927067945539 0 0.19050902449260759 0.164433536692701 0 0.20962662881846919 0.1707346457134423 0 0.20343121377691101 0.18825927067945539 0 0.20962662881846919 0.1707346457134423 0 0.2219787971027708 0.18678942035429349 0 0.21023583046185859 0.14706018503428281 0 0.20962662881846919 0.1707346457134423 0 0.2254160648188453 0.164078398330023 0 0.21023583046185859 0.14706018503428281 0 0.19050902449260759 0.164433536692701 0 0.20962662881846919 0.1707346457134423 0 0.20962662881846919 0.1707346457134423 0 0.2254160648188453 0.164078398330023 0 0.2219787971027708 0.18678942035429349 0 0.2254160648188453 0.164078398330023 0 0.2219787971027708 0.18678942035429349 0 0.23714843650665229 0.1758398884969993 0 0.24528107816237801 0.1907036486386274 0 0.2219787971027708 0.18678942035429349 0 0.23714843650665229 0.1758398884969993 0 0.24528107816237801 0.1907036486386274 0 0.23714843650665229 0.1758398884969993 0 0.25292738168467233 0.17649485219682931 0 0.2254160648188453 0.164078398330023 0 0.24653130607993951 0.16237692388552691 0 0.23688534306575301 0.1458043597726891 0 0.23714843650665229 0.1758398884969993 0 0.24653130607993951 0.16237692388552691 0 0.25292738168467233 0.17649485219682931 0 0.2254160648188453 0.164078398330023 0 0.23714843650665229 0.1758398884969993 0 0.24653130607993951 0.16237692388552691 0 0.24653130607993951 0.16237692388552691 0 0.2496536413094039 0.15044712256699261 0 0.23688534306575301 0.1458043597726891 0 0.2496536413094039 0.15044712256699261 0 0.23688534306575301 0.1458043597726891 0 0.25004344172447263 0.14019424959050239 0 0.21023583046185859 0.14706018503428281 0 0.2254160648188453 0.164078398330023 0 0.23688534306575301 0.1458043597726891 0 0.21023583046185859 0.14706018503428281 0 0.23688534306575301 0.1458043597726891 0 0.22521494488481819 0.12557893006429149 0 0.22521494488481819 0.12557893006429149 0 0.25030622297580962 0.13311558827396619 0 0.23688534306575301 0.1458043597726891 0 0.22521494488481819 0.12557893006429149 0 0.25030622297580962 0.13311558827396619 0 0.23688534306575301 0.1458043597726891 0 0.25004344172447263 0.14019424959050239 0 0.25030622297580962 0.13311558827396619 0 0.22521494488481819 0.12557893006429149 0 0.2369469616243938 0.1144798656387125 0 0.25030622297580962 0.13311558827396619 0 0.2369469616243938 0.1144798656387125 0 0.25094552198087999 0.11589449234768209 0 0.25030622297580962 0.13311558827396619 0 0.2369469616243938 0.1144798656387125 0 0.25158482098595109 0.098673396421397969 0 0.25094552198087999 0.11589449234768209 0 0.2369469616243938 0.1144798656387125 0 0.2308580048349978 0.09939168424622695 0 0.25158482098595109 0.098673396421397969 0 0.2308580048349978 0.09939168424622695 0 0.2177667053289645 0.10879872465146249 0 0.21723881235993189 0.092441087960636145 0 0.2369469616243938 0.1144798656387125 0 0.2308580048349978 0.09939168424622695 0 0.2177667053289645 0.10879872465146249 0 0.22521494488481819 0.12557893006429149 0 0.2369469616243938 0.1144798656387125 0 0.2177667053289645 0.10879872465146249 0 0.2177667053289645 0.10879872465146249 0 0.1970849337058638 0.1019164286603922 0 0.2001236667938262 0.1180422718546187 0 0.22521494488481819 0.12557893006429149 0 0.2177667053289645 0.10879872465146249 0 0.2001236667938262 0.1180422718546187 0 0.22521494488481819 0.12557893006429149 0 0.2001236667938262 0.1180422718546187 0 0.1970849337058638 0.1019164286603922 0 0.20420713705815571 0.090978010823124941 0 0.21723881235993189 0.092441087960636145 0 0.1970849337058638 0.1019164286603922 0 0.21723881235993189 0.092441087960636145 0 0.2177667053289645 0.10879872465146249 0 0.1970849337058638 0.1019164286603922 0 0.21723881235993189 0.092441087960636145 0 0.1970849337058638 0.1019164286603922 0 0.1916307843626972 0.08827444688259839 0 0.17503238870283441 0.11050561364494491 0 0.2001236667938262 0.1180422718546187 0 0.17503238870283441 0.11050561364494491 0 0.1970849337058638 0.1019164286603922 0 0.2001236667938262 0.1180422718546187 0 0.17503238870283441 0.11050561364494491 0 0.1916307843626972 0.08827444688259839 0 0.2082291800225603 0.066043280120252124 0 0.19067723801237901 0.065525043857756982 0 0.1916307843626972 0.08827444688259839 0 0.2082291800225603 0.066043280120252124 0 0.1916307843626972 0.08827444688259839 0 0.21087401780412959 0.081280079788873041 0 0.20420713705815571 0.090978010823124941 0 0.1970849337058638 0.1019164286603922 0 0.1916307843626972 0.08827444688259839 0 0.20420713705815571 0.090978010823124941 0 0.1916307843626972 0.08827444688259839 0 0.21087401780412959 0.081280079788873041 0 0.2082291800225603 0.066043280120252124 0 0.21087401780412959 0.081280079788873041 0 0.20420713705815571 0.090978010823124941 0 0.21723881235993189 0.092441087960636145 0 0.21087401780412959 0.081280079788873041 0 0.21723881235993189 0.092441087960636145 0 0.22613356481757629 0.0775902723280468 0 0.21087401780412959 0.081280079788873041 0 0.2082291800225603 0.066043280120252124 0 0.22613356481757629 0.0775902723280468 0 0.2082291800225603 0.066043280120252124 0 0.22613356481757629 0.0775902723280468 0 0.2082291800225603 0.066043280120252124 0 0.2259496113806885 0.070300708218039992 0 0.21450653174737461 0.057635669175196122 0 0.2259496113806885 0.070300708218039992 0 0.21450653174737461 0.057635669175196122 0 0.2082291800225603 0.066043280120252124 0 0.2259496113806885 0.070300708218039992 0 0.22613356481757629 0.0775902723280468 0 0.2259496113806885 0.070300708218039992 0 0.2248665156508784 0.061611733455129589 0 0.21450653174737461 0.057635669175196122 0 0.2259496113806885 0.070300708218039992 0 0.22613356481757629 0.0775902723280468 0 0.23739269101400209 0.082965747260884265 0 0.2259496113806885 0.070300708218039992 0 0.23739269101400209 0.082965747260884265 0 0.237967452106535 0.070105640596903412 0 0.2259496113806885 0.070300708218039992 0 0.23739269101400209 0.082965747260884265 0 0.2259496113806885 0.070300708218039992 0 0.2330718446673557 0.064441819436705627 0 0.2248665156508784 0.061611733455129589 0 0.2259496113806885 0.070300708218039992 0 0.2330718446673557 0.064441819436705627 0 0.237967452106535 0.070105640596903412 0 0.2308580048349978 0.09939168424622695 0 0.21723881235993189 0.092441087960636145 0 0.23739269101400209 0.082965747260884265 0 0.21723881235993189 0.092441087960636145 0 0.22613356481757629 0.0775902723280468 0 0.23739269101400209 0.082965747260884265 0 0.21723881235993189 0.092441087960636145 0 0.23739269101400209 0.082965747260884265 0 0.23739269101400209 0.082965747260884265 0 0.25158482098595109 0.098673396421397969 0 0.23739269101400209 0.082965747260884265 0 0.25243039498113262 0.075895774732197205 0 0.25158482098595109 0.098673396421397969 0 0.2308580048349978 0.09939168424622695 0 0.23739269101400209 0.082965747260884265 0 0.25158482098595109 0.098673396421397969 0 0.23739269101400209 0.082965747260884265 0 0.25243039498113262 0.075895774732197205 0 0.23934469018649959 0.064583282500140851 0 0.237967452106535 0.070105640596903412 0 0.24496427956833819 0.066036472520138348 0 0.2330718446673557 0.064441819436705627 0 0.23934469018649959 0.064583282500140851 0 0.2376257901407148 0.059976102198904507 0 0.2330718446673557 0.064441819436705627 0 0.23934469018649959 0.064583282500140851 0 0.237967452106535 0.070105640596903412 0 0.23739269101400209 0.082965747260884265 0 0.237967452106535 0.070105640596903412 0 0.24429048066179679 0.072622021298478806 0 0.24429048066179679 0.072622021298478806 0 0.24842415088314279 0.069033451464499671 0 0.25243039498113262 0.075895774732197205 0 0.23739269101400209 0.082965747260884265 0 0.24429048066179679 0.072622021298478806 0 0.25243039498113262 0.075895774732197205 0 0.24842415088314279 0.069033451464499671 0 0.24853219730195361 0.063845178725116872 0 0.25274476311700622 0.067427493409812952 0 0.237967452106535 0.070105640596903412 0 0.24429048066179679 0.072622021298478806 0 0.24496427956833819 0.066036472520138348 0 0.24429048066179679 0.072622021298478806 0 0.24842415088314279 0.069033451464499671 0 0.24496427956833819 0.066036472520138348 0 0.23934469018649959 0.064583282500140851 0 0.24496427956833819 0.066036472520138348 0 0.24309408444955441 0.062356377748052388 0 0.24496427956833819 0.066036472520138348 0 0.24602681454492631 0.062964227281045088 0 0.24309408444955441 0.062356377748052388 0 0.24496427956833819 0.066036472520138348 0 0.24602681454492631 0.062964227281045088 0 0.24853219730195361 0.063845178725116872 0 0.24842415088314279 0.069033451464499671 0 0.24496427956833819 0.066036472520138348 0 0.24853219730195361 0.063845178725116872 0 0.24751669685985911 0.059618880130872708 0 0.24309408444955441 0.062356377748052388 0 0.2376257901407148 0.059976102198904507 0 0.24751669685985911 0.059618880130872708 0 0.24426241142214139 0.049994713685017962 0 0.2310385276818335 0.053106641608170198 0 0.24751669685985911 0.059618880130872708 0 0.2376257901407148 0.059976102198904507 0 0.2310385276818335 0.053106641608170198 0 0.24751669685985911 0.059618880130872708 0 0.2310385276818335 0.053106641608170198 0 0.24853219730195361 0.063845178725116872 0 0.24751669685985911 0.059618880130872708 0 0.2530174900015254 0.0600809219264858 0 0.24602681454492631 0.062964227281045088 0 0.24853219730195361 0.063845178725116872 0 0.24751669685985911 0.059618880130872708 0 0.24602681454492631 0.062964227281045088 0 0.24751669685985911 0.059618880130872708 0 0.24309408444955441 0.062356377748052388 0 0.23934469018649959 0.064583282500140851 0 0.24309408444955441 0.062356377748052388 0 0.2376257901407148 0.059976102198904507 0 0.24426241142214139 0.049994713685017962 0 0.23928634064401511 0.040096757013566242 0 0.2310385276818335 0.053106641608170198 0 0.24751669685985911 0.059618880130872708 0 0.24426241142214139 0.049994713685017962 0 0.25102243244437311 0.053297338652025752 0 0.24426241142214139 0.049994713685017962 0 0.25174039047255609 0.044464402284776217 0 0.25102243244437311 0.053297338652025752 0 0.23928634064401511 0.040096757013566242 0 0.2320502206633881 0.021165953515508481 0 0.25044211127373811 0.032849993626191502 0 0.23928634064401511 0.040096757013566242 0 0.25044211127373811 0.032849993626191502 0 0.25174039047255609 0.044464402284776217 0 0.24426241142214139 0.049994713685017962 0 0.23928634064401511 0.040096757013566242 0 0.25174039047255609 0.044464402284776217 0 0.22618438235043381 0.038998837361733103 0 0.2320502206633881 0.021165953515508481 0 0.20963369093729961 0.03941564640516447 0 0.23928634064401511 0.040096757013566242 0 0.22618438235043381 0.038998837361733103 0 0.2320502206633881 0.021165953515508481 0 0.22618438235043381 0.038998837361733103 0 0.2310385276818335 0.053106641608170198 0 0.21456035850380811 0.046594403085467223 0 0.23928634064401511 0.040096757013566242 0 0.22618438235043381 0.038998837361733103 0 0.2310385276818335 0.053106641608170198 0 0.2310385276818335 0.053106641608170198 0 0.21456035850380811 0.046594403085467223 0 0.2248665156508784 0.061611733455129589 0 0.2310385276818335 0.053106641608170198 0 0.21456035850380811 0.046594403085467223 0 0.2248665156508784 0.061611733455129589 0 0.21456035850380811 0.046594403085467223 0 0.2330718446673557 0.064441819436705627 0 0.2248665156508784 0.061611733455129589 0 0.23150027442910881 0.059501590197602497 0 0.2248665156508784 0.061611733455129589 0 0.23150027442910881 0.059501590197602497 0 0.2310385276818335 0.053106641608170198 0 0.2330718446673557 0.064441819436705627 0 0.2376257901407148 0.059976102198904507 0 0.23150027442910881 0.059501590197602497 0 0.2376257901407148 0.059976102198904507 0 0.23150027442910881 0.059501590197602497 0 0.2310385276818335 0.053106641608170198 0 0.2320502206633881 0.021165953515508481 0 0.22999165343287109 0.0038227322559807589 0 0.25446675038947358 0.0029162606258486688 0 0.2320502206633881 0.021165953515508481 0 0.2600935707136679 0.019574361616358959 0 0.25446675038947358 0.0029162606258486688 0 0.22999165343287109 0.0038227322559807589 0 0.25446675038947358 0.0029162606258486688 0 0.24138147174972829 -0.0061427828714447699 0 0.2320502206633881 0.021165953515508481 0 0.25446675038947358 0.0029162606258486688 0 0.2320502206633881 0.021165953515508481 0 0.2600935707136679 0.019574361616358959 0 0.25044211127373811 0.032849993626191502 0 0.2320502206633881 0.021165953515508481 0 0.20963369093729961 0.03941564640516447 0 0.22999165343287109 0.0038227322559807589 0 0.21340461703840111 0.0096506044731711187 0 0.21351355446813719 -0.0021103410187178909 0 0.2320502206633881 0.021165953515508481 0 0.22999165343287109 0.0038227322559807589 0 0.21340461703840111 0.0096506044731711187 0 0.21340461703840111 0.0096506044731711187 0 0.1998105265397013 0.00335350757378736 0 0.21351355446813719 -0.0021103410187178909 0 0.21340461703840111 0.0096506044731711187 0 0.20371525389429951 0.01279949030761077 0 0.2082588668535221 0.02245160931237615 0 0.21340461703840111 0.0096506044731711187 0 0.20371525389429951 0.01279949030761077 0 0.1998105265397013 0.00335350757378736 0 0.2320502206633881 0.021165953515508481 0 0.2082588668535221 0.02245160931237615 0 0.20963369093729961 0.03941564640516447 0 0.2320502206633881 0.021165953515508481 0 0.21340461703840111 0.0096506044731711187 0 0.2082588668535221 0.02245160931237615 0 0.2082588668535221 0.02245160931237615 0 0.19338700514557339 0.015742239871108451 0 0.20963369093729961 0.03941564640516447 0 0.19338700514557339 0.015742239871108451 0 0.1989601287501698 0.040429129743079398 0 0.18048502430789731 0.01998114488410483 0 0.1989601287501698 0.040429129743079398 0 0.18048502430789731 0.01998114488410483 0 0.19338700514557339 0.015742239871108451 0 0.20963369093729961 0.03941564640516447 0 0.20371525389429951 0.01279949030761077 0 0.2082588668535221 0.02245160931237615 0 0.19338700514557339 0.015742239871108451 0 0.19338700514557339 0.015742239871108451 0 0.1998105265397013 0.00335350757378736 0 0.17714031935384769 -0.0079311666629475405 0 0.20371525389429951 0.01279949030761077 0 0.19338700514557339 0.015742239871108451 0 0.1998105265397013 0.00335350757378736 0 0.21450653174737461 0.057635669175196122 0 0.2029561920580818 0.044851916216142339 0 0.21450653174737461 0.057635669175196122 0 0.2029561920580818 0.044851916216142339 0 0.2021088015620611 0.053433964061651712 0 0.21450653174737461 0.057635669175196122 0 0.21456035850380811 0.046594403085467223 0 0.2029561920580818 0.044851916216142339 0 0.2082291800225603 0.066043280120252124 0 0.21450653174737461 0.057635669175196122 0 0.2021088015620611 0.053433964061651712 0 0.2248665156508784 0.061611733455129589 0 0.21450653174737461 0.057635669175196122 0 0.21456035850380811 0.046594403085467223 0 0.2082291800225603 0.066043280120252124 0 0.21450653174737461 0.057635669175196122 0 0.22618438235043381 0.038998837361733103 0 0.21456035850380811 0.046594403085467223 0 0.20963369093729961 0.03941564640516447 0 0.21456035850380811 0.046594403085467223 0 0.20963369093729961 0.03941564640516447 0 0.21456035850380811 0.046594403085467223 0 0.20530753189452691 0.042937648913457381 0 0.2029561920580818 0.044851916216142339 0 0.20963369093729961 0.03941564640516447 0 0.20530753189452691 0.042937648913457381 0 0.1989601287501698 0.040429129743079398 0 0.21456035850380811 0.046594403085467223 0 0.20530753189452691 0.042937648913457381 0 0.21456035850380811 0.046594403085467223 0 0.20963369093729961 0.03941564640516447 0 0.20530753189452691 0.042937648913457381 0 0.20963369093729961 0.03941564640516447 0 0.20530753189452691 0.042937648913457381 0 0.20530753189452691 0.042937648913457381 0 0.2029561920580818 0.044851916216142339 0 0.1989601287501698 0.040429129743079398 0 0.1774654858828027 0.031934360706524292 0 0.2029561920580818 0.044851916216142339 0 0.1989601287501698 0.040429129743079398 0 0.19971656766465989 0.047489351670260083 0 0.1989601287501698 0.040429129743079398 0 0.19133087755196571 0.045131483978966998 0 0.19971656766465989 0.047489351670260083 0 0.2029561920580818 0.044851916216142339 0 0.19971656766465989 0.047489351670260083 0 0.19338700514557339 0.015742239871108451 0 0.20963369093729961 0.03941564640516447 0 0.1989601287501698 0.040429129743079398 0 0.1989601287501698 0.040429129743079398 0 0.19133087755196571 0.045131483978966998 0 0.18298678422305309 0.040980100737508622 0 0.20530753189452691 0.042937648913457381 0 0.2029561920580818 0.044851916216142339 0 0.1989601287501698 0.040429129743079398 0 0.20530753189452691 0.042937648913457381 0 0.1989601287501698 0.040429129743079398 0 0.2029561920580818 0.044851916216142339 0 0.1989601287501698 0.040429129743079398 0 0.2082291800225603 0.066043280120252124 0 0.18513553631762919 0.051149603126408108 0 0.2021088015620611 0.053433964061651712 0 0.19971656766465989 0.047489351670260083 0 0.18513553631762919 0.051149603126408108 0 0.2082291800225603 0.066043280120252124 0 0.2021088015620611 0.053433964061651712 0 0.18513553631762919 0.051149603126408108 0 0.19067723801237901 0.065525043857756982 0 0.2082291800225603 0.066043280120252124 0 0.18513553631762919 0.051149603126408108 0 0.19133087755196571 0.045131483978966998 0 0.19971656766465989 0.047489351670260083 0 0.18513553631762919 0.051149603126408108 0 0.2029561920580818 0.044851916216142339 0 0.2021088015620611 0.053433964061651712 0 0.19971656766465989 0.047489351670260083 0 0.17734631865053521 0.060730067185729229 0 0.18513553631762919 0.051149603126408108 0 0.16725106424272049 0.052894846580172288 0 0.19067723801237901 0.065525043857756982 0 0.17734631865053521 0.060730067185729229 0 0.18513553631762919 0.051149603126408108 0 0.18298678422305309 0.040980100737508622 0 0.1774654858828027 0.031934360706524292 0 0.1620418926126978 0.036255926132564682 0 0.19133087755196571 0.045131483978966998 0 0.18513553631762919 0.051149603126408108 0 0.18298678422305309 0.040980100737508622 0 0.18513553631762919 0.051149603126408108 0 0.18298678422305309 0.040980100737508622 0 0.1620418926126978 0.036255926132564682 0 0.1989601287501698 0.040429129743079398 0 0.18298678422305309 0.040980100737508622 0 0.1774654858828027 0.031934360706524292 0 0.18513553631762919 0.051149603126408108 0 0.1620418926126978 0.036255926132564682 0 0.1620418926126978 0.036255926132564682 0 0.16725106424272049 0.052894846580172288 0 0.15541952745182569 0.04677658384696623 0 0.18513553631762919 0.051149603126408108 0 0.1620418926126978 0.036255926132564682 0 0.16725106424272049 0.052894846580172288 0 0.16725106424272049 0.052894846580172288 0 0.15507694825043991 0.057889849327421902 0 0.15541952745182569 0.04677658384696623 0 0.16725106424272049 0.052894846580172288 0 0.15507694825043991 0.057889849327421902 0 0.1653937448538241 0.067538194789913991 0 0.17734631865053521 0.060730067185729229 0 0.16725106424272049 0.052894846580172288 0 0.1653937448538241 0.067538194789913991 0 0.18048502430789731 0.01998114488410483 0 0.1657030786406338 0.0084270166623369204 0 0.17714031935384769 -0.0079311666629475405 0 0.19338700514557339 0.015742239871108451 0 0.17714031935384769 -0.0079311666629475405 0 0.19338700514557339 0.015742239871108451 0 0.18048502430789731 0.01998114488410483 0 0.17714031935384769 -0.0079311666629475405 0 0.1989601287501698 0.040429129743079398 0 0.1774654858828027 0.031934360706524292 0 0.18048502430789731 0.01998114488410483 0 0.1774654858828027 0.031934360706524292 0 0.18048502430789731 0.01998114488410483 0 0.16935520337559401 0.020657770454092759 0 0.1774654858828027 0.031934360706524292 0 0.15597084301543529 0.02343959166996953 0 0.1774654858828027 0.031934360706524292 0 0.1620418926126978 0.036255926132564682 0 0.15597084301543529 0.02343959166996953 0 0.1774654858828027 0.031934360706524292 0 0.16935520337559401 0.020657770454092759 0 0.15597084301543529 0.02343959166996953 0 0.16935520337559401 0.020657770454092759 0 0.1657030786406338 0.0084270166623369204 0 0.15597084301543529 0.02343959166996953 0 0.18048502430789731 0.01998114488410483 0 0.16935520337559401 0.020657770454092759 0 0.1657030786406338 0.0084270166623369204 0 0.1657030786406338 0.0084270166623369204 0 0.14883794818754281 0.01110572894874149 0 0.15480995508657039 -0.001084596553268768 0 0.1657030786406338 0.0084270166623369204 0 0.14883794818754281 0.01110572894874149 0 0.15597084301543529 0.02343959166996953 0 0.14883794818754281 0.01110572894874149 0 0.13464870039648349 0.00080453217212592717 0 0.15480995508657039 -0.001084596553268768 0 0.14883794818754281 0.01110572894874149 0 0.13894824890776639 0.02136224913872127 0 0.13464870039648349 0.00080453217212592717 0 0.1620418926126978 0.036255926132564682 0 0.13894824890776639 0.02136224913872127 0 0.14883794818754281 0.01110572894874149 0 0.15597084301543529 0.02343959166996953 0 0.13894824890776639 0.02136224913872127 0 0.1620418926126978 0.036255926132564682 0 0.15597084301543529 0.02343959166996953 0 0.13894824890776639 0.02136224913872127 0 0.11961069471150609 0.02296590295220987 0 0.13894824890776639 0.02136224913872127 0 0.12977361784467401 0.039215218793308727 0 0.1158546052028349 0.0064685721448778594 0 0.13894824890776639 0.02136224913872127 0 0.1158546052028349 0.0064685721448778594 0 0.13894824890776639 0.02136224913872127 0 0.13464870039648349 0.00080453217212592717 0 0.14278372382386809 0.048416123664777412 0 0.1428601767931531 0.062084067640591357 0 0.15507694825043991 0.057889849327421902 0 0.14278372382386809 0.048416123664777412 0 0.15507694825043991 0.057889849327421902 0 0.15541952745182569 0.04677658384696623 0 0.1620418926126978 0.036255926132564682 0 0.13894824890776639 0.02136224913872127 0 0.14579340212816641 0.038405220315267663 0 0.1620418926126978 0.036255926132564682 0 0.15541952745182569 0.04677658384696623 0 0.14579340212816641 0.038405220315267663 0 0.14278372382386809 0.048416123664777412 0 0.15541952745182569 0.04677658384696623 0 0.14579340212816641 0.038405220315267663 0 0.14278372382386809 0.048416123664777412 0 0.14579340212816641 0.038405220315267663 0 0.12977361784467401 0.039215218793308727 0 0.13894824890776639 0.02136224913872127 0 0.14579340212816641 0.038405220315267663 0 0.12977361784467401 0.039215218793308727 0 0.11550376979223601 0.054551475820320147 0 0.12977361784467401 0.039215218793308727 0 0.1326943019686847 0.054606112458038862 0 0.11550376979223601 0.054551475820320147 0 0.1326943019686847 0.054606112458038862 0 0.13255022158949201 0.068763676371196639 0 0.14278372382386809 0.048416123664777412 0 0.12977361784467401 0.039215218793308727 0 0.1326943019686847 0.054606112458038862 0 0.14278372382386809 0.048416123664777412 0 0.1428601767931531 0.062084067640591357 0 0.1326943019686847 0.054606112458038862 0 0.1428601767931531 0.062084067640591357 0 0.1326943019686847 0.054606112458038862 0 0.13255022158949201 0.068763676371196639 0 0.1207366242219714 0.074251990558816788 0 0.13255022158949201 0.068763676371196639 0 0.13578085374332971 0.077614708003019631 0 0.13255022158949201 0.068763676371196639 0 0.13578085374332971 0.077614708003019631 0 0.1430759120552613 0.073085192731263071 0 0.1428601767931531 0.062084067640591357 0 0.13255022158949201 0.068763676371196639 0 0.1430759120552613 0.073085192731263071 0 0.1428601767931531 0.062084067640591357 0 0.1430759120552613 0.073085192731263071 0 0.15260580868734391 0.069203578475014266 0 0.1430759120552613 0.073085192731263071 0 0.14969883640752091 0.076610515579137797 0 0.14563192422462459 0.083183778073064013 0 0.13578085374332971 0.077614708003019631 0 0.1430759120552613 0.073085192731263071 0 0.14563192422462459 0.083183778073064013 0 0.1430759120552613 0.073085192731263071 0 0.14969883640752091 0.076610515579137797 0 0.15260580868734391 0.069203578475014266 0 0.14969883640752091 0.076610515579137797 0 0.15260580868734391 0.069203578475014266 0 0.15677919641446331 0.080277826610221981 0 0.1428601767931531 0.062084067640591357 0 0.15507694825043991 0.057889849327421902 0 0.15260580868734391 0.069203578475014266 0 0.1506819444987289 0.088437751930635633 0 0.14868901735932749 0.09586058707093438 0 0.157853861938485 0.092527754269896317 0 0.1506819444987289 0.088437751930635633 0 0.15677919641446331 0.080277826610221981 0 0.157853861938485 0.092527754269896317 0 0.14969883640752091 0.076610515579137797 0 0.14563192422462459 0.083183778073064013 0 0.15677919641446331 0.080277826610221981 0 0.1506819444987289 0.088437751930635633 0 0.14563192422462459 0.083183778073064013 0 0.15677919641446331 0.080277826610221981 0 0.14563192422462459 0.083183778073064013 0 0.1444557225567443 0.090338813629061501 0 0.13888671887288589 0.088270852986767859 0 0.1506819444987289 0.088437751930635633 0 0.14563192422462459 0.083183778073064013 0 0.1444557225567443 0.090338813629061501 0 0.1444557225567443 0.090338813629061501 0 0.14209274384079601 0.094639397504520467 0 0.14868901735932749 0.09586058707093438 0 0.1506819444987289 0.088437751930635633 0 0.1444557225567443 0.090338813629061501 0 0.14868901735932749 0.09586058707093438 0 0.1444557225567443 0.090338813629061501 0 0.13888671887288589 0.088270852986767859 0 0.14209274384079601 0.094639397504520467 0 0.13888671887288589 0.088270852986767859 0 0.13668050292917741 0.098217611464673699 0 0.14209274384079601 0.094639397504520467 0 0.13888671887288589 0.088270852986767859 0 0.1300820653953097 0.084166932106396392 0 0.13668050292917741 0.098217611464673699 0 0.11116449005577619 0.086473750785835857 0 0.1300820653953097 0.084166932106396392 0 0.13668050292917741 0.098217611464673699 0 0.13578085374332971 0.077614708003019631 0 0.13888671887288589 0.088270852986767859 0 0.1300820653953097 0.084166932106396392 0 0.13578085374332971 0.077614708003019631 0 0.14563192422462459 0.083183778073064013 0 0.13888671887288589 0.088270852986767859 0 0.1207366242219714 0.074251990558816788 0 0.13578085374332971 0.077614708003019631 0 0.1300820653953097 0.084166932106396392 0 0.1216961693062274 0.1020981758197984 0 0.1302764983332621 0.10693497851168419 0 0.13668050292917741 0.098217611464673699 0 0.1302764983332621 0.10693497851168419 0 0.13758713408363871 0.1043360441680015 0 0.13668050292917741 0.098217611464673699 0 0.1302764983332621 0.10693497851168419 0 0.1360833458267342 0.1084620534226548 0 0.13758713408363871 0.1043360441680015 0 0.1360833458267342 0.1084620534226548 0 0.13758713408363871 0.1043360441680015 0 0.14314356584317489 0.10755645506983 0 0.13758713408363871 0.1043360441680015 0 0.13668050292917741 0.098217611464673699 0 0.14175175748584509 0.1005091223711649 0 0.13668050292917741 0.098217611464673699 0 0.14209274384079601 0.094639397504520467 0 0.14175175748584509 0.1005091223711649 0 0.12813823657366311 0.12049833089676459 0 0.13246275659848361 0.1130811342378658 0 0.13708322035591489 0.118794437000363 0 0.12212988809696081 0.1249307776834532 0 0.12788127083107459 0.1291064789800366 0 0.12813823657366311 0.12049833089676459 0 0.1197878353292403 0.1092484053650479 0 0.1302764983332621 0.10693497851168419 0 0.12624189261331301 0.1140678077034443 0 0.12813823657366311 0.12049833089676459 0 0.12624189261331301 0.1140678077034443 0 0.13246275659848361 0.1130811342378658 0 0.1302764983332621 0.10693497851168419 0 0.12624189261331301 0.1140678077034443 0 0.13246275659848361 0.1130811342378658 0 0.138866780176991 0.11235807520418389 0 0.13708322035591489 0.118794437000363 0 0.14572099158606311 0.1154247658161887 0 0.1360833458267342 0.1084620534226548 0 0.13246275659848361 0.1130811342378658 0 0.138866780176991 0.11235807520418389 0 0.1302764983332621 0.10693497851168419 0 0.1360833458267342 0.1084620534226548 0 0.13246275659848361 0.1130811342378658 0 0.1360833458267342 0.1084620534226548 0 0.138866780176991 0.11235807520418389 0 0.14314356584317489 0.10755645506983 0 0.13246275659848361 0.1130811342378658 0 0.138866780176991 0.11235807520418389 0 0.13708322035591489 0.118794437000363 0 0.13409394305489639 0.1257339851238449 0 0.14295710802469111 0.12768772724150559 0 0.13708322035591489 0.118794437000363 0 0.13409394305489639 0.1257339851238449 0 0.12813823657366311 0.12049833089676459 0 0.13708322035591489 0.118794437000363 0 0.14572099158606311 0.1154247658161887 0 0.15364605026385231 0.1227496740475859 0 0.15839207309433961 0.10550736800805539 0 0.14295710802469111 0.12768772724150559 0 0.13708322035591489 0.118794437000363 0 0.14572099158606311 0.1154247658161887 0 0.14295710802469111 0.12768772724150559 0 0.14572099158606311 0.1154247658161887 0 0.15364605026385231 0.1227496740475859 0 0.138866780176991 0.11235807520418389 0 0.14572099158606311 0.1154247658161887 0 0.14314356584317489 0.10755645506983 0 0.14572099158606311 0.1154247658161887 0 0.14314356584317489 0.10755645506983 0 0.15839207309433961 0.10550736800805539 0 0.14175175748584509 0.1005091223711649 0 0.15839207309433961 0.10550736800805539 0 0.14175175748584509 0.1005091223711649 0 0.14314356584317489 0.10755645506983 0 0.15839207309433961 0.10550736800805539 0 0.14175175748584509 0.1005091223711649 0 0.14868901735932749 0.09586058707093438 0 0.15839207309433961 0.10550736800805539 0 0.14209274384079601 0.094639397504520467 0 0.14175175748584509 0.1005091223711649 0 0.14868901735932749 0.09586058707093438 0 0.13758713408363871 0.1043360441680015 0 0.14175175748584509 0.1005091223711649 0 0.14314356584317489 0.10755645506983 0 0.14868901735932749 0.09586058707093438 0 0.15839207309433961 0.10550736800805539 0 0.157853861938485 0.092527754269896317 0 0.15839207309433961 0.10550736800805539 0 0.17503238870283441 0.11050561364494491 0 0.15839207309433961 0.10550736800805539 0 0.1705578526620479 0.095927182961129481 0 0.157853861938485 0.092527754269896317 0 0.15839207309433961 0.10550736800805539 0 0.1705578526620479 0.095927182961129481 0 0.17503238870283441 0.11050561364494491 0 0.16417220099380411 0.12505127510387981 0 0.15839207309433961 0.10550736800805539 0 0.17503238870283441 0.11050561364494491 0 0.16417220099380411 0.12505127510387981 0 0.15364605026385231 0.1227496740475859 0 0.15839207309433961 0.10550736800805539 0 0.16417220099380411 0.12505127510387981 0 0.17503238870283441 0.11050561364494491 0 0.18002451345814399 0.12716596121819479 0 0.16417220099380411 0.12505127510387981 0 0.17503238870283441 0.11050561364494491 0 0.18002451345814399 0.12716596121819479 0 0.2001236667938262 0.1180422718546187 0 0.17503238870283441 0.11050561364494491 0 0.1916307843626972 0.08827444688259839 0 0.1705578526620479 0.095927182961129481 0 0.17503238870283441 0.11050561364494491 0 0.1916307843626972 0.08827444688259839 0 0.17503238870283441 0.11050561364494491 0 0.1916307843626972 0.08827444688259839 0 0.17935943521264269 0.07135827912697662 0 0.16988015521188329 0.08282073200015258 0 0.1916307843626972 0.08827444688259839 0 0.1705578526620479 0.095927182961129481 0 0.16988015521188329 0.08282073200015258 0 0.19067723801237901 0.065525043857756982 0 0.1916307843626972 0.08827444688259839 0 0.17935943521264269 0.07135827912697662 0 0.19067723801237901 0.065525043857756982 0 0.17734631865053521 0.060730067185729229 0 0.17935943521264269 0.07135827912697662 0 0.17734631865053521 0.060730067185729229 0 0.17935943521264269 0.07135827912697662 0 0.1653937448538241 0.067538194789913991 0 0.17935943521264269 0.07135827912697662 0 0.1653937448538241 0.067538194789913991 0 0.16988015521188329 0.08282073200015258 0 0.15507694825043991 0.057889849327421902 0 0.15260580868734391 0.069203578475014266 0 0.1653937448538241 0.067538194789913991 0 0.15260580868734391 0.069203578475014266 0 0.1653937448538241 0.067538194789913991 0 0.15677919641446331 0.080277826610221981 0 0.1653937448538241 0.067538194789913991 0 0.15677919641446331 0.080277826610221981 0 0.16988015521188329 0.08282073200015258 0 0.15677919641446331 0.080277826610221981 0 0.157853861938485 0.092527754269896317 0 0.16988015521188329 0.08282073200015258 0 0.1705578526620479 0.095927182961129481 0 0.157853861938485 0.092527754269896317 0 0.16988015521188329 0.08282073200015258 0 0.099456207782380623 0.4822659283708195 0 0.1141892196830592 0.48396198267476093 0 0.11304725129434449 0.46767028325629811 0 0.099456207782380623 0.4822659283708195 0 0.11304725129434449 0.46767028325629811 0 0.096803680563272876 0.46646214520586099 0 0.099456207782380623 0.4822659283708195 0 0.10782601469385079 0.5 0 0.078267650747156567 0.50000000000000133 0 0.099456207782380623 0.4822659283708195 0 0.10782601469385079 0.5 0 0.1141892196830592 0.48396198267476093 0 0.10782601469385079 0.5 0 0.1249193769550877 0.49369376296818718 0 0.1141892196830592 0.48396198267476093 0 0.1249193769550877 0.49369376296818718 0 0.1141892196830592 0.48396198267476093 0 0.12569724768963239 0.47617993877849962 0 0.10782601469385079 0.5 0 0.1249193769550877 0.49369376296818718 0 0.13738437864054501 0.5 0 0.1141892196830592 0.48396198267476093 0 0.11304725129434449 0.46767028325629811 0 0.12569724768963239 0.47617993877849962 0 0.11304725129434449 0.46767028325629811 0 0.1267882431275838 0.46370707134437261 0 0.12569724768963239 0.47617993877849962 0 0.11304725129434449 0.46767028325629811 0 0.1221607865463437 0.4507156547582637 0 0.1004821270038239 0.44949914822431608 0 0.11304725129434449 0.46767028325629811 0 0.1221607865463437 0.4507156547582637 0 0.1267882431275838 0.46370707134437261 0 0.1221607865463437 0.4507156547582637 0 0.1004821270038239 0.44949914822431608 0 0.12259086230274099 0.42947812748907283 0 0.1004821270038239 0.44949914822431608 0 0.096803680563272876 0.46646214520586099 0 0.084307548883437972 0.45862843933572522 0 0.11304725129434449 0.46767028325629811 0 0.1004821270038239 0.44949914822431608 0 0.096803680563272876 0.46646214520586099 0 0.084307548883437972 0.45862843933572522 0 0.070120974899159305 0.46867166915081548 0 0.08254081050968877 0.47642281665818748 0 0.096803680563272876 0.46646214520586099 0 0.084307548883437972 0.45862843933572522 0 0.08254081050968877 0.47642281665818748 0 0.084307548883437972 0.45862843933572522 0 0.083205653112744402 0.44008551456546158 0 0.070599818540594342 0.45171728711773013 0 0.1004821270038239 0.44949914822431608 0 0.084307548883437972 0.45862843933572522 0 0.083205653112744402 0.44008551456546158 0 0.1004821270038239 0.44949914822431608 0 0.083205653112744402 0.44008551456546158 0 0.095892719888732866 0.42453745382262881 0 0.070599818540594342 0.45171728711773013 0 0.057347956450285731 0.44480695268810438 0 0.068330088192809502 0.43602814955066621 0 0.083205653112744402 0.44008551456546158 0 0.070599818540594342 0.45171728711773013 0 0.068330088192809502 0.43602814955066621 0 0.070599818540594342 0.45171728711773013 0 0.070120974899159305 0.46867166915081548 0 0.05832870883015126 0.45973880463956351 0 0.084307548883437972 0.45862843933572522 0 0.070599818540594342 0.45171728711773013 0 0.070120974899159305 0.46867166915081548 0 0.070120974899159305 0.46867166915081548 0 0.08254081050968877 0.47642281665818748 0 0.061557047466102868 0.48310025102256282 0 0.070120974899159305 0.46867166915081548 0 0.061557047466102868 0.48310025102256282 0 0.05832870883015126 0.45973880463956351 0 0.099456207782380623 0.4822659283708195 0 0.096803680563272876 0.46646214520586099 0 0.08254081050968877 0.47642281665818748 0 0.099456207782380623 0.4822659283708195 0 0.08254081050968877 0.47642281665818748 0 0.078267650747156567 0.50000000000000133 0 0.078267650747156567 0.50000000000000133 0 0.049166882519808157 0.5 0 0.061557047466102868 0.48310025102256282 0 0.08254081050968877 0.47642281665818748 0 0.078267650747156567 0.50000000000000133 0 0.061557047466102868 0.48310025102256282 0 0.078267650747156567 0.50000000000000133 0 0.061557047466102868 0.48310025102256282 0 0.049166882519808157 0.5 0 0.061557047466102868 0.48310025102256282 0 0.038208171894904559 0.48286056860770488 0 0.061557047466102868 0.48310025102256282 0 0.044846444185049857 0.46620050204512359 0 0.05832870883015126 0.45973880463956351 0 0.061557047466102868 0.48310025102256282 0 0.044846444185049857 0.46620050204512359 0 0.061557047466102868 0.48310025102256282 0 0.038208171894904559 0.48286056860770488 0 0.044846444185049857 0.46620050204512359 0 0.038208171894904559 0.48286056860770488 0 0.029572045059576241 0.469060477695939 0 0.044846444185049857 0.46620050204512359 0 0.049166882519808157 0.5 0 0.038208171894904559 0.48286056860770488 0 0.020066114292459799 0.5 0 0.038208171894904559 0.48286056860770488 0 0.020066114292459799 0.5 0 0.021055159894441029 0.48095839664786189 0 0.038208171894904559 0.48286056860770488 0 0.029572045059576241 0.469060477695939 0 0.021055159894441029 0.48095839664786189 0 0.029572045059576241 0.469060477695939 0 0.021055159894441029 0.48095839664786189 0 0.01561460841948897 0.46598216811131982 0 0.021055159894441029 0.48095839664786189 0 0.0030933759349822849 0.48266358315495572 0 0.01561460841948897 0.46598216811131982 0 0.0030933759349822849 0.48266358315495572 0 0.01561460841948897 0.46598216811131982 0 0.0036787250480955699 0.47408322248379448 0 0.0030933759349822849 0.48266358315495572 0 0.01561460841948897 0.46598216811131982 0 -0.0016340076521478781 0.48633642657919801 0 0.0036787250480955699 0.47408322248379448 0 0.0030933759349822849 0.48266358315495572 0 0.020066114292459799 0.5 0 0.021055159894441029 0.48095839664786189 0 0.0030933759349822849 0.48266358315495572 0 -0.0090346539348886701 0.5 0 -0.0016340076521478781 0.48633642657919801 0 0.020066114292459799 0.5 0 -0.0016340076521478781 0.48633642657919801 0 0.020066114292459799 0.5 0 0.0030933759349822849 0.48266358315495572 0 -0.0030841453677343121 0.43636499760021141 0 -0.002359076509941094 0.46135071208970457 0 0.010470448459028871 0.45111158928184719 0 -0.0030841453677343121 0.43636499760021141 0 0.010470448459028871 0.45111158928184719 0 0.017893296784651399 0.43894227458572882 0 -0.002359076509941094 0.46135071208970457 0 0.010470448459028871 0.45111158928184719 0 0.01561460841948897 0.46598216811131982 0 -0.002359076509941094 0.46135071208970457 0 0.0036787250480955699 0.47408322248379448 0 0.01561460841948897 0.46598216811131982 0 0.010470448459028871 0.45111158928184719 0 0.01561460841948897 0.46598216811131982 0 0.0281358409039968 0.44930075306768458 0 0.029572045059576241 0.469060477695939 0 0.01561460841948897 0.46598216811131982 0 0.0281358409039968 0.44930075306768458 0 0.01561460841948897 0.46598216811131982 0 0.0281358409039968 0.44930075306768458 0 0.010470448459028871 0.45111158928184719 0 0.0281358409039968 0.44930075306768458 0 0.017893296784651399 0.43894227458572882 0 0.0281358409039968 0.44930075306768458 0 0.017893296784651399 0.43894227458572882 0 0.03800042812263172 0.43615865433005307 0 0.0281358409039968 0.44930075306768458 0 0.017893296784651399 0.43894227458572882 0 0.0281358409039968 0.44930075306768458 0 0.04587361322417214 0.448769157871174 0 0.03800042812263172 0.43615865433005307 0 0.0281358409039968 0.44930075306768458 0 0.03800042812263172 0.43615865433005307 0 0.04587361322417214 0.448769157871174 0 0.049411209704934803 0.43621283219101809 0 0.03800042812263172 0.43615865433005307 0 0.029572045059576241 0.469060477695939 0 0.0281358409039968 0.44930075306768458 0 0.044846444185049857 0.46620050204512359 0 0.0281358409039968 0.44930075306768458 0 0.04587361322417214 0.448769157871174 0 0.044846444185049857 0.46620050204512359 0 0.0281358409039968 0.44930075306768458 0 0.044846444185049857 0.46620050204512359 0 0.04587361322417214 0.448769157871174 0 0.044846444185049857 0.46620050204512359 0 0.05832870883015126 0.45973880463956351 0 0.04587361322417214 0.448769157871174 0 0.057347956450285731 0.44480695268810438 0 0.049411209704934803 0.43621283219101809 0 0.04587361322417214 0.448769157871174 0 0.05832870883015126 0.45973880463956351 0 0.057347956450285731 0.44480695268810438 0 0.070599818540594342 0.45171728711773013 0 0.05832870883015126 0.45973880463956351 0 0.057347956450285731 0.44480695268810438 0 0.057347956450285731 0.44480695268810438 0 0.058238482531349368 0.43512174465279091 0 0.068330088192809502 0.43602814955066621 0 0.057347956450285731 0.44480695268810438 0 0.058238482531349368 0.43512174465279091 0 0.049411209704934803 0.43621283219101809 0 0.058238482531349368 0.43512174465279091 0 0.05412352915042095 0.42739076434297479 0 0.063786863135573219 0.4234822836218442 0 0.05412352915042095 0.42739076434297479 0 0.047865015341267358 0.42301655559242213 0 0.049411209704934803 0.43621283219101809 0 0.05412352915042095 0.42739076434297479 0 0.047865015341267358 0.42301655559242213 0 0.058238482531349368 0.43512174465279091 0 0.05412352915042095 0.42739076434297479 0 0.049411209704934803 0.43621283219101809 0 0.047865015341267358 0.42301655559242213 0 0.055388731832649349 0.41299308245440008 0 0.044385004541519633 0.40583709082877739 0 0.055388731832649349 0.41299308245440008 0 0.057103340742871267 0.4006394318358022 0 0.0691327228978319 0.40699071288372829 0 0.05412352915042095 0.42739076434297479 0 0.055388731832649349 0.41299308245440008 0 0.063786863135573219 0.4234822836218442 0 0.047865015341267358 0.42301655559242213 0 0.055388731832649349 0.41299308245440008 0 0.05412352915042095 0.42739076434297479 0 0.047865015341267358 0.42301655559242213 0 0.055388731832649349 0.41299308245440008 0 0.055388731832649349 0.41299308245440008 0 0.044385004541519633 0.40583709082877739 0 0.057103340742871267 0.4006394318358022 0 0.047865015341267358 0.42301655559242213 0 0.030398582533070099 0.41080889326869052 0 0.044385004541519633 0.40583709082877739 0 0.047865015341267358 0.42301655559242213 0 0.035686717363660143 0.42423985257235269 0 0.030398582533070099 0.41080889326869052 0 0.047865015341267358 0.42301655559242213 0 0.030398582533070099 0.41080889326869052 0 0.047865015341267358 0.42301655559242213 0 0.049411209704934803 0.43621283219101809 0 0.03800042812263172 0.43615865433005307 0 0.047865015341267358 0.42301655559242213 0 0.03800042812263172 0.43615865433005307 0 0.047865015341267358 0.42301655559242213 0 0.035686717363660143 0.42423985257235269 0 0.03800042812263172 0.43615865433005307 0 0.035686717363660143 0.42423985257235269 0 0.03800042812263172 0.43615865433005307 0 0.0264828434576714 0.42697530709824522 0 0.017893296784651399 0.43894227458572882 0 0.0264828434576714 0.42697530709824522 0 0.013451351612083251 0.42022136891186163 0 0.017893296784651399 0.43894227458572882 0 0.03800042812263172 0.43615865433005307 0 0.0264828434576714 0.42697530709824522 0 0.030398582533070099 0.41080889326869052 0 0.013451351612083251 0.42022136891186163 0 0.012932149724872831 0.39860123094495892 0 0.0264828434576714 0.42697530709824522 0 0.030398582533070099 0.41080889326869052 0 0.013451351612083251 0.42022136891186163 0 0.035686717363660143 0.42423985257235269 0 0.0264828434576714 0.42697530709824522 0 0.030398582533070099 0.41080889326869052 0 -0.0038092142255275289 0.41137928311071797 0 0.013451351612083251 0.42022136891186163 0 0.012932149724872831 0.39860123094495892 0 -0.0030841453677343121 0.43636499760021141 0 0.017893296784651399 0.43894227458572882 0 0.013451351612083251 0.42022136891186163 0 -0.0030841453677343121 0.43636499760021141 0 -0.0038092142255275289 0.41137928311071797 0 0.013451351612083251 0.42022136891186163 0 -0.0045342830833226501 0.3863935686212247 0 0.012932149724872831 0.39860123094495892 0 0.0079023355216259559 0.37348921158265391 0 0.012932149724872831 0.39860123094495892 0 0.025375843575522711 0.38021681034322929 0 0.0079023355216259559 0.37348921158265391 0 -0.0045342830833226501 0.3863935686212247 0 0.012932149724872831 0.39860123094495892 0 -0.0045342830833226501 0.3863935686212247 0 -0.0038092142255275289 0.41137928311071797 0 0.012932149724872831 0.39860123094495892 0 0.030398582533070099 0.41080889326869052 0 0.012932149724872831 0.39860123094495892 0 0.030398582533070099 0.41080889326869052 0 0.012932149724872831 0.39860123094495892 0 0.030218872497922818 0.39559608178221078 0 0.012932149724872831 0.39860123094495892 0 0.030218872497922818 0.39559608178221078 0 0.025375843575522711 0.38021681034322929 0 0.025375843575522711 0.38021681034322929 0 0.045236422390978262 0.39339421550307069 0 0.045418656597819553 0.37354288132317159 0 0.030218872497922818 0.39559608178221078 0 0.025375843575522711 0.38021681034322929 0 0.045236422390978262 0.39339421550307069 0 0.030398582533070099 0.41080889326869052 0 0.030218872497922818 0.39559608178221078 0 0.044385004541519633 0.40583709082877739 0 0.030218872497922818 0.39559608178221078 0 0.045236422390978262 0.39339421550307069 0 0.044385004541519633 0.40583709082877739 0 0.045236422390978262 0.39339421550307069 0 0.057103340742871267 0.4006394318358022 0 0.06607043693335328 0.38973814947632979 0 0.045236422390978262 0.39339421550307069 0 0.044385004541519633 0.40583709082877739 0 0.057103340742871267 0.4006394318358022 0 0.045236422390978262 0.39339421550307069 0 0.06607043693335328 0.38973814947632979 0 0.045418656597819553 0.37354288132317159 0 0.06607043693335328 0.38973814947632979 0 0.066778362586220691 0.36264744131756171 0 0.045418656597819553 0.37354288132317159 0 0.06607043693335328 0.38973814947632979 0 0.086713905658550791 0.37461406501925459 0 0.066778362586220691 0.36264744131756171 0 0.091303312773641829 0.3995757594209417 0 0.1025776524751303 0.38486691706586951 0 0.086713905658550791 0.37461406501925459 0 0.06607043693335328 0.38973814947632979 0 0.091303312773641829 0.3995757594209417 0 0.086713905658550791 0.37461406501925459 0 0.091303312773641829 0.3995757594209417 0 0.086713905658550791 0.37461406501925459 0 0.06607043693335328 0.38973814947632979 0 0.091303312773641829 0.3995757594209417 0 0.0691327228978319 0.40699071288372829 0 0.057103340742871267 0.4006394318358022 0 0.06607043693335328 0.38973814947632979 0 0.0691327228978319 0.40699071288372829 0 0.055388731832649349 0.41299308245440008 0 0.0691327228978319 0.40699071288372829 0 0.063786863135573219 0.4234822836218442 0 0.0691327228978319 0.40699071288372829 0 0.077714875811277062 0.4214876261871765 0 0.063786863135573219 0.4234822836218442 0 0.083205653112744402 0.44008551456546158 0 0.077714875811277062 0.4214876261871765 0 0.068330088192809502 0.43602814955066621 0 0.058238482531349368 0.43512174465279091 0 0.068330088192809502 0.43602814955066621 0 0.063786863135573219 0.4234822836218442 0 0.077714875811277062 0.4214876261871765 0 0.068330088192809502 0.43602814955066621 0 0.063786863135573219 0.4234822836218442 0 0.083205653112744402 0.44008551456546158 0 0.077714875811277062 0.4214876261871765 0 0.095892719888732866 0.42453745382262881 0 0.091303312773641829 0.3995757594209417 0 0.0691327228978319 0.40699071288372829 0 0.077714875811277062 0.4214876261871765 0 0.091303312773641829 0.3995757594209417 0 0.095892719888732866 0.42453745382262881 0 0.091303312773641829 0.3995757594209417 0 0.077714875811277062 0.4214876261871765 0 0.095892719888732866 0.42453745382262881 0 0.091303312773641829 0.3995757594209417 0 0.095892719888732866 0.42453745382262881 0 0.115428724103706 0.40267530492779557 0 0.1004821270038239 0.44949914822431608 0 0.095892719888732866 0.42453745382262881 0 0.12259086230274099 0.42947812748907283 0 0.1004821270038239 0.44949914822431608 0 0.095892719888732866 0.42453745382262881 0 0.095892719888732866 0.42453745382262881 0 0.12259086230274099 0.42947812748907283 0 0.115428724103706 0.40267530492779557 0 0.115428724103706 0.40267530492779557 0 0.119448870245615 0.38256434187866972 0 0.13692284990477191 0.38930777957628943 0 0.119448870245615 0.38256434187866972 0 0.1025776524751303 0.38486691706586951 0 0.1087205780393706 0.3656269003386084 0 0.115428724103706 0.40267530492779557 0 0.119448870245615 0.38256434187866972 0 0.1025776524751303 0.38486691706586951 0 0.1025776524751303 0.38486691706586951 0 0.1087205780393706 0.3656269003386084 0 0.086713905658550791 0.37461406501925459 0 0.091303312773641829 0.3995757594209417 0 0.115428724103706 0.40267530492779557 0 0.1025776524751303 0.38486691706586951 0 0.1087205780393706 0.3656269003386084 0 0.1202868522871179 0.34060046584014031 0 0.0915497208986496 0.34709204532757532 0 0.1087205780393706 0.3656269003386084 0 0.0915497208986496 0.34709204532757532 0 0.086713905658550791 0.37461406501925459 0 0.119448870245615 0.38256434187866972 0 0.1087205780393706 0.3656269003386084 0 0.13274728415341139 0.36410634055334368 0 0.1087205780393706 0.3656269003386084 0 0.1202868522871179 0.34060046584014031 0 0.13274728415341139 0.36410634055334368 0 0.1202868522871179 0.34060046584014031 0 0.1104734498024164 0.31171603628350752 0 0.14183880654046921 0.32250528078568202 0 0.1202868522871179 0.34060046584014031 0 0.1016552612267161 0.33013161519950079 0 0.1104734498024164 0.31171603628350752 0 0.1016552612267161 0.33013161519950079 0 0.081254576285268804 0.3210829637434266 0 0.1104734498024164 0.31171603628350752 0 0.1202868522871179 0.34060046584014031 0 0.1016552612267161 0.33013161519950079 0 0.0915497208986496 0.34709204532757532 0 0.081254576285268804 0.3210829637434266 0 0.072654821413094289 0.33942743407960763 0 0.0915497208986496 0.34709204532757532 0 0.1016552612267161 0.33013161519950079 0 0.081254576285268804 0.3210829637434266 0 0.0915497208986496 0.34709204532757532 0 0.081254576285268804 0.3210829637434266 0 0.06358813508901956 0.32234581427363851 0 0.071244474661197085 0.3036312559279935 0 0.081254576285268804 0.3210829637434266 0 0.06358813508901956 0.32234581427363851 0 0.072654821413094289 0.33942743407960763 0 0.06358813508901956 0.32234581427363851 0 0.072654821413094289 0.33942743407960763 0 0.055199983679349987 0.34246375673151652 0 0.072654821413094289 0.33942743407960763 0 0.066778362586220691 0.36264744131756171 0 0.055199983679349987 0.34246375673151652 0 0.072654821413094289 0.33942743407960763 0 0.0915497208986496 0.34709204532757532 0 0.066778362586220691 0.36264744131756171 0 0.0915497208986496 0.34709204532757532 0 0.086713905658550791 0.37461406501925459 0 0.066778362586220691 0.36264744131756171 0 0.066778362586220691 0.36264744131756171 0 0.044951457965310811 0.3555124197003488 0 0.045418656597819553 0.37354288132317159 0 0.066778362586220691 0.36264744131756171 0 0.044951457965310811 0.3555124197003488 0 0.055199983679349987 0.34246375673151652 0 0.044951457965310811 0.3555124197003488 0 0.021903196078839001 0.35746348141110651 0 0.035457090884324839 0.34144453771838768 0 0.044951457965310811 0.3555124197003488 0 0.035457090884324839 0.34144453771838768 0 0.055199983679349987 0.34246375673151652 0 0.044951457965310811 0.3555124197003488 0 0.045418656597819553 0.37354288132317159 0 0.021903196078839001 0.35746348141110651 0 0.025375843575522711 0.38021681034322929 0 0.021903196078839001 0.35746348141110651 0 0.0079023355216259559 0.37348921158265391 0 0.025375843575522711 0.38021681034322929 0 0.045418656597819553 0.37354288132317159 0 0.021903196078839001 0.35746348141110651 0 0.021903196078839001 0.35746348141110651 0 0.017151683724365509 0.3376665205351736 0 0.035457090884324839 0.34144453771838768 0 0.021903196078839001 0.35746348141110651 0 0.0095650341834115256 0.34490192427506011 0 0.017151683724365509 0.3376665205351736 0 0.021903196078839001 0.35746348141110651 0 0.0095650341834115256 0.34490192427506011 0 0.0061318462344260851 0.35417601161121459 0 -0.0050552824635438226 0.34569829691311771 0 0.0095650341834115256 0.34490192427506011 0 0.0061318462344260851 0.35417601161121459 0 0.021903196078839001 0.35746348141110651 0 0.0061318462344260851 0.35417601161121459 0 0.0079023355216259559 0.37348921158265391 0 -0.0052616759920083916 0.36132776784546622 0 0.0061318462344260851 0.35417601161121459 0 0.0079023355216259559 0.37348921158265391 0 0.0087281755863181168 0.33049580891976171 0 0.020410497070949891 0.30832150289807031 0 0.0056044744337335906 0.31412092038659428 0 0.0087281755863181168 0.33049580891976171 0 0.020410497070949891 0.30832150289807031 0 -0.003280447873963227 0.32161399115684158 0 0.0056044744337335906 0.31412092038659428 0 0.0087281755863181168 0.33049580891976171 0 0.0064742168078369342 0.3347740657525386 0 0.0087281755863181168 0.33049580891976171 0 -0.0050552824635438226 0.34569829691311771 0 0.0095650341834115256 0.34490192427506011 0 0.0064742168078369342 0.3347740657525386 0 0.0095650341834115256 0.34490192427506011 0 0.0064742168078369342 0.3347740657525386 0 0.017151683724365509 0.3376665205351736 0 0.0064742168078369342 0.3347740657525386 0 0.0087281755863181168 0.33049580891976171 0 0.017151683724365509 0.3376665205351736 0 0.0087281755863181168 0.33049580891976171 0 0.025353163704189718 0.33024288796319817 0 0.017151683724365509 0.3376665205351736 0 0.0087281755863181168 0.33049580891976171 0 0.025353163704189718 0.33024288796319817 0 0.025353163704189718 0.33024288796319817 0 0.017151683724365509 0.3376665205351736 0 0.035457090884324839 0.34144453771838768 0 0.0087281755863181168 0.33049580891976171 0 0.025353163704189718 0.33024288796319817 0 0.020410497070949891 0.30832150289807031 0 0.025353163704189718 0.33024288796319817 0 0.038017806832533571 0.30672300381527179 0 0.020410497070949891 0.30832150289807031 0 0.025353163704189718 0.33024288796319817 0 0.045812945845809312 0.32351293560108041 0 0.038017806832533571 0.30672300381527179 0 0.025353163704189718 0.33024288796319817 0 0.045812945845809312 0.32351293560108041 0 0.035457090884324839 0.34144453771838768 0 0.045812945845809312 0.32351293560108041 0 0.035457090884324839 0.34144453771838768 0 0.055199983679349987 0.34246375673151652 0 0.06358813508901956 0.32234581427363851 0 0.045812945845809312 0.32351293560108041 0 0.055199983679349987 0.34246375673151652 0 0.06358813508901956 0.32234581427363851 0 0.045812945845809312 0.32351293560108041 0 0.055148108477292443 0.3057593846019967 0 0.055148108477292443 0.3057593846019967 0 0.047586914097201803 0.29032131063477928 0 0.038017806832533571 0.30672300381527179 0 0.055148108477292443 0.3057593846019967 0 0.047586914097201803 0.29032131063477928 0 0.066935962560195753 0.28615893812798288 0 0.047586914097201803 0.29032131063477928 0 0.050578246113349837 0.27455429857722041 0 0.066935962560195753 0.28615893812798288 0 0.047586914097201803 0.29032131063477928 0 0.032092818555581597 0.28614719687637868 0 0.038017806832533571 0.30672300381527179 0 0.047586914097201803 0.29032131063477928 0 0.032092818555581597 0.28614719687637868 0 0.050578246113349837 0.27455429857722041 0 0.045812945845809312 0.32351293560108041 0 0.055148108477292443 0.3057593846019967 0 0.038017806832533571 0.30672300381527179 0 0.032092818555581597 0.28614719687637868 0 0.038017806832533571 0.30672300381527179 0 0.020410497070949891 0.30832150289807031 0 0.032092818555581597 0.28614719687637868 0 0.020410497070949891 0.30832150289807031 0 0.032092818555581597 0.28614719687637868 0 0.020410497070949891 0.30832150289807031 0 0.0083336089875100904 0.29343585490586271 0 0.032092818555581597 0.28614719687637868 0 0.0083336089875100904 0.29343585490586271 0 0.021382191810826279 0.2686960609189637 0 -0.0088759444352828343 0.31092800175718183 0 0.0056044744337335906 0.31412092038659428 0 0.0083336089875100904 0.29343585490586271 0 0.0056044744337335906 0.31412092038659428 0 0.020410497070949891 0.30832150289807031 0 0.0083336089875100904 0.29343585490586271 0 0.0073806355134042019 0.25529449578482938 0 3.3590645499582607e-05 0.27236849017123349 0 0.021382191810826279 0.2686960609189637 0 0.0083336089875100904 0.29343585490586271 0 3.3590645499582607e-05 0.27236849017123349 0 0.021382191810826279 0.2686960609189637 0 0.025149977659741599 0.24684982625080901 0 0.0073806355134042019 0.25529449578482938 0 0.021382191810826279 0.2686960609189637 0 0.025149977659741599 0.24684982625080901 0 0.021382191810826279 0.2686960609189637 0 0.043775140040213267 0.26397289085468728 0 0.025149977659741599 0.24684982625080901 0 0.045472231705318063 0.24424317023843681 0 0.050158093690384618 0.2598810672441918 0 0.025149977659741599 0.24684982625080901 0 0.050158093690384618 0.2598810672441918 0 0.025149977659741599 0.24684982625080901 0 0.043775140040213267 0.26397289085468728 0 0.050158093690384618 0.2598810672441918 0 0.032092818555581597 0.28614719687637868 0 0.043775140040213267 0.26397289085468728 0 0.032092818555581597 0.28614719687637868 0 0.021382191810826279 0.2686960609189637 0 0.043775140040213267 0.26397289085468728 0 0.032092818555581597 0.28614719687637868 0 0.043775140040213267 0.26397289085468728 0 0.050578246113349837 0.27455429857722041 0 0.050578246113349837 0.27455429857722041 0 0.063875668081316214 0.2678607518654692 0 0.066935962560195753 0.28615893812798288 0 0.043775140040213267 0.26397289085468728 0 0.050578246113349837 0.27455429857722041 0 0.050158093690384618 0.2598810672441918 0 0.050578246113349837 0.27455429857722041 0 0.056046126259945157 0.25263236173372139 0 0.063875668081316214 0.2678607518654692 0 0.050578246113349837 0.27455429857722041 0 0.050158093690384618 0.2598810672441918 0 0.056046126259945157 0.25263236173372139 0 0.045472231705318063 0.24424317023843681 0 0.050158093690384618 0.2598810672441918 0 0.056046126259945157 0.25263236173372139 0 0.050578246113349837 0.27455429857722041 0 0.056046126259945157 0.25263236173372139 0 0.078525547080241467 0.2465942846531784 0 0.067905867336300579 0.25358800162702 0 0.079567988853459573 0.27014218499250892 0 0.067905867336300579 0.25358800162702 0 0.079567988853459573 0.27014218499250892 0 0.063875668081316214 0.2678607518654692 0 0.056046126259945157 0.25263236173372139 0 0.067905867336300579 0.25358800162702 0 0.063875668081316214 0.2678607518654692 0 0.078525547080241467 0.2465942846531784 0 0.079567988853459573 0.27014218499250892 0 0.093798877441032588 0.2579700649065903 0 0.079567988853459573 0.27014218499250892 0 0.063875668081316214 0.2678607518654692 0 0.066935962560195753 0.28615893812798288 0 0.079567988853459573 0.27014218499250892 0 0.066935962560195753 0.28615893812798288 0 0.087430381393448858 0.29852998767476718 0 0.066935962560195753 0.28615893812798288 0 0.071244474661197085 0.3036312559279935 0 0.087430381393448858 0.29852998767476718 0 0.055148108477292443 0.3057593846019967 0 0.066935962560195753 0.28615893812798288 0 0.071244474661197085 0.3036312559279935 0 0.06358813508901956 0.32234581427363851 0 0.055148108477292443 0.3057593846019967 0 0.071244474661197085 0.3036312559279935 0 0.081254576285268804 0.3210829637434266 0 0.087430381393448858 0.29852998767476718 0 0.1104734498024164 0.31171603628350752 0 0.081254576285268804 0.3210829637434266 0 0.071244474661197085 0.3036312559279935 0 0.087430381393448858 0.29852998767476718 0 0.079567988853459573 0.27014218499250892 0 0.087430381393448858 0.29852998767476718 0 0.1079828451826004 0.27738565586056829 0 0.087430381393448858 0.29852998767476718 0 0.1104734498024164 0.31171603628350752 0 0.1079828451826004 0.27738565586056829 0 0.1104734498024164 0.31171603628350752 0 0.1079828451826004 0.27738565586056829 0 0.13401849175413849 0.29214957311260448 0 0.1079828451826004 0.27738565586056829 0 0.13401849175413849 0.29214957311260448 0 0.1100607559553454 0.25396994184181759 0 0.1079828451826004 0.27738565586056829 0 0.13366986361514199 0.26692500362740812 0 0.12787711237058769 0.24521089126939841 0 0.1100607559553454 0.25396994184181759 0 0.13366986361514199 0.26692500362740812 0 0.092857250133516089 0.24175825718487831 0 0.1100607559553454 0.25396994184181759 0 0.093798877441032588 0.2579700649065903 0 0.1100607559553454 0.25396994184181759 0 0.093798877441032588 0.2579700649065903 0 0.1079828451826004 0.27738565586056829 0 0.079567988853459573 0.27014218499250892 0 0.093798877441032588 0.2579700649065903 0 0.1079828451826004 0.27738565586056829 0 0.13366986361514199 0.26692500362740812 0 0.1558685034792309 0.28595093384994291 0 0.15959452244756481 0.26367036214955358 0 0.14702044576598061 0.2478904659134552 0 0.13366986361514199 0.26692500362740812 0 0.15959452244756481 0.26367036214955358 0 0.14702044576598061 0.2478904659134552 0 0.12787711237058769 0.24521089126939841 0 0.13366986361514199 0.26692500362740812 0 0.1079828451826004 0.27738565586056829 0 0.13366986361514199 0.26692500362740812 0 0.13401849175413849 0.29214957311260448 0 0.1104734498024164 0.31171603628350752 0 0.13401849175413849 0.29214957311260448 0 0.14183880654046921 0.32250528078568202 0 0.13401849175413849 0.29214957311260448 0 0.16005413832567669 0.30691349036464077 0 0.14183880654046921 0.32250528078568202 0 0.13401849175413849 0.29214957311260448 0 0.16005413832567669 0.30691349036464077 0 0.13401849175413849 0.29214957311260448 0 0.1558685034792309 0.28595093384994291 0 0.16005413832567669 0.30691349036464077 0 0.13366986361514199 0.26692500362740812 0 0.13401849175413849 0.29214957311260448 0 0.1558685034792309 0.28595093384994291 0 0.1558685034792309 0.28595093384994291 0 0.1700220001876428 0.28782965529906401 0 0.16005413832567669 0.30691349036464077 0 0.1558685034792309 0.28595093384994291 0 0.1700220001876428 0.28782965529906401 0 0.17370236977615991 0.27502287964280692 0 0.1700220001876428 0.28782965529906401 0 0.16005413832567669 0.30691349036464077 0 0.1764196225356903 0.29880027385689728 0 0.16005413832567669 0.30691349036464077 0 0.1764196225356903 0.29880027385689728 0 0.18686192329242929 0.31378732528256248 0 0.1764196225356903 0.29880027385689728 0 0.18674031124236579 0.30201460306836742 0 0.19086383386244751 0.2907864273273883 0 0.1764196225356903 0.29880027385689728 0 0.18674031124236579 0.30201460306836742 0 0.18686192329242929 0.31378732528256248 0 0.1700220001876428 0.28782965529906401 0 0.18013512871176271 0.28566990799825959 0 0.17370236977615991 0.27502287964280692 0 0.1700220001876428 0.28782965529906401 0 0.1764196225356903 0.29880027385689728 0 0.18013512871176271 0.28566990799825959 0 0.1764196225356903 0.29880027385689728 0 0.18013512871176271 0.28566990799825959 0 0.19086383386244751 0.2907864273273883 0 0.18013512871176271 0.28566990799825959 0 0.1896678171968729 0.27591030386514148 0 0.19086383386244751 0.2907864273273883 0 0.18251379545819379 0.26835647973838378 0 0.17370236977615991 0.27502287964280692 0 0.1896678171968729 0.27591030386514148 0 0.18013512871176271 0.28566990799825959 0 0.17370236977615991 0.27502287964280692 0 0.1896678171968729 0.27591030386514148 0 0.18251379545819379 0.26835647973838378 0 0.17370236977615991 0.27502287964280692 0 0.17699066645021869 0.2595722272450377 0 0.17370236977615991 0.27502287964280692 0 0.15959452244756481 0.26367036214955358 0 0.17699066645021869 0.2595722272450377 0 0.1558685034792309 0.28595093384994291 0 0.17370236977615991 0.27502287964280692 0 0.15959452244756481 0.26367036214955358 0 0.16774616909827719 0.2460930353984315 0 0.15959452244756481 0.26367036214955358 0 0.17699066645021869 0.2595722272450377 0 0.14702044576598061 0.2478904659134552 0 0.16774616909827719 0.2460930353984315 0 0.15959452244756481 0.26367036214955358 0 0.18692125413578081 0.24552837502103991 0 0.16774616909827719 0.2460930353984315 0 0.17699066645021869 0.2595722272450377 0 0.18692125413578081 0.24552837502103991 0 0.17699066645021869 0.2595722272450377 0 0.19242781921148469 0.26384338938458129 0 0.18251379545819379 0.26835647973838378 0 0.17699066645021869 0.2595722272450377 0 0.19242781921148469 0.26384338938458129 0 0.18692125413578081 0.24552837502103991 0 0.19242781921148469 0.26384338938458129 0 0.20107379594449931 0.25686311186437227 0 0.18692125413578081 0.24552837502103991 0 0.20107379594449931 0.25686311186437227 0 0.19242781921148469 0.26384338938458129 0 0.20107379594449931 0.25686311186437227 0 0.2008998280478862 0.26959186196165702 0 0.19242781921148469 0.26384338938458129 0 0.20107379594449931 0.25686311186437227 0 0.19242781921148469 0.26384338938458129 0 0.1896678171968729 0.27591030386514148 0 0.2008998280478862 0.26959186196165702 0 0.18251379545819379 0.26835647973838378 0 0.19242781921148469 0.26384338938458129 0 0.1896678171968729 0.27591030386514148 0 0.1896678171968729 0.27591030386514148 0 0.2008998280478862 0.26959186196165702 0 0.20354188417430641 0.281093168015905 0 0.2008998280478862 0.26959186196165702 0 0.2177878237122676 0.27024933667828532 0 0.20354188417430641 0.281093168015905 0 0.2177878237122676 0.27024933667828532 0 0.20354188417430641 0.281093168015905 0 0.2166033006779626 0.28924568688104418 0 0.21557305570370441 0.24515722135805329 0 0.20107379594449931 0.25686311186437227 0 0.2177878237122676 0.27024933667828532 0 0.20107379594449931 0.25686311186437227 0 0.2177878237122676 0.27024933667828532 0 0.20107379594449931 0.25686311186437227 0 0.2008998280478862 0.26959186196165702 0 0.2177878237122676 0.27024933667828532 0 0.21557305570370441 0.24515722135805329 0 0.20107379594449931 0.25686311186437227 0 0.21557305570370441 0.24515722135805329 0 0.2177878237122676 0.27024933667828532 0 0.23628031136540401 0.25597328662156199 0 0.2177878237122676 0.27024933667828532 0 0.23628031136540401 0.25597328662156199 0 0.23450185148003599 0.28363556149219821 0 0.2177878237122676 0.27024933667828532 0 0.23450185148003599 0.28363556149219821 0 0.2166033006779626 0.28924568688104418 0 0.2177878237122676 0.27024933667828532 0 0.23450185148003599 0.28363556149219821 0 0.23628031136540401 0.25597328662156199 0 0.23450185148003599 0.28363556149219821 0 0.25102838231212438 0.26850893423506528 0 0.23450185148003599 0.28363556149219821 0 0.25953152444998728 0.28294166139542631 0 0.25102838231212438 0.26850893423506528 0 0.23628031136540401 0.25597328662156199 0 0.25102838231212438 0.26850893423506528 0 0.26221447651104962 0.2479993693513689 0 0.2297645605960125 0.30261029929826411 0 0.25121587924780342 0.29702178630611242 0 0.2484846271056145 0.31037308609574782 0 0.2297645605960125 0.30261029929826411 0 0.23798581837376781 0.31938142953188831 0 0.2484846271056145 0.31037308609574782 0 0.2297645605960125 0.30261029929826411 0 0.25121587924780342 0.29702178630611242 0 0.23450185148003599 0.28363556149219821 0 0.2297645605960125 0.30261029929826411 0 0.25121587924780342 0.29702178630611242 0 0.23450185148003599 0.28363556149219821 0 0.25121587924780342 0.29702178630611242 0 0.23450185148003599 0.28363556149219821 0 0.25953152444998728 0.28294166139542631 0 0.25121587924780342 0.29702178630611242 0 0.23450185148003599 0.28363556149219821 0 0.2297645605960125 0.30261029929826411 0 0.2166033006779626 0.28924568688104418 0 0.2297645605960125 0.30261029929826411 0 0.20831324194422091 0.30819881229041318 0 0.2297645605960125 0.30261029929826411 0 0.20831324194422091 0.30819881229041318 0 0.21977364325038071 0.31928170538083578 0 0.20831324194422091 0.30819881229041318 0 0.2166033006779626 0.28924568688104418 0 0.20288664267638859 0.29424953150154581 0 0.2297645605960125 0.30261029929826411 0 0.20831324194422091 0.30819881229041318 0 0.2166033006779626 0.28924568688104418 0 0.20354188417430641 0.281093168015905 0 0.2166033006779626 0.28924568688104418 0 0.20288664267638859 0.29424953150154581 0 0.20354188417430641 0.281093168015905 0 0.20288664267638859 0.29424953150154581 0 0.19086383386244751 0.2907864273273883 0 0.20288664267638859 0.29424953150154581 0 0.19086383386244751 0.2907864273273883 0 0.19511095272300569 0.3019235629929784 0 0.1896678171968729 0.27591030386514148 0 0.20354188417430641 0.281093168015905 0 0.19086383386244751 0.2907864273273883 0 0.20831324194422091 0.30819881229041318 0 0.18686192329242929 0.31378732528256248 0 0.20831324194422091 0.30819881229041318 0 0.19511095272300569 0.3019235629929784 0 0.18686192329242929 0.31378732528256248 0 0.20831324194422091 0.30819881229041318 0 0.20288664267638859 0.29424953150154581 0 0.19511095272300569 0.3019235629929784 0 0.18674031124236579 0.30201460306836742 0 0.19086383386244751 0.2907864273273883 0 0.19511095272300569 0.3019235629929784 0 0.18674031124236579 0.30201460306836742 0 0.19511095272300569 0.3019235629929784 0 0.18686192329242929 0.31378732528256248 0 0.20141288137377081 0.31920030670374799 0 0.18686192329242929 0.31378732528256248 0 0.18608978489721489 0.32167740761667712 0 0.20831324194422091 0.30819881229041318 0 0.20141288137377081 0.31920030670374799 0 0.18686192329242929 0.31378732528256248 0 0.20141288137377081 0.31920030670374799 0 0.21212543146875301 0.33644132486871342 0 0.18608978489721489 0.32167740761667712 0 0.21212543146875301 0.33644132486871342 0 0.18608978489721489 0.32167740761667712 0 0.19231113454718349 0.34165597013868199 0 0.21212543146875301 0.33644132486871342 0 0.18608978489721489 0.32167740761667712 0 0.20831324194422091 0.30819881229041318 0 0.20141288137377081 0.31920030670374799 0 0.21977364325038071 0.31928170538083578 0 0.20141288137377081 0.31920030670374799 0 0.21212543146875301 0.33644132486871342 0 0.21977364325038071 0.31928170538083578 0 0.21977364325038071 0.31928170538083578 0 0.2290399257457596 0.32985805959198788 0 0.23798581837376781 0.31938142953188831 0 0.2297645605960125 0.30261029929826411 0 0.21977364325038071 0.31928170538083578 0 0.23798581837376781 0.31938142953188831 0 0.21212543146875301 0.33644132486871342 0 0.21977364325038071 0.31928170538083578 0 0.2290399257457596 0.32985805959198788 0 0.21212543146875301 0.33644132486871342 0 0.23060518033342339 0.33807106122714048 0 0.2290399257457596 0.32985805959198788 0 0.21212543146875301 0.33644132486871342 0 0.23060518033342339 0.33807106122714048 0 0.23816107804029091 0.35120524212074949 0 0.23060518033342339 0.33807106122714048 0 0.2290399257457596 0.32985805959198788 0 0.2430942860788903 0.33477961832711151 0 0.23060518033342339 0.33807106122714048 0 0.2430942860788903 0.33477961832711151 0 0.23816107804029091 0.35120524212074949 0 0.2484846271056145 0.31037308609574782 0 0.23798581837376781 0.31938142953188831 0 0.25508783524565293 0.32209220201309929 0 0.2430942860788903 0.33477961832711151 0 0.23798581837376781 0.31938142953188831 0 0.25508783524565293 0.32209220201309929 0 0.2290399257457596 0.32985805959198788 0 0.2430942860788903 0.33477961832711151 0 0.23798581837376781 0.31938142953188831 0 0.23439037865920059 0.35560025357312369 0 0.2386764282036242 0.37725286527910618 0 0.24311907173897271 0.36013203008567057 0 0.23439037865920059 0.35560025357312369 0 0.2386764282036242 0.37725286527910618 0 0.2492643002430574 0.365916522193315 0 0.24311907173897271 0.36013203008567057 0 0.2386764282036242 0.37725286527910618 0 0.2492643002430574 0.365916522193315 0 0.2386764282036242 0.37725286527910618 0 0.25383912625151372 0.37755129754335942 0 0.24311907173897271 0.36013203008567057 0 0.23816107804029091 0.35120524212074949 0 0.2641967246118288 0.36596915937278562 0 0.2430942860788903 0.33477961832711151 0 0.23816107804029091 0.35120524212074949 0 0.26173146881309822 0.35734024057335978 0 0.24311907173897271 0.36013203008567057 0 0.23816107804029091 0.35120524212074949 0 0.23439037865920059 0.35560025357312369 0 0.21212543146875301 0.33644132486871342 0 0.23816107804029091 0.35120524212074949 0 0.21848510057545151 0.35453686872473111 0 0.23816107804029091 0.35120524212074949 0 0.23439037865920059 0.35560025357312369 0 0.21848510057545151 0.35453686872473111 0 0.21212543146875301 0.33644132486871342 0 0.23816107804029091 0.35120524212074949 0 0.23439037865920059 0.35560025357312369 0 0.22513916990612379 0.36868200325308897 0 0.2386764282036242 0.37725286527910618 0 0.23439037865920059 0.35560025357312369 0 0.22513916990612379 0.36868200325308897 0 0.21848510057545151 0.35453686872473111 0 0.22513916990612379 0.36868200325308897 0 0.20931495008602691 0.36890180222237801 0 0.21961872799640589 0.38146559318592133 0 0.22513916990612379 0.36868200325308897 0 0.20931495008602691 0.36890180222237801 0 0.21848510057545151 0.35453686872473111 0 0.20931495008602691 0.36890180222237801 0 0.21848510057545151 0.35453686872473111 0 0.2018014651714847 0.35413555731190122 0 0.21212543146875301 0.33644132486871342 0 0.21848510057545151 0.35453686872473111 0 0.2018014651714847 0.35413555731190122 0 0.19231113454718349 0.34165597013868199 0 0.2018014651714847 0.35413555731190122 0 0.1832131523033072 0.3569188224833833 0 0.19231113454718349 0.34165597013868199 0 0.21212543146875301 0.33644132486871342 0 0.2018014651714847 0.35413555731190122 0 0.20931495008602691 0.36890180222237801 0 0.2018014651714847 0.35413555731190122 0 0.19217836357317111 0.36996972767433872 0 0.20931495008602691 0.36890180222237801 0 0.19217836357317111 0.36996972767433872 0 0.20289108470775991 0.38370682355227331 0 0.2018014651714847 0.35413555731190122 0 0.19217836357317111 0.36996972767433872 0 0.1832131523033072 0.3569188224833833 0 0.19217836357317111 0.36996972767433872 0 0.17197644233242751 0.37002706837148541 0 0.1832131523033072 0.3569188224833833 0 0.17197644233242751 0.37002706837148541 0 0.16866852787741549 0.35230522619665788 0 0.1832131523033072 0.3569188224833833 0 0.17197644233242751 0.37002706837148541 0 0.16866852787741549 0.35230522619665788 0 0.15186920095361911 0.35620033980905319 0 0.17197644233242751 0.37002706837148541 0 0.15186920095361911 0.35620033980905319 0 0.15185568245476189 0.37707061606136422 0 0.16866852787741549 0.35230522619665788 0 0.1579580049025659 0.33927316190663209 0 0.15186920095361911 0.35620033980905319 0 0.16866852787741549 0.35230522619665788 0 0.1832131523033072 0.3569188224833833 0 0.17832583889515771 0.33910673841273542 0 0.19231113454718349 0.34165597013868199 0 0.1832131523033072 0.3569188224833833 0 0.17832583889515771 0.33910673841273542 0 0.17832583889515771 0.33910673841273542 0 0.18608978489721489 0.32167740761667712 0 0.16647560889869609 0.32578562508456149 0 0.19231113454718349 0.34165597013868199 0 0.17832583889515771 0.33910673841273542 0 0.18608978489721489 0.32167740761667712 0 0.16005413832567669 0.30691349036464077 0 0.18608978489721489 0.32167740761667712 0 0.16005413832567669 0.30691349036464077 0 0.18686192329242929 0.31378732528256248 0 0.18608978489721489 0.32167740761667712 0 0.16005413832567669 0.30691349036464077 0 0.18608978489721489 0.32167740761667712 0 0.16647560889869609 0.32578562508456149 0 0.17832583889515771 0.33910673841273542 0 0.16647560889869609 0.32578562508456149 0 0.1579580049025659 0.33927316190663209 0 0.16866852787741549 0.35230522619665788 0 0.17832583889515771 0.33910673841273542 0 0.1579580049025659 0.33927316190663209 0 0.16647560889869609 0.32578562508456149 0 0.1579580049025659 0.33927316190663209 0 0.14183880654046921 0.32250528078568202 0 0.1579580049025659 0.33927316190663209 0 0.14183880654046921 0.32250528078568202 0 0.14054269679001921 0.34363296691054102 0 0.16005413832567669 0.30691349036464077 0 0.16647560889869609 0.32578562508456149 0 0.14183880654046921 0.32250528078568202 0 0.1202868522871179 0.34060046584014031 0 0.14183880654046921 0.32250528078568202 0 0.14054269679001921 0.34363296691054102 0 0.1202868522871179 0.34060046584014031 0 0.14054269679001921 0.34363296691054102 0 0.13274728415341139 0.36410634055334368 0 0.13274728415341139 0.36410634055334368 0 0.15186920095361911 0.35620033980905319 0 0.15185568245476189 0.37707061606136422 0 0.14054269679001921 0.34363296691054102 0 0.13274728415341139 0.36410634055334368 0 0.15186920095361911 0.35620033980905319 0 0.1579580049025659 0.33927316190663209 0 0.14054269679001921 0.34363296691054102 0 0.15186920095361911 0.35620033980905319 0 0.15352992747694119 0.40026604784697911 0 0.13692284990477191 0.38930777957628943 0 0.1397509022148696 0.40843688002483958 0 0.15352992747694119 0.40026604784697911 0 0.15185568245476189 0.37707061606136422 0 0.13692284990477191 0.38930777957628943 0 0.13274728415341139 0.36410634055334368 0 0.15185568245476189 0.37707061606136422 0 0.13692284990477191 0.38930777957628943 0 0.119448870245615 0.38256434187866972 0 0.13274728415341139 0.36410634055334368 0 0.13692284990477191 0.38930777957628943 0 0.115428724103706 0.40267530492779557 0 0.13692284990477191 0.38930777957628943 0 0.1397509022148696 0.40843688002483958 0 0.12259086230274099 0.42947812748907283 0 0.1397509022148696 0.40843688002483958 0 0.14363603346764281 0.42707530835579988 0 0.12259086230274099 0.42947812748907283 0 0.115428724103706 0.40267530492779557 0 0.1397509022148696 0.40843688002483958 0 0.12259086230274099 0.42947812748907283 0 0.14363603346764281 0.42707530835579988 0 0.13510526379757609 0.44116740875256688 0 0.14363603346764281 0.42707530835579988 0 0.16526304614212209 0.42908608809292892 0 0.1507341445198021 0.44370602134863157 0 0.14363603346764281 0.42707530835579988 0 0.15527295380072001 0.4153931176925994 0 0.16526304614212209 0.42908608809292892 0 0.14363603346764281 0.42707530835579988 0 0.1507341445198021 0.44370602134863157 0 0.13510526379757609 0.44116740875256688 0 0.1397509022148696 0.40843688002483958 0 0.14363603346764281 0.42707530835579988 0 0.15527295380072001 0.4153931176925994 0 0.15352992747694119 0.40026604784697911 0 0.1397509022148696 0.40843688002483958 0 0.15527295380072001 0.4153931176925994 0 0.15527295380072001 0.4153931176925994 0 0.1711416470664554 0.41062619466687539 0 0.16526304614212209 0.42908608809292892 0 0.15352992747694119 0.40026604784697911 0 0.15527295380072001 0.4153931176925994 0 0.1711416470664554 0.41062619466687539 0 0.16526304614212209 0.42908608809292892 0 0.1809560021812836 0.43814832633623357 0 0.16598328874466911 0.44273574664910909 0 0.16526304614212209 0.42908608809292892 0 0.18469425222239219 0.42125941149134333 0 0.1809560021812836 0.43814832633623357 0 0.1711416470664554 0.41062619466687539 0 0.16526304614212209 0.42908608809292892 0 0.18469425222239219 0.42125941149134333 0 0.1711416470664554 0.41062619466687539 0 0.18469425222239219 0.42125941149134333 0 0.1843100454414533 0.40126956181167389 0 0.1711416470664554 0.41062619466687539 0 0.1843100454414533 0.40126956181167389 0 0.16952276405911931 0.3912061138884545 0 0.1843100454414533 0.40126956181167389 0 0.16952276405911931 0.3912061138884545 0 0.18589276442329861 0.38606835492789338 0 0.15352992747694119 0.40026604784697911 0 0.1711416470664554 0.41062619466687539 0 0.16952276405911931 0.3912061138884545 0 0.15352992747694119 0.40026604784697911 0 0.15185568245476189 0.37707061606136422 0 0.16952276405911931 0.3912061138884545 0 0.17197644233242751 0.37002706837148541 0 0.15185568245476189 0.37707061606136422 0 0.16952276405911931 0.3912061138884545 0 0.17197644233242751 0.37002706837148541 0 0.16952276405911931 0.3912061138884545 0 0.18589276442329861 0.38606835492789338 0 0.19217836357317111 0.36996972767433872 0 0.17197644233242751 0.37002706837148541 0 0.18589276442329861 0.38606835492789338 0 0.18589276442329861 0.38606835492789338 0 0.20289108470775991 0.38370682355227331 0 0.19700705340585539 0.39579078134538831 0 0.19217836357317111 0.36996972767433872 0 0.18589276442329861 0.38606835492789338 0 0.20289108470775991 0.38370682355227331 0 0.19700705340585539 0.39579078134538831 0 0.21316338490038089 0.39704202397260657 0 0.19877798755638451 0.41086714246249401 0 0.1843100454414533 0.40126956181167389 0 0.19700705340585539 0.39579078134538831 0 0.19877798755638451 0.41086714246249401 0 0.1843100454414533 0.40126956181167389 0 0.18589276442329861 0.38606835492789338 0 0.19700705340585539 0.39579078134538831 0 0.20289108470775991 0.38370682355227331 0 0.19700705340585539 0.39579078134538831 0 0.21316338490038089 0.39704202397260657 0 0.20931495008602691 0.36890180222237801 0 0.20289108470775991 0.38370682355227331 0 0.21961872799640589 0.38146559318592133 0 0.20289108470775991 0.38370682355227331 0 0.21316338490038089 0.39704202397260657 0 0.21961872799640589 0.38146559318592133 0 0.22513916990612379 0.36868200325308897 0 0.21961872799640589 0.38146559318592133 0 0.2386764282036242 0.37725286527910618 0 0.21961872799640589 0.38146559318592133 0 0.22852735017452019 0.39320804083607441 0 0.2386764282036242 0.37725286527910618 0 0.21316338490038089 0.39704202397260657 0 0.21961872799640589 0.38146559318592133 0 0.22852735017452019 0.39320804083607441 0 0.21316338490038089 0.39704202397260657 0 0.22852735017452019 0.39320804083607441 0 0.22983145469658259 0.40925978250573319 0 0.21316338490038089 0.39704202397260657 0 0.22983145469658259 0.40925978250573319 0 0.22852735017452019 0.39320804083607441 0 0.2429624777480478 0.39890547698508871 0 0.22983145469658259 0.40925978250573319 0 0.2429624777480478 0.39890547698508871 0 0.2386764282036242 0.37725286527910618 0 0.22852735017452019 0.39320804083607441 0 0.2429624777480478 0.39890547698508871 0 0.2386764282036242 0.37725286527910618 0 0.2429624777480478 0.39890547698508871 0 0.2386764282036242 0.37725286527910618 0 0.25341304662754638 0.38974012394171498 0 0.2386764282036242 0.37725286527910618 0 0.25383912625151372 0.37755129754335942 0 0.25341304662754638 0.38974012394171498 0 0.24649952449278431 0.42147754103885982 0 0.22996656543308741 0.44177288309861867 0 0.24946733303660301 0.43176723098649622 0 0.24649952449278431 0.42147754103885982 0 0.22996656543308741 0.44177288309861867 0 0.24649952449278431 0.42147754103885982 0 0.22738899126970491 0.42458926785457718 0 0.22996656543308741 0.44177288309861867 0 0.24946733303660301 0.43176723098649622 0 0.24649952449278431 0.42147754103885982 0 0.2429624777480478 0.39890547698508871 0 0.24649952449278431 0.42147754103885982 0 0.24649952449278431 0.42147754103885982 0 0.22983145469658259 0.40925978250573319 0 0.22738899126970491 0.42458926785457718 0 0.24649952449278431 0.42147754103885982 0 0.22983145469658259 0.40925978250573319 0 0.2429624777480478 0.39890547698508871 0 0.24649952449278431 0.42147754103885982 0 0.22983145469658259 0.40925978250573319 0 0.21316338490038089 0.39704202397260657 0 0.22983145469658259 0.40925978250573319 0 0.21370806227123909 0.41789950377956148 0 0.22983145469658259 0.40925978250573319 0 0.22738899126970491 0.42458926785457718 0 0.21370806227123909 0.41789950377956148 0 0.22738899126970491 0.42458926785457718 0 0.21739304288862979 0.43200563017257382 0 0.22996656543308741 0.44177288309861867 0 0.22738899126970491 0.42458926785457718 0 0.21739304288862979 0.43200563017257382 0 0.21370806227123909 0.41789950377956148 0 0.21739304288862979 0.43200563017257382 0 0.1999317510848099 0.43097584272053618 0 0.2111195299095035 0.44359306409302351 0 0.21739304288862979 0.43200563017257382 0 0.21370806227123909 0.41789950377956148 0 0.1999317510848099 0.43097584272053618 0 0.21370806227123909 0.41789950377956148 0 0.19877798755638451 0.41086714246249401 0 0.1999317510848099 0.43097584272053618 0 0.21316338490038089 0.39704202397260657 0 0.21370806227123909 0.41789950377956148 0 0.19877798755638451 0.41086714246249401 0 0.18469425222239219 0.42125941149134333 0 0.19877798755638451 0.41086714246249401 0 0.1999317510848099 0.43097584272053618 0 0.18469425222239219 0.42125941149134333 0 0.1843100454414533 0.40126956181167389 0 0.19877798755638451 0.41086714246249401 0 0.18469425222239219 0.42125941149134333 0 0.1999317510848099 0.43097584272053618 0 0.1809560021812836 0.43814832633623357 0 0.1999317510848099 0.43097584272053618 0 0.19479511809318301 0.4526549487178691 0 0.2111195299095035 0.44359306409302351 0 0.1999317510848099 0.43097584272053618 0 0.19479511809318301 0.4526549487178691 0 0.1809560021812836 0.43814832633623357 0 0.19479511809318301 0.4526549487178691 0 0.213169792932182 0.46047172596691099 0 0.19211155850092579 0.47790980627879082 0 0.19479511809318301 0.4526549487178691 0 0.19211155850092579 0.47790980627879082 0 0.18348770279874721 0.46143911161818069 0 0.213169792932182 0.46047172596691099 0 0.2111195299095035 0.44359306409302351 0 0.22996656543308741 0.44177288309861867 0 0.19479511809318301 0.4526549487178691 0 0.213169792932182 0.46047172596691099 0 0.2111195299095035 0.44359306409302351 0 0.21739304288862979 0.43200563017257382 0 0.2111195299095035 0.44359306409302351 0 0.22996656543308741 0.44177288309861867 0 0.22996656543308741 0.44177288309861867 0 0.22854105436186559 0.46372788353366717 0 0.24141841662185301 0.45603819576859073 0 0.213169792932182 0.46047172596691099 0 0.22854105436186559 0.46372788353366717 0 0.221321310837439 0.47674074212904899 0 0.213169792932182 0.46047172596691099 0 0.22996656543308741 0.44177288309861867 0 0.22854105436186559 0.46372788353366717 0 0.24141841662185301 0.45603819576859073 0 0.23645949407781469 0.47608243786178739 0 0.25047151807745072 0.47036873115219768 0 0.22854105436186559 0.46372788353366717 0 0.24141841662185301 0.45603819576859073 0 0.23645949407781469 0.47608243786178739 0 0.24141841662185301 0.45603819576859073 0 0.25047151807745072 0.47036873115219768 0 0.25477099823403621 0.45804476415031298 0 0.24141841662185301 0.45603819576859073 0 0.25282491994113748 0.44831200937164878 0 0.25477099823403621 0.45804476415031298 0 0.22996656543308741 0.44177288309861867 0 0.24141841662185301 0.45603819576859073 0 0.24583280085865111 0.44361242472787987 0 0.24946733303660301 0.43176723098649622 0 0.22996656543308741 0.44177288309861867 0 0.24583280085865111 0.44361242472787987 0 0.24141841662185301 0.45603819576859073 0 0.24583280085865111 0.44361242472787987 0 0.25282491994113748 0.44831200937164878 0 0.24904418528453851 0.48634810883828161 0 0.23645949407781469 0.47608243786178739 0 0.23352830384551029 0.49999999999999978 0 0.24904418528453851 0.48634810883828161 0 0.23352830384551029 0.49999999999999978 0 0.25181722630913472 0.5 0 0.24904418528453851 0.48634810883828161 0 0.23645949407781469 0.47608243786178739 0 0.25047151807745072 0.47036873115219768 0 0.23645949407781469 0.47608243786178739 0 0.221321310837439 0.47674074212904899 0 0.23352830384551029 0.49999999999999978 0 0.22854105436186559 0.46372788353366717 0 0.23645949407781469 0.47608243786178739 0 0.221321310837439 0.47674074212904899 0 0.23352830384551029 0.49999999999999978 0 0.2128199311732181 0.48895490313939532 0 0.21702906166474581 0.5 0 0.23352830384551029 0.49999999999999978 0 0.2128199311732181 0.48895490313939532 0 0.221321310837439 0.47674074212904899 0 0.23352830384551029 0.49999999999999978 0 0.2128199311732181 0.48895490313939532 0 0.2128199311732181 0.48895490313939532 0 0.21702906166474581 0.5 0 0.20052981948398141 0.49999999999999989 0 0.213169792932182 0.46047172596691099 0 0.221321310837439 0.47674074212904899 0 0.19211155850092579 0.47790980627879082 0 0.221321310837439 0.47674074212904899 0 0.2128199311732181 0.48895490313939532 0 0.19211155850092579 0.47790980627879082 0 0.2128199311732181 0.48895490313939532 0 0.19211155850092579 0.47790980627879082 0 0.2128199311732181 0.48895490313939532 0 0.20052981948398141 0.49999999999999989 0 0.19295831529489699 0.4905304616351287 0 0.2128199311732181 0.48895490313939532 0 0.19211155850092579 0.47790980627879082 0 0.19295831529489699 0.4905304616351287 0 0.20052981948398141 0.49999999999999989 0 0.1839227339461352 0.49861489743603538 0 0.20052981948398141 0.49999999999999989 0 0.19295831529489699 0.4905304616351287 0 0.1839227339461352 0.49861489743603538 0 0.19211155850092579 0.47790980627879082 0 0.19295831529489699 0.4905304616351287 0 0.1809625144841838 0.48570342190566712 0 0.1839227339461352 0.49861489743603538 0 0.1809625144841838 0.48570342190566712 0 0.16731564840828889 0.49722979487207219 0 0.1839227339461352 0.49861489743603538 0 0.16731564840828889 0.49722979487207219 0 0.1839227339461352 0.49861489743603538 0 0.1669427425872391 0.49999999999999922 0 0.16731564840828889 0.49722979487207219 0 0.19295831529489699 0.4905304616351287 0 0.1839227339461352 0.49861489743603538 0 0.1809625144841838 0.48570342190566712 0 0.1809625144841838 0.48570342190566712 0 0.16731564840828889 0.49722979487207219 0 0.16935941711846161 0.48204725214512889 0 0.16731564840828889 0.49722979487207219 0 0.157708884996551 0.48584061526662409 0 0.14611751268168829 0.49546177892012921 0 0.16731564840828889 0.49722979487207219 0 0.14611751268168829 0.49546177892012921 0 0.1669427425872391 0.49999999999999922 0 0.16731564840828889 0.49722979487207219 0 0.14611751268168829 0.49546177892012921 0 0.1669427425872391 0.49999999999999922 0 0.16731564840828889 0.49722979487207219 0 0.16731564840828889 0.49722979487207219 0 0.16935941711846161 0.48204725214512889 0 0.16731564840828889 0.49722979487207219 0 0.157708884996551 0.48584061526662409 0 0.16935941711846161 0.48204725214512889 0 0.16382575626869561 0.4735735187060508 0 0.15802571703479451 0.46684670821381258 0 0.1531189490294651 0.47544631339495541 0 0.157708884996551 0.48584061526662409 0 0.16382575626869561 0.4735735187060508 0 0.1531189490294651 0.47544631339495541 0 0.157708884996551 0.48584061526662409 0 0.16382575626869561 0.4735735187060508 0 0.16935941711846161 0.48204725214512889 0 0.16935941711846161 0.48204725214512889 0 0.17140318582863401 0.46686470941818559 0 0.16382575626869561 0.4735735187060508 0 0.16935941711846161 0.48204725214512889 0 0.17140318582863401 0.46686470941818559 0 0.1809625144841838 0.48570342190566712 0 0.16935941711846161 0.48204725214512889 0 0.17140318582863401 0.46686470941818559 0 0.19211155850092579 0.47790980627879082 0 0.1809625144841838 0.48570342190566712 0 0.17140318582863401 0.46686470941818559 0 0.19211155850092579 0.47790980627879082 0 0.17140318582863401 0.46686470941818559 0 0.19479511809318301 0.4526549487178691 0 0.18348770279874721 0.46143911161818069 0 0.17341546959919829 0.45191605883299152 0 0.19211155850092579 0.47790980627879082 0 0.18348770279874721 0.46143911161818069 0 0.17140318582863401 0.46686470941818559 0 0.18348770279874721 0.46143911161818069 0 0.17341546959919829 0.45191605883299152 0 0.17140318582863401 0.46686470941818559 0 0.17341546959919829 0.45191605883299152 0 0.17140318582863401 0.46686470941818559 0 0.19479511809318301 0.4526549487178691 0 0.1809560021812836 0.43814832633623357 0 0.17341546959919829 0.45191605883299152 0 0.1809560021812836 0.43814832633623357 0 0.17341546959919829 0.45191605883299152 0 0.16598328874466911 0.44273574664910909 0 0.17341546959919829 0.45191605883299152 0 0.16598328874466911 0.44273574664910909 0 0.15954778128093949 0.4508222386347599 0 0.16598328874466911 0.44273574664910909 0 0.15954778128093949 0.4508222386347599 0 0.1507341445198021 0.44370602134863157 0 0.16526304614212209 0.42908608809292892 0 0.16598328874466911 0.44273574664910909 0 0.1507341445198021 0.44370602134863157 0 0.16382575626869561 0.4735735187060508 0 0.1651762257979181 0.46354347419730452 0 0.17140318582863401 0.46686470941818559 0 0.1651762257979181 0.46354347419730452 0 0.17140318582863401 0.46686470941818559 0 0.17341546959919829 0.45191605883299152 0 0.1651762257979181 0.46354347419730452 0 0.17140318582863401 0.46686470941818559 0 0.17341546959919829 0.45191605883299152 0 0.15954778128093949 0.4508222386347599 0 0.1651762257979181 0.46354347419730452 0 0.15954778128093949 0.4508222386347599 0 0.1651762257979181 0.46354347419730452 0 0.1582471669695637 0.45974252444074731 0 0.16382575626869561 0.4735735187060508 0 0.1651762257979181 0.46354347419730452 0 0.15802571703479451 0.46684670821381258 0 0.1651762257979181 0.46354347419730452 0 0.1582471669695637 0.45974252444074731 0 0.15802571703479451 0.46684670821381258 0 0.14976048710833001 0.46192771033000529 0 0.1507341445198021 0.44370602134863157 0 0.136404492151351 0.45486193181106682 0 0.1582471669695637 0.45974252444074731 0 0.15802571703479451 0.46684670821381258 0 0.14976048710833001 0.46192771033000529 0 0.15802571703479451 0.46684670821381258 0 0.14976048710833001 0.46192771033000529 0 0.1531189490294651 0.47544631339495541 0 0.15954778128093949 0.4508222386347599 0 0.1582471669695637 0.45974252444074731 0 0.14976048710833001 0.46192771033000529 0 0.14976048710833001 0.46192771033000529 0 0.136404492151351 0.45486193181106682 0 0.13663143795624749 0.46910754811773492 0 0.15954778128093949 0.4508222386347599 0 0.14976048710833001 0.46192771033000529 0 0.1507341445198021 0.44370602134863157 0 0.1507341445198021 0.44370602134863157 0 0.13510526379757609 0.44116740875256688 0 0.136404492151351 0.45486193181106682 0 0.1221607865463437 0.4507156547582637 0 0.12259086230274099 0.42947812748907283 0 0.13510526379757609 0.44116740875256688 0 0.1221607865463437 0.4507156547582637 0 0.13510526379757609 0.44116740875256688 0 0.136404492151351 0.45486193181106682 0 0.136404492151351 0.45486193181106682 0 0.1267882431275838 0.46370707134437261 0 0.13663143795624749 0.46910754811773492 0 0.1221607865463437 0.4507156547582637 0 0.136404492151351 0.45486193181106682 0 0.1267882431275838 0.46370707134437261 0 0.1267882431275838 0.46370707134437261 0 0.12569724768963239 0.47617993877849962 0 0.13663143795624749 0.46910754811773492 0 0.12569724768963239 0.47617993877849962 0 0.13663143795624749 0.46910754811773492 0 0.1364132019148096 0.48384982340983701 0 0.13663143795624749 0.46910754811773492 0 0.1364132019148096 0.48384982340983701 0 0.14361111091913481 0.47574478002545789 0 0.1249193769550877 0.49369376296818718 0 0.1364132019148096 0.48384982340983701 0 0.14611751268168829 0.49546177892012921 0 0.1249193769550877 0.49369376296818718 0 0.14611751268168829 0.49546177892012921 0 0.1249193769550877 0.49369376296818718 0 0.12569724768963239 0.47617993877849962 0 0.1364132019148096 0.48384982340983701 0 0.1249193769550877 0.49369376296818718 0 0.13738437864054501 0.5 0 0.14611751268168829 0.49546177892012921 0 0.1364132019148096 0.48384982340983701 0 0.14611751268168829 0.49546177892012921 0 0.14718343377546941 0.48347361591025501 0 0.1669427425872391 0.49999999999999922 0 0.13738437864054501 0.5 0 0.14611751268168829 0.49546177892012921 0 0.157708884996551 0.48584061526662409 0 0.14611751268168829 0.49546177892012921 0 0.14718343377546941 0.48347361591025501 0 0.157708884996551 0.48584061526662409 0 0.1531189490294651 0.47544631339495541 0 0.14718343377546941 0.48347361591025501 0 0.14976048710833001 0.46192771033000529 0 0.1531189490294651 0.47544631339495541 0 0.14361111091913481 0.47574478002545789 0 0.14976048710833001 0.46192771033000529 0 0.13663143795624749 0.46910754811773492 0 0.14361111091913481 0.47574478002545789 0 0.1364132019148096 0.48384982340983701 0 0.14361111091913481 0.47574478002545789 0 0.14718343377546941 0.48347361591025501 0 0.1531189490294651 0.47544631339495541 0 0.14361111091913481 0.47574478002545789 0 0.14718343377546941 0.48347361591025501 0 0.35832214194920592 0.47929915408112939 0 0.34611268429232461 0.46591887339206078 0 0.3375369348076922 0.4829399206954248 0 0.35832214194920592 0.47929915408112939 0 0.35850557312216419 0.5 0 0.3375369348076922 0.4829399206954248 0 0.35850557312216419 0.5 0 0.37801407526051067 0.48065415083330842 0 0.38797204790529932 0.5 0 0.35832214194920592 0.47929915408112939 0 0.35850557312216419 0.5 0 0.37801407526051067 0.48065415083330842 0 0.35832214194920592 0.47929915408112939 0 0.36980735363827261 0.46050290225189661 0 0.37801407526051067 0.48065415083330842 0 0.36980735363827261 0.46050290225189661 0 0.34502769605759259 0.44546544446971242 0 0.36959298495063608 0.43610817863788948 0 0.35832214194920592 0.47929915408112939 0 0.36980735363827261 0.46050290225189661 0 0.34611268429232461 0.46591887339206078 0 0.36980735363827261 0.46050290225189661 0 0.34502769605759259 0.44546544446971242 0 0.34611268429232461 0.46591887339206078 0 0.36980735363827261 0.46050290225189661 0 0.34611268429232461 0.46591887339206078 0 0.34611268429232461 0.46591887339206078 0 0.3317687487832644 0.45597005559148451 0 0.32241801494637662 0.47133484453222518 0 0.34502769605759259 0.44546544446971242 0 0.34611268429232461 0.46591887339206078 0 0.3317687487832644 0.45597005559148451 0 0.34611268429232461 0.46591887339206078 0 0.32241801494637662 0.47133484453222518 0 0.34502769605759259 0.44546544446971242 0 0.3317687487832644 0.45597005559148451 0 0.32480939915707069 0.44218818576869201 0 0.34502769605759259 0.44546544446971242 0 0.32480939915707069 0.44218818576869201 0 0.33523501366627878 0.43221560569608392 0 0.3107318966111981 0.4514989769174147 0 0.3227404476219688 0.42624713816244092 0 0.3317687487832644 0.45597005559148451 0 0.32480939915707069 0.44218818576869201 0 0.3107318966111981 0.4514989769174147 0 0.32480939915707069 0.44218818576869201 0 0.3107318966111981 0.4514989769174147 0 0.3227404476219688 0.42624713816244092 0 0.3317687487832644 0.45597005559148451 0 0.32241801494637662 0.47133484453222518 0 0.3107318966111981 0.4514989769174147 0 0.32241801494637662 0.47133484453222518 0 0.3375369348076922 0.4829399206954248 0 0.31372501333874958 0.48784291822244708 0 0.34611268429232461 0.46591887339206078 0 0.32241801494637662 0.47133484453222518 0 0.3375369348076922 0.4829399206954248 0 0.35850557312216419 0.5 0 0.3375369348076922 0.4829399206954248 0 0.32903909833902928 0.5 0 0.32903909833902928 0.5 0 0.31372501333874958 0.48784291822244708 0 0.29957262355589431 0.5 0 0.3375369348076922 0.4829399206954248 0 0.32903909833902928 0.5 0 0.31372501333874958 0.48784291822244708 0 0.31372501333874958 0.48784291822244708 0 0.30130976803097798 0.48891801032572652 0 0.29957262355589431 0.5 0 0.31372501333874958 0.48784291822244708 0 0.30130976803097798 0.48891801032572652 0 0.29872334560042851 0.47675081567238892 0 0.30130976803097798 0.48891801032572652 0 0.29957262355589431 0.5 0 0.28978827390519868 0.49553967616935518 0 0.32241801494637662 0.47133484453222518 0 0.29872334560042851 0.47675081567238892 0 0.32241801494637662 0.47133484453222518 0 0.31372501333874958 0.48784291822244708 0 0.29872334560042851 0.47675081567238892 0 0.29872334560042851 0.47675081567238892 0 0.28397488520641462 0.48012192141307769 0 0.28978827390519868 0.49553967616935518 0 0.29872334560042851 0.47675081567238892 0 0.28929399795500932 0.47058792179259418 0 0.29703527816799058 0.46117092995693892 0 0.29872334560042851 0.47675081567238892 0 0.28929399795500932 0.47058792179259418 0 0.28397488520641462 0.48012192141307769 0 0.29872334560042851 0.47675081567238892 0 0.28397488520641462 0.48012192141307769 0 0.28929399795500932 0.47058792179259418 0 0.28397488520641462 0.48012192141307769 0 0.27920072977811172 0.47805830749059319 0 0.28397488520641462 0.48012192141307769 0 0.28978827390519868 0.49553967616935518 0 0.27010614877275918 0.50000000000000067 0 0.29957262355589431 0.5 0 0.28978827390519868 0.49553967616935518 0 0.27010614877275918 0.50000000000000067 0 0.30130976803097798 0.48891801032572652 0 0.29872334560042851 0.47675081567238892 0 0.28978827390519868 0.49553967616935518 0 0.29872334560042851 0.47675081567238892 0 0.28978827390519868 0.49553967616935518 0 0.28397488520641462 0.48012192141307769 0 0.27010614877275918 0.50000000000000067 0 0.27920072977811172 0.47805830749059319 0 0.27010614877275918 0.50000000000000067 0 0.26909437115437917 0.48384867389528768 0 0.26130641782501518 0.49139676135406141 0 0.27010614877275918 0.50000000000000067 0 0.27920072977811172 0.47805830749059319 0 0.26909437115437917 0.48384867389528768 0 0.27010614877275918 0.50000000000000067 0 0.27920072977811172 0.47805830749059319 0 0.27920072977811172 0.47805830749059319 0 0.27306774476234302 0.47644699960251641 0 0.26909437115437917 0.48384867389528768 0 0.27920072977811172 0.47805830749059319 0 0.27306774476234302 0.47644699960251641 0 0.27643472525740193 0.46726539210963169 0 0.26824582816420722 0.47348896141386071 0 0.27306774476234302 0.47644699960251641 0 0.27643472525740193 0.46726539210963169 0 0.26824582816420722 0.47348896141386071 0 0.26909437115437917 0.48384867389528768 0 0.25993240985832161 0.47939275616227872 0 0.26824582816420722 0.47348896141386071 0 0.27306774476234302 0.47644699960251641 0 0.26909437115437917 0.48384867389528768 0 0.24904418528453851 0.48634810883828161 0 0.25993240985832161 0.47939275616227872 0 0.25047151807745072 0.47036873115219768 0 0.26824582816420722 0.47348896141386071 0 0.25993240985832161 0.47939275616227872 0 0.26165523792153211 0.46576309323832682 0 0.25993240985832161 0.47939275616227872 0 0.25047151807745072 0.47036873115219768 0 0.26165523792153211 0.46576309323832682 0 0.27010614877275918 0.50000000000000067 0 0.25181722630913472 0.5 0 0.26130641782501518 0.49139676135406141 0 0.24904418528453851 0.48634810883828161 0 0.25993240985832161 0.47939275616227872 0 0.26130641782501518 0.49139676135406141 0 0.24904418528453851 0.48634810883828161 0 0.25181722630913472 0.5 0 0.26130641782501518 0.49139676135406141 0 0.26909437115437917 0.48384867389528768 0 0.25993240985832161 0.47939275616227872 0 0.26130641782501518 0.49139676135406141 0 0.26490489917960358 0.45079530358348557 0 0.25548676926057468 0.44017180441404491 0 0.26331147225899149 0.43380076267102891 0 0.24946733303660301 0.43176723098649622 0 0.24583280085865111 0.44361242472787987 0 0.25548676926057468 0.44017180441404491 0 0.24583280085865111 0.44361242472787987 0 0.25548676926057468 0.44017180441404491 0 0.25282491994113748 0.44831200937164878 0 0.26490489917960358 0.45079530358348557 0 0.25548676926057468 0.44017180441404491 0 0.25282491994113748 0.44831200937164878 0 0.26490489917960358 0.45079530358348557 0 0.25282491994113748 0.44831200937164878 0 0.25477099823403621 0.45804476415031298 0 0.25047151807745072 0.47036873115219768 0 0.25477099823403621 0.45804476415031298 0 0.26165523792153211 0.46576309323832682 0 0.26490489917960358 0.45079530358348557 0 0.25477099823403621 0.45804476415031298 0 0.26165523792153211 0.46576309323832682 0 0.26490489917960358 0.45079530358348557 0 0.27160577401557351 0.46248804296782559 0 0.27679169795675967 0.45600994403837303 0 0.26490489917960358 0.45079530358348557 0 0.26165523792153211 0.46576309323832682 0 0.27160577401557351 0.46248804296782559 0 0.26824582816420722 0.47348896141386071 0 0.27160577401557351 0.46248804296782559 0 0.27643472525740193 0.46726539210963169 0 0.26824582816420722 0.47348896141386071 0 0.26165523792153211 0.46576309323832682 0 0.27160577401557351 0.46248804296782559 0 0.27160577401557351 0.46248804296782559 0 0.27643472525740193 0.46726539210963169 0 0.27679169795675967 0.45600994403837303 0 0.27643472525740193 0.46726539210963169 0 0.27679169795675967 0.45600994403837303 0 0.28829531078346382 0.45611661498118572 0 0.27903440424894049 0.4453257315987294 0 0.26331147225899149 0.43380076267102891 0 0.26490489917960358 0.45079530358348557 0 0.27903440424894049 0.4453257315987294 0 0.26331147225899149 0.43380076267102891 0 0.26490489917960358 0.45079530358348557 0 0.27679169795675967 0.45600994403837303 0 0.27903440424894049 0.4453257315987294 0 0.27903440424894049 0.4453257315987294 0 0.2917470315179379 0.44281751567604499 0 0.28179675760275558 0.42932557237874241 0 0.27679169795675967 0.45600994403837303 0 0.27903440424894049 0.4453257315987294 0 0.28829531078346382 0.45611661498118572 0 0.27903440424894049 0.4453257315987294 0 0.2917470315179379 0.44281751567604499 0 0.28829531078346382 0.45611661498118572 0 0.2917470315179379 0.44281751567604499 0 0.28829531078346382 0.45611661498118572 0 0.29813183988985342 0.45090032042111128 0 0.27920072977811172 0.47805830749059319 0 0.27643472525740193 0.46726539210963169 0 0.28829531078346382 0.45611661498118572 0 0.28929399795500932 0.47058792179259418 0 0.27920072977811172 0.47805830749059319 0 0.28829531078346382 0.45611661498118572 0 0.27920072977811172 0.47805830749059319 0 0.28829531078346382 0.45611661498118572 0 0.28829531078346382 0.45611661498118572 0 0.29703527816799058 0.46117092995693892 0 0.29813183988985342 0.45090032042111128 0 0.28929399795500932 0.47058792179259418 0 0.28829531078346382 0.45611661498118572 0 0.29703527816799058 0.46117092995693892 0 0.29872334560042851 0.47675081567238892 0 0.29703527816799058 0.46117092995693892 0 0.3107318966111981 0.4514989769174147 0 0.29872334560042851 0.47675081567238892 0 0.3107318966111981 0.4514989769174147 0 0.32241801494637662 0.47133484453222518 0 0.29872334560042851 0.47675081567238892 0 0.3107318966111981 0.4514989769174147 0 0.29703527816799058 0.46117092995693892 0 0.29813183988985342 0.45090032042111128 0 0.3107318966111981 0.4514989769174147 0 0.30159082278473881 0.44219288247638061 0 0.3107318966111981 0.4514989769174147 0 0.30884109342504262 0.43428586920116352 0 0.2917470315179379 0.44281751567604499 0 0.30159082278473881 0.44219288247638061 0 0.29850225247966211 0.43146173016616862 0 0.2917470315179379 0.44281751567604499 0 0.30159082278473881 0.44219288247638061 0 0.29813183988985342 0.45090032042111128 0 0.30159082278473881 0.44219288247638061 0 0.29813183988985342 0.45090032042111128 0 0.3107318966111981 0.4514989769174147 0 0.30884109342504262 0.43428586920116352 0 0.29850225247966211 0.43146173016616862 0 0.30862162828234507 0.42004495563460759 0 0.29850225247966211 0.43146173016616862 0 0.30862162828234507 0.42004495563460759 0 0.29547148538100448 0.41817397575591742 0 0.30159082278473881 0.44219288247638061 0 0.30884109342504262 0.43428586920116352 0 0.29850225247966211 0.43146173016616862 0 0.30862162828234507 0.42004495563460759 0 0.30304430461131138 0.40735012112542651 0 0.3196782615082488 0.40265332564926309 0 0.30862162828234507 0.42004495563460759 0 0.30304430461131138 0.40735012112542651 0 0.29547148538100448 0.41817397575591742 0 0.30304430461131138 0.40735012112542651 0 0.29062365375375682 0.40708788978866228 0 0.29547148538100448 0.41817397575591742 0 0.29062365375375682 0.40708788978866228 0 0.29547148538100448 0.41817397575591742 0 0.28288479604298378 0.41446876034122271 0 0.29547148538100448 0.41817397575591742 0 0.28288479604298378 0.41446876034122271 0 0.28179675760275558 0.42932557237874241 0 0.29062365375375682 0.40708788978866228 0 0.28288479604298378 0.41446876034122271 0 0.28001120465417539 0.40182109974822727 0 0.29850225247966211 0.43146173016616862 0 0.29547148538100448 0.41817397575591742 0 0.28179675760275558 0.42932557237874241 0 0.2917470315179379 0.44281751567604499 0 0.29850225247966211 0.43146173016616862 0 0.28179675760275558 0.42932557237874241 0 0.28179675760275558 0.42932557237874241 0 0.27042562322166658 0.41684269204638819 0 0.26331147225899149 0.43380076267102891 0 0.27903440424894049 0.4453257315987294 0 0.28179675760275558 0.42932557237874241 0 0.26331147225899149 0.43380076267102891 0 0.27042562322166658 0.41684269204638819 0 0.26380858941988822 0.4002294757553399 0 0.28001120465417539 0.40182109974822727 0 0.28288479604298378 0.41446876034122271 0 0.28179675760275558 0.42932557237874241 0 0.27042562322166658 0.41684269204638819 0 0.28288479604298378 0.41446876034122271 0 0.27042562322166658 0.41684269204638819 0 0.28001120465417539 0.40182109974822727 0 0.24649952449278431 0.42147754103885982 0 0.25492995388566009 0.41993008507457552 0 0.26380858941988822 0.4002294757553399 0 0.27042562322166658 0.41684269204638819 0 0.25492995388566009 0.41993008507457552 0 0.26380858941988822 0.4002294757553399 0 0.24649952449278431 0.42147754103885982 0 0.26380858941988822 0.4002294757553399 0 0.2429624777480478 0.39890547698508871 0 0.24649952449278431 0.42147754103885982 0 0.26380858941988822 0.4002294757553399 0 0.24946733303660301 0.43176723098649622 0 0.24649952449278431 0.42147754103885982 0 0.26331147225899149 0.43380076267102891 0 0.24649952449278431 0.42147754103885982 0 0.25492995388566009 0.41993008507457552 0 0.26331147225899149 0.43380076267102891 0 0.24649952449278431 0.42147754103885982 0 0.26331147225899149 0.43380076267102891 0 0.27042562322166658 0.41684269204638819 0 0.25492995388566009 0.41993008507457552 0 0.26331147225899149 0.43380076267102891 0 0.24946733303660301 0.43176723098649622 0 0.25548676926057468 0.44017180441404491 0 0.26331147225899149 0.43380076267102891 0 0.26350653962281989 0.38010735630523079 0 0.25341304662754638 0.38974012394171498 0 0.26380858941988822 0.4002294757553399 0 0.26350653962281989 0.38010735630523079 0 0.25383912625151372 0.37755129754335942 0 0.25710864090743918 0.37145542319719338 0 0.26350653962281989 0.38010735630523079 0 0.25383912625151372 0.37755129754335942 0 0.25341304662754638 0.38974012394171498 0 0.2429624777480478 0.39890547698508871 0 0.25341304662754638 0.38974012394171498 0 0.26380858941988822 0.4002294757553399 0 0.26380858941988822 0.4002294757553399 0 0.28001120465417539 0.40182109974822727 0 0.28036865154730628 0.37990086281960789 0 0.26350653962281989 0.38010735630523079 0 0.28036865154730628 0.37990086281960789 0 0.2641967246118288 0.36596915937278562 0 0.26380858941988822 0.4002294757553399 0 0.28036865154730628 0.37990086281960789 0 0.26350653962281989 0.38010735630523079 0 0.26380858941988822 0.4002294757553399 0 0.28036865154730628 0.37990086281960789 0 0.28036865154730628 0.37990086281960789 0 0.29170647807930872 0.39362549197251728 0 0.2987730087010142 0.37934426936791982 0 0.28036865154730628 0.37990086281960789 0 0.29170647807930872 0.39362549197251728 0 0.28001120465417539 0.40182109974822727 0 0.28036865154730628 0.37990086281960789 0 0.29170647807930872 0.39362549197251728 0 0.29062365375375682 0.40708788978866228 0 0.28001120465417539 0.40182109974822727 0 0.29170647807930872 0.39362549197251728 0 0.30304430461131138 0.40735012112542651 0 0.29062365375375682 0.40708788978866228 0 0.29170647807930872 0.39362549197251728 0 0.30304430461131138 0.40735012112542651 0 0.30637452063024528 0.39219955594670219 0 0.3196782615082488 0.40265332564926309 0 0.30304430461131138 0.40735012112542651 0 0.29170647807930872 0.39362549197251728 0 0.30304430461131138 0.40735012112542651 0 0.29170647807930872 0.39362549197251728 0 0.30637452063024528 0.39219955594670219 0 0.30637452063024528 0.39219955594670219 0 0.2987730087010142 0.37934426936791982 0 0.31661607539452802 0.37905951313608538 0 0.29170647807930872 0.39362549197251728 0 0.30637452063024528 0.39219955594670219 0 0.2987730087010142 0.37934426936791982 0 0.31661607539452802 0.37905951313608538 0 0.32905198958534931 0.38831461949406398 0 0.3196782615082488 0.40265332564926309 0 0.31661607539452802 0.37905951313608538 0 0.32905198958534931 0.38831461949406398 0 0.33389487655237682 0.3658352592629312 0 0.32905198958534931 0.38831461949406398 0 0.34270248502322931 0.38427053755298168 0 0.33389487655237682 0.3658352592629312 0 0.32905198958534931 0.38831461949406398 0 0.34270248502322931 0.38427053755298168 0 0.33272146632259869 0.40525883785771122 0 0.34270248502322931 0.38427053755298168 0 0.33272146632259869 0.40525883785771122 0 0.34270248502322931 0.38427053755298168 0 0.33272146632259869 0.40525883785771122 0 0.34670895149724801 0.40816004440777182 0 0.31661607539452802 0.37905951313608538 0 0.3196782615082488 0.40265332564926309 0 0.32905198958534931 0.38831461949406398 0 0.33272146632259869 0.40525883785771122 0 0.3196782615082488 0.40265332564926309 0 0.30637452063024528 0.39219955594670219 0 0.31661607539452802 0.37905951313608538 0 0.3196782615082488 0.40265332564926309 0 0.3196782615082488 0.40265332564926309 0 0.3227404476219688 0.42624713816244092 0 0.30862162828234507 0.42004495563460759 0 0.3196782615082488 0.40265332564926309 0 0.3227404476219688 0.42624713816244092 0 0.33272146632259869 0.40525883785771122 0 0.3196782615082488 0.40265332564926309 0 0.3227404476219688 0.42624713816244092 0 0.33272146632259869 0.40525883785771122 0 0.3227404476219688 0.42624713816244092 0 0.32480939915707069 0.44218818576869201 0 0.3227404476219688 0.42624713816244092 0 0.3107318966111981 0.4514989769174147 0 0.30884109342504262 0.43428586920116352 0 0.3227404476219688 0.42624713816244092 0 0.32480939915707069 0.44218818576869201 0 0.3227404476219688 0.42624713816244092 0 0.33523501366627878 0.43221560569608392 0 0.30884109342504262 0.43428586920116352 0 0.30862162828234507 0.42004495563460759 0 0.3227404476219688 0.42624713816244092 0 0.34502769605759259 0.44546544446971242 0 0.33523501366627878 0.43221560569608392 0 0.34795858503051302 0.425881111768525 0 0.3227404476219688 0.42624713816244092 0 0.33523501366627878 0.43221560569608392 0 0.33659904832278342 0.4201421825902541 0 0.33523501366627878 0.43221560569608392 0 0.33659904832278342 0.4201421825902541 0 0.34795858503051302 0.425881111768525 0 0.33272146632259869 0.40525883785771122 0 0.3227404476219688 0.42624713816244092 0 0.33659904832278342 0.4201421825902541 0 0.33272146632259869 0.40525883785771122 0 0.33659904832278342 0.4201421825902541 0 0.34670895149724801 0.40816004440777182 0 0.33659904832278342 0.4201421825902541 0 0.34670895149724801 0.40816004440777182 0 0.34795858503051302 0.425881111768525 0 0.34670895149724801 0.40816004440777182 0 0.34795858503051302 0.425881111768525 0 0.36336601300371613 0.41450991002864218 0 0.34670895149724801 0.40816004440777182 0 0.36336601300371613 0.41450991002864218 0 0.35690611128064731 0.3988976866485166 0 0.34502769605759259 0.44546544446971242 0 0.34795858503051302 0.425881111768525 0 0.36959298495063608 0.43610817863788948 0 0.34795858503051302 0.425881111768525 0 0.36959298495063608 0.43610817863788948 0 0.36336601300371613 0.41450991002864218 0 0.36959298495063608 0.43610817863788948 0 0.36336601300371613 0.41450991002864218 0 0.38530342098431941 0.41064856824057122 0 0.36336601300371613 0.41450991002864218 0 0.3736470799201031 0.39378130610698531 0 0.38530342098431941 0.41064856824057122 0 0.3736470799201031 0.39378130610698531 0 0.3601059063978746 0.38125551426405008 0 0.35690611128064731 0.3988976866485166 0 0.36336601300371613 0.41450991002864218 0 0.3736470799201031 0.39378130610698531 0 0.35690611128064731 0.3988976866485166 0 0.3736470799201031 0.39378130610698531 0 0.3601059063978746 0.38125551426405008 0 0.37414389550204002 0.36898578533419818 0 0.34270248502322931 0.38427053755298168 0 0.3601059063978746 0.38125551426405008 0 0.35690611128064731 0.3988976866485166 0 0.34270248502322931 0.38427053755298168 0 0.3601059063978746 0.38125551426405008 0 0.35268350372385993 0.36328223724825232 0 0.34270248502322931 0.38427053755298168 0 0.34670895149724801 0.40816004440777182 0 0.35690611128064731 0.3988976866485166 0 0.35268350372385993 0.36328223724825232 0 0.36266452242448938 0.34229393694352239 0 0.35030182712711511 0.35130594720886232 0 0.35268350372385993 0.36328223724825232 0 0.36266452242448938 0.34229393694352239 0 0.35030182712711511 0.35130594720886232 0 0.35146565257524442 0.34420791440797271 0 0.36266452242448938 0.34229393694352239 0 0.35030182712711511 0.35130594720886232 0 0.35146565257524442 0.34420791440797271 0 0.34269927497721508 0.34493512072036142 0 0.35030182712711511 0.35130594720886232 0 0.35268350372385993 0.36328223724825232 0 0.33389487655237682 0.3658352592629312 0 0.34270248502322931 0.38427053755298168 0 0.35268350372385993 0.36328223724825232 0 0.3601059063978746 0.38125551426405008 0 0.35268350372385993 0.36328223724825232 0 0.37414389550204002 0.36898578533419818 0 0.35268350372385993 0.36328223724825232 0 0.37414389550204002 0.36898578533419818 0 0.36300645299402812 0.35604351837507042 0 0.37414389550204002 0.36898578533419818 0 0.37228166628853332 0.35471301169251829 0 0.36300645299402812 0.35604351837507042 0 0.35268350372385993 0.36328223724825232 0 0.36300645299402812 0.35604351837507042 0 0.36266452242448938 0.34229393694352239 0 0.37228166628853332 0.35471301169251829 0 0.36300645299402812 0.35604351837507042 0 0.36840829020790361 0.34668560051738673 0 0.36300645299402812 0.35604351837507042 0 0.36840829020790361 0.34668560051738673 0 0.36266452242448938 0.34229393694352239 0 0.36840829020790361 0.34668560051738673 0 0.36266452242448938 0.34229393694352239 0 0.36587418437400321 0.34278907974668538 0 0.37228166628853332 0.35471301169251829 0 0.36840829020790361 0.34668560051738673 0 0.37486749369974542 0.34694596905823039 0 0.37486749369974542 0.34694596905823039 0 0.37256750073976291 0.34304532959464751 0 0.37670219357667811 0.34177383067972761 0 0.36840829020790361 0.34668560051738673 0 0.37486749369974542 0.34694596905823039 0 0.37256750073976291 0.34304532959464751 0 0.36124897776362869 0.33531944770056321 0 0.36266452242448938 0.34229393694352239 0 0.36411885078159001 0.32644375487552563 0 0.37256750073976291 0.34304532959464751 0 0.36916640720496519 0.34145859007673351 0 0.37369311900952262 0.33836265764115908 0 0.37256750073976291 0.34304532959464751 0 0.37369311900952262 0.33836265764115908 0 0.37670219357667811 0.34177383067972761 0 0.36266452242448938 0.34229393694352239 0 0.37014896644917339 0.316543878568457 0 0.36770298492566261 0.33637877995368609 0 0.36266452242448938 0.34229393694352239 0 0.37368960646642962 0.31911015363466272 0 0.36770298492566261 0.33637877995368609 0 0.36985494237623989 0.33311962493185521 0 0.37368960646642962 0.31911015363466272 0 0.36266452242448938 0.34229393694352239 0 0.37368960646642962 0.31911015363466272 0 0.36266452242448938 0.34229393694352239 0 0.37014896644917339 0.316543878568457 0 0.36411885078159001 0.32644375487552563 0 0.36840829020790361 0.34668560051738673 0 0.36916640720496519 0.34145859007673351 0 0.36587418437400321 0.34278907974668538 0 0.36840829020790361 0.34668560051738673 0 0.37256750073976291 0.34304532959464751 0 0.36916640720496519 0.34145859007673351 0 0.36916640720496519 0.34145859007673351 0 0.36587418437400321 0.34278907974668538 0 0.36708394454210669 0.33994961910346172 0 0.36916640720496519 0.34145859007673351 0 0.37010024416019238 0.33739894816112592 0 0.36708394454210669 0.33994961910346172 0 0.36916640720496519 0.34145859007673351 0 0.37010024416019238 0.33739894816112592 0 0.37369311900952262 0.33836265764115908 0 0.36770298492566261 0.33637877995368609 0 0.37010024416019238 0.33739894816112592 0 0.36708394454210669 0.33994961910346172 0 0.37010024416019238 0.33739894816112592 0 0.37369311900952262 0.33836265764115908 0 0.3722735272100694 0.33425106354392481 0 0.3722735272100694 0.33425106354392481 0 0.37245621682226088 0.32924087979990557 0 0.375263113682131 0.33313320718557798 0 0.37369311900952262 0.33836265764115908 0 0.3722735272100694 0.33425106354392481 0 0.375263113682131 0.33313320718557798 0 0.3722735272100694 0.33425106354392481 0 0.37245621682226088 0.32924087979990557 0 0.36985494237623989 0.33311962493185521 0 0.37245621682226088 0.32924087979990557 0 0.37577016905582622 0.32787937856968757 0 0.375263113682131 0.33313320718557798 0 0.37010024416019238 0.33739894816112592 0 0.3722735272100694 0.33425106354392481 0 0.36985494237623989 0.33311962493185521 0 0.36770298492566261 0.33637877995368609 0 0.37010024416019238 0.33739894816112592 0 0.36985494237623989 0.33311962493185521 0 0.36128237795215928 0.33126347269122047 0 0.36124897776362869 0.33531944770056321 0 0.36411885078159001 0.32644375487552563 0 0.36150631125237548 0.32912422255951068 0 0.36128237795215928 0.33126347269122047 0 0.36411885078159001 0.32644375487552563 0 0.36150631125237548 0.32912422255951068 0 0.35994194411877378 0.32646204206530971 0 0.35835984371964152 0.33045614064968309 0 0.36128237795215928 0.33126347269122047 0 0.35899626180536931 0.33430086833413269 0 0.35835984371964152 0.33045614064968309 0 0.36150631125237548 0.32912422255951068 0 0.36128237795215928 0.33126347269122047 0 0.35835984371964152 0.33045614064968309 0 0.36128237795215928 0.33126347269122047 0 0.36124897776362869 0.33531944770056321 0 0.35899626180536931 0.33430086833413269 0 0.36124897776362869 0.33531944770056321 0 0.36001134864139028 0.33778823672905661 0 0.35899626180536931 0.33430086833413269 0 0.36124897776362869 0.33531944770056321 0 0.36001134864139028 0.33778823672905661 0 0.36266452242448938 0.34229393694352239 0 0.36001134864139028 0.33778823672905661 0 0.36266452242448938 0.34229393694352239 0 0.3582225103283424 0.33883319475427592 0 0.36266452242448938 0.34229393694352239 0 0.36587418437400321 0.34278907974668538 0 0.36708394454210669 0.33994961910346172 0 0.36770298492566261 0.33637877995368609 0 0.36266452242448938 0.34229393694352239 0 0.36708394454210669 0.33994961910346172 0 0.36266452242448938 0.34229393694352239 0 0.37368960646642962 0.31911015363466272 0 0.37014896644917339 0.316543878568457 0 0.37014896644917339 0.316543878568457 0 0.36604953812300478 0.31497278055865852 0 0.36630954626425261 0.31087512405144152 0 0.37499251130121058 0.31593455150060828 0 0.37014896644917339 0.316543878568457 0 0.37695808612291098 0.31120865645681561 0 0.37499251130121058 0.31593455150060828 0 0.37368960646642962 0.31911015363466272 0 0.37014896644917339 0.316543878568457 0 0.37014896644917339 0.316543878568457 0 0.36646072203027302 0.32009490443849897 0 0.3659238024377004 0.31770243144255911 0 0.37014896644917339 0.316543878568457 0 0.3659238024377004 0.31770243144255911 0 0.36604953812300478 0.31497278055865852 0 0.37245621682226088 0.32924087979990557 0 0.36985494237623989 0.33311962493185521 0 0.37368960646642962 0.31911015363466272 0 0.37245621682226088 0.32924087979990557 0 0.37368960646642962 0.31911015363466272 0 0.37506056064123422 0.32471797871916308 0 0.37245621682226088 0.32924087979990557 0 0.37577016905582622 0.32787937856968757 0 0.37506056064123422 0.32471797871916308 0 0.37014896644917339 0.316543878568457 0 0.36411885078159001 0.32644375487552563 0 0.36646072203027302 0.32009490443849897 0 0.36411885078159001 0.32644375487552563 0 0.35994194411877378 0.32646204206530971 0 0.36132202517978662 0.32303080634539388 0 0.36150631125237548 0.32912422255951068 0 0.36411885078159001 0.32644375487552563 0 0.35994194411877378 0.32646204206530971 0 0.36132202517978662 0.32303080634539388 0 0.36348301458407639 0.32047903077872458 0 0.35962675317161102 0.31893041505789499 0 0.36411885078159001 0.32644375487552563 0 0.36132202517978662 0.32303080634539388 0 0.36348301458407639 0.32047903077872458 0 0.36411885078159001 0.32644375487552563 0 0.36348301458407639 0.32047903077872458 0 0.36646072203027302 0.32009490443849897 0 0.36348301458407639 0.32047903077872458 0 0.36646072203027302 0.32009490443849897 0 0.3659238024377004 0.31770243144255911 0 0.3659238024377004 0.31770243144255911 0 0.36344593390349789 0.31667187251247519 0 0.36604953812300478 0.31497278055865852 0 0.36348301458407639 0.32047903077872458 0 0.3659238024377004 0.31770243144255911 0 0.36344593390349789 0.31667187251247519 0 0.36348301458407639 0.32047903077872458 0 0.36344593390349789 0.31667187251247519 0 0.35962675317161102 0.31893041505789499 0 0.36344593390349789 0.31667187251247519 0 0.35962675317161102 0.31893041505789499 0 0.35878641637012221 0.31305233625990619 0 0.36344593390349789 0.31667187251247519 0 0.36331333565659901 0.31283202127524651 0 0.35878641637012221 0.31305233625990619 0 0.36331333565659901 0.31283202127524651 0 0.36604953812300478 0.31497278055865852 0 0.36630954626425261 0.31087512405144152 0 0.36344593390349789 0.31667187251247519 0 0.36331333565659901 0.31283202127524651 0 0.36604953812300478 0.31497278055865852 0 0.35878641637012221 0.31305233625990619 0 0.35512602374864599 0.31718053618965047 0 0.35090510471213721 0.31152713165908658 0 0.35512602374864599 0.31718053618965047 0 0.34983435518440159 0.31943204998396652 0 0.35090510471213721 0.31152713165908658 0 0.35962675317161102 0.31893041505789499 0 0.35878641637012221 0.31305233625990619 0 0.35512602374864599 0.31718053618965047 0 0.35962675317161102 0.31893041505789499 0 0.35512602374864599 0.31718053618965047 0 0.35673455485560862 0.32229528426682241 0 0.35512602374864599 0.31718053618965047 0 0.35673455485560862 0.32229528426682241 0 0.34983435518440159 0.31943204998396652 0 0.35673455485560862 0.32229528426682241 0 0.35060422568955008 0.32587015674736058 0 0.34983435518440159 0.31943204998396652 0 0.35994194411877378 0.32646204206530971 0 0.36132202517978662 0.32303080634539388 0 0.35673455485560862 0.32229528426682241 0 0.36132202517978662 0.32303080634539388 0 0.35962675317161102 0.31893041505789499 0 0.35673455485560862 0.32229528426682241 0 0.35994194411877378 0.32646204206530971 0 0.35673455485560862 0.32229528426682241 0 0.35627338036128769 0.32705738058013539 0 0.35994194411877378 0.32646204206530971 0 0.35627338036128769 0.32705738058013539 0 0.35835984371964152 0.33045614064968309 0 0.35627338036128769 0.32705738058013539 0 0.35060422568955008 0.32587015674736058 0 0.35398721241228231 0.33095327650953749 0 0.35673455485560862 0.32229528426682241 0 0.35627338036128769 0.32705738058013539 0 0.35060422568955008 0.32587015674736058 0 0.35060422568955008 0.32587015674736058 0 0.34514221143703899 0.32919058107390442 0 0.34284551192874652 0.32364904383841531 0 0.35060422568955008 0.32587015674736058 0 0.34983435518440159 0.31943204998396652 0 0.34284551192874652 0.32364904383841531 0 0.34983435518440159 0.31943204998396652 0 0.34480088275632298 0.31606258733578418 0 0.35090510471213721 0.31152713165908658 0 0.34983435518440159 0.31943204998396652 0 0.34480088275632298 0.31606258733578418 0 0.34284551192874652 0.32364904383841531 0 0.35146565257524442 0.34420791440797271 0 0.36266452242448938 0.34229393694352239 0 0.35562031764263757 0.34031424282986023 0 0.35302683950207769 0.33602013814058929 0 0.35562031764263757 0.34031424282986023 0 0.35672120529774148 0.33684362974708199 0 0.35202203774268331 0.33965573310897551 0 0.35302683950207769 0.33602013814058929 0 0.35562031764263757 0.34031424282986023 0 0.35146565257524442 0.34420791440797271 0 0.35202203774268331 0.33965573310897551 0 0.35562031764263757 0.34031424282986023 0 0.36266452242448938 0.34229393694352239 0 0.35562031764263757 0.34031424282986023 0 0.3582225103283424 0.33883319475427592 0 0.35562031764263757 0.34031424282986023 0 0.3582225103283424 0.33883319475427592 0 0.35672120529774148 0.33684362974708199 0 0.36001134864139028 0.33778823672905661 0 0.3582225103283424 0.33883319475427592 0 0.35672120529774148 0.33684362974708199 0 0.36001134864139028 0.33778823672905661 0 0.35672120529774148 0.33684362974708199 0 0.35899626180536931 0.33430086833413269 0 0.35899626180536931 0.33430086833413269 0 0.35641212776078268 0.33381706902087938 0 0.35835984371964152 0.33045614064968309 0 0.35672120529774148 0.33684362974708199 0 0.35899626180536931 0.33430086833413269 0 0.35641212776078268 0.33381706902087938 0 0.35627338036128769 0.32705738058013539 0 0.35835984371964152 0.33045614064968309 0 0.35398721241228231 0.33095327650953749 0 0.35641212776078268 0.33381706902087938 0 0.35835984371964152 0.33045614064968309 0 0.35398721241228231 0.33095327650953749 0 0.35302683950207769 0.33602013814058929 0 0.35641212776078268 0.33381706902087938 0 0.35398721241228231 0.33095327650953749 0 0.35302683950207769 0.33602013814058929 0 0.35398721241228231 0.33095327650953749 0 0.34924685744035389 0.33249877391857741 0 0.35302683950207769 0.33602013814058929 0 0.35672120529774148 0.33684362974708199 0 0.35641212776078268 0.33381706902087938 0 0.35302683950207769 0.33602013814058929 0 0.34924685744035389 0.33249877391857741 0 0.34788509595764172 0.33882226599831611 0 0.35060422568955008 0.32587015674736058 0 0.34924685744035389 0.33249877391857741 0 0.34514221143703899 0.32919058107390442 0 0.35060422568955008 0.32587015674736058 0 0.35398721241228231 0.33095327650953749 0 0.34924685744035389 0.33249877391857741 0 0.34924685744035389 0.33249877391857741 0 0.34514221143703899 0.32919058107390442 0 0.34474234507332802 0.33433591834825649 0 0.34924685744035389 0.33249877391857741 0 0.34474234507332802 0.33433591834825649 0 0.34788509595764172 0.33882226599831611 0 0.34474234507332802 0.33433591834825649 0 0.34788509595764172 0.33882226599831611 0 0.34057592936449049 0.33809639891542392 0 0.35146565257524442 0.34420791440797271 0 0.34788509595764172 0.33882226599831611 0 0.34269927497721508 0.34493512072036142 0 0.35202203774268331 0.33965573310897551 0 0.35302683950207769 0.33602013814058929 0 0.34788509595764172 0.33882226599831611 0 0.35146565257524442 0.34420791440797271 0 0.35202203774268331 0.33965573310897551 0 0.34788509595764172 0.33882226599831611 0 0.34057592936449049 0.33809639891542392 0 0.33318390910610529 0.34358855052096038 0 0.34269927497721508 0.34493512072036142 0 0.34788509595764172 0.33882226599831611 0 0.34057592936449049 0.33809639891542392 0 0.34269927497721508 0.34493512072036142 0 0.34474234507332802 0.33433591834825649 0 0.34057592936449049 0.33809639891542392 0 0.33946855119551672 0.33096103471374028 0 0.34514221143703899 0.32919058107390442 0 0.34474234507332802 0.33433591834825649 0 0.33946855119551672 0.33096103471374028 0 0.34057592936449049 0.33809639891542392 0 0.33946855119551672 0.33096103471374028 0 0.33283637980140879 0.33469331179832718 0 0.33946855119551672 0.33096103471374028 0 0.33283637980140879 0.33469331179832718 0 0.33464693517381472 0.32630086361949601 0 0.33283637980140879 0.33469331179832718 0 0.33464693517381472 0.32630086361949601 0 0.3250964778074269 0.32978689602061512 0 0.34057592936449049 0.33809639891542392 0 0.33283637980140879 0.33469331179832718 0 0.33318390910610529 0.34358855052096038 0 0.33283637980140879 0.33469331179832718 0 0.33318390910610529 0.34358855052096038 0 0.32611481079287369 0.33974729713420021 0 0.34480088275632298 0.31606258733578418 0 0.33769186663180051 0.31814262317354819 0 0.34192449374142192 0.30753297203612773 0 0.34480088275632298 0.31606258733578418 0 0.33769186663180051 0.31814262317354819 0 0.34284551192874652 0.32364904383841531 0 0.33946855119551672 0.33096103471374028 0 0.34284551192874652 0.32364904383841531 0 0.33464693517381472 0.32630086361949601 0 0.33769186663180051 0.31814262317354819 0 0.34284551192874652 0.32364904383841531 0 0.33464693517381472 0.32630086361949601 0 0.34514221143703899 0.32919058107390442 0 0.33946855119551672 0.33096103471374028 0 0.34284551192874652 0.32364904383841531 0 0.33769186663180051 0.31814262317354819 0 0.33464693517381472 0.32630086361949601 0 0.32994282367798861 0.32057227217232959 0 0.33464693517381472 0.32630086361949601 0 0.32994282367798861 0.32057227217232959 0 0.3250964778074269 0.32978689602061512 0 0.33769186663180051 0.31814262317354819 0 0.32994282367798861 0.32057227217232959 0 0.32867162081685902 0.31028670060733149 0 0.32176892132522322 0.32006025561378759 0 0.31440941436971798 0.31242774502049953 0 0.32867162081685902 0.31028670060733149 0 0.32994282367798861 0.32057227217232959 0 0.32176892132522322 0.32006025561378759 0 0.32867162081685902 0.31028670060733149 0 0.32176892132522322 0.32006025561378759 0 0.31484893044661 0.32778579360563193 0 0.3250964778074269 0.32978689602061512 0 0.32994282367798861 0.32057227217232959 0 0.32176892132522322 0.32006025561378759 0 0.3250964778074269 0.32978689602061512 0 0.32176892132522322 0.32006025561378759 0 0.31484893044661 0.32778579360563193 0 0.31440941436971798 0.31242774502049953 0 0.32611481079287369 0.33974729713420021 0 0.3250964778074269 0.32978689602061512 0 0.31767498628904178 0.33862919533695518 0 0.32611481079287369 0.33974729713420021 0 0.31767498628904178 0.33862919533695518 0 0.32336406622478242 0.34852958887145069 0 0.33283637980140879 0.33469331179832718 0 0.32611481079287369 0.33974729713420021 0 0.3250964778074269 0.32978689602061512 0 0.31484893044661 0.32778579360563193 0 0.31767498628904178 0.33862919533695518 0 0.30654896287530792 0.34033791233229299 0 0.31484893044661 0.32778579360563193 0 0.3250964778074269 0.32978689602061512 0 0.31767498628904178 0.33862919533695518 0 0.31767498628904178 0.33862919533695518 0 0.31315570067328902 0.3464643712977632 0 0.32336406622478242 0.34852958887145069 0 0.31315570067328902 0.3464643712977632 0 0.31355388928080707 0.35546570062290778 0 0.32336406622478242 0.34852958887145069 0 0.32336406622478242 0.34852958887145069 0 0.33442175170730049 0.35218858713626039 0 0.32437013183195901 0.3602157298059272 0 0.31355388928080707 0.35546570062290778 0 0.32336406622478242 0.34852958887145069 0 0.32437013183195901 0.3602157298059272 0 0.33318390910610529 0.34358855052096038 0 0.32611481079287369 0.33974729713420021 0 0.32336406622478242 0.34852958887145069 0 0.35030182712711511 0.35130594720886232 0 0.33442175170730049 0.35218858713626039 0 0.33389487655237682 0.3658352592629312 0 0.33318390910610529 0.34358855052096038 0 0.32336406622478242 0.34852958887145069 0 0.33442175170730049 0.35218858713626039 0 0.35030182712711511 0.35130594720886232 0 0.33442175170730049 0.35218858713626039 0 0.34269927497721508 0.34493512072036142 0 0.33318390910610529 0.34358855052096038 0 0.33442175170730049 0.35218858713626039 0 0.34269927497721508 0.34493512072036142 0 0.34270248502322931 0.38427053755298168 0 0.35268350372385993 0.36328223724825232 0 0.33389487655237682 0.3658352592629312 0 0.33442175170730049 0.35218858713626039 0 0.33389487655237682 0.3658352592629312 0 0.32437013183195901 0.3602157298059272 0 0.31661607539452802 0.37905951313608538 0 0.33389487655237682 0.3658352592629312 0 0.32437013183195901 0.3602157298059272 0 0.31661607539452802 0.37905951313608538 0 0.31355388928080707 0.35546570062290778 0 0.32437013183195901 0.3602157298059272 0 0.31661607539452802 0.37905951313608538 0 0.31355388928080707 0.35546570062290778 0 0.31661607539452802 0.37905951313608538 0 0.31355388928080707 0.35546570062290778 0 0.30541822204374358 0.36584678197342768 0 0.2987730087010142 0.37934426936791982 0 0.31661607539452802 0.37905951313608538 0 0.30541822204374358 0.36584678197342768 0 0.30541822204374358 0.36584678197342768 0 0.30393955747459928 0.35096595789874813 0 0.29215410451095353 0.36543341035917859 0 0.2987730087010142 0.37934426936791982 0 0.30541822204374358 0.36584678197342768 0 0.29215410451095353 0.36543341035917859 0 0.31315570067328902 0.3464643712977632 0 0.30393955747459928 0.35096595789874813 0 0.30654896287530792 0.34033791233229299 0 0.31315570067328902 0.3464643712977632 0 0.31355388928080707 0.35546570062290778 0 0.30393955747459928 0.35096595789874813 0 0.31355388928080707 0.35546570062290778 0 0.30541822204374358 0.36584678197342768 0 0.30393955747459928 0.35096595789874813 0 0.30393955747459928 0.35096595789874813 0 0.29215410451095353 0.36543341035917859 0 0.30393955747459928 0.35096595789874813 0 0.29720735802849829 0.34424744790442102 0 0.29027641861796738 0.35164951467646482 0 0.30393955747459928 0.35096595789874813 0 0.29720735802849829 0.34424744790442102 0 0.30654896287530792 0.34033791233229299 0 0.29720735802849829 0.34424744790442102 0 0.29027641861796738 0.35164951467646482 0 0.28998304713239348 0.34105976447064218 0 0.30393955747459928 0.35096595789874813 0 0.29027641861796738 0.35164951467646482 0 0.29215410451095353 0.36543341035917859 0 0.29027641861796738 0.35164951467646482 0 0.29215410451095353 0.36543341035917859 0 0.27920137084664282 0.3573603676334649 0 0.29027641861796738 0.35164951467646482 0 0.27920137084664282 0.3573603676334649 0 0.28068773357058369 0.34198453751068081 0 0.29027641861796738 0.35164951467646482 0 0.28068773357058369 0.34198453751068081 0 0.28998304713239348 0.34105976447064218 0 0.28036865154730628 0.37990086281960789 0 0.29215410451095353 0.36543341035917859 0 0.27920137084664282 0.3573603676334649 0 0.28036865154730628 0.37990086281960789 0 0.2987730087010142 0.37934426936791982 0 0.29215410451095353 0.36543341035917859 0 0.28036865154730628 0.37990086281960789 0 0.29215410451095353 0.36543341035917859 0 0.28036865154730628 0.37990086281960789 0 0.27920137084664282 0.3573603676334649 0 0.26173146881309822 0.35734024057335978 0 0.28036865154730628 0.37990086281960789 0 0.26173146881309822 0.35734024057335978 0 0.28036865154730628 0.37990086281960789 0 0.26173146881309822 0.35734024057335978 0 0.2641967246118288 0.36596915937278562 0 0.27920137084664282 0.3573603676334649 0 0.27030047393074008 0.3474963096498429 0 0.26173146881309822 0.35734024057335978 0 0.27920137084664282 0.3573603676334649 0 0.27030047393074008 0.3474963096498429 0 0.28068773357058369 0.34198453751068081 0 0.2430942860788903 0.33477961832711151 0 0.26173146881309822 0.35734024057335978 0 0.27030047393074008 0.3474963096498429 0 0.26173146881309822 0.35734024057335978 0 0.26240083601839698 0.33727672217147331 0 0.23816107804029091 0.35120524212074949 0 0.26173146881309822 0.35734024057335978 0 0.2641967246118288 0.36596915937278562 0 0.23816107804029091 0.35120524212074949 0 0.2641967246118288 0.36596915937278562 0 0.2492643002430574 0.365916522193315 0 0.24311907173897271 0.36013203008567057 0 0.2641967246118288 0.36596915937278562 0 0.2492643002430574 0.365916522193315 0 0.25710864090743918 0.37145542319719338 0 0.2641967246118288 0.36596915937278562 0 0.2492643002430574 0.365916522193315 0 0.25383912625151372 0.37755129754335942 0 0.25710864090743918 0.37145542319719338 0 0.26350653962281989 0.38010735630523079 0 0.25710864090743918 0.37145542319719338 0 0.2641967246118288 0.36596915937278562 0 0.2484846271056145 0.31037308609574782 0 0.25508783524565293 0.32209220201309929 0 0.26836904206483531 0.31075971332937607 0 0.25508783524565293 0.32209220201309929 0 0.26240083601839698 0.33727672217147331 0 0.26677092012209491 0.32204036282613252 0 0.25508783524565293 0.32209220201309929 0 0.26677092012209491 0.32204036282613252 0 0.26836904206483531 0.31075971332937607 0 0.2430942860788903 0.33477961832711151 0 0.25508783524565293 0.32209220201309929 0 0.26240083601839698 0.33727672217147331 0 0.2430942860788903 0.33477961832711151 0 0.26173146881309822 0.35734024057335978 0 0.26240083601839698 0.33727672217147331 0 0.26240083601839698 0.33727672217147331 0 0.27184092000699639 0.33891315949469752 0 0.27388917516664008 0.32964775149744319 0 0.26240083601839698 0.33727672217147331 0 0.27388917516664008 0.32964775149744319 0 0.26677092012209491 0.32204036282613252 0 0.27030047393074008 0.3474963096498429 0 0.26240083601839698 0.33727672217147331 0 0.27184092000699639 0.33891315949469752 0 0.27030047393074008 0.3474963096498429 0 0.27184092000699639 0.33891315949469752 0 0.28068773357058369 0.34198453751068081 0 0.27184092000699639 0.33891315949469752 0 0.28068773357058369 0.34198453751068081 0 0.27388917516664008 0.32964775149744319 0 0.28068773357058369 0.34198453751068081 0 0.27388917516664008 0.32964775149744319 0 0.28570907475377572 0.33188311037056872 0 0.27388917516664008 0.32964775149744319 0 0.26677092012209491 0.32204036282613252 0 0.28178409254690689 0.31684790712797722 0 0.27388917516664008 0.32964775149744319 0 0.28178409254690689 0.31684790712797722 0 0.28570907475377572 0.33188311037056872 0 0.26677092012209491 0.32204036282613252 0 0.28178409254690689 0.31684790712797722 0 0.26836904206483531 0.31075971332937607 0 0.28178409254690689 0.31684790712797722 0 0.29262159606390598 0.32453461147271162 0 0.29660332646403359 0.30785121346786842 0 0.28178409254690689 0.31684790712797722 0 0.29262159606390598 0.32453461147271162 0 0.28570907475377572 0.33188311037056872 0 0.28068773357058369 0.34198453751068081 0 0.28570907475377572 0.33188311037056872 0 0.28998304713239348 0.34105976447064218 0 0.29262159606390598 0.32453461147271162 0 0.28570907475377572 0.33188311037056872 0 0.29603465069114282 0.33553421189107618 0 0.29720735802849829 0.34424744790442102 0 0.29603465069114282 0.33553421189107618 0 0.28998304713239348 0.34105976447064218 0 0.28570907475377572 0.33188311037056872 0 0.29603465069114282 0.33553421189107618 0 0.28998304713239348 0.34105976447064218 0 0.29720735802849829 0.34424744790442102 0 0.29603465069114282 0.33553421189107618 0 0.30654896287530792 0.34033791233229299 0 0.29603465069114282 0.33553421189107618 0 0.30654896287530792 0.34033791233229299 0 0.30445412428221041 0.32558903425911379 0 0.29262159606390598 0.32453461147271162 0 0.29603465069114282 0.33553421189107618 0 0.30445412428221041 0.32558903425911379 0 0.31484893044661 0.32778579360563193 0 0.30654896287530792 0.34033791233229299 0 0.30445412428221041 0.32558903425911379 0 0.31767498628904178 0.33862919533695518 0 0.31315570067328902 0.3464643712977632 0 0.30654896287530792 0.34033791233229299 0 0.30445412428221041 0.32558903425911379 0 0.29660332646403359 0.30785121346786842 0 0.31440941436971798 0.31242774502049953 0 0.29262159606390598 0.32453461147271162 0 0.30445412428221041 0.32558903425911379 0 0.29660332646403359 0.30785121346786842 0 0.31484893044661 0.32778579360563193 0 0.30445412428221041 0.32558903425911379 0 0.31440941436971798 0.31242774502049953 0 0.30822946874662033 0.29998271616579031 0 0.29660332646403359 0.30785121346786842 0 0.31440941436971798 0.31242774502049953 0 0.30822946874662033 0.29998271616579031 0 0.30055108247350393 0.28416894361273021 0 0.29660332646403359 0.30785121346786842 0 0.30822946874662033 0.29998271616579031 0 0.30055108247350393 0.28416894361273021 0 0.32109763140443309 0.29547610107375327 0 0.30055108247350393 0.28416894361273021 0 0.29660332646403359 0.30785121346786842 0 0.27430616976337108 0.29100628718303567 0 0.30055108247350393 0.28416894361273021 0 0.27430616976337108 0.29100628718303567 0 0.28443506245096839 0.27205148705280008 0 0.30055108247350393 0.28416894361273021 0 0.27430616976337108 0.29100628718303567 0 0.28178409254690689 0.31684790712797722 0 0.29660332646403359 0.30785121346786842 0 0.27430616976337108 0.29100628718303567 0 0.28178409254690689 0.31684790712797722 0 0.26836904206483531 0.31075971332937607 0 0.27430616976337108 0.29100628718303567 0 0.28178409254690689 0.31684790712797722 0 0.27430616976337108 0.29100628718303567 0 0.27430616976337108 0.29100628718303567 0 0.25121587924780342 0.29702178630611242 0 0.27430616976337108 0.29100628718303567 0 0.25953152444998728 0.28294166139542631 0 0.25121587924780342 0.29702178630611242 0 0.26836904206483531 0.31075971332937607 0 0.27430616976337108 0.29100628718303567 0 0.25121587924780342 0.29702178630611242 0 0.26836904206483531 0.31075971332937607 0 0.25121587924780342 0.29702178630611242 0 0.2484846271056145 0.31037308609574782 0 0.26836904206483531 0.31075971332937607 0 0.25121587924780342 0.29702178630611242 0 0.25102838231212438 0.26850893423506528 0 0.26790857605335527 0.26889798384773289 0 0.26221447651104962 0.2479993693513689 0 0.26790857605335527 0.26889798384773289 0 0.26221447651104962 0.2479993693513689 0 0.25953152444998728 0.28294166139542631 0 0.25102838231212438 0.26850893423506528 0 0.26790857605335527 0.26889798384773289 0 0.27430616976337108 0.29100628718303567 0 0.26790857605335527 0.26889798384773289 0 0.28443506245096839 0.27205148705280008 0 0.27430616976337108 0.29100628718303567 0 0.25953152444998728 0.28294166139542631 0 0.26790857605335527 0.26889798384773289 0 0.27430616976337108 0.29100628718303567 0 0.26790857605335527 0.26889798384773289 0 0.26790857605335527 0.26889798384773289 0 0.28119448123381058 0.25405304303149878 0 0.26221447651104962 0.2479993693513689 0 0.26790857605335527 0.26889798384773289 0 0.28119448123381058 0.25405304303149878 0 0.28443506245096839 0.27205148705280008 0 0.28119448123381058 0.25405304303149878 0 0.28443506245096839 0.27205148705280008 0 0.2982150027308012 0.26213117758900317 0 0.28119448123381058 0.25405304303149878 0 0.2982150027308012 0.26213117758900317 0 0.30328699804120918 0.24394477185791469 0 0.30055108247350393 0.28416894361273021 0 0.28443506245096839 0.27205148705280008 0 0.2982150027308012 0.26213117758900317 0 0.30055108247350393 0.28416894361273021 0 0.2982150027308012 0.26213117758900317 0 0.31879452400631653 0.25919465198291952 0 0.2982150027308012 0.26213117758900317 0 0.31879452400631653 0.25919465198291952 0 0.30328699804120918 0.24394477185791469 0 0.31879452400631653 0.25919465198291952 0 0.33092809789354199 0.24744869965648561 0 0.31845456220733243 0.24449663650262579 0 0.31879452400631653 0.25919465198291952 0 0.33565265393095528 0.25675142138279861 0 0.33982225619875311 0.26765994074234428 0 0.31879452400631653 0.25919465198291952 0 0.33982225619875311 0.26765994074234428 0 0.31879452400631653 0.25919465198291952 0 0.33565265393095528 0.25675142138279861 0 0.33092809789354199 0.24744869965648561 0 0.33565265393095528 0.25675142138279861 0 0.33982225619875311 0.26765994074234428 0 0.34536281311255052 0.25941060478944128 0 0.33565265393095528 0.25675142138279861 0 0.3433555784436142 0.25004320974280247 0 0.33092809789354199 0.24744869965648561 0 0.33565265393095528 0.25675142138279861 0 0.3433555784436142 0.25004320974280247 0 0.34536281311255052 0.25941060478944128 0 0.31879452400631653 0.25919465198291952 0 0.33982225619875311 0.26765994074234428 0 0.32679599518363661 0.27733160004242491 0 0.33982225619875311 0.26765994074234428 0 0.32679599518363661 0.27733160004242491 0 0.34056182851336592 0.28206143899133118 0 0.30055108247350393 0.28416894361273021 0 0.32679599518363661 0.27733160004242491 0 0.30055108247350393 0.28416894361273021 0 0.31879452400631653 0.25919465198291952 0 0.32679599518363661 0.27733160004242491 0 0.32679599518363661 0.27733160004242491 0 0.32109763140443309 0.29547610107375327 0 0.33248404658197278 0.28876668272462419 0 0.30055108247350393 0.28416894361273021 0 0.32679599518363661 0.27733160004242491 0 0.32109763140443309 0.29547610107375327 0 0.32109763140443309 0.29547610107375327 0 0.31440941436971798 0.31242774502049953 0 0.32867162081685902 0.31028670060733149 0 0.30822946874662033 0.29998271616579031 0 0.32109763140443309 0.29547610107375327 0 0.31440941436971798 0.31242774502049953 0 0.32867162081685902 0.31028670060733149 0 0.33472549883669622 0.29791121211074773 0 0.34192449374142192 0.30753297203612773 0 0.32109763140443309 0.29547610107375327 0 0.32867162081685902 0.31028670060733149 0 0.33472549883669622 0.29791121211074773 0 0.33472549883669622 0.29791121211074773 0 0.34281583705185747 0.29966479619329672 0 0.34192449374142192 0.30753297203612773 0 0.33769186663180051 0.31814262317354819 0 0.32867162081685902 0.31028670060733149 0 0.34192449374142192 0.30753297203612773 0 0.32679599518363661 0.27733160004242491 0 0.33248404658197278 0.28876668272462419 0 0.34056182851336592 0.28206143899133118 0 0.32109763140443309 0.29547610107375327 0 0.33472549883669622 0.29791121211074773 0 0.33248404658197278 0.28876668272462419 0 0.33472549883669622 0.29791121211074773 0 0.33248404658197278 0.28876668272462419 0 0.34417327957572558 0.29277050597204329 0 0.33472549883669622 0.29791121211074773 0 0.34281583705185747 0.29966479619329672 0 0.34417327957572558 0.29277050597204329 0 0.33248404658197278 0.28876668272462419 0 0.34056182851336592 0.28206143899133118 0 0.34417327957572558 0.29277050597204329 0 0.34056182851336592 0.28206143899133118 0 0.34979868535227071 0.28728326233729501 0 0.34417327957572558 0.29277050597204329 0 0.34056182851336592 0.28206143899133118 0 0.34979868535227071 0.28728326233729501 0 0.35183199075491411 0.27966461044832719 0 0.34417327957572558 0.29277050597204329 0 0.35334053836337709 0.29410458558147129 0 0.34972900846361488 0.30172704795696642 0 0.34979868535227071 0.28728326233729501 0 0.34417327957572558 0.29277050597204329 0 0.35334053836337709 0.29410458558147129 0 0.34979868535227071 0.28728326233729501 0 0.35334053836337709 0.29410458558147129 0 0.35722235408413222 0.28831366276426512 0 0.35334053836337709 0.29410458558147129 0 0.35826071325737319 0.3003277240158499 0 0.36091512844171192 0.29433704443458902 0 0.35334053836337709 0.29410458558147129 0 0.35722235408413222 0.28831366276426512 0 0.36091512844171192 0.29433704443458902 0 0.34979868535227071 0.28728326233729501 0 0.35722235408413222 0.28831366276426512 0 0.35183199075491411 0.27966461044832719 0 0.35722235408413222 0.28831366276426512 0 0.36152496379752869 0.28359539021876212 0 0.35183199075491411 0.27966461044832719 0 0.34480088275632298 0.31606258733578418 0 0.34192449374142192 0.30753297203612773 0 0.35090510471213721 0.31152713165908658 0 0.34192449374142192 0.30753297203612773 0 0.35090510471213721 0.31152713165908658 0 0.34972900846361488 0.30172704795696642 0 0.34281583705185747 0.29966479619329672 0 0.34417327957572558 0.29277050597204329 0 0.34972900846361488 0.30172704795696642 0 0.34281583705185747 0.29966479619329672 0 0.34192449374142192 0.30753297203612773 0 0.34972900846361488 0.30172704795696642 0 0.34972900846361488 0.30172704795696642 0 0.35826071325737319 0.3003277240158499 0 0.35721607615581658 0.30656573559573969 0 0.35334053836337709 0.29410458558147129 0 0.34972900846361488 0.30172704795696642 0 0.35826071325737319 0.3003277240158499 0 0.35090510471213721 0.31152713165908658 0 0.34972900846361488 0.30172704795696642 0 0.35721607615581658 0.30656573559573969 0 0.35878641637012221 0.31305233625990619 0 0.35090510471213721 0.31152713165908658 0 0.35721607615581658 0.30656573559573969 0 0.37014896644917339 0.316543878568457 0 0.37763341047385651 0.29079382019339128 0 0.37014896644917339 0.316543878568457 0 0.37108481648816682 0.30013899891886681 0 0.36845835323010317 0.30596496181531441 0 0.37014896644917339 0.316543878568457 0 0.37763341047385651 0.29079382019339128 0 0.37695808612291098 0.31120865645681561 0 0.37014896644917339 0.316543878568457 0 0.37108481648816682 0.30013899891886681 0 0.37763341047385651 0.29079382019339128 0 0.36630954626425261 0.31087512405144152 0 0.36228941999803421 0.30896529616435242 0 0.36543096483439103 0.3064802843427199 0 0.36331333565659901 0.31283202127524651 0 0.36630954626425261 0.31087512405144152 0 0.36228941999803421 0.30896529616435242 0 0.36331333565659901 0.31283202127524651 0 0.35878641637012221 0.31305233625990619 0 0.36228941999803421 0.30896529616435242 0 0.35878641637012221 0.31305233625990619 0 0.35721607615581658 0.30656573559573969 0 0.36228941999803421 0.30896529616435242 0 0.35721607615581658 0.30656573559573969 0 0.36228941999803421 0.30896529616435242 0 0.36268018070702418 0.30398627546106088 0 0.36630954626425261 0.31087512405144152 0 0.36543096483439103 0.3064802843427199 0 0.36845835323010317 0.30596496181531441 0 0.36228941999803421 0.30896529616435242 0 0.36543096483439103 0.3064802843427199 0 0.36268018070702418 0.30398627546106088 0 0.36543096483439103 0.3064802843427199 0 0.36607900901995372 0.30349396637540749 0 0.36845835323010317 0.30596496181531441 0 0.36607900901995372 0.30349396637540749 0 0.36268018070702418 0.30398627546106088 0 0.36558719123160882 0.29969948119116269 0 0.36607900901995372 0.30349396637540749 0 0.36558719123160882 0.29969948119116269 0 0.36823835509664099 0.30133882906677939 0 0.36543096483439103 0.3064802843427199 0 0.36607900901995372 0.30349396637540749 0 0.36268018070702418 0.30398627546106088 0 0.35826071325737319 0.3003277240158499 0 0.35721607615581658 0.30656573559573969 0 0.36268018070702418 0.30398627546106088 0 0.35826071325737319 0.3003277240158499 0 0.36268018070702418 0.30398627546106088 0 0.36558719123160882 0.29969948119116269 0 0.35826071325737319 0.3003277240158499 0 0.36558719123160882 0.29969948119116269 0 0.36091512844171192 0.29433704443458902 0 0.36871223371641282 0.29817542324200702 0 0.37108481648816682 0.30013899891886681 0 0.37014933742706652 0.29575476169949788 0 0.36558719123160882 0.29969948119116269 0 0.36871223371641282 0.29817542324200702 0 0.36734652779664789 0.29411680932906442 0 0.36558719123160882 0.29969948119116269 0 0.36871223371641282 0.29817542324200702 0 0.36823835509664099 0.30133882906677939 0 0.36871223371641282 0.29817542324200702 0 0.37108481648816682 0.30013899891886681 0 0.36823835509664099 0.30133882906677939 0 0.37108481648816682 0.30013899891886681 0 0.36823835509664099 0.30133882906677939 0 0.36845835323010317 0.30596496181531441 0 0.36607900901995372 0.30349396637540749 0 0.36823835509664099 0.30133882906677939 0 0.36845835323010317 0.30596496181531441 0 0.37014896644917339 0.316543878568457 0 0.36630954626425261 0.31087512405144152 0 0.36845835323010317 0.30596496181531441 0 0.36812955944888692 0.28419813691800921 0 0.36084998839118931 0.2761252295017701 0 0.37969218042614078 0.28371066929036243 0 0.36152496379752869 0.28359539021876212 0 0.36812955944888692 0.28419813691800921 0 0.36084998839118931 0.2761252295017701 0 0.36414496955441777 0.28941104037434479 0 0.36911771796651938 0.28986917351547109 0 0.36812955944888692 0.28419813691800921 0 0.36152496379752869 0.28359539021876212 0 0.36414496955441777 0.28941104037434479 0 0.36812955944888692 0.28419813691800921 0 0.35722235408413222 0.28831366276426512 0 0.36152496379752869 0.28359539021876212 0 0.36414496955441777 0.28941104037434479 0 0.35722235408413222 0.28831366276426512 0 0.36091512844171192 0.29433704443458902 0 0.36414496955441777 0.28941104037434479 0 0.36558719123160882 0.29969948119116269 0 0.36091512844171192 0.29433704443458902 0 0.36734652779664789 0.29411680932906442 0 0.36091512844171192 0.29433704443458902 0 0.36414496955441777 0.28941104037434479 0 0.36734652779664789 0.29411680932906442 0 0.36414496955441777 0.28941104037434479 0 0.36911771796651938 0.28986917351547109 0 0.36734652779664789 0.29411680932906442 0 0.36911771796651938 0.28986917351547109 0 0.37026464520563152 0.29279186409727531 0 0.36734652779664789 0.29411680932906442 0 0.37108481648816682 0.30013899891886681 0 0.37306860395079622 0.29341917559567809 0 0.37763341047385651 0.29079382019339128 0 0.36911771796651938 0.28986917351547109 0 0.37026464520563152 0.29279186409727531 0 0.37237913536365119 0.29056320862162688 0 0.36871223371641282 0.29817542324200702 0 0.36734652779664789 0.29411680932906442 0 0.37014933742706652 0.29575476169949788 0 0.37026464520563152 0.29279186409727531 0 0.36734652779664789 0.29411680932906442 0 0.37014933742706652 0.29575476169949788 0 0.37108481648816682 0.30013899891886681 0 0.37014933742706652 0.29575476169949788 0 0.37306860395079622 0.29341917559567809 0 0.37026464520563152 0.29279186409727531 0 0.37014933742706652 0.29575476169949788 0 0.37306860395079622 0.29341917559567809 0 0.36911771796651938 0.28986917351547109 0 0.37237913536365119 0.29056320862162688 0 0.37333201972158658 0.2878654242033048 0 0.37306860395079622 0.29341917559567809 0 0.37237913536365119 0.29056320862162688 0 0.37763341047385651 0.29079382019339128 0 0.37237913536365119 0.29056320862162688 0 0.37333201972158658 0.2878654242033048 0 0.37763341047385651 0.29079382019339128 0 0.37026464520563152 0.29279186409727531 0 0.37306860395079622 0.29341917559567809 0 0.37237913536365119 0.29056320862162688 0 0.37333201972158658 0.2878654242033048 0 0.36812955944888692 0.28419813691800921 0 0.37969218042614078 0.28371066929036243 0 0.36911771796651938 0.28986917351547109 0 0.37333201972158658 0.2878654242033048 0 0.36812955944888692 0.28419813691800921 0 0.36084998839118931 0.2761252295017701 0 0.37969218042614078 0.28371066929036243 0 0.36084998839118931 0.2761252295017701 0 0.37017340450925651 0.266060206293324 0 0.3539366042426153 0.26554047293381039 0 0.36084998839118931 0.2761252295017701 0 0.38460708535355081 0.26680105137204091 0 0.36084998839118931 0.2761252295017701 0 0.37017340450925651 0.266060206293324 0 0.38460708535355081 0.26680105137204091 0 0.3539366042426153 0.26554047293381039 0 0.38129994004966872 0.25577407136566988 0 0.37169426656027921 0.24972740256563611 0 0.37017340450925651 0.266060206293324 0 0.3539366042426153 0.26554047293381039 0 0.38129994004966872 0.25577407136566988 0 0.3539366042426153 0.26554047293381039 0 0.37169426656027921 0.24972740256563611 0 0.36205361842742478 0.24882498742118489 0 0.3539366042426153 0.26554047293381039 0 0.38129994004966872 0.25577407136566988 0 0.3539366042426153 0.26554047293381039 0 0.35175757775775729 0.2532797976346674 0 0.36205361842742478 0.24882498742118489 0 0.3433555784436142 0.25004320974280247 0 0.35175757775775729 0.2532797976346674 0 0.34536281311255052 0.25941060478944128 0 0.33982225619875311 0.26765994074234428 0 0.3539366042426153 0.26554047293381039 0 0.34536281311255052 0.25941060478944128 0 0.3539366042426153 0.26554047293381039 0 0.35175757775775729 0.2532797976346674 0 0.34536281311255052 0.25941060478944128 0 0.33982225619875311 0.26765994074234428 0 0.36084998839118931 0.2761252295017701 0 0.33982225619875311 0.26765994074234428 0 0.36084998839118931 0.2761252295017701 0 0.3539366042426153 0.26554047293381039 0 0.33982225619875311 0.26765994074234428 0 0.36084998839118931 0.2761252295017701 0 0.35183199075491411 0.27966461044832719 0 0.33982225619875311 0.26765994074234428 0 0.34056182851336592 0.28206143899133118 0 0.35183199075491411 0.27966461044832719 0 0.36152496379752869 0.28359539021876212 0 0.36084998839118931 0.2761252295017701 0 0.35183199075491411 0.27966461044832719 0 0.36084998839118931 0.2761252295017701 0 0.35183199075491411 0.27966461044832719 0 0.39945440726228237 0.27350419034528239 0 0.38460708535355081 0.26680105137204091 0 0.40768566828284042 0.25774317622192677 0 0.39945440726228237 0.27350419034528239 0 0.4092682188351508 0.26816031590002881 0 0.40768566828284042 0.25774317622192677 0 0.39945440726228237 0.27350419034528239 0 0.38460708535355081 0.26680105137204091 0 0.3904751567012596 0.27530993325585928 0 0.39945440726228237 0.27350419034528239 0 0.3904751567012596 0.27530993325585928 0 0.39488150240831521 0.28173053148540511 0 0.39945440726228237 0.27350419034528239 0 0.40366985246608472 0.28285995447659418 0 0.40929088926209078 0.279020096056181 0 0.39945440726228237 0.27350419034528239 0 0.4092682188351508 0.26816031590002881 0 0.40929088926209078 0.279020096056181 0 0.39945440726228237 0.27350419034528239 0 0.39488150240831521 0.28173053148540511 0 0.40366985246608472 0.28285995447659418 0 0.38783836144724232 0.2556839199238965 0 0.38129994004966872 0.25577407136566988 0 0.40866327585672191 0.24600766979752939 0 0.38460708535355081 0.26680105137204091 0 0.40768566828284042 0.25774317622192677 0 0.38783836144724232 0.2556839199238965 0 0.40768566828284042 0.25774317622192677 0 0.40866327585672191 0.24600766979752939 0 0.38783836144724232 0.2556839199238965 0 0.38460708535355081 0.26680105137204091 0 0.40768566828284042 0.25774317622192677 0 0.38129994004966872 0.25577407136566988 0 0.40866327585672191 0.24600766979752939 0 0.38783836144724232 0.2556839199238965 0 0.38129994004966872 0.25577407136566988 0 0.38460708535355081 0.26680105137204091 0 0.38783836144724232 0.2556839199238965 0 0.38460708535355081 0.26680105137204091 0 0.38129994004966872 0.25577407136566988 0 0.37169426656027921 0.24972740256563611 0 0.38106847269238292 0.24536179082341181 0 0.37017340450925651 0.266060206293324 0 0.38129994004966872 0.25577407136566988 0 0.38460708535355081 0.26680105137204091 0 0.36084998839118931 0.2761252295017701 0 0.38460708535355081 0.26680105137204091 0 0.37969218042614078 0.28371066929036243 0 0.38460708535355081 0.26680105137204091 0 0.3904751567012596 0.27530993325585928 0 0.37969218042614078 0.28371066929036243 0 0.38460708535355081 0.26680105137204091 0 0.37969218042614078 0.28371066929036243 0 0.3904751567012596 0.27530993325585928 0 0.37969218042614078 0.28371066929036243 0 0.39488150240831521 0.28173053148540511 0 0.37969218042614078 0.28371066929036243 0 0.37763341047385651 0.29079382019339128 0 0.40259214502479168 0.29292967641552992 0 0.37763341047385651 0.29079382019339128 0 0.4027243230010164 0.30147339632314252 0 0.37969218042614078 0.28371066929036243 0 0.37763341047385651 0.29079382019339128 0 0.37333201972158658 0.2878654242033048 0 0.37969218042614078 0.28371066929036243 0 0.37763341047385651 0.29079382019339128 0 0.37763341047385651 0.29079382019339128 0 0.37695808612291098 0.31120865645681561 0 0.38599374742651271 0.30414296713942529 0 0.37763341047385651 0.29079382019339128 0 0.38599374742651271 0.30414296713942529 0 0.4027243230010164 0.30147339632314252 0 0.37695808612291098 0.31120865645681561 0 0.38599374742651271 0.30414296713942529 0 0.38754735899376969 0.31282171123814728 0 0.38599374742651271 0.30414296713942529 0 0.4027243230010164 0.30147339632314252 0 0.38754735899376969 0.31282171123814728 0 0.4027243230010164 0.30147339632314252 0 0.3956366020903157 0.32248231082130752 0 0.38754735899376969 0.31282171123814728 0 0.37969218042614078 0.28371066929036243 0 0.40259214502479168 0.29292967641552992 0 0.37969218042614078 0.28371066929036243 0 0.39488150240831521 0.28173053148540511 0 0.40259214502479168 0.29292967641552992 0 0.37763341047385651 0.29079382019339128 0 0.4027243230010164 0.30147339632314252 0 0.40259214502479168 0.29292967641552992 0 0.4027243230010164 0.30147339632314252 0 0.40259214502479168 0.29292967641552992 0 0.41139710839419091 0.29189735433941028 0 0.40259214502479168 0.29292967641552992 0 0.40366985246608472 0.28285995447659418 0 0.41139710839419091 0.29189735433941028 0 0.39488150240831521 0.28173053148540511 0 0.40259214502479168 0.29292967641552992 0 0.40366985246608472 0.28285995447659418 0 0.40366985246608472 0.28285995447659418 0 0.41139710839419091 0.29189735433941028 0 0.40929088926209078 0.279020096056181 0 0.41139710839419091 0.29189735433941028 0 0.42781523552817591 0.31215297245289481 0 0.42226183937510081 0.28327127115801121 0 0.41139710839419091 0.29189735433941028 0 0.42226183937510081 0.28327127115801121 0 0.40929088926209078 0.279020096056181 0 0.4027243230010164 0.30147339632314252 0 0.41139710839419091 0.29189735433941028 0 0.42781523552817591 0.31215297245289481 0 0.4027243230010164 0.30147339632314252 0 0.42781523552817591 0.31215297245289481 0 0.41357021602424721 0.32279281759874212 0 0.4027243230010164 0.30147339632314252 0 0.42781523552817591 0.31215297245289481 0 0.42781523552817591 0.31215297245289481 0 0.42226183937510081 0.28327127115801121 0 0.42781523552817591 0.31215297245289481 0 0.42226183937510081 0.28327127115801121 0 0.44120727567718632 0.28746005308771089 0 0.42226183937510081 0.28327127115801121 0 0.43023391716603732 0.27040224467912161 0 0.44120727567718632 0.28746005308771089 0 0.42226183937510081 0.28327127115801121 0 0.43023391716603732 0.27040224467912161 0 0.41664462513020523 0.25422696758609492 0 0.43023391716603732 0.27040224467912161 0 0.43692075095235122 0.26433370861442979 0 0.44373838257505849 0.27050131303512348 0 0.42226183937510081 0.28327127115801121 0 0.4092682188351508 0.26816031590002881 0 0.41664462513020523 0.25422696758609492 0 0.42226183937510081 0.28327127115801121 0 0.41664462513020523 0.25422696758609492 0 0.42226183937510081 0.28327127115801121 0 0.4092682188351508 0.26816031590002881 0 0.40929088926209078 0.279020096056181 0 0.40768566828284042 0.25774317622192677 0 0.41664462513020523 0.25422696758609492 0 0.40866327585672191 0.24600766979752939 0 0.40768566828284042 0.25774317622192677 0 0.41664462513020523 0.25422696758609492 0 0.4092682188351508 0.26816031590002881 0 0.40768566828284042 0.25774317622192677 0 0.41664462513020523 0.25422696758609492 0 0.42749544465446981 0.25699566217507153 0 0.45166362976964691 0.25106894999712381 0 0.43076425121212841 0.2486853010718087 0 0.41664462513020523 0.25422696758609492 0 0.42749544465446981 0.25699566217507153 0 0.43076425121212841 0.2486853010718087 0 0.43023391716603732 0.27040224467912161 0 0.41664462513020523 0.25422696758609492 0 0.42749544465446981 0.25699566217507153 0 0.41664462513020523 0.25422696758609492 0 0.43076425121212841 0.2486853010718087 0 0.42749544465446981 0.25699566217507153 0 0.43692075095235122 0.26433370861442979 0 0.44456450099631911 0.26043047377218492 0 0.43023391716603732 0.27040224467912161 0 0.42749544465446981 0.25699566217507153 0 0.43692075095235122 0.26433370861442979 0 0.42749544465446981 0.25699566217507153 0 0.45166362976964691 0.25106894999712381 0 0.42749544465446981 0.25699566217507153 0 0.44456450099631911 0.26043047377218492 0 0.45166362976964691 0.25106894999712381 0 0.43692075095235122 0.26433370861442979 0 0.44456450099631911 0.26043047377218492 0 0.44373838257505849 0.27050131303512348 0 0.44456450099631911 0.26043047377218492 0 0.44373838257505849 0.27050131303512348 0 0.45508065662597141 0.26402805921732958 0 0.44456450099631911 0.26043047377218492 0 0.45166362976964691 0.25106894999712381 0 0.45508065662597141 0.26402805921732958 0 0.44373838257505849 0.27050131303512348 0 0.45472874274978531 0.27586911806656422 0 0.44120727567718632 0.28746005308771089 0 0.43023391716603732 0.27040224467912161 0 0.44373838257505849 0.27050131303512348 0 0.44120727567718632 0.28746005308771089 0 0.44373838257505849 0.27050131303512348 0 0.45472874274978531 0.27586911806656422 0 0.45508065662597141 0.26402805921732958 0 0.45472874274978531 0.27586911806656422 0 0.46665275363318931 0.27127710252775639 0 0.46192346945889701 0.28817835066990299 0 0.45472874274978531 0.27586911806656422 0 0.46665275363318931 0.27127710252775639 0 0.45508065662597141 0.26402805921732958 0 0.45166362976964691 0.25106894999712381 0 0.46652816171208539 0.25830808769848879 0 0.47583181488482379 0.2451422378191761 0 0.45166362976964691 0.25106894999712381 0 0.45508065662597141 0.26402805921732958 0 0.46652816171208539 0.25830808769848879 0 0.46665275363318931 0.27127710252775639 0 0.45508065662597141 0.26402805921732958 0 0.46652816171208539 0.25830808769848879 0 0.46665275363318931 0.27127710252775639 0 0.46652816171208539 0.25830808769848879 0 0.48341195364679568 0.26002408893105827 0 0.46652816171208539 0.25830808769848879 0 0.48341195364679568 0.26002408893105827 0 0.47583181488482379 0.2451422378191761 0 0.46665275363318931 0.27127710252775639 0 0.48341195364679568 0.26002408893105827 0 0.48138518434246891 0.28130646820503019 0 0.46665275363318931 0.27127710252775639 0 0.48138518434246891 0.28130646820503019 0 0.46192346945889701 0.28817835066990299 0 0.5 0.26671351767664991 0 0.5 0.29421150971207138 0 0.48138518434246891 0.28130646820503019 0 0.48341195364679568 0.26002408893105827 0 0.5 0.26671351767664991 0 0.48138518434246891 0.28130646820503019 0 0.48341195364679568 0.26002408893105827 0 0.5 0.26671351767664991 0 0.50000000000000067 0.2392155256412283 0 0.5 0.29421150971207138 0 0.47556093647901088 0.30733800586058863 0 0.5 0.32170950174749302 0 0.5 0.29421150971207138 0 0.48138518434246891 0.28130646820503019 0 0.47556093647901088 0.30733800586058863 0 0.48138518434246891 0.28130646820503019 0 0.47556093647901088 0.30733800586058863 0 0.46192346945889701 0.28817835066990299 0 0.47556093647901088 0.30733800586058863 0 0.45214514511688908 0.30370412902975941 0 0.45421880844117613 0.32339126307769928 0 0.47556093647901088 0.30733800586058863 0 0.46192346945889701 0.28817835066990299 0 0.45214514511688908 0.30370412902975941 0 0.46192346945889701 0.28817835066990299 0 0.44120727567718632 0.28746005308771089 0 0.45214514511688908 0.30370412902975941 0 0.45472874274978531 0.27586911806656422 0 0.46192346945889701 0.28817835066990299 0 0.44120727567718632 0.28746005308771089 0 0.42781523552817591 0.31215297245289481 0 0.44120727567718632 0.28746005308771089 0 0.45214514511688908 0.30370412902975941 0 0.42781523552817591 0.31215297245289481 0 0.45421880844117613 0.32339126307769928 0 0.43298436918619881 0.33903622913929549 0 0.42781523552817591 0.31215297245289481 0 0.45214514511688908 0.30370412902975941 0 0.45421880844117613 0.32339126307769928 0 0.42781523552817591 0.31215297245289481 0 0.45421880844117613 0.32339126307769928 0 0.45421880844117613 0.32339126307769928 0 0.45970761232660212 0.34692044601787542 0 0.43298436918619881 0.33903622913929549 0 0.45421880844117613 0.32339126307769928 0 0.48062238135417568 0.33462955370250519 0 0.45421880844117613 0.32339126307769928 0 0.48062238135417568 0.33462955370250519 0 0.45970761232660212 0.34692044601787542 0 0.47556093647901088 0.30733800586058863 0 0.45421880844117613 0.32339126307769928 0 0.48062238135417568 0.33462955370250519 0 0.48062238135417568 0.33462955370250519 0 0.5 0.32170950174749302 0 0.5 0.34920749378291471 0 0.47556093647901088 0.30733800586058863 0 0.48062238135417568 0.33462955370250519 0 0.5 0.32170950174749302 0 0.5 0.34920749378291471 0 0.48254603458521478 0.3522402998402685 0 0.5 0.37670548581833618 0 0.48062238135417568 0.33462955370250519 0 0.5 0.34920749378291471 0 0.48254603458521478 0.3522402998402685 0 0.48254603458521478 0.3522402998402685 0 0.46972057754862501 0.36630584452178799 0 0.45970761232660212 0.34692044601787542 0 0.48062238135417568 0.33462955370250519 0 0.48254603458521478 0.3522402998402685 0 0.45970761232660212 0.34692044601787542 0 0.48254603458521478 0.3522402998402685 0 0.46972057754862501 0.36630584452178799 0 0.5 0.37670548581833618 0 0.46972057754862501 0.36630584452178799 0 0.43815350284422228 0.36591948582569622 0 0.45848938469160699 0.38276388730883248 0 0.46972057754862501 0.36630584452178799 0 0.45970761232660212 0.34692044601787542 0 0.43815350284422228 0.36591948582569622 0 0.45970761232660212 0.34692044601787542 0 0.43815350284422228 0.36591948582569622 0 0.43298436918619881 0.33903622913929549 0 0.43815350284422228 0.36591948582569622 0 0.4167242930516859 0.35972934744593471 0 0.42344095457037051 0.38268701701273461 0 0.4167242930516859 0.35972934744593471 0 0.40101385701800268 0.38518895784325291 0 0.4167242930516859 0.35972934744593471 0 0.40181680918128981 0.35947395412181382 0 0.40101385701800268 0.38518895784325291 0 0.4167242930516859 0.35972934744593471 0 0.40869055031553031 0.33881917925707022 0 0.40181680918128981 0.35947395412181382 0 0.4167242930516859 0.35972934744593471 0 0.43298436918619881 0.33903622913929549 0 0.40869055031553031 0.33881917925707022 0 0.43815350284422228 0.36591948582569622 0 0.4167242930516859 0.35972934744593471 0 0.43298436918619881 0.33903622913929549 0 0.43815350284422228 0.36591948582569622 0 0.43298436918619881 0.33903622913929549 0 0.42781523552817591 0.31215297245289481 0 0.43298436918619881 0.33903622913929549 0 0.42781523552817591 0.31215297245289481 0 0.43298436918619881 0.33903622913929549 0 0.41357021602424721 0.32279281759874212 0 0.43298436918619881 0.33903622913929549 0 0.41357021602424721 0.32279281759874212 0 0.40869055031553031 0.33881917925707022 0 0.40869055031553031 0.33881917925707022 0 0.39369601167170543 0.33564153172070438 0 0.39209274976778918 0.34814598654190299 0 0.40869055031553031 0.33881917925707022 0 0.39369601167170543 0.33564153172070438 0 0.3956366020903157 0.32248231082130752 0 0.39369601167170543 0.33564153172070438 0 0.3956366020903157 0.32248231082130752 0 0.38362385659697051 0.32926172455430031 0 0.39369601167170543 0.33564153172070438 0 0.38635485741833753 0.33883185827426582 0 0.39209274976778918 0.34814598654190299 0 0.41357021602424721 0.32279281759874212 0 0.40869055031553031 0.33881917925707022 0 0.3956366020903157 0.32248231082130752 0 0.4027243230010164 0.30147339632314252 0 0.41357021602424721 0.32279281759874212 0 0.3956366020903157 0.32248231082130752 0 0.3956366020903157 0.32248231082130752 0 0.38754735899376969 0.31282171123814728 0 0.38479800915553353 0.32074741934569512 0 0.38754735899376969 0.31282171123814728 0 0.38479800915553353 0.32074741934569512 0 0.37917338616632867 0.3168755173424983 0 0.3956366020903157 0.32248231082130752 0 0.38479800915553353 0.32074741934569512 0 0.38362385659697051 0.32926172455430031 0 0.38479800915553353 0.32074741934569512 0 0.37832625022041982 0.32264150287239662 0 0.38362385659697051 0.32926172455430031 0 0.37577016905582622 0.32787937856968757 0 0.37832625022041982 0.32264150287239662 0 0.38362385659697051 0.32926172455430031 0 0.37577016905582622 0.32787937856968757 0 0.37506056064123422 0.32471797871916308 0 0.37832625022041982 0.32264150287239662 0 0.37368960646642962 0.31911015363466272 0 0.37506056064123422 0.32471797871916308 0 0.37832625022041982 0.32264150287239662 0 0.37695808612291098 0.31120865645681561 0 0.38754735899376969 0.31282171123814728 0 0.37917338616632867 0.3168755173424983 0 0.38479800915553353 0.32074741934569512 0 0.37832625022041982 0.32264150287239662 0 0.37917338616632867 0.3168755173424983 0 0.37368960646642962 0.31911015363466272 0 0.37832625022041982 0.32264150287239662 0 0.37917338616632867 0.3168755173424983 0 0.37499251130121058 0.31593455150060828 0 0.37368960646642962 0.31911015363466272 0 0.37917338616632867 0.3168755173424983 0 0.37499251130121058 0.31593455150060828 0 0.37695808612291098 0.31120865645681561 0 0.37917338616632867 0.3168755173424983 0 0.38635485741833753 0.33883185827426582 0 0.3795813787571668 0.3363772241379393 0 0.38278029029805521 0.34473282441648212 0 0.39369601167170543 0.33564153172070438 0 0.38635485741833753 0.33883185827426582 0 0.38362385659697051 0.32926172455430031 0 0.38635485741833753 0.33883185827426582 0 0.38362385659697051 0.32926172455430031 0 0.3795813787571668 0.3363772241379393 0 0.37577016905582622 0.32787937856968757 0 0.38362385659697051 0.32926172455430031 0 0.37868435463470768 0.3315773541462857 0 0.38362385659697051 0.32926172455430031 0 0.37868435463470768 0.3315773541462857 0 0.3795813787571668 0.3363772241379393 0 0.37577016905582622 0.32787937856968757 0 0.37868435463470768 0.3315773541462857 0 0.375263113682131 0.33313320718557798 0 0.37868435463470768 0.3315773541462857 0 0.375263113682131 0.33313320718557798 0 0.3795813787571668 0.3363772241379393 0 0.37369311900952262 0.33836265764115908 0 0.3795813787571668 0.3363772241379393 0 0.37670219357667811 0.34177383067972761 0 0.3795813787571668 0.3363772241379393 0 0.37670219357667811 0.34177383067972761 0 0.38278029029805521 0.34473282441648212 0 0.37369311900952262 0.33836265764115908 0 0.375263113682131 0.33313320718557798 0 0.3795813787571668 0.3363772241379393 0 0.3809821990389497 0.35490418517770578 0 0.39056259575344082 0.36548629952090861 0 0.39209274976778918 0.34814598654190299 0 0.37486749369974542 0.34694596905823039 0 0.37670219357667811 0.34177383067972761 0 0.38278029029805521 0.34473282441648212 0 0.37486749369974542 0.34694596905823039 0 0.38278029029805521 0.34473282441648212 0 0.3809821990389497 0.35490418517770578 0 0.38278029029805521 0.34473282441648212 0 0.3809821990389497 0.35490418517770578 0 0.39209274976778918 0.34814598654190299 0 0.38635485741833753 0.33883185827426582 0 0.38278029029805521 0.34473282441648212 0 0.39209274976778918 0.34814598654190299 0 0.37228166628853332 0.35471301169251829 0 0.37486749369974542 0.34694596905823039 0 0.3809821990389497 0.35490418517770578 0 0.37414389550204002 0.36898578533419818 0 0.3809821990389497 0.35490418517770578 0 0.39056259575344082 0.36548629952090861 0 0.37414389550204002 0.36898578533419818 0 0.39056259575344082 0.36548629952090861 0 0.40101385701800268 0.38518895784325291 0 0.37414389550204002 0.36898578533419818 0 0.37228166628853332 0.35471301169251829 0 0.3809821990389497 0.35490418517770578 0 0.39056259575344082 0.36548629952090861 0 0.40181680918128981 0.35947395412181382 0 0.40101385701800268 0.38518895784325291 0 0.39056259575344082 0.36548629952090861 0 0.40181680918128981 0.35947395412181382 0 0.39209274976778918 0.34814598654190299 0 0.40869055031553031 0.33881917925707022 0 0.40181680918128981 0.35947395412181382 0 0.39209274976778918 0.34814598654190299 0 0.40101385701800268 0.38518895784325291 0 0.38530342098431941 0.41064856824057122 0 0.40101385701800268 0.38518895784325291 0 0.38530342098431941 0.41064856824057122 0 0.41521715527738928 0.40390661881175682 0 0.3736470799201031 0.39378130610698531 0 0.37414389550204002 0.36898578533419818 0 0.40101385701800268 0.38518895784325291 0 0.3736470799201031 0.39378130610698531 0 0.40101385701800268 0.38518895784325291 0 0.38530342098431941 0.41064856824057122 0 0.36959298495063608 0.43610817863788948 0 0.38530342098431941 0.41064856824057122 0 0.36959298495063608 0.43610817863788948 0 0.38530342098431941 0.41064856824057122 0 0.3889231515195431 0.43141286456833011 0 0.3889231515195431 0.43141286456833011 0 0.40362265567455102 0.42304679086704539 0 0.39942544658573009 0.43872588670818857 0 0.40362265567455102 0.42304679086704539 0 0.41248490446316177 0.43293377153942381 0 0.39942544658573009 0.43872588670818857 0 0.38530342098431941 0.41064856824057122 0 0.3889231515195431 0.43141286456833011 0 0.40362265567455102 0.42304679086704539 0 0.38530342098431941 0.41064856824057122 0 0.40362265567455102 0.42304679086704539 0 0.41521715527738928 0.40390661881175682 0 0.40362265567455102 0.42304679086704539 0 0.42233359500988371 0.42307221464191669 0 0.41521715527738928 0.40390661881175682 0 0.40362265567455102 0.42304679086704539 0 0.41248490446316177 0.43293377153942381 0 0.42233359500988371 0.42307221464191669 0 0.41248490446316177 0.43293377153942381 0 0.42233359500988371 0.42307221464191669 0 0.42326813014219627 0.43909650749986368 0 0.42233359500988371 0.42307221464191669 0 0.43681876433844857 0.43497208046478802 0 0.42326813014219627 0.43909650749986368 0 0.42233359500988371 0.42307221464191669 0 0.43681876433844857 0.43497208046478802 0 0.43655617137350622 0.42038510460191503 0 0.42233359500988371 0.42307221464191669 0 0.42830887421762198 0.41018013153495869 0 0.41521715527738928 0.40390661881175682 0 0.42233359500988371 0.42307221464191669 0 0.42830887421762198 0.41018013153495869 0 0.43655617137350622 0.42038510460191503 0 0.42830887421762198 0.41018013153495869 0 0.43655617137350622 0.42038510460191503 0 0.439625884597032 0.40642404903869822 0 0.42978568865087441 0.39901034440009059 0 0.42344095457037051 0.38268701701273461 0 0.4433226365022459 0.39280274251209668 0 0.42978568865087441 0.39901034440009059 0 0.41521715527738928 0.40390661881175682 0 0.42344095457037051 0.38268701701273461 0 0.42830887421762198 0.41018013153495869 0 0.42978568865087441 0.39901034440009059 0 0.439625884597032 0.40642404903869822 0 0.42830887421762198 0.41018013153495869 0 0.42978568865087441 0.39901034440009059 0 0.41521715527738928 0.40390661881175682 0 0.4167242930516859 0.35972934744593471 0 0.40101385701800268 0.38518895784325291 0 0.42344095457037051 0.38268701701273461 0 0.40101385701800268 0.38518895784325291 0 0.41521715527738928 0.40390661881175682 0 0.42344095457037051 0.38268701701273461 0 0.43815350284422228 0.36591948582569622 0 0.42344095457037051 0.38268701701273461 0 0.4433226365022459 0.39280274251209668 0 0.43815350284422228 0.36591948582569622 0 0.4433226365022459 0.39280274251209668 0 0.43815350284422228 0.36591948582569622 0 0.4433226365022459 0.39280274251209668 0 0.45848938469160699 0.38276388730883248 0 0.4433226365022459 0.39280274251209668 0 0.4587292321942566 0.40377894109977869 0 0.44849177016026981 0.41968599919849731 0 0.4433226365022459 0.39280274251209668 0 0.44849177016026981 0.41968599919849731 0 0.42978568865087441 0.39901034440009059 0 0.4433226365022459 0.39280274251209668 0 0.439625884597032 0.40642404903869822 0 0.4433226365022459 0.39280274251209668 0 0.4587292321942566 0.40377894109977869 0 0.45848938469160699 0.38276388730883248 0 0.4587292321942566 0.40377894109977869 0 0.45848938469160699 0.38276388730883248 0 0.47720201034463561 0.39055994944820821 0 0.46972057754862501 0.36630584452178799 0 0.45848938469160699 0.38276388730883248 0 0.47720201034463561 0.39055994944820821 0 0.46972057754862501 0.36630584452178799 0 0.47720201034463561 0.39055994944820821 0 0.5 0.37670548581833618 0 0.47720201034463561 0.39055994944820821 0 0.5 0.40420347785375749 0 0.47329291580914951 0.41490179660840648 0 0.4587292321942566 0.40377894109977869 0 0.47720201034463561 0.39055994944820821 0 0.47329291580914951 0.41490179660840648 0 0.47720201034463561 0.39055994944820821 0 0.5 0.40420347785375749 0 0.5 0.37670548581833618 0 0.48546521128148462 0.42572005307568972 0 0.49999999999999828 0.43170146988917901 0 0.48502495584706629 0.44181750450007778 0 0.49999999999999828 0.43170146988917901 0 0.48502495584706629 0.44181750450007778 0 0.5 0.40420347785375749 0 0.48546521128148462 0.42572005307568972 0 0.47329291580914951 0.41490179660840648 0 0.5 0.40420347785375749 0 0.48546521128148462 0.42572005307568972 0 0.49999999999999828 0.43170146988917901 0 0.48546521128148462 0.42572005307568972 0 0.47462076711180717 0.43403653248997731 0 0.48502495584706629 0.44181750450007778 0 0.47329291580914951 0.41490179660840648 0 0.47462076711180717 0.43403653248997731 0 0.45927084092720188 0.43580976915473651 0 0.48546521128148462 0.42572005307568972 0 0.47329291580914951 0.41490179660840648 0 0.47462076711180717 0.43403653248997731 0 0.45927084092720188 0.43580976915473651 0 0.44849177016026981 0.41968599919849731 0 0.47329291580914951 0.41490179660840648 0 0.45927084092720188 0.43580976915473651 0 0.44849177016026981 0.41968599919849731 0 0.45927084092720188 0.43580976915473651 0 0.44849177016026981 0.41968599919849731 0 0.45165089640657707 0.43611575462809582 0 0.4587292321942566 0.40377894109977869 0 0.47329291580914951 0.41490179660840648 0 0.44849177016026981 0.41968599919849731 0 0.4433226365022459 0.39280274251209668 0 0.44849177016026981 0.41968599919849731 0 0.439625884597032 0.40642404903869822 0 0.43655617137350622 0.42038510460191503 0 0.44849177016026981 0.41968599919849731 0 0.439625884597032 0.40642404903869822 0 0.44849177016026981 0.41968599919849731 0 0.439625884597032 0.40642404903869822 0 0.44849177016026981 0.41968599919849731 0 0.45165089640657707 0.43611575462809582 0 0.44386952542921521 0.4295111469185629 0 0.44849177016026981 0.41968599919849731 0 0.45165089640657707 0.43611575462809582 0 0.45165089640657707 0.43611575462809582 0 0.44386952542921521 0.4295111469185629 0 0.44519082659473158 0.43782150968735878 0 0.43655617137350622 0.42038510460191503 0 0.44849177016026981 0.41968599919849731 0 0.44386952542921521 0.4295111469185629 0 0.43681876433844857 0.43497208046478802 0 0.43655617137350622 0.42038510460191503 0 0.44386952542921521 0.4295111469185629 0 0.43681876433844857 0.43497208046478802 0 0.44386952542921521 0.4295111469185629 0 0.44519082659473158 0.43782150968735878 0 0.43681876433844857 0.43497208046478802 0 0.44519082659473158 0.43782150968735878 0 0.44362096681603608 0.44566090358066651 0 0.43681876433844857 0.43497208046478802 0 0.44362096681603608 0.44566090358066651 0 0.43343701099378978 0.44857281610427868 0 0.44362096681603608 0.44566090358066651 0 0.44110505044236059 0.45564825146568327 0 0.43343701099378978 0.44857281610427868 0 0.44362096681603608 0.44566090358066651 0 0.45255374853073171 0.45216262504332899 0 0.45221828903371142 0.44335246171580328 0 0.44362096681603608 0.44566090358066651 0 0.45255374853073171 0.45216262504332899 0 0.44110505044236059 0.45564825146568327 0 0.44519082659473158 0.43782150968735878 0 0.44362096681603608 0.44566090358066651 0 0.45221828903371142 0.44335246171580328 0 0.45165089640657707 0.43611575462809582 0 0.44519082659473158 0.43782150968735878 0 0.45221828903371142 0.44335246171580328 0 0.45255374853073171 0.45216262504332899 0 0.44518446721829791 0.46873079822848901 0 0.44110505044236059 0.45564825146568327 0 0.44518446721829791 0.46873079822848901 0 0.44110505044236059 0.45564825146568327 0 0.43072905865294731 0.46311411437165317 0 0.47284597636140308 0.45611600571247141 0 0.46302896313844299 0.47272331085799019 0 0.45255374853073171 0.45216262504332899 0 0.44518446721829791 0.46873079822848901 0 0.47004991169413368 0.45193353911097589 0 0.47004991169413368 0.45193353911097589 0 0.47284597636140308 0.45611600571247141 0 0.46302896313844299 0.47272331085799019 0 0.44518446721829791 0.46873079822848901 0 0.47004991169413368 0.45193353911097589 0 0.46302896313844299 0.47272331085799019 0 0.44518446721829791 0.46873079822848901 0 0.47004991169413368 0.45193353911097589 0 0.45927084092720188 0.43580976915473651 0 0.47004991169413368 0.45193353911097589 0 0.45927084092720188 0.43580976915473651 0 0.45930684530103161 0.44617181272829648 0 0.47004991169413368 0.45193353911097589 0 0.47462076711180717 0.43403653248997731 0 0.45927084092720188 0.43580976915473651 0 0.47004991169413368 0.45193353911097589 0 0.45255374853073171 0.45216262504332899 0 0.45930684530103161 0.44617181272829648 0 0.47004991169413368 0.45193353911097589 0 0.45927084092720188 0.43580976915473651 0 0.45221828903371142 0.44335246171580328 0 0.45930684530103161 0.44617181272829648 0 0.45927084092720188 0.43580976915473651 0 0.45165089640657707 0.43611575462809582 0 0.45221828903371142 0.44335246171580328 0 0.45255374853073171 0.45216262504332899 0 0.45221828903371142 0.44335246171580328 0 0.45930684530103161 0.44617181272829648 0 0.47462076711180717 0.43403653248997731 0 0.47004991169413368 0.45193353911097589 0 0.48502495584706629 0.44181750450007778 0 0.48189680466807888 0.45106209462173341 0 0.47450081081676521 0.45331654521044668 0 0.48502495584706629 0.44181750450007778 0 0.47004991169413368 0.45193353911097589 0 0.48502495584706629 0.44181750450007778 0 0.47004991169413368 0.45193353911097589 0 0.47450081081676521 0.45331654521044668 0 0.48502495584706629 0.44181750450007778 0 0.47284597636140308 0.45611600571247141 0 0.48050552008400071 0.46757346096286262 0 0.46302896313844299 0.47272331085799019 0 0.47004991169413368 0.45193353911097589 0 0.47284597636140308 0.45611600571247141 0 0.47004991169413368 0.45193353911097589 0 0.47450081081676521 0.45331654521044668 0 0.47284597636140308 0.45611600571247141 0 0.47450081081676521 0.45331654521044668 0 0.47284597636140308 0.45611600571247141 0 0.47951191807974908 0.45654698881850991 0 0.47450081081676521 0.45331654521044668 0 0.47284597636140308 0.45611600571247141 0 0.47284597636140308 0.45611600571247141 0 0.48050552008400071 0.46757346096286262 0 0.47284597636140308 0.45611600571247141 0 0.48050552008400071 0.46757346096286262 0 0.47951191807974908 0.45654698881850991 0 0.48189680466807888 0.45106209462173341 0 0.47951191807974908 0.45654698881850991 0 0.4878104784684959 0.4546668375850359 0 0.48050552008400071 0.46757346096286262 0 0.47951191807974908 0.45654698881850991 0 0.4878104784684959 0.4546668375850359 0 0.48189680466807888 0.45106209462173341 0 0.47450081081676521 0.45331654521044668 0 0.47951191807974908 0.45654698881850991 0 0.48050552008400071 0.46757346096286262 0 0.4878104784684959 0.4546668375850359 0 0.49999999999999928 0.46182898591187349 0 0.48050552008400071 0.46757346096286262 0 0.49999999999999928 0.46182898591187349 0 0.49999999999999828 0.43170146988917901 0 0.4878104784684959 0.4546668375850359 0 0.49999999999999928 0.46182898591187349 0 0.49999999999999828 0.43170146988917901 0 0.4878104784684959 0.4546668375850359 0 0.48502495584706629 0.44181750450007778 0 0.48189680466807888 0.45106209462173341 0 0.4878104784684959 0.4546668375850359 0 0.48502495584706629 0.44181750450007778 0 0.49999999999999928 0.46182898591187349 0 0.5 0.5 0 0.49753071700976492 0.4930404390193398 0 0.5 0.5 0 0.47501141284236448 0.48698608464618232 0 0.44690499747156931 0.4999999999999995 0 0.5 0.5 0 0.49753071700976492 0.4930404390193398 0 0.47501141284236448 0.48698608464618232 0 0.49753071700976492 0.4930404390193398 0 0.48901811854688337 0.4803069499911008 0 0.47501141284236448 0.48698608464618232 0 0.49753071700976492 0.4930404390193398 0 0.48901811854688337 0.4803069499911008 0 0.48050552008400071 0.46757346096286262 0 0.49999999999999928 0.46182898591187349 0 0.48901811854688337 0.4803069499911008 0 0.49999999999999928 0.46182898591187349 0 0.49753071700976492 0.4930404390193398 0 0.48901811854688337 0.4803069499911008 0 0.48050552008400071 0.46757346096286262 0 0.48901811854688337 0.4803069499911008 0 0.48050552008400071 0.46757346096286262 0 0.46302896313844299 0.47272331085799019 0 0.48901811854688337 0.4803069499911008 0 0.47689100365292297 0.47689745161453417 0 0.47501141284236448 0.48698608464618232 0 0.48050552008400071 0.46757346096286262 0 0.47689100365292297 0.47689745161453417 0 0.46302896313844299 0.47272331085799019 0 0.48050552008400071 0.46757346096286262 0 0.48901811854688337 0.4803069499911008 0 0.47689100365292297 0.47689745161453417 0 0.47689100365292297 0.47689745161453417 0 0.47501141284236448 0.48698608464618232 0 0.46302896313844299 0.47272331085799019 0 0.47501141284236448 0.48698608464618232 0 0.45496698030500621 0.48636165542899479 0 0.44690499747156931 0.4999999999999995 0 0.47501141284236448 0.48698608464618232 0 0.45496698030500621 0.48636165542899479 0 0.46302896313844299 0.47272331085799019 0 0.45496698030500621 0.48636165542899479 0 0.46302896313844299 0.47272331085799019 0 0.46302896313844299 0.47272331085799019 0 0.43620850627812668 0.48062654530969717 0 0.44518446721829791 0.46873079822848901 0 0.46302896313844299 0.47272331085799019 0 0.43620850627812668 0.48062654530969717 0 0.45496698030500621 0.48636165542899479 0 0.46302896313844299 0.47272331085799019 0 0.43620850627812668 0.48062654530969717 0 0.45496698030500621 0.48636165542899479 0 0.44690499747156931 0.4999999999999995 0 0.43620850627812668 0.48062654530969717 0 0.45496698030500621 0.48636165542899479 0 0.44690499747156931 0.4999999999999995 0 0.42031902274246069 0.48552805734600057 0 0.41743852268843429 0.5 0 0.43620850627812668 0.48062654530969717 0 0.44690499747156931 0.4999999999999995 0 0.41743852268843429 0.5 0 0.43620850627812668 0.48062654530969717 0 0.42031902274246069 0.48552805734600057 0 0.41743852268843429 0.5 0 0.40134209412993838 0.48520307466421098 0 0.42031902274246069 0.48552805734600057 0 0.40973563488985532 0.47579104778557152 0 0.40134209412993838 0.48520307466421098 0 0.42031902274246069 0.48552805734600057 0 0.40973563488985532 0.47579104778557152 0 0.41789473538963601 0.46705380048502582 0 0.44518446721829791 0.46873079822848901 0 0.42031902274246069 0.48552805734600057 0 0.43072905865294731 0.46311411437165317 0 0.44518446721829791 0.46873079822848901 0 0.42031902274246069 0.48552805734600057 0 0.43620850627812668 0.48062654530969717 0 0.44518446721829791 0.46873079822848901 0 0.42031902274246069 0.48552805734600057 0 0.42031902274246069 0.48552805734600057 0 0.43072905865294731 0.46311411437165317 0 0.41789473538963601 0.46705380048502582 0 0.44110505044236059 0.45564825146568327 0 0.43072905865294731 0.46311411437165317 0 0.43343701099378978 0.44857281610427868 0 0.43072905865294731 0.46311411437165317 0 0.43343701099378978 0.44857281610427868 0 0.42053980660522761 0.45341513910658388 0 0.43072905865294731 0.46311411437165317 0 0.41789473538963601 0.46705380048502582 0 0.42053980660522761 0.45341513910658388 0 0.43681876433844857 0.43497208046478802 0 0.43343701099378978 0.44857281610427868 0 0.42326813014219627 0.43909650749986368 0 0.43343701099378978 0.44857281610427868 0 0.42326813014219627 0.43909650749986368 0 0.42053980660522761 0.45341513910658388 0 0.41248490446316177 0.43293377153942381 0 0.42326813014219627 0.43909650749986368 0 0.41215324011006321 0.44426916471351768 0 0.42326813014219627 0.43909650749986368 0 0.41215324011006321 0.44426916471351768 0 0.42053980660522761 0.45341513910658388 0 0.41215324011006321 0.44426916471351768 0 0.42053980660522761 0.45341513910658388 0 0.40575666434273311 0.45838443146516472 0 0.41248490446316177 0.43293377153942381 0 0.41215324011006321 0.44426916471351768 0 0.39942544658573009 0.43872588670818857 0 0.40973563488985532 0.47579104778557152 0 0.41789473538963601 0.46705380048502582 0 0.40575666434273311 0.45838443146516472 0 0.41789473538963601 0.46705380048502582 0 0.42053980660522761 0.45341513910658388 0 0.40575666434273311 0.45838443146516472 0 0.40973563488985532 0.47579104778557152 0 0.40575666434273311 0.45838443146516472 0 0.39457326129307041 0.46924519202038539 0 0.40575666434273311 0.45838443146516472 0 0.38748492612950952 0.44892285829301931 0 0.39457326129307041 0.46924519202038539 0 0.40575666434273311 0.45838443146516472 0 0.39942544658573009 0.43872588670818857 0 0.38748492612950952 0.44892285829301931 0 0.3889231515195431 0.43141286456833011 0 0.39942544658573009 0.43872588670818857 0 0.38748492612950952 0.44892285829301931 0 0.41215324011006321 0.44426916471351768 0 0.40575666434273311 0.45838443146516472 0 0.39942544658573009 0.43872588670818857 0 0.36980735363827261 0.46050290225189661 0 0.36959298495063608 0.43610817863788948 0 0.38748492612950952 0.44892285829301931 0 0.36959298495063608 0.43610817863788948 0 0.3889231515195431 0.43141286456833011 0 0.38748492612950952 0.44892285829301931 0 0.36980735363827261 0.46050290225189661 0 0.38748492612950952 0.44892285829301931 0 0.39457326129307041 0.46924519202038539 0 0.36980735363827261 0.46050290225189661 0 0.37801407526051067 0.48065415083330842 0 0.39457326129307041 0.46924519202038539 0 0.37801407526051067 0.48065415083330842 0 0.38797204790529932 0.5 0 0.40134209412993838 0.48520307466421098 0 0.41743852268843429 0.5 0 0.38797204790529932 0.5 0 0.40134209412993838 0.48520307466421098 0 0.40973563488985532 0.47579104778557152 0 0.40134209412993838 0.48520307466421098 0 0.39457326129307041 0.46924519202038539 0 0.37801407526051067 0.48065415083330842 0 0.40134209412993838 0.48520307466421098 0 0.39457326129307041 0.46924519202038539 0 0.33471388977496319 0.083869725553476451 0 0.32003772732572838 0.080925826065863432 0 0.34163206045391592 0.099703108374672819 0 0.32003772732572838 0.080925826065863432 0 0.34163206045391592 0.099703108374672819 0 0.33471388977496319 0.083869725553476451 0 0.34163206045391592 0.099703108374672819 0 0.35085433501378249 0.086695181415402722 0 0.33471388977496319 0.083869725553476451 0 0.34209731100959018 0.06531632876058778 0 0.3490795063897344 0.076610282135673974 0 0.33471388977496319 0.083869725553476451 0 0.34209731100959018 0.06531632876058778 0 0.32721969837032222 0.069259436753723466 0 0.33471388977496319 0.083869725553476451 0 0.32721969837032222 0.069259436753723466 0 0.32003772732572838 0.080925826065863432 0 0.31518448171420999 0.065085558788002928 0 0.32721969837032222 0.069259436753723466 0 0.32003772732572838 0.080925826065863432 0 0.32003772732572838 0.080925826065863432 0 0.31657863646219547 0.093324099257994786 0 0.34163206045391592 0.099703108374672819 0 0.32003772732572838 0.080925826065863432 0 0.31657863646219547 0.093324099257994786 0 0.30227411453462139 0.089652133027170247 0 0.33471388977496319 0.083869725553476451 0 0.32003772732572838 0.080925826065863432 0 0.31657863646219547 0.093324099257994786 0 0.32025759602694659 0.1047776340902011 0 0.34163206045391592 0.099703108374672819 0 0.31657863646219547 0.093324099257994786 0 0.32025759602694659 0.1047776340902011 0 0.30640852481201453 0.1024735992044304 0 0.32025759602694659 0.1047776340902011 0 0.31114536757858358 0.11742006929579971 0 0.30640852481201453 0.1024735992044304 0 0.32606950933900308 0.1158177097477945 0 0.31114536757858358 0.11742006929579971 0 0.3195478300457561 0.1332621056988223 0 0.32025759602694659 0.1047776340902011 0 0.32606950933900308 0.1158177097477945 0 0.31114536757858358 0.11742006929579971 0 0.33761965874988609 0.1186889285033586 0 0.34163206045391592 0.099703108374672819 0 0.34956654336434939 0.1234914401014125 0 0.32606950933900308 0.1158177097477945 0 0.33761965874988609 0.1186889285033586 0 0.34163206045391592 0.099703108374672819 0 0.32606950933900308 0.1158177097477945 0 0.33761965874988609 0.1186889285033586 0 0.33436770153514289 0.13112975471366969 0 0.33761965874988609 0.1186889285033586 0 0.34956654336434939 0.1234914401014125 0 0.33436770153514289 0.13112975471366969 0 0.32025759602694659 0.1047776340902011 0 0.32606950933900308 0.1158177097477945 0 0.34163206045391592 0.099703108374672819 0 0.34163206045391592 0.099703108374672819 0 0.35755874922647762 0.098360434014750309 0 0.36322639358210312 0.11848039068348271 0 0.34163206045391592 0.099703108374672819 0 0.36322639358210312 0.11848039068348271 0 0.34163206045391592 0.099703108374672819 0 0.35755874922647762 0.098360434014750309 0 0.35085433501378249 0.086695181415402722 0 0.34163206045391592 0.099703108374672819 0 0.34956654336434939 0.1234914401014125 0 0.36322639358210312 0.11848039068348271 0 0.36322639358210312 0.11848039068348271 0 0.37045299287494049 0.09679375479102828 0 0.38005682511468147 0.12140739343396729 0 0.35755874922647762 0.098360434014750309 0 0.36322639358210312 0.11848039068348271 0 0.37045299287494049 0.09679375479102828 0 0.35755874922647762 0.098360434014750309 0 0.37045299287494049 0.09679375479102828 0 0.35979627253246887 0.087956112087811941 0 0.37045299287494049 0.09679375479102828 0 0.36986657419494789 0.075759843690150083 0 0.37682589963749002 0.081332762740894418 0 0.37045299287494049 0.09679375479102828 0 0.35979627253246887 0.087956112087811941 0 0.36084916063519962 0.072180116148089279 0 0.37045299287494049 0.09679375479102828 0 0.36084916063519962 0.072180116148089279 0 0.36986657419494789 0.075759843690150083 0 0.37045299287494049 0.09679375479102828 0 0.36084916063519962 0.072180116148089279 0 0.35755874922647762 0.098360434014750309 0 0.35979627253246887 0.087956112087811941 0 0.35085433501378249 0.086695181415402722 0 0.35979627253246887 0.087956112087811941 0 0.35560274156159061 0.081403828627082772 0 0.36084916063519962 0.072180116148089279 0 0.33471388977496319 0.083869725553476451 0 0.35085433501378249 0.086695181415402722 0 0.3490795063897344 0.076610282135673974 0 0.35979627253246887 0.087956112087811941 0 0.35560274156159061 0.081403828627082772 0 0.35085433501378249 0.086695181415402722 0 0.35560274156159061 0.081403828627082772 0 0.35085433501378249 0.086695181415402722 0 0.3490795063897344 0.076610282135673974 0 0.34209731100959018 0.06531632876058778 0 0.3490795063897344 0.076610282135673974 0 0.36084916063519962 0.072180116148089279 0 0.36448270712015302 0.068442951443566186 0 0.36084916063519962 0.072180116148089279 0 0.35124532839545858 0.047566477505150237 0 0.35560274156159061 0.081403828627082772 0 0.3490795063897344 0.076610282135673974 0 0.36084916063519962 0.072180116148089279 0 0.36448270712015302 0.068442951443566186 0 0.36084916063519962 0.072180116148089279 0 0.36986657419494789 0.075759843690150083 0 0.36986657419494789 0.075759843690150083 0 0.37596532967213542 0.069868995675824025 0 0.37682589963749002 0.081332762740894418 0 0.36448270712015302 0.068442951443566186 0 0.36986657419494789 0.075759843690150083 0 0.37084641292541748 0.06878424193773866 0 0.36986657419494789 0.075759843690150083 0 0.37084641292541748 0.06878424193773866 0 0.37596532967213542 0.069868995675824025 0 0.36448270712015302 0.068442951443566186 0 0.37084641292541748 0.06878424193773866 0 0.37307104071443398 0.061065176941414383 0 0.37084641292541748 0.06878424193773866 0 0.37307104071443398 0.061065176941414383 0 0.37596532967213542 0.069868995675824025 0 0.36448270712015302 0.068442951443566186 0 0.37307104071443398 0.061065176941414383 0 0.37146335928247548 0.04052602251159599 0 0.36448270712015302 0.068442951443566186 0 0.37146335928247548 0.04052602251159599 0 0.35124532839545858 0.047566477505150237 0 0.36448270712015302 0.068442951443566186 0 0.37146335928247548 0.04052602251159599 0 0.37146335928247548 0.04052602251159599 0 0.35572529983931911 0.032753521421585163 0 0.36312657459820519 0.022962182453169309 0 0.37146335928247548 0.04052602251159599 0 0.35572529983931911 0.032753521421585163 0 0.35124532839545858 0.047566477505150237 0 0.35572529983931911 0.032753521421585163 0 0.35124532839545858 0.047566477505150237 0 0.3321968515854315 0.028027004478648001 0 0.36084916063519962 0.072180116148089279 0 0.35124532839545858 0.047566477505150237 0 0.34209731100959018 0.06531632876058778 0 0.36084916063519962 0.072180116148089279 0 0.35124532839545858 0.047566477505150237 0 0.36312657459820519 0.022962182453169309 0 0.35936362748920009 0.0091271431172253586 0 0.37844401144479839 0.012609093579625891 0 0.35936362748920009 0.0091271431172253586 0 0.37844401144479839 0.012609093579625891 0 0.36665723294200347 -0.001883505129568449 0 0.35936362748920009 0.0091271431172253586 0 0.36665723294200347 -0.001883505129568449 0 0.35531676971978082 -0.0033532784323768001 0 0.37146335928247548 0.04052602251159599 0 0.36312657459820519 0.022962182453169309 0 0.37844401144479839 0.012609093579625891 0 0.37146335928247548 0.04052602251159599 0 0.37844401144479839 0.012609093579625891 0 0.35572529983931911 0.032753521421585163 0 0.35063657493523293 0.0197951316358141 0 0.3321968515854315 0.028027004478648001 0 0.35572529983931911 0.032753521421585163 0 0.36312657459820519 0.022962182453169309 0 0.35063657493523293 0.0197951316358141 0 0.36312657459820519 0.022962182453169309 0 0.35063657493523293 0.0197951316358141 0 0.35936362748920009 0.0091271431172253586 0 0.35936362748920009 0.0091271431172253586 0 0.33689267375143878 0.0039255003288513873 0 0.35531676971978082 -0.0033532784323768001 0 0.35063657493523293 0.0197951316358141 0 0.35936362748920009 0.0091271431172253586 0 0.33689267375143878 0.0039255003288513873 0 0.33689267375143878 0.0039255003288513873 0 0.3321968515854315 0.028027004478648001 0 0.30352242257352219 0.0039185454548519476 0 0.35063657493523293 0.0197951316358141 0 0.33689267375143878 0.0039255003288513873 0 0.3321968515854315 0.028027004478648001 0 0.3321968515854315 0.028027004478648001 0 0.32406508202711942 0.05109974460068676 0 0.30086563814790429 0.035038583275740692 0 0.34209731100959018 0.06531632876058778 0 0.32721969837032222 0.069259436753723466 0 0.32406508202711942 0.05109974460068676 0 0.34209731100959018 0.06531632876058778 0 0.35124532839545858 0.047566477505150237 0 0.32406508202711942 0.05109974460068676 0 0.35124532839545858 0.047566477505150237 0 0.3321968515854315 0.028027004478648001 0 0.32406508202711942 0.05109974460068676 0 0.31518448171420999 0.065085558788002928 0 0.32721969837032222 0.069259436753723466 0 0.32406508202711942 0.05109974460068676 0 0.31518448171420999 0.065085558788002928 0 0.32406508202711942 0.05109974460068676 0 0.29882370077581188 0.062479238108283437 0 0.32406508202711942 0.05109974460068676 0 0.29882370077581188 0.062479238108283437 0 0.30086563814790429 0.035038583275740692 0 0.32406508202711942 0.05109974460068676 0 0.30086563814790429 0.035038583275740692 0 0.30086563814790429 0.035038583275740692 0 0.28350496565293731 0.043820562147367653 0 0.27766619426868899 0.018977421950794569 0 0.29882370077581188 0.062479238108283437 0 0.30086563814790429 0.035038583275740692 0 0.28350496565293731 0.043820562147367653 0 0.29882370077581188 0.062479238108283437 0 0.28350496565293731 0.043820562147367653 0 0.28339325744793759 0.061338593161917712 0 0.3321968515854315 0.028027004478648001 0 0.30086563814790429 0.035038583275740692 0 0.30352242257352219 0.0039185454548519476 0 0.30086563814790429 0.035038583275740692 0 0.27766619426868899 0.018977421950794569 0 0.30086563814790429 0.035038583275740692 0 0.30352242257352219 0.0039185454548519476 0 0.27766619426868899 0.018977421950794569 0 0.30352242257352219 0.0039185454548519476 0 0.27766619426868899 0.018977421950794569 0 0.27708695819087842 -0.0025378708656911609 0 0.27766619426868899 0.018977421950794569 0 0.25446675038947358 0.0029162606258486688 0 0.27766619426868899 0.018977421950794569 0 0.26047117107291767 -0.0019720443344692288 0 0.27708695819087842 -0.0025378708656911609 0 0.27766619426868899 0.018977421950794569 0 0.2600935707136679 0.019574361616358959 0 0.26464981823601458 0.038183209123269009 0 0.2600935707136679 0.019574361616358959 0 0.26464981823601458 0.038183209123269009 0 0.25044211127373811 0.032849993626191502 0 0.27766619426868899 0.018977421950794569 0 0.2600935707136679 0.019574361616358959 0 0.25446675038947358 0.0029162606258486688 0 0.27766619426868899 0.018977421950794569 0 0.25446675038947358 0.0029162606258486688 0 0.26047117107291767 -0.0019720443344692288 0 0.25446675038947358 0.0029162606258486688 0 0.26047117107291767 -0.0019720443344692288 0 0.28339325744793759 0.061338593161917712 0 0.2699795556074106 0.054659435659755229 0 0.26514968559830832 0.069915803624621298 0 0.28350496565293731 0.043820562147367653 0 0.28339325744793759 0.061338593161917712 0 0.2699795556074106 0.054659435659755229 0 0.28350496565293731 0.043820562147367653 0 0.27766619426868899 0.018977421950794569 0 0.26464981823601458 0.038183209123269009 0 0.28350496565293731 0.043820562147367653 0 0.2699795556074106 0.054659435659755229 0 0.26464981823601458 0.038183209123269009 0 0.26464981823601458 0.038183209123269009 0 0.25174039047255609 0.044464402284776217 0 0.2585751734657834 0.052327775232976027 0 0.26464981823601458 0.038183209123269009 0 0.25044211127373811 0.032849993626191502 0 0.25174039047255609 0.044464402284776217 0 0.25174039047255609 0.044464402284776217 0 0.25102243244437311 0.053297338652025752 0 0.2585751734657834 0.052327775232976027 0 0.2699795556074106 0.054659435659755229 0 0.26464981823601458 0.038183209123269009 0 0.2585751734657834 0.052327775232976027 0 0.2699795556074106 0.054659435659755229 0 0.2585751734657834 0.052327775232976027 0 0.26000268679747079 0.061003988239662958 0 0.2699795556074106 0.054659435659755229 0 0.26000268679747079 0.061003988239662958 0 0.26514968559830832 0.069915803624621298 0 0.2585751734657834 0.052327775232976027 0 0.26000268679747079 0.061003988239662958 0 0.2530174900015254 0.0600809219264858 0 0.25102243244437311 0.053297338652025752 0 0.2585751734657834 0.052327775232976027 0 0.2530174900015254 0.0600809219264858 0 0.24751669685985911 0.059618880130872708 0 0.25102243244437311 0.053297338652025752 0 0.2530174900015254 0.0600809219264858 0 0.24853219730195361 0.063845178725116872 0 0.2530174900015254 0.0600809219264858 0 0.25274476311700622 0.067427493409812952 0 0.2530174900015254 0.0600809219264858 0 0.25274476311700622 0.067427493409812952 0 0.26000268679747079 0.061003988239662958 0 0.2530174900015254 0.0600809219264858 0 0.25274476311700622 0.067427493409812952 0 0.25274476311700622 0.067427493409812952 0 0.25243039498113262 0.075895774732197205 0 0.24842415088314279 0.069033451464499671 0 0.25274476311700622 0.067427493409812952 0 0.25243039498113262 0.075895774732197205 0 0.25274476311700622 0.067427493409812952 0 0.25243039498113262 0.075895774732197205 0 0.26514968559830832 0.069915803624621298 0 0.25243039498113262 0.075895774732197205 0 0.26514968559830832 0.069915803624621298 0 0.26417250328098718 0.085299079350852347 0 0.25243039498113262 0.075895774732197205 0 0.26514968559830832 0.069915803624621298 0 0.26000268679747079 0.061003988239662958 0 0.25274476311700622 0.067427493409812952 0 0.26514968559830832 0.069915803624621298 0 0.25274476311700622 0.067427493409812952 0 0.26514968559830832 0.069915803624621298 0 0.25243039498113262 0.075895774732197205 0 0.26417250328098718 0.085299079350852347 0 0.25158482098595109 0.098673396421397969 0 0.25243039498113262 0.075895774732197205 0 0.25158482098595109 0.098673396421397969 0 0.26417250328098718 0.085299079350852347 0 0.27563544099652842 0.091217529053328833 0 0.26597619666038957 0.098681263799979324 0 0.26417250328098718 0.085299079350852347 0 0.27658940398852799 0.081360569412953818 0 0.27563544099652842 0.091217529053328833 0 0.26514968559830832 0.069915803624621298 0 0.26417250328098718 0.085299079350852347 0 0.27658940398852799 0.081360569412953818 0 0.27658940398852799 0.081360569412953818 0 0.27563544099652842 0.091217529053328833 0 0.28742128170162778 0.087331448045782731 0 0.28339325744793759 0.061338593161917712 0 0.26514968559830832 0.069915803624621298 0 0.29259370646201821 0.075420814845242989 0 0.26514968559830832 0.069915803624621298 0 0.27658940398852799 0.081360569412953818 0 0.29259370646201821 0.075420814845242989 0 0.28339325744793759 0.061338593161917712 0 0.26514968559830832 0.069915803624621298 0 0.26514968559830832 0.069915803624621298 0 0.29259370646201821 0.075420814845242989 0 0.29882370077581188 0.062479238108283437 0 0.28339325744793759 0.061338593161917712 0 0.29259370646201821 0.075420814845242989 0 0.27658940398852799 0.081360569412953818 0 0.29259370646201821 0.075420814845242989 0 0.28742128170162778 0.087331448045782731 0 0.27563544099652842 0.091217529053328833 0 0.28742128170162778 0.087331448045782731 0 0.29001374252644291 0.099006193890217781 0 0.28742128170162778 0.087331448045782731 0 0.30227411453462139 0.089652133027170247 0 0.29001374252644291 0.099006193890217781 0 0.29259370646201821 0.075420814845242989 0 0.28742128170162778 0.087331448045782731 0 0.30227411453462139 0.089652133027170247 0 0.32003772732572838 0.080925826065863432 0 0.29259370646201821 0.075420814845242989 0 0.30227411453462139 0.089652133027170247 0 0.32003772732572838 0.080925826065863432 0 0.29259370646201821 0.075420814845242989 0 0.32003772732572838 0.080925826065863432 0 0.29882370077581188 0.062479238108283437 0 0.29259370646201821 0.075420814845242989 0 0.32003772732572838 0.080925826065863432 0 0.29882370077581188 0.062479238108283437 0 0.31518448171420999 0.065085558788002928 0 0.32003772732572838 0.080925826065863432 0 0.29882370077581188 0.062479238108283437 0 0.29818169174329712 0.11066146566519899 0 0.31114536757858358 0.11742006929579971 0 0.294250496481684 0.12267566802032639 0 0.31114536757858358 0.11742006929579971 0 0.294250496481684 0.12267566802032639 0 0.30313841955192899 0.13260249050964579 0 0.29818169174329712 0.11066146566519899 0 0.31114536757858358 0.11742006929579971 0 0.30640852481201453 0.1024735992044304 0 0.30227411453462139 0.089652133027170247 0 0.30640852481201453 0.1024735992044304 0 0.29001374252644291 0.099006193890217781 0 0.29818169174329712 0.11066146566519899 0 0.30640852481201453 0.1024735992044304 0 0.29001374252644291 0.099006193890217781 0 0.31657863646219547 0.093324099257994786 0 0.30227411453462139 0.089652133027170247 0 0.30640852481201453 0.1024735992044304 0 0.29818169174329712 0.11066146566519899 0 0.29001374252644291 0.099006193890217781 0 0.28729541733308872 0.1128284558108848 0 0.29001374252644291 0.099006193890217781 0 0.28729541733308872 0.1128284558108848 0 0.27577858748266387 0.1072301355245756 0 0.29818169174329712 0.11066146566519899 0 0.28729541733308872 0.1128284558108848 0 0.294250496481684 0.12267566802032639 0 0.28729541733308872 0.1128284558108848 0 0.294250496481684 0.12267566802032639 0 0.28067449336876182 0.1220521091494646 0 0.28067449336876182 0.1220521091494646 0 0.26956705708048567 0.1198361090660386 0 0.27577858748266387 0.1072301355245756 0 0.28729541733308872 0.1128284558108848 0 0.28067449336876182 0.1220521091494646 0 0.27577858748266387 0.1072301355245756 0 0.26956705708048567 0.1198361090660386 0 0.27577858748266387 0.1072301355245756 0 0.26270963055581759 0.11098617864974181 0 0.27563544099652842 0.091217529053328833 0 0.27577858748266387 0.1072301355245756 0 0.26597619666038957 0.098681263799979324 0 0.27563544099652842 0.091217529053328833 0 0.29001374252644291 0.099006193890217781 0 0.27577858748266387 0.1072301355245756 0 0.27577858748266387 0.1072301355245756 0 0.26597619666038957 0.098681263799979324 0 0.26270963055581759 0.11098617864974181 0 0.25158482098595109 0.098673396421397969 0 0.25094552198087999 0.11589449234768209 0 0.25158482098595109 0.098673396421397969 0 0.26270963055581759 0.11098617864974181 0 0.25094552198087999 0.11589449234768209 0 0.26417250328098718 0.085299079350852347 0 0.26597619666038957 0.098681263799979324 0 0.25158482098595109 0.098673396421397969 0 0.26597619666038957 0.098681263799979324 0 0.25158482098595109 0.098673396421397969 0 0.26270963055581759 0.11098617864974181 0 0.25158482098595109 0.098673396421397969 0 0.26270963055581759 0.11098617864974181 0 0.25094552198087999 0.11589449234768209 0 0.25030622297580962 0.13311558827396619 0 0.26022612795132161 0.12333036834530881 0 0.25094552198087999 0.11589449234768209 0 0.25030622297580962 0.13311558827396619 0 0.26956705708048567 0.1198361090660386 0 0.26022612795132161 0.12333036834530881 0 0.26270963055581759 0.11098617864974181 0 0.26022612795132161 0.12333036834530881 0 0.26270963055581759 0.11098617864974181 0 0.25094552198087999 0.11589449234768209 0 0.26956705708048567 0.1198361090660386 0 0.26022612795132161 0.12333036834530881 0 0.26675796828336718 0.1380571931171293 0 0.26022612795132161 0.12333036834530881 0 0.25030622297580962 0.13311558827396619 0 0.26675796828336718 0.1380571931171293 0 0.25030622297580962 0.13311558827396619 0 0.26675796828336718 0.1380571931171293 0 0.25030622297580962 0.13311558827396619 0 0.26675796828336718 0.1380571931171293 0 0.25638724149227848 0.14295410589973731 0 0.25004344172447263 0.14019424959050239 0 0.25030622297580962 0.13311558827396619 0 0.25638724149227848 0.14295410589973731 0 0.25004344172447263 0.14019424959050239 0 0.25030622297580962 0.13311558827396619 0 0.26675796828336718 0.1380571931171293 0 0.28320971359092417 0.1429987979602943 0 0.26675796828336718 0.1380571931171293 0 0.28666270206708028 0.1324408374186071 0 0.28320971359092417 0.1429987979602943 0 0.28067449336876182 0.1220521091494646 0 0.26956705708048567 0.1198361090660386 0 0.26675796828336718 0.1380571931171293 0 0.28067449336876182 0.1220521091494646 0 0.26675796828336718 0.1380571931171293 0 0.28666270206708028 0.1324408374186071 0 0.26675796828336718 0.1380571931171293 0 0.27436529468354132 0.15433220537778311 0 0.26010861073109098 0.15248373785575309 0 0.26675796828336718 0.1380571931171293 0 0.27436529468354132 0.15433220537778311 0 0.28320971359092417 0.1429987979602943 0 0.26675796828336718 0.1380571931171293 0 0.26010861073109098 0.15248373785575309 0 0.25638724149227848 0.14295410589973731 0 0.2496536413094039 0.15044712256699261 0 0.25004344172447263 0.14019424959050239 0 0.25638724149227848 0.14295410589973731 0 0.24653130607993951 0.16237692388552691 0 0.2496536413094039 0.15044712256699261 0 0.26010861073109098 0.15248373785575309 0 0.2496536413094039 0.15044712256699261 0 0.26010861073109098 0.15248373785575309 0 0.25638724149227848 0.14295410589973731 0 0.24653130607993951 0.16237692388552691 0 0.25292738168467233 0.17649485219682931 0 0.26638423851283249 0.16867758561061549 0 0.24653130607993951 0.16237692388552691 0 0.26010861073109098 0.15248373785575309 0 0.26638423851283249 0.16867758561061549 0 0.24528107816237801 0.1907036486386274 0 0.25292738168467233 0.17649485219682931 0 0.26633433714882182 0.18577592949096661 0 0.25292738168467233 0.17649485219682931 0 0.26633433714882182 0.18577592949096661 0 0.26638423851283249 0.16867758561061549 0 0.27723266788850742 0.181048228772968 0 0.26638423851283249 0.16867758561061549 0 0.28391425324491287 0.17071999404263091 0 0.26633433714882182 0.18577592949096661 0 0.27723266788850742 0.181048228772968 0 0.26638423851283249 0.16867758561061549 0 0.27436529468354132 0.15433220537778311 0 0.26010861073109098 0.15248373785575309 0 0.26638423851283249 0.16867758561061549 0 0.27436529468354132 0.15433220537778311 0 0.26638423851283249 0.16867758561061549 0 0.28391425324491287 0.17071999404263091 0 0.27436529468354132 0.15433220537778311 0 0.28391425324491287 0.17071999404263091 0 0.29097703849613438 0.15773848939083679 0 0.28391425324491287 0.17071999404263091 0 0.2931647794093819 0.16879209887591959 0 0.29097703849613438 0.15773848939083679 0 0.2931647794093819 0.16879209887591959 0 0.29097703849613438 0.15773848939083679 0 0.30040947706207388 0.16512632217721829 0 0.28391425324491287 0.17071999404263091 0 0.28743664533084129 0.187357279865842 0 0.29743995151898561 0.17866098634217961 0 0.27723266788850742 0.181048228772968 0 0.28391425324491287 0.17071999404263091 0 0.28743664533084129 0.187357279865842 0 0.28391425324491287 0.17071999404263091 0 0.2931647794093819 0.16879209887591959 0 0.29743995151898561 0.17866098634217961 0 0.28743664533084129 0.187357279865842 0 0.29743995151898561 0.17866098634217961 0 0.29971043857951379 0.19298806906372529 0 0.29743995151898561 0.17866098634217961 0 0.30929675685570829 0.1858318568065235 0 0.29971043857951379 0.19298806906372529 0 0.29743995151898561 0.17866098634217961 0 0.3101655001798202 0.17563615506282959 0 0.30040947706207388 0.16512632217721829 0 0.29743995151898561 0.17866098634217961 0 0.3101655001798202 0.17563615506282959 0 0.30929675685570829 0.1858318568065235 0 0.30040947706207388 0.16512632217721829 0 0.30453528129870422 0.15487579661148021 0 0.32848741365188411 0.1727716232507491 0 0.29097703849613438 0.15773848939083679 0 0.30040947706207388 0.16512632217721829 0 0.30453528129870422 0.15487579661148021 0 0.2931647794093819 0.16879209887591959 0 0.29743995151898561 0.17866098634217961 0 0.30040947706207388 0.16512632217721829 0 0.29097703849613438 0.15773848939083679 0 0.30453528129870422 0.15487579661148021 0 0.29618567382365713 0.14404403195872001 0 0.30453528129870422 0.15487579661148021 0 0.30873747279203018 0.14281046260302349 0 0.29618567382365713 0.14404403195872001 0 0.30453528129870422 0.15487579661148021 0 0.30873747279203018 0.14281046260302349 0 0.32007589174333823 0.14676000458717811 0 0.30873747279203018 0.14281046260302349 0 0.30313841955192899 0.13260249050964579 0 0.3195478300457561 0.1332621056988223 0 0.31114536757858358 0.11742006929579971 0 0.30313841955192899 0.13260249050964579 0 0.3195478300457561 0.1332621056988223 0 0.30873747279203018 0.14281046260302349 0 0.30313841955192899 0.13260249050964579 0 0.29618567382365713 0.14404403195872001 0 0.294250496481684 0.12267566802032639 0 0.30313841955192899 0.13260249050964579 0 0.28666270206708028 0.1324408374186071 0 0.30313841955192899 0.13260249050964579 0 0.28666270206708028 0.1324408374186071 0 0.29618567382365713 0.14404403195872001 0 0.294250496481684 0.12267566802032639 0 0.28067449336876182 0.1220521091494646 0 0.28666270206708028 0.1324408374186071 0 0.28666270206708028 0.1324408374186071 0 0.28320971359092417 0.1429987979602943 0 0.29618567382365713 0.14404403195872001 0 0.27436529468354132 0.15433220537778311 0 0.29097703849613438 0.15773848939083679 0 0.28320971359092417 0.1429987979602943 0 0.29097703849613438 0.15773848939083679 0 0.28320971359092417 0.1429987979602943 0 0.29618567382365713 0.14404403195872001 0 0.28119448123381058 0.25405304303149878 0 0.26221447651104962 0.2479993693513689 0 0.28440499104296979 0.23439140090611099 0 0.26221447651104962 0.2479993693513689 0 0.26853130556434218 0.23400660741274959 0 0.28440499104296979 0.23439140090611099 0 0.26221447651104962 0.2479993693513689 0 0.28440499104296979 0.23439140090611099 0 0.2457442494512444 0.24022391879071339 0 0.26221447651104962 0.2479993693513689 0 0.25511338863332461 0.22468137717712711 0 0.26221447651104962 0.2479993693513689 0 0.25511338863332461 0.22468137717712711 0 0.26853130556434218 0.23400660741274959 0 0.26221447651104962 0.2479993693513689 0 0.25511338863332461 0.22468137717712711 0 0.25511338863332461 0.22468137717712711 0 0.25242827713160498 0.21540237912569379 0 0.25511338863332461 0.22468137717712711 0 0.2794126892910288 0.21617120911671081 0 0.25511338863332461 0.22468137717712711 0 0.26853130556434218 0.23400660741274959 0 0.2794126892910288 0.21617120911671081 0 0.26853130556434218 0.23400660741274959 0 0.2794126892910288 0.21617120911671081 0 0.28440499104296979 0.23439140090611099 0 0.25511338863332461 0.22468137717712711 0 0.2794126892910288 0.21617120911671081 0 0.26644318031571418 0.20408753099865831 0 0.2794126892910288 0.21617120911671081 0 0.26644318031571418 0.20408753099865831 0 0.27722953884408802 0.19656269719262509 0 0.24528107816237801 0.1907036486386274 0 0.26644318031571418 0.20408753099865831 0 0.25242827713160498 0.21540237912569379 0 0.25511338863332461 0.22468137717712711 0 0.26644318031571418 0.20408753099865831 0 0.25242827713160498 0.21540237912569379 0 0.26644318031571418 0.20408753099865831 0 0.25242827713160498 0.21540237912569379 0 0.24528107816237801 0.1907036486386274 0 0.26633433714882182 0.18577592949096661 0 0.26644318031571418 0.20408753099865831 0 0.26633433714882182 0.18577592949096661 0 0.26644318031571418 0.20408753099865831 0 0.27722953884408802 0.19656269719262509 0 0.27723266788850742 0.181048228772968 0 0.28743664533084129 0.187357279865842 0 0.27722953884408802 0.19656269719262509 0 0.26633433714882182 0.18577592949096661 0 0.27723266788850742 0.181048228772968 0 0.27722953884408802 0.19656269719262509 0 0.28743664533084129 0.187357279865842 0 0.27722953884408802 0.19656269719262509 0 0.28939512316467059 0.2005252056429343 0 0.28743664533084129 0.187357279865842 0 0.28939512316467059 0.2005252056429343 0 0.29971043857951379 0.19298806906372529 0 0.30929675685570829 0.1858318568065235 0 0.29971043857951379 0.19298806906372529 0 0.31162694501442678 0.19735313208654229 0 0.29971043857951379 0.19298806906372529 0 0.31162694501442678 0.19735313208654229 0 0.30371198994873311 0.20766104105629449 0 0.28939512316467059 0.2005252056429343 0 0.29971043857951379 0.19298806906372529 0 0.30371198994873311 0.20766104105629449 0 0.2794126892910288 0.21617120911671081 0 0.30371198994873311 0.20766104105629449 0 0.2794126892910288 0.21617120911671081 0 0.30371198994873311 0.20766104105629449 0 0.30659550557489001 0.220783432460853 0 0.2794126892910288 0.21617120911671081 0 0.27722953884408802 0.19656269719262509 0 0.28939512316467059 0.2005252056429343 0 0.2794126892910288 0.21617120911671081 0 0.28939512316467059 0.2005252056429343 0 0.30371198994873311 0.20766104105629449 0 0.30659550557489001 0.220783432460853 0 0.28440499104296979 0.23439140090611099 0 0.2794126892910288 0.21617120911671081 0 0.30659550557489001 0.220783432460853 0 0.28440499104296979 0.23439140090611099 0 0.30659550557489001 0.220783432460853 0 0.30328699804120918 0.24394477185791469 0 0.28440499104296979 0.23439140090611099 0 0.30659550557489001 0.220783432460853 0 0.30328699804120918 0.24394477185791469 0 0.31607427666693672 0.2331905299380852 0 0.28119448123381058 0.25405304303149878 0 0.30328699804120918 0.24394477185791469 0 0.28440499104296979 0.23439140090611099 0 0.3433555784436142 0.25004320974280247 0 0.34183468199228573 0.23727684870966961 0 0.33092809789354199 0.24744869965648561 0 0.34183468199228573 0.23727684870966961 0 0.3288410404878227 0.2348757256337824 0 0.33092809789354199 0.24744869965648561 0 0.3288410404878227 0.2348757256337824 0 0.33092809789354199 0.24744869965648561 0 0.31845456220733243 0.24449663650262579 0 0.31879452400631653 0.25919465198291952 0 0.30328699804120918 0.24394477185791469 0 0.31845456220733243 0.24449663650262579 0 0.30328699804120918 0.24394477185791469 0 0.31845456220733243 0.24449663650262579 0 0.31607427666693672 0.2331905299380852 0 0.3288410404878227 0.2348757256337824 0 0.31845456220733243 0.24449663650262579 0 0.31607427666693672 0.2331905299380852 0 0.3288410404878227 0.2348757256337824 0 0.31607427666693672 0.2331905299380852 0 0.32372534117020862 0.22390137225637691 0 0.30659550557489001 0.220783432460853 0 0.31607427666693672 0.2331905299380852 0 0.32372534117020862 0.22390137225637691 0 0.3288410404878227 0.2348757256337824 0 0.32372534117020862 0.22390137225637691 0 0.33832986301458301 0.22348170923356889 0 0.34183468199228573 0.23727684870966961 0 0.3288410404878227 0.2348757256337824 0 0.33832986301458301 0.22348170923356889 0 0.32372534117020862 0.22390137225637691 0 0.33832986301458301 0.22348170923356889 0 0.32878602010681029 0.20717546401559489 0 0.33832986301458301 0.22348170923356889 0 0.32878602010681029 0.20717546401559489 0 0.35089693608391498 0.21212819010674691 0 0.32878602010681029 0.20717546401559489 0 0.35097653463873058 0.19356749557033681 0 0.35089693608391498 0.21212819010674691 0 0.30659550557489001 0.220783432460853 0 0.32372534117020862 0.22390137225637691 0 0.32878602010681029 0.20717546401559489 0 0.31162694501442678 0.19735313208654229 0 0.30371198994873311 0.20766104105629449 0 0.32878602010681029 0.20717546401559489 0 0.30371198994873311 0.20766104105629449 0 0.30659550557489001 0.220783432460853 0 0.32878602010681029 0.20717546401559489 0 0.30659550557489001 0.220783432460853 0 0.32878602010681029 0.20717546401559489 0 0.32878602010681029 0.20717546401559489 0 0.31972446529152482 0.19052244909679969 0 0.3336272658304279 0.18895925974375941 0 0.31162694501442678 0.19735313208654229 0 0.32878602010681029 0.20717546401559489 0 0.31972446529152482 0.19052244909679969 0 0.30929675685570829 0.1858318568065235 0 0.31162694501442678 0.19735313208654229 0 0.31972446529152482 0.19052244909679969 0 0.32878602010681029 0.20717546401559489 0 0.3336272658304279 0.18895925974375941 0 0.35097653463873058 0.19356749557033681 0 0.32878602010681029 0.20717546401559489 0 0.35097653463873058 0.19356749557033681 0 0.3336272658304279 0.18895925974375941 0 0.35097653463873058 0.19356749557033681 0 0.35656535024169428 0.1804169243242798 0 0.35097653463873058 0.19356749557033681 0 0.35896651107905142 0.20360726904620211 0 0.35089693608391498 0.21212819010674691 0 0.35097653463873058 0.19356749557033681 0 0.36405518175537521 0.19484170215684679 0 0.35896651107905142 0.20360726904620211 0 0.35097653463873058 0.19356749557033681 0 0.36405518175537521 0.19484170215684679 0 0.35656535024169428 0.1804169243242798 0 0.36405518175537521 0.19484170215684679 0 0.35656535024169428 0.1804169243242798 0 0.38464328683150451 0.18806222539781059 0 0.36405518175537521 0.19484170215684679 0 0.36923798170140371 0.20928007436804161 0 0.38464328683150451 0.18806222539781059 0 0.36405518175537521 0.19484170215684679 0 0.36923798170140371 0.20928007436804161 0 0.35896651107905142 0.20360726904620211 0 0.36923798170140371 0.20928007436804161 0 0.36132702422268731 0.21787493872225441 0 0.35896651107905142 0.20360726904620211 0 0.36923798170140371 0.20928007436804161 0 0.36132702422268731 0.21787493872225441 0 0.37292139258550783 0.22672254500020811 0 0.36132702422268731 0.21787493872225441 0 0.35896651107905142 0.20360726904620211 0 0.35089693608391498 0.21212819010674691 0 0.34183468199228573 0.23727684870966961 0 0.33832986301458301 0.22348170923356889 0 0.35524969613090918 0.22837961108452459 0 0.36132702422268731 0.21787493872225441 0 0.35089693608391498 0.21212819010674691 0 0.35524969613090918 0.22837961108452459 0 0.33832986301458301 0.22348170923356889 0 0.35089693608391498 0.21212819010674691 0 0.35524969613090918 0.22837961108452459 0 0.36132702422268731 0.21787493872225441 0 0.35524969613090918 0.22837961108452459 0 0.37292139258550783 0.22672254500020811 0 0.35524969613090918 0.22837961108452459 0 0.37292139258550783 0.22672254500020811 0 0.36587213359177301 0.2378375665458646 0 0.37292139258550783 0.22672254500020811 0 0.36587213359177301 0.2378375665458646 0 0.3757768555661396 0.240133652284411 0 0.36587213359177301 0.2378375665458646 0 0.37169426656027921 0.24972740256563611 0 0.3757768555661396 0.240133652284411 0 0.36587213359177301 0.2378375665458646 0 0.37169426656027921 0.24972740256563611 0 0.36205361842742478 0.24882498742118489 0 0.36587213359177301 0.2378375665458646 0 0.36205361842742478 0.24882498742118489 0 0.35356337405553911 0.24205426642971811 0 0.35175757775775729 0.2532797976346674 0 0.36205361842742478 0.24882498742118489 0 0.35356337405553911 0.24205426642971811 0 0.35524969613090918 0.22837961108452459 0 0.36587213359177301 0.2378375665458646 0 0.35356337405553911 0.24205426642971811 0 0.34183468199228573 0.23727684870966961 0 0.35524969613090918 0.22837961108452459 0 0.35356337405553911 0.24205426642971811 0 0.3433555784436142 0.25004320974280247 0 0.34183468199228573 0.23727684870966961 0 0.35356337405553911 0.24205426642971811 0 0.3433555784436142 0.25004320974280247 0 0.35175757775775729 0.2532797976346674 0 0.35356337405553911 0.24205426642971811 0 0.33379856680907583 0.1437068241164389 0 0.32007589174333823 0.14676000458717811 0 0.33365817402274128 0.15789089208148979 0 0.33379856680907583 0.1437068241164389 0 0.33365817402274128 0.15789089208148979 0 0.34780073530519279 0.14835628742565241 0 0.33379856680907583 0.1437068241164389 0 0.34780073530519279 0.14835628742565241 0 0.34586764947947463 0.1362539899128139 0 0.33379856680907583 0.1437068241164389 0 0.33436770153514289 0.13112975471366969 0 0.34586764947947463 0.1362539899128139 0 0.34956654336434939 0.1234914401014125 0 0.33436770153514289 0.13112975471366969 0 0.34586764947947463 0.1362539899128139 0 0.33379856680907583 0.1437068241164389 0 0.33436770153514289 0.13112975471366969 0 0.3195478300457561 0.1332621056988223 0 0.32606950933900308 0.1158177097477945 0 0.33436770153514289 0.13112975471366969 0 0.3195478300457561 0.1332621056988223 0 0.30873747279203018 0.14281046260302349 0 0.3195478300457561 0.1332621056988223 0 0.32007589174333823 0.14676000458717811 0 0.30453528129870422 0.15487579661148021 0 0.32007589174333823 0.14676000458717811 0 0.33365817402274128 0.15789089208148979 0 0.33379856680907583 0.1437068241164389 0 0.3195478300457561 0.1332621056988223 0 0.32007589174333823 0.14676000458717811 0 0.30453528129870422 0.15487579661148021 0 0.33365817402274128 0.15789089208148979 0 0.30453528129870422 0.15487579661148021 0 0.32848741365188411 0.1727716232507491 0 0.33365817402274128 0.15789089208148979 0 0.30040947706207388 0.16512632217721829 0 0.32848741365188411 0.1727716232507491 0 0.3101655001798202 0.17563615506282959 0 0.30040947706207388 0.16512632217721829 0 0.32848741365188411 0.1727716232507491 0 0.3101655001798202 0.17563615506282959 0 0.31983557186529732 0.18171103000860481 0 0.32848741365188411 0.1727716232507491 0 0.3336272658304279 0.18895925974375941 0 0.31983557186529732 0.18171103000860481 0 0.32848741365188411 0.1727716232507491 0 0.3101655001798202 0.17563615506282959 0 0.30929675685570829 0.1858318568065235 0 0.31983557186529732 0.18171103000860481 0 0.30929675685570829 0.1858318568065235 0 0.31972446529152482 0.19052244909679969 0 0.31983557186529732 0.18171103000860481 0 0.31972446529152482 0.19052244909679969 0 0.3336272658304279 0.18895925974375941 0 0.31983557186529732 0.18171103000860481 0 0.32848741365188411 0.1727716232507491 0 0.34507730906385942 0.16855187839241309 0 0.35656535024169428 0.1804169243242798 0 0.3336272658304279 0.18895925974375941 0 0.32848741365188411 0.1727716232507491 0 0.35656535024169428 0.1804169243242798 0 0.32848741365188411 0.1727716232507491 0 0.35656535024169428 0.1804169243242798 0 0.32848741365188411 0.1727716232507491 0 0.33365817402274128 0.15789089208148979 0 0.34507730906385942 0.16855187839241309 0 0.33365817402274128 0.15789089208148979 0 0.34507730906385942 0.16855187839241309 0 0.36278106674677829 0.1609059875514994 0 0.34507730906385942 0.16855187839241309 0 0.35656535024169428 0.1804169243242798 0 0.36278106674677829 0.1609059875514994 0 0.33365817402274128 0.15789089208148979 0 0.36278106674677829 0.1609059875514994 0 0.35656535024169428 0.1804169243242798 0 0.37356219856206202 0.1741215612114578 0 0.38464328683150451 0.18806222539781059 0 0.35656535024169428 0.1804169243242798 0 0.38464328683150451 0.18806222539781059 0 0.35656535024169428 0.1804169243242798 0 0.37356219856206202 0.1741215612114578 0 0.36278106674677829 0.1609059875514994 0 0.36278106674677829 0.1609059875514994 0 0.36531512046589693 0.1378839500987098 0 0.37680076681991098 0.15092733218095339 0 0.36278106674677829 0.1609059875514994 0 0.34780073530519279 0.14835628742565241 0 0.36531512046589693 0.1378839500987098 0 0.34780073530519279 0.14835628742565241 0 0.34586764947947463 0.1362539899128139 0 0.36531512046589693 0.1378839500987098 0 0.33365817402274128 0.15789089208148979 0 0.36278106674677829 0.1609059875514994 0 0.34780073530519279 0.14835628742565241 0 0.34956654336434939 0.1234914401014125 0 0.34586764947947463 0.1362539899128139 0 0.36531512046589693 0.1378839500987098 0 0.34956654336434939 0.1234914401014125 0 0.36322639358210312 0.11848039068348271 0 0.36531512046589693 0.1378839500987098 0 0.36322639358210312 0.11848039068348271 0 0.36531512046589693 0.1378839500987098 0 0.38482072671029011 0.13725767299229241 0 0.36322639358210312 0.11848039068348271 0 0.38482072671029011 0.13725767299229241 0 0.36322639358210312 0.11848039068348271 0 0.38482072671029011 0.13725767299229241 0 0.38005682511468147 0.12140739343396729 0 0.38482072671029011 0.13725767299229241 0 0.39398634319161102 0.12556361147638159 0 0.38005682511468147 0.12140739343396729 0 0.38482072671029011 0.13725767299229241 0 0.39398634319161102 0.12556361147638159 0 0.40386822996399702 0.1370092008917044 0 0.39398634319161102 0.12556361147638159 0 0.40386822996399702 0.1370092008917044 0 0.40630256149234217 0.12337914253670321 0 0.38482072671029011 0.13725767299229241 0 0.40641505983847698 0.15603495530110209 0 0.38482072671029011 0.13725767299229241 0 0.40386822996399702 0.1370092008917044 0 0.40641505983847698 0.15603495530110209 0 0.38482072671029011 0.13725767299229241 0 0.39190395947081519 0.16392108302150901 0 0.40641505983847698 0.15603495530110209 0 0.36531512046589693 0.1378839500987098 0 0.38482072671029011 0.13725767299229241 0 0.37680076681991098 0.15092733218095339 0 0.38482072671029011 0.13725767299229241 0 0.37680076681991098 0.15092733218095339 0 0.39190395947081519 0.16392108302150901 0 0.36278106674677829 0.1609059875514994 0 0.39190395947081519 0.16392108302150901 0 0.36278106674677829 0.1609059875514994 0 0.37680076681991098 0.15092733218095339 0 0.39190395947081519 0.16392108302150901 0 0.37356219856206202 0.1741215612114578 0 0.36278106674677829 0.1609059875514994 0 0.39190395947081519 0.16392108302150901 0 0.37356219856206202 0.1741215612114578 0 0.39190395947081519 0.16392108302150901 0 0.38464328683150451 0.18806222539781059 0 0.4059128807594603 0.17981630131623391 0 0.39190395947081519 0.16392108302150901 0 0.38464328683150451 0.18806222539781059 0 0.39190395947081519 0.16392108302150901 0 0.42102685219485209 0.16693617849151851 0 0.40641505983847698 0.15603495530110209 0 0.4059128807594603 0.17981630131623391 0 0.39190395947081519 0.16392108302150901 0 0.42102685219485209 0.16693617849151851 0 0.42102685219485209 0.16693617849151851 0 0.40641505983847698 0.15603495530110209 0 0.41490094777653419 0.14712571815411829 0 0.39190395947081519 0.16392108302150901 0 0.42102685219485209 0.16693617849151851 0 0.4059128807594603 0.17981630131623391 0 0.42102685219485209 0.16693617849151851 0 0.42759287120751482 0.1799189573059411 0 0.4059128807594603 0.17981630131623391 0 0.42759287120751482 0.1799189573059411 0 0.42045703890892938 0.19185412915784311 0 0.42102685219485209 0.16693617849151851 0 0.42759287120751482 0.1799189573059411 0 0.45014974491888898 0.16995127396152809 0 0.42759287120751482 0.1799189573059411 0 0.42045703890892938 0.19185412915784311 0 0.43799329450951457 0.1898848624547933 0 0.42102685219485209 0.16693617849151851 0 0.45014974491888898 0.16995127396152809 0 0.42102685219485209 0.16693617849151851 0 0.43641214087317609 0.15776157540708571 0 0.42820809332857229 0.14540676379554701 0 0.42102685219485209 0.16693617849151851 0 0.43641214087317609 0.15776157540708571 0 0.45014974491888898 0.16995127396152809 0 0.43641214087317609 0.15776157540708571 0 0.42820809332857229 0.14540676379554701 0 0.44305345270963392 0.14224085277467549 0 0.42820809332857229 0.14540676379554701 0 0.43267139290449452 0.12562392175117529 0 0.41815906511665779 0.13368892679480551 0 0.42820809332857229 0.14540676379554701 0 0.43267139290449452 0.12562392175117529 0 0.44305345270963392 0.14224085277467549 0 0.43267139290449452 0.12562392175117529 0 0.41815906511665779 0.13368892679480551 0 0.41840244549433692 0.1204435227777134 0 0.41815906511665779 0.13368892679480551 0 0.41840244549433692 0.1204435227777134 0 0.40630256149234217 0.12337914253670321 0 0.40386822996399702 0.1370092008917044 0 0.41815906511665779 0.13368892679480551 0 0.40630256149234217 0.12337914253670321 0 0.40386822996399702 0.1370092008917044 0 0.41815906511665779 0.13368892679480551 0 0.41490094777653419 0.14712571815411829 0 0.42102685219485209 0.16693617849151851 0 0.42820809332857229 0.14540676379554701 0 0.41490094777653419 0.14712571815411829 0 0.40386822996399702 0.1370092008917044 0 0.40641505983847698 0.15603495530110209 0 0.41490094777653419 0.14712571815411829 0 0.42820809332857229 0.14540676379554701 0 0.41815906511665779 0.13368892679480551 0 0.41490094777653419 0.14712571815411829 0 0.39196586341458151 0.242441409442547 0 0.40329821407583749 0.23025496453590971 0 0.40866327585672191 0.24600766979752939 0 0.38129994004966872 0.25577407136566988 0 0.39196586341458151 0.242441409442547 0 0.40866327585672191 0.24600766979752939 0 0.38129994004966872 0.25577407136566988 0 0.39196586341458151 0.242441409442547 0 0.38106847269238292 0.24536179082341181 0 0.37169426656027921 0.24972740256563611 0 0.38106847269238292 0.24536179082341181 0 0.3757768555661396 0.240133652284411 0 0.37292139258550783 0.22672254500020811 0 0.3757768555661396 0.240133652284411 0 0.38460543787124563 0.238732418458795 0 0.38106847269238292 0.24536179082341181 0 0.3757768555661396 0.240133652284411 0 0.38460543787124563 0.238732418458795 0 0.39196586341458151 0.242441409442547 0 0.38106847269238292 0.24536179082341181 0 0.38460543787124563 0.238732418458795 0 0.39196586341458151 0.242441409442547 0 0.38460543787124563 0.238732418458795 0 0.38844350160088592 0.2284985707660753 0 0.37292139258550783 0.22672254500020811 0 0.38460543787124563 0.238732418458795 0 0.38844350160088592 0.2284985707660753 0 0.37292139258550783 0.22672254500020811 0 0.38844350160088592 0.2284985707660753 0 0.38369130631537601 0.21297307403445409 0 0.38844350160088592 0.2284985707660753 0 0.39679964264504158 0.21937630878092959 0 0.38369130631537601 0.21297307403445409 0 0.38844350160088592 0.2284985707660753 0 0.39679964264504158 0.21937630878092959 0 0.40329821407583749 0.23025496453590971 0 0.39196586341458151 0.242441409442547 0 0.38844350160088592 0.2284985707660753 0 0.40329821407583749 0.23025496453590971 0 0.39679964264504158 0.21937630878092959 0 0.40329821407583749 0.23025496453590971 0 0.41066806580544729 0.2160617609406458 0 0.39598296716959969 0.20626700748070109 0 0.40513352984814438 0.19492560706685999 0 0.41066806580544729 0.2160617609406458 0 0.39679964264504158 0.21937630878092959 0 0.39598296716959969 0.20626700748070109 0 0.41066806580544729 0.2160617609406458 0 0.39679964264504158 0.21937630878092959 0 0.39598296716959969 0.20626700748070109 0 0.38369130631537601 0.21297307403445409 0 0.36923798170140371 0.20928007436804161 0 0.37292139258550783 0.22672254500020811 0 0.38369130631537601 0.21297307403445409 0 0.36923798170140371 0.20928007436804161 0 0.38369130631537601 0.21297307403445409 0 0.38464328683150451 0.18806222539781059 0 0.39598296716959969 0.20626700748070109 0 0.38369130631537601 0.21297307403445409 0 0.38464328683150451 0.18806222539781059 0 0.39598296716959969 0.20626700748070109 0 0.38464328683150451 0.18806222539781059 0 0.40513352984814438 0.19492560706685999 0 0.4059128807594603 0.17981630131623391 0 0.38464328683150451 0.18806222539781059 0 0.40513352984814438 0.19492560706685999 0 0.40513352984814438 0.19492560706685999 0 0.42045703890892938 0.19185412915784311 0 0.42444067869502011 0.20693424997503959 0 0.4059128807594603 0.17981630131623391 0 0.40513352984814438 0.19492560706685999 0 0.42045703890892938 0.19185412915784311 0 0.42045703890892938 0.19185412915784311 0 0.42444067869502011 0.20693424997503959 0 0.43799329450951457 0.1898848624547933 0 0.42444067869502011 0.20693424997503959 0 0.44184419378540352 0.2076794424592901 0 0.43799329450951457 0.1898848624547933 0 0.42444067869502011 0.20693424997503959 0 0.4302098735549707 0.2206458244329694 0 0.44184419378540352 0.2076794424592901 0 0.42444067869502011 0.20693424997503959 0 0.41066806580544729 0.2160617609406458 0 0.4302098735549707 0.2206458244329694 0 0.40513352984814438 0.19492560706685999 0 0.42444067869502011 0.20693424997503959 0 0.41066806580544729 0.2160617609406458 0 0.41066806580544729 0.2160617609406458 0 0.41777320819135039 0.22984229758728861 0 0.4302098735549707 0.2206458244329694 0 0.40329821407583749 0.23025496453590971 0 0.41066806580544729 0.2160617609406458 0 0.41777320819135039 0.22984229758728861 0 0.4302098735549707 0.2206458244329694 0 0.43602661166377499 0.2362412682293889 0 0.44584438813649652 0.2203436080528294 0 0.41777320819135039 0.22984229758728861 0 0.4302098735549707 0.2206458244329694 0 0.43602661166377499 0.2362412682293889 0 0.43602661166377499 0.2362412682293889 0 0.43076425121212841 0.2486853010718087 0 0.40866327585672191 0.24600766979752939 0 0.43602661166377499 0.2362412682293889 0 0.40866327585672191 0.24600766979752939 0 0.41777320819135039 0.22984229758728861 0 0.43602661166377499 0.2362412682293889 0 0.40866327585672191 0.24600766979752939 0 0.41664462513020523 0.25422696758609492 0 0.43076425121212841 0.2486853010718087 0 0.40866327585672191 0.24600766979752939 0 0.40329821407583749 0.23025496453590971 0 0.41777320819135039 0.22984229758728861 0 0.40866327585672191 0.24600766979752939 0 0.45166362976964691 0.25106894999712381 0 0.45384283414141641 0.23962742592169059 0 0.47583181488482379 0.2451422378191761 0 0.45166362976964691 0.25106894999712381 0 0.47583181488482379 0.2451422378191761 0 0.45384283414141641 0.23962742592169059 0 0.47692141707070451 0.23056955077157251 0 0.45166362976964691 0.25106894999712381 0 0.43076425121212841 0.2486853010718087 0 0.45384283414141641 0.23962742592169059 0 0.43602661166377499 0.2362412682293889 0 0.43076425121212841 0.2486853010718087 0 0.45384283414141641 0.23962742592169059 0 0.43076425121212841 0.2486853010718087 0 0.45384283414141641 0.23962742592169059 0 0.43602661166377499 0.2362412682293889 0 0.46338994747082818 0.22647486666124839 0 0.43602661166377499 0.2362412682293889 0 0.44584438813649652 0.2203436080528294 0 0.46338994747082818 0.22647486666124839 0 0.43602661166377499 0.2362412682293889 0 0.45384283414141641 0.23962742592169059 0 0.46338994747082818 0.22647486666124839 0 0.44584438813649652 0.2203436080528294 0 0.46338994747082818 0.22647486666124839 0 0.4574246187180494 0.20998202225832771 0 0.45384283414141641 0.23962742592169059 0 0.46338994747082818 0.22647486666124839 0 0.47692141707070451 0.23056955077157251 0 0.46338994747082818 0.22647486666124839 0 0.4574246187180494 0.20998202225832771 0 0.47311107537994651 0.21060674662752529 0 0.4574246187180494 0.20998202225832771 0 0.46861366351278472 0.19789432193598561 0 0.47311107537994651 0.21060674662752529 0 0.44584438813649652 0.2203436080528294 0 0.4574246187180494 0.20998202225832771 0 0.44184419378540352 0.2076794424592901 0 0.4302098735549707 0.2206458244329694 0 0.44584438813649652 0.2203436080528294 0 0.44184419378540352 0.2076794424592901 0 0.4574246187180494 0.20998202225832771 0 0.44184419378540352 0.2076794424592901 0 0.45120510308892831 0.19507838461398491 0 0.44184419378540352 0.2076794424592901 0 0.43799329450951457 0.1898848624547933 0 0.45120510308892831 0.19507838461398491 0 0.4574246187180494 0.20998202225832771 0 0.45120510308892831 0.19507838461398491 0 0.46861366351278472 0.19789432193598561 0 0.45120510308892831 0.19507838461398491 0 0.46861366351278472 0.19789432193598561 0 0.45014974491888898 0.16995127396152809 0 0.46861366351278472 0.19789432193598561 0 0.48377650321145821 0.20030440734603891 0 0.47890777313388699 0.17818810929941131 0 0.46861366351278472 0.19789432193598561 0 0.48377650321145821 0.20030440734603891 0 0.47311107537994651 0.21060674662752529 0 0.48377650321145821 0.20030440734603891 0 0.5 0.19442179120654851 0 0.47890777313388699 0.17818810929941131 0 0.48377650321145821 0.20030440734603891 0 0.5 0.19442179120654851 0 0.49075328327788142 0.2167084650931079 0 0.5 0.19442179120654851 0 0.49075328327788142 0.2167084650931079 0 0.49999999999999339 0.2215116756214566 0 0.48377650321145821 0.20030440734603891 0 0.49075328327788142 0.2167084650931079 0 0.47311107537994651 0.21060674662752529 0 0.46338994747082818 0.22647486666124839 0 0.49075328327788142 0.2167084650931079 0 0.47311107537994651 0.21060674662752529 0 0.46338994747082818 0.22647486666124839 0 0.49075328327788142 0.2167084650931079 0 0.46338994747082818 0.22647486666124839 0 0.49075328327788142 0.2167084650931079 0 0.47692141707070451 0.23056955077157251 0 0.47692141707070451 0.23056955077157251 0 0.49999999999999339 0.2215116756214566 0 0.50000000000000067 0.2392155256412283 0 0.49075328327788142 0.2167084650931079 0 0.47692141707070451 0.23056955077157251 0 0.49999999999999339 0.2215116756214566 0 0.47692141707070451 0.23056955077157251 0 0.49999999999999339 0.2215116756214566 0 0.50000000000000067 0.2392155256412283 0 0.47583181488482379 0.2451422378191761 0 0.48341195364679568 0.26002408893105827 0 0.50000000000000067 0.2392155256412283 0 0.47583181488482379 0.2451422378191761 0 0.47692141707070451 0.23056955077157251 0 0.50000000000000067 0.2392155256412283 0 0.47583181488482379 0.2451422378191761 0 0.45384283414141641 0.23962742592169059 0 0.47692141707070451 0.23056955077157251 0 0.47583181488482379 0.2451422378191761 0 0.46053260521531592 0.14091734283165991 0 0.45014974491888898 0.16995127396152809 0 0.47759274938693741 0.15337993901402261 0 0.46053260521531592 0.14091734283165991 0 0.47596637305353268 0.1236489788231635 0 0.45094723062946279 0.12208098845927939 0 0.46053260521531592 0.14091734283165991 0 0.44305345270963392 0.14224085277467549 0 0.45094723062946279 0.12208098845927939 0 0.43267139290449452 0.12562392175117529 0 0.44305345270963392 0.14224085277467549 0 0.45094723062946279 0.12208098845927939 0 0.46053260521531592 0.14091734283165991 0 0.44305345270963392 0.14224085277467549 0 0.45014974491888898 0.16995127396152809 0 0.43641214087317609 0.15776157540708571 0 0.44305345270963392 0.14224085277467549 0 0.45014974491888898 0.16995127396152809 0 0.42759287120751482 0.1799189573059411 0 0.43799329450951457 0.1898848624547933 0 0.45014974491888898 0.16995127396152809 0 0.43799329450951457 0.1898848624547933 0 0.45120510308892831 0.19507838461398491 0 0.45014974491888898 0.16995127396152809 0 0.46861366351278472 0.19789432193598561 0 0.45014974491888898 0.16995127396152809 0 0.47890777313388699 0.17818810929941131 0 0.45014974491888898 0.16995127396152809 0 0.47890777313388699 0.17818810929941131 0 0.47759274938693741 0.15337993901402261 0 0.5 0.19442179120654851 0 0.47890777313388699 0.17818810929941131 0 0.5 0.16733190679164031 0 0.47890777313388699 0.17818810929941131 0 0.5 0.16733190679164031 0 0.47759274938693741 0.15337993901402261 0 0.5 0.16733190679164031 0 0.47759274938693741 0.15337993901402261 0 0.5 0.14024202237673219 0 0.46053260521531592 0.14091734283165991 0 0.47759274938693741 0.15337993901402261 0 0.47596637305353268 0.1236489788231635 0 0.5 0.14024202237673219 0 0.5 0.11315213796182411 0 0.47596637305353268 0.1236489788231635 0 0.47759274938693741 0.15337993901402261 0 0.5 0.14024202237673219 0 0.47596637305353268 0.1236489788231635 0 0.5 0.11315213796182411 0 0.48146508414057748 0.097867616362435003 0 0.47596637305353268 0.1236489788231635 0 0.5 0.11315213796182411 0 0.48146508414057748 0.097867616362435003 0 0.5 0.08606225354691599 0 0.48146508414057748 0.097867616362435003 0 0.46684480345772023 0.083704774648097419 0 0.46085076100455152 0.1051260388446932 0 0.48146508414057748 0.097867616362435003 0 0.47596637305353268 0.1236489788231635 0 0.46085076100455152 0.1051260388446932 0 0.5 0.08606225354691599 0 0.48297411160829701 0.071419164250366693 0 0.5 0.058972369132007867 0 0.48146508414057748 0.097867616362435003 0 0.5 0.08606225354691599 0 0.48297411160829701 0.071419164250366693 0 0.48146508414057748 0.097867616362435003 0 0.48297411160829701 0.071419164250366693 0 0.46684480345772023 0.083704774648097419 0 0.48297411160829701 0.071419164250366693 0 0.46368779630991369 0.062884433647911922 0 0.46684480345772023 0.083704774648097419 0 0.46368779630991369 0.062884433647911922 0 0.4455316944648699 0.078385408113317706 0 0.46368779630991369 0.062884433647911922 0 0.46684480345772023 0.083704774648097419 0 0.4455316944648699 0.078385408113317706 0 0.46684480345772023 0.083704774648097419 0 0.4455316944648699 0.078385408113317706 0 0.46085076100455152 0.1051260388446932 0 0.4455316944648699 0.078385408113317706 0 0.46085076100455152 0.1051260388446932 0 0.43655847815144871 0.087567909291679069 0 0.4455316944648699 0.078385408113317706 0 0.43655847815144871 0.087567909291679069 0 0.43300293116684879 0.070359854062556224 0 0.4455316944648699 0.078385408113317706 0 0.43300293116684879 0.070359854062556224 0 0.44432728466234178 0.059795406129610977 0 0.46368779630991369 0.062884433647911922 0 0.4455316944648699 0.078385408113317706 0 0.44432728466234178 0.059795406129610977 0 0.47596637305353268 0.1236489788231635 0 0.46085076100455152 0.1051260388446932 0 0.45094723062946279 0.12208098845927939 0 0.46085076100455152 0.1051260388446932 0 0.43655847815144871 0.087567909291679069 0 0.46085076100455152 0.1051260388446932 0 0.43845481143497073 0.110031162788742 0 0.43302597451412722 0.09911942802672713 0 0.46085076100455152 0.1051260388446932 0 0.43302597451412722 0.09911942802672713 0 0.43655847815144871 0.087567909291679069 0 0.43267139290449452 0.12562392175117529 0 0.45094723062946279 0.12208098845927939 0 0.43845481143497073 0.110031162788742 0 0.46085076100455152 0.1051260388446932 0 0.45094723062946279 0.12208098845927939 0 0.43845481143497073 0.110031162788742 0 0.43267139290449452 0.12562392175117529 0 0.43845481143497073 0.110031162788742 0 0.42512360996164289 0.1101942667169049 0 0.43267139290449452 0.12562392175117529 0 0.42512360996164289 0.1101942667169049 0 0.41840244549433692 0.1204435227777134 0 0.42512360996164289 0.1101942667169049 0 0.41840244549433692 0.1204435227777134 0 0.41145911669595331 0.1096997076075869 0 0.41840244549433692 0.1204435227777134 0 0.41145911669595331 0.1096997076075869 0 0.40630256149234217 0.12337914253670321 0 0.41145911669595331 0.1096997076075869 0 0.41782870111656589 0.098086010242617663 0 0.40188519574572068 0.098349840232826835 0 0.41782870111656589 0.098086010242617663 0 0.41132824907511162 0.087668761689670915 0 0.40188519574572068 0.098349840232826835 0 0.42512360996164289 0.1101942667169049 0 0.41145911669595331 0.1096997076075869 0 0.41782870111656589 0.098086010242617663 0 0.41782870111656589 0.098086010242617663 0 0.43302597451412722 0.09911942802672713 0 0.42198136315300161 0.08812274721924529 0 0.42512360996164289 0.1101942667169049 0 0.41782870111656589 0.098086010242617663 0 0.43302597451412722 0.09911942802672713 0 0.43845481143497073 0.110031162788742 0 0.42512360996164289 0.1101942667169049 0 0.43302597451412722 0.09911942802672713 0 0.43655847815144871 0.087567909291679069 0 0.42198136315300161 0.08812274721924529 0 0.41226619529834591 0.070009779738664735 0 0.43655847815144871 0.087567909291679069 0 0.41226619529834591 0.070009779738664735 0 0.43302597451412722 0.09911942802672713 0 0.43655847815144871 0.087567909291679069 0 0.42198136315300161 0.08812274721924529 0 0.43300293116684879 0.070359854062556224 0 0.41226619529834591 0.070009779738664735 0 0.42739758089851382 0.054541393999090262 0 0.43655847815144871 0.087567909291679069 0 0.43300293116684879 0.070359854062556224 0 0.41226619529834591 0.070009779738664735 0 0.42198136315300161 0.08812274721924529 0 0.41226619529834591 0.070009779738664735 0 0.41132824907511162 0.087668761689670915 0 0.41226619529834591 0.070009779738664735 0 0.41132824907511162 0.087668761689670915 0 0.39992923875424519 0.082621500021195282 0 0.41782870111656589 0.098086010242617663 0 0.42198136315300161 0.08812274721924529 0 0.41132824907511162 0.087668761689670915 0 0.41132824907511162 0.087668761689670915 0 0.39992923875424519 0.082621500021195282 0 0.40188519574572068 0.098349840232826835 0 0.39992923875424519 0.082621500021195282 0 0.38759228221014619 0.095233220303727467 0 0.40188519574572068 0.098349840232826835 0 0.39992923875424519 0.082621500021195282 0 0.38759228221014619 0.095233220303727467 0 0.41226619529834591 0.070009779738664735 0 0.39707386889515511 0.070908779594843374 0 0.39683376059791597 0.058855427163935138 0 0.41226619529834591 0.070009779738664735 0 0.39683376059791597 0.058855427163935138 0 0.41226619529834591 0.070009779738664735 0 0.39992923875424519 0.082621500021195282 0 0.41226619529834591 0.070009779738664735 0 0.39992923875424519 0.082621500021195282 0 0.39707386889515511 0.070908779594843374 0 0.39992923875424519 0.082621500021195282 0 0.39707386889515511 0.070908779594843374 0 0.38583977896057609 0.075316135258006081 0 0.39707386889515511 0.070908779594843374 0 0.38282045226763678 0.060547433734587333 0 0.39683376059791597 0.058855427163935138 0 0.39707386889515511 0.070908779594843374 0 0.38583977896057609 0.075316135258006081 0 0.38282045226763678 0.060547433734587333 0 0.38583977896057609 0.075316135258006081 0 0.37596532967213542 0.069868995675824025 0 0.37682589963749002 0.081332762740894418 0 0.37307104071443398 0.061065176941414383 0 0.37596532967213542 0.069868995675824025 0 0.38282045226763678 0.060547433734587333 0 0.38583977896057609 0.075316135258006081 0 0.37596532967213542 0.069868995675824025 0 0.38282045226763678 0.060547433734587333 0 0.39992923875424519 0.082621500021195282 0 0.38412803848747967 0.086259474622970303 0 0.38759228221014619 0.095233220303727467 0 0.39992923875424519 0.082621500021195282 0 0.38583977896057609 0.075316135258006081 0 0.38412803848747967 0.086259474622970303 0 0.37045299287494049 0.09679375479102828 0 0.38412803848747967 0.086259474622970303 0 0.38759228221014619 0.095233220303727467 0 0.38583977896057609 0.075316135258006081 0 0.38412803848747967 0.086259474622970303 0 0.37682589963749002 0.081332762740894418 0 0.37045299287494049 0.09679375479102828 0 0.38412803848747967 0.086259474622970303 0 0.37682589963749002 0.081332762740894418 0 0.37045299287494049 0.09679375479102828 0 0.38005682511468147 0.12140739343396729 0 0.37045299287494049 0.09679375479102828 0 0.38759228221014619 0.095233220303727467 0 0.38890959528695412 0.1083938038889192 0 0.37045299287494049 0.09679375479102828 0 0.38890959528695412 0.1083938038889192 0 0.38005682511468147 0.12140739343396729 0 0.39398634319161102 0.12556361147638159 0 0.38890959528695412 0.1083938038889192 0 0.38005682511468147 0.12140739343396729 0 0.39398634319161102 0.12556361147638159 0 0.38890959528695412 0.1083938038889192 0 0.39948393258462489 0.11301500309558379 0 0.39398634319161102 0.12556361147638159 0 0.40630256149234217 0.12337914253670321 0 0.39948393258462489 0.11301500309558379 0 0.41145911669595331 0.1096997076075869 0 0.40630256149234217 0.12337914253670321 0 0.39948393258462489 0.11301500309558379 0 0.41145911669595331 0.1096997076075869 0 0.39948393258462489 0.11301500309558379 0 0.40188519574572068 0.098349840232826835 0 0.38759228221014619 0.095233220303727467 0 0.38890959528695412 0.1083938038889192 0 0.40188519574572068 0.098349840232826835 0 0.38890959528695412 0.1083938038889192 0 0.39948393258462489 0.11301500309558379 0 0.40188519574572068 0.098349840232826835 0 0.3912475249538237 0.025882868266216091 0 0.40325323122183843 0.024352223252143548 0 0.39536881189699241 0.01378873843063998 0 0.3912475249538237 0.025882868266216091 0 0.40325323122183843 0.024352223252143548 0 0.39805180056669343 0.032772735105760037 0 0.40325323122183843 0.024352223252143548 0 0.39805180056669343 0.032772735105760037 0 0.40655765028286611 0.035582104639029083 0 0.40325323122183843 0.024352223252143548 0 0.39536881189699241 0.01378873843063998 0 0.40720094273855439 0.01372602960598159 0 0.40060323373222451 0.0042547197705496897 0 0.39536881189699241 0.01378873843063998 0 0.40720094273855439 0.01372602960598159 0 0.40060323373222451 0.0042547197705496897 0 0.41081432206005303 0.0037114498956348132 0 0.4046584776842293 -0.0050702490882302163 0 0.40060323373222451 0.0042547197705496897 0 0.41081432206005303 0.0037114498956348132 0 0.40720094273855439 0.01372602960598159 0 0.40060323373222451 0.0042547197705496897 0 0.39025836247721268 0.0036292771787240202 0 0.39531848553630572 -0.0042569273994520467 0 0.40060323373222451 0.0042547197705496897 0 0.39536881189699241 0.01378873843063998 0 0.39025836247721268 0.0036292771787240202 0 0.37844401144479839 0.012609093579625891 0 0.38356146703633898 -0.0078565650350033434 0 0.37844401144479839 0.012609093579625891 0 0.39025836247721268 0.0036292771787240202 0 0.38356146703633898 -0.0078565650350033434 0 0.39536881189699241 0.01378873843063998 0 0.37844401144479839 0.012609093579625891 0 0.39025836247721268 0.0036292771787240202 0 0.3912475249538237 0.025882868266216091 0 0.37844401144479839 0.012609093579625891 0 0.38063223185621792 0.036578263657106522 0 0.37844401144479839 0.012609093579625891 0 0.38063223185621792 0.036578263657106522 0 0.37146335928247548 0.04052602251159599 0 0.37844401144479839 0.012609093579625891 0 0.38063223185621792 0.036578263657106522 0 0.3912475249538237 0.025882868266216091 0 0.39536881189699241 0.01378873843063998 0 0.37844401144479839 0.012609093579625891 0 0.37146335928247548 0.04052602251159599 0 0.38063223185621792 0.036578263657106522 0 0.38282045226763678 0.060547433734587333 0 0.3912475249538237 0.025882868266216091 0 0.38063223185621792 0.036578263657106522 0 0.3908528121234538 0.035995570554822158 0 0.38063223185621792 0.036578263657106522 0 0.38791705742610771 0.044539104287684539 0 0.3908528121234538 0.035995570554822158 0 0.38791705742610771 0.044539104287684539 0 0.38282045226763678 0.060547433734587333 0 0.39079668350586277 0.051215399393808793 0 0.37307104071443398 0.061065176941414383 0 0.37146335928247548 0.04052602251159599 0 0.38282045226763678 0.060547433734587333 0 0.38063223185621792 0.036578263657106522 0 0.38791705742610771 0.044539104287684539 0 0.38282045226763678 0.060547433734587333 0 0.38063223185621792 0.036578263657106522 0 0.38282045226763678 0.060547433734587333 0 0.38282045226763678 0.060547433734587333 0 0.39683376059791597 0.058855427163935138 0 0.39079668350586277 0.051215399393808793 0 0.41226619529834591 0.070009779738664735 0 0.39683376059791597 0.058855427163935138 0 0.40948896714378957 0.05055434744181983 0 0.39683376059791597 0.058855427163935138 0 0.39079668350586277 0.051215399393808793 0 0.39674782008621368 0.04348041067995833 0 0.39683376059791597 0.058855427163935138 0 0.39674782008621368 0.04348041067995833 0 0.40948896714378957 0.05055434744181983 0 0.3908528121234538 0.035995570554822158 0 0.39805180056669343 0.032772735105760037 0 0.39674782008621368 0.04348041067995833 0 0.3912475249538237 0.025882868266216091 0 0.3908528121234538 0.035995570554822158 0 0.39805180056669343 0.032772735105760037 0 0.38791705742610771 0.044539104287684539 0 0.3908528121234538 0.035995570554822158 0 0.39674782008621368 0.04348041067995833 0 0.38791705742610771 0.044539104287684539 0 0.39079668350586277 0.051215399393808793 0 0.39674782008621368 0.04348041067995833 0 0.39674782008621368 0.04348041067995833 0 0.40655765028286611 0.035582104639029083 0 0.40948896714378957 0.05055434744181983 0 0.39805180056669343 0.032772735105760037 0 0.39674782008621368 0.04348041067995833 0 0.40655765028286611 0.035582104639029083 0 0.40655765028286611 0.035582104639029083 0 0.41713079569888262 0.040856968430241461 0 0.41557099838193923 0.024039796491718179 0 0.41713079569888262 0.040856968430241461 0 0.42755741698364552 0.032815777208855347 0 0.41557099838193923 0.024039796491718179 0 0.40655765028286611 0.035582104639029083 0 0.41713079569888262 0.040856968430241461 0 0.40948896714378957 0.05055434744181983 0 0.41226619529834591 0.070009779738664735 0 0.40948896714378957 0.05055434744181983 0 0.42739758089851382 0.054541393999090262 0 0.41713079569888262 0.040856968430241461 0 0.40948896714378957 0.05055434744181983 0 0.42739758089851382 0.054541393999090262 0 0.41226619529834591 0.070009779738664735 0 0.42739758089851382 0.054541393999090262 0 0.43300293116684879 0.070359854062556224 0 0.42739758089851382 0.054541393999090262 0 0.44432728466234178 0.059795406129610977 0 0.41713079569888262 0.040856968430241461 0 0.42739758089851382 0.054541393999090262 0 0.42755741698364552 0.032815777208855347 0 0.42739758089851382 0.054541393999090262 0 0.42755741698364552 0.032815777208855347 0 0.44252896649868317 0.039073008259517338 0 0.42739758089851382 0.054541393999090262 0 0.44252896649868317 0.039073008259517338 0 0.42755741698364552 0.032815777208855347 0 0.4358194844604939 0.024219735287320941 0 0.44252896649868317 0.039073008259517338 0 0.42755741698364552 0.032815777208855347 0 0.41557099838193923 0.024039796491718179 0 0.4265644217351573 0.014684511896395219 0 0.4358194844604939 0.024219735287320941 0 0.4265644217351573 0.014684511896395219 0 0.44548351627008242 0.01642882659412407 0 0.42755741698364552 0.032815777208855347 0 0.4358194844604939 0.024219735287320941 0 0.4265644217351573 0.014684511896395219 0 0.41557099838193923 0.024039796491718179 0 0.4165272652869268 0.01155925859927168 0 0.4265644217351573 0.014684511896395219 0 0.41557099838193923 0.024039796491718179 0 0.40720094273855439 0.01372602960598159 0 0.4165272652869268 0.01155925859927168 0 0.40325323122183843 0.024352223252143548 0 0.41557099838193923 0.024039796491718179 0 0.40720094273855439 0.01372602960598159 0 0.40325323122183843 0.024352223252143548 0 0.40655765028286611 0.035582104639029083 0 0.41557099838193923 0.024039796491718179 0 0.41081432206005303 0.0037114498956348132 0 0.40720094273855439 0.01372602960598159 0 0.4165272652869268 0.01155925859927168 0 0.4165272652869268 0.01155925859927168 0 0.42248564151892998 0.0016345051066286029 0 0.4265644217351573 0.014684511896395219 0 0.41081432206005303 0.0037114498956348132 0 0.4165272652869268 0.01155925859927168 0 0.42248564151892998 0.0016345051066286029 0 0.42248564151892998 0.0016345051066286029 0 0.4265644217351573 0.014684511896395219 0 0.4382820622288856 -0.0014159552958160841 0 0.4265644217351573 0.014684511896395219 0 0.44548351627008242 0.01642882659412407 0 0.4382820622288856 -0.0014159552958160841 0 0.45100246047295739 0.0046664116742636159 0 0.44548351627008242 0.01642882659412407 0 0.4382820622288856 -0.0014159552958160841 0 0.45100246047295739 0.0046664116742636159 0 0.44548351627008242 0.01642882659412407 0 0.4580470330794123 0.0188547641718908 0 0.4358194844604939 0.024219735287320941 0 0.4514029071021442 0.02821869916314456 0 0.44548351627008242 0.01642882659412407 0 0.4358194844604939 0.024219735287320941 0 0.4514029071021442 0.02821869916314456 0 0.44252896649868317 0.039073008259517338 0 0.4514029071021442 0.02821869916314456 0 0.44548351627008242 0.01642882659412407 0 0.4580470330794123 0.0188547641718908 0 0.4514029071021442 0.02821869916314456 0 0.4580470330794123 0.0188547641718908 0 0.46553563141862692 0.027383902935855992 0 0.4580470330794123 0.0188547641718908 0 0.46553563141862692 0.027383902935855992 0 0.471035018561343 0.01684384088441979 0 0.4580470330794123 0.0188547641718908 0 0.4620271672997433 0.0081957990277541914 0 0.471035018561343 0.01684384088441979 0 0.4620271672997433 0.0081957990277541914 0 0.47207727543944228 0.0077163925679632076 0 0.45540766643685782 -0.0078732224449345398 0 0.4620271672997433 0.0081957990277541914 0 0.47207727543944228 0.0077163925679632076 0 0.471035018561343 0.01684384088441979 0 0.45100246047295739 0.0046664116742636159 0 0.4620271672997433 0.0081957990277541914 0 0.45540766643685782 -0.0078732224449345398 0 0.45100246047295739 0.0046664116742636159 0 0.4580470330794123 0.0188547641718908 0 0.4620271672997433 0.0081957990277541914 0 0.42739758089851382 0.054541393999090262 0 0.44432728466234178 0.059795406129610977 0 0.44252896649868317 0.039073008259517338 0 0.44432728466234178 0.059795406129610977 0 0.44252896649868317 0.039073008259517338 0 0.46100281088556699 0.043351957730158222 0 0.4514029071021442 0.02821869916314456 0 0.44252896649868317 0.039073008259517338 0 0.46100281088556699 0.043351957730158222 0 0.4514029071021442 0.02821869916314456 0 0.46553563141862692 0.027383902935855992 0 0.46100281088556699 0.043351957730158222 0 0.46553563141862692 0.027383902935855992 0 0.46100281088556699 0.043351957730158222 0 0.4764725540003833 0.035303178421407518 0 0.46368779630991369 0.062884433647911922 0 0.44432728466234178 0.059795406129610977 0 0.46100281088556699 0.043351957730158222 0 0.48297411160829701 0.071419164250366693 0 0.46368779630991369 0.062884433647911922 0 0.48184389815495748 0.047383459182506117 0 0.46368779630991369 0.062884433647911922 0 0.46100281088556699 0.043351957730158222 0 0.48184389815495748 0.047383459182506117 0 0.46368779630991369 0.062884433647911922 0 0.48184389815495748 0.047383459182506117 0 0.46100281088556699 0.043351957730158222 0 0.48184389815495748 0.047383459182506117 0 0.4764725540003833 0.035303178421407518 0 0.48184389815495748 0.047383459182506117 0 0.50000000000000089 0.031882484717099757 0 0.48184389815495748 0.047383459182506117 0 0.50000000000000089 0.031882484717099757 0 0.5 0.058972369132007867 0 0.48184389815495748 0.047383459182506117 0 0.4764725540003833 0.035303178421407518 0 0.50000000000000089 0.031882484717099757 0 0.48297411160829701 0.071419164250366693 0 0.48184389815495748 0.047383459182506117 0 0.5 0.058972369132007867 0 0.48173822001607031 0.002441982684480838 0 0.47207727543944228 0.0077163925679632076 0 0.45540766643685782 -0.0078732224449345398 0 0.48073089036299149 0.01447516008145705 0 0.48088876464914698 0.0066420825236524483 0 0.47207727543944228 0.0077163925679632076 0 0.48088876464914698 0.0066420825236524483 0 0.48173822001607031 0.002441982684480838 0 0.48944624590280772 0.014576472087587141 0 0.48073089036299149 0.01447516008145705 0 0.48088876464914698 0.0066420825236524483 0 0.48944624590280772 0.014576472087587141 0 0.48088876464914698 0.0066420825236524483 0 0.48173822001607031 0.002441982684480838 0 0.47207727543944228 0.0077163925679632076 0 0.48088876464914698 0.0066420825236524483 0 0.48173822001607031 0.002441982684480838 0 0.48073089036299149 0.01447516008145705 0 0.47207727543944228 0.0077163925679632076 0 0.471035018561343 0.01684384088441979 0 0.46553563141862692 0.027383902935855992 0 0.471035018561343 0.01684384088441979 0 0.48098968552297122 0.023479159592672289 0 0.46553563141862692 0.027383902935855992 0 0.4764725540003833 0.035303178421407518 0 0.48098968552297122 0.023479159592672289 0 0.48073089036299149 0.01447516008145705 0 0.471035018561343 0.01684384088441979 0 0.48098968552297122 0.023479159592672289 0 0.48073089036299149 0.01447516008145705 0 0.48098968552297122 0.023479159592672289 0 0.48944624590280772 0.014576472087587141 0 0.50000000000000089 0.031882484717099757 0 0.50000000000000044 0.0095961811708810997 0 0.48944624590280772 0.014576472087587141 0 0.4764725540003833 0.035303178421407518 0 0.50000000000000089 0.031882484717099757 0 0.48098968552297122 0.023479159592672289 0 0.50000000000000089 0.031882484717099757 0 0.48098968552297122 0.023479159592672289 0 0.48944624590280772 0.014576472087587141 0 0.48173822001607031 0.002441982684480838 0 0.50000000000000044 0.0095961811708810997 0 0.48944624590280772 0.014576472087587141 0 0.48173822001607031 0.002441982684480838 0 0.50000000000000044 0.0095961811708810997 0 0.48173822001607031 0.002441982684480838 0 0.50000000000000044 0.0095961811708810997 0 0.5 -0.01553848795347695 0 0.48173822001607031 0.002441982684480838 0 0.5 -0.01553848795347695 0 0.48723509010938909 -0.024737082977995831 0 0.48173822001607031 0.002441982684480838 0 0.48723509010938909 -0.024737082977995831 0 0.48173822001607031 0.002441982684480838 0 0.46944239540012012 -0.021901386132034111 0 0.45540766643685782 -0.0078732224449345398 0 0.48173822001607031 0.002441982684480838 0 0.46944239540012012 -0.021901386132034111 0 0.48723509010938909 -0.024737082977995831 0 0.46944239540012012 -0.021901386132034111 0 0.48723509010938909 -0.024737082977995831 0 0.47311684284700922 -0.039980301183512167 0 0.5 -0.01553848795347695 0 0.48723509010938909 -0.024737082977995831 0 0.5 -0.040673157077835087 0 0.48723509010938909 -0.024737082977995831 0 0.49273196020270971 -0.051916148640471983 0 0.48034048547664182 -0.050194577481915269 0 0.48723509010938909 -0.024737082977995831 0 0.49273196020270971 -0.051916148640471983 0 0.48723509010938909 -0.024737082977995831 0 0.5 -0.040673157077835087 0 0.49273196020270971 -0.051916148640471983 0 0.5 -0.040673157077835087 0 0.49273196020270971 -0.051916148640471983 0 0.5 -0.065807826202193331 0 0.49273196020270971 -0.051916148640471983 0 0.48384360039889979 -0.062204599920787272 0 0.48034048547664182 -0.050194577481915269 0 0.48034048547664182 -0.050194577481915269 0 0.47035120232490191 -0.060528185902064997 0 0.47311684284700922 -0.039980301183512167 0 0.47035120232490191 -0.060528185902064997 0 0.47311684284700922 -0.039980301183512167 0 0.48384360039889979 -0.062204599920787272 0 0.48034048547664182 -0.050194577481915269 0 0.47035120232490191 -0.060528185902064997 0 0.48723509010938909 -0.024737082977995831 0 0.48034048547664182 -0.050194577481915269 0 0.47311684284700922 -0.039980301183512167 0 0.46944239540012012 -0.021901386132034111 0 0.47311684284700922 -0.039980301183512167 0 0.44971415759127392 -0.039358306738208573 0 0.47035120232490191 -0.060528185902064997 0 0.47311684284700922 -0.039980301183512167 0 0.44971415759127392 -0.039358306738208573 0 0.47035120232490191 -0.060528185902064997 0 0.44971415759127392 -0.039358306738208573 0 0.47035120232490191 -0.060528185902064997 0 0.43963483674523918 -0.055334607978488382 0 0.44971415759127392 -0.039358306738208573 0 0.43963483674523918 -0.055334607978488382 0 0.44971415759127392 -0.039358306738208573 0 0.42419530264354072 -0.042652000491910397 0 0.46944239540012012 -0.021901386132034111 0 0.44971415759127392 -0.039358306738208573 0 0.45540766643685782 -0.0078732224449345398 0 0.44971415759127392 -0.039358306738208573 0 0.42907711285764621 -0.01818842757435184 0 0.44971415759127392 -0.039358306738208573 0 0.45540766643685782 -0.0078732224449345398 0 0.42907711285764621 -0.01818842757435184 0 0.45540766643685782 -0.0078732224449345398 0 0.42907711285764621 -0.01818842757435184 0 0.45100246047295739 0.0046664116742636159 0 0.4382820622288856 -0.0014159552958160841 0 0.45540766643685782 -0.0078732224449345398 0 0.4382820622288856 -0.0014159552958160841 0 0.45540766643685782 -0.0078732224449345398 0 0.42907711285764621 -0.01818842757435184 0 0.48173822001607031 0.002441982684480838 0 0.45540766643685782 -0.0078732224449345398 0 0.47129126618897188 -0.1223351355815797 0 0.47148248434309947 -0.114916285604633 0 0.48087269318342413 -0.1216818802472065 0 0.47148248434309947 -0.114916285604633 0 0.48087269318342413 -0.1216818802472065 0 0.47838814501791832 -0.1066654575105275 0 0.48087269318342413 -0.1216818802472065 0 0.48924328608656842 -0.1141618265083332 0 0.47838814501791832 -0.1066654575105275 0 0.5 -0.1122204549214597 0 0.48924328608656842 -0.1141618265083332 0 0.5 -0.13349841451636779 0 0.48087269318342413 -0.1216818802472065 0 0.48924328608656842 -0.1141618265083332 0 0.5 -0.13349841451636779 0 0.5 -0.1122204549214597 0 0.48924328608656842 -0.1141618265083332 0 0.48827073793524339 -0.097774102912636218 0 0.48924328608656842 -0.1141618265083332 0 0.48827073793524339 -0.097774102912636218 0 0.47838814501791832 -0.1066654575105275 0 0.5 -0.1122204549214597 0 0.48827073793524339 -0.097774102912636218 0 0.50000000000000266 -0.090942495326551576 0 0.47652975213937199 -0.091635549067057065 0 0.46683976751390588 -0.086617099886465918 0 0.46456669494636288 -0.10350535152343909 0 0.48827073793524339 -0.097774102912636218 0 0.47838814501791832 -0.1066654575105275 0 0.47652975213937199 -0.091635549067057065 0 0.47148248434309947 -0.114916285604633 0 0.47838814501791832 -0.1066654575105275 0 0.46456669494636288 -0.10350535152343909 0 0.47838814501791832 -0.1066654575105275 0 0.47652975213937199 -0.091635549067057065 0 0.46456669494636288 -0.10350535152343909 0 0.48827073793524339 -0.097774102912636218 0 0.47652975213937199 -0.091635549067057065 0 0.48517560116245317 -0.075735340614307423 0 0.47652975213937199 -0.091635549067057065 0 0.48517560116245317 -0.075735340614307423 0 0.46683976751390588 -0.086617099886465918 0 0.47652975213937199 -0.091635549067057065 0 0.46683976751390588 -0.086617099886465918 0 0.50000000000000266 -0.090942495326551576 0 0.49822883029603021 -0.079095214302948247 0 0.5 -0.065807826202193331 0 0.48827073793524339 -0.097774102912636218 0 0.50000000000000266 -0.090942495326551576 0 0.48517560116245317 -0.075735340614307423 0 0.50000000000000266 -0.090942495326551576 0 0.48517560116245317 -0.075735340614307423 0 0.50000000000000266 -0.090942495326551576 0 0.49822883029603021 -0.079095214302948247 0 0.48517560116245317 -0.075735340614307423 0 0.49273196020270971 -0.051916148640471983 0 0.49822883029603021 -0.079095214302948247 0 0.48384360039889979 -0.062204599920787272 0 0.49822883029603021 -0.079095214302948247 0 0.48517560116245317 -0.075735340614307423 0 0.49273196020270971 -0.051916148640471983 0 0.48384360039889979 -0.062204599920787272 0 0.49822883029603021 -0.079095214302948247 0 0.49273196020270971 -0.051916148640471983 0 0.49822883029603021 -0.079095214302948247 0 0.5 -0.065807826202193331 0 0.47035120232490191 -0.060528185902064997 0 0.48517560116245317 -0.075735340614307423 0 0.47035120232490191 -0.060528185902064997 0 0.48517560116245317 -0.075735340614307423 0 0.46683976751390588 -0.086617099886465918 0 0.48384360039889979 -0.062204599920787272 0 0.47035120232490191 -0.060528185902064997 0 0.48517560116245317 -0.075735340614307423 0 0.47035120232490191 -0.060528185902064997 0 0.46683976751390588 -0.086617099886465918 0 0.47035120232490191 -0.060528185902064997 0 0.44249197108241189 -0.074007360679063244 0 0.46683976751390588 -0.086617099886465918 0 0.47035120232490191 -0.060528185902064997 0 0.43963483674523918 -0.055334607978488382 0 0.44249197108241189 -0.074007360679063244 0 0.44249197108241189 -0.074007360679063244 0 0.46683976751390588 -0.086617099886465918 0 0.4490662803509099 -0.094083529251462475 0 0.44249197108241189 -0.074007360679063244 0 0.4490662803509099 -0.094083529251462475 0 0.42834270349958448 -0.099226311759436261 0 0.44249197108241189 -0.074007360679063244 0 0.46683976751390588 -0.086617099886465918 0 0.46683976751390588 -0.086617099886465918 0 0.46456669494636288 -0.10350535152343909 0 0.4490662803509099 -0.094083529251462475 0 0.46683976751390588 -0.086617099886465918 0 0.46456669494636288 -0.10350535152343909 0 0.46456669494636288 -0.10350535152343909 0 0.4490662803509099 -0.094083529251462475 0 0.44386094964032902 -0.11054798122052439 0 0.4490662803509099 -0.094083529251462475 0 0.44386094964032902 -0.11054798122052439 0 0.42834270349958448 -0.099226311759436261 0 0.44386094964032902 -0.11054798122052439 0 0.46257396642688631 -0.12529077885077469 0 0.45239247298790419 -0.125419693033265 0 0.44386094964032902 -0.11054798122052439 0 0.42916935431308728 -0.1205456085246996 0 0.4435038969132965 -0.12540022695152131 0 0.44386094964032902 -0.11054798122052439 0 0.45239247298790419 -0.125419693033265 0 0.4435038969132965 -0.12540022695152131 0 0.44386094964032902 -0.11054798122052439 0 0.46229362237882032 -0.1203936031604123 0 0.46257396642688631 -0.12529077885077469 0 0.46456669494636288 -0.10350535152343909 0 0.46229362237882032 -0.1203936031604123 0 0.46456669494636288 -0.10350535152343909 0 0.44386094964032902 -0.11054798122052439 0 0.46229362237882032 -0.1203936031604123 0 0.44386094964032902 -0.11054798122052439 0 0.46257396642688631 -0.12529077885077469 0 0.47148248434309947 -0.114916285604633 0 0.46456669494636288 -0.10350535152343909 0 0.46229362237882032 -0.1203936031604123 0 0.47129126618897188 -0.1223351355815797 0 0.46229362237882032 -0.1203936031604123 0 0.46257396642688631 -0.12529077885077469 0 0.47129126618897188 -0.1223351355815797 0 0.47148248434309947 -0.114916285604633 0 0.46229362237882032 -0.1203936031604123 0 0.44386094964032902 -0.11054798122052439 0 0.42916935431308728 -0.1205456085246996 0 0.42834270349958448 -0.099226311759436261 0 0.41143930547928681 -0.11934523636421419 0 0.42916935431308728 -0.1205456085246996 0 0.42834270349958448 -0.099226311759436261 0 0.41143930547928681 -0.11934523636421419 0 0.40555832972599831 -0.095826118330896617 0 0.41143930547928681 -0.11934523636421419 0 0.42834270349958448 -0.099226311759436261 0 0.40555832972599831 -0.095826118330896617 0 0.42834270349958448 -0.099226311759436261 0 0.41884290658632428 -0.080552882507727325 0 0.40555832972599831 -0.095826118330896617 0 0.41884290658632428 -0.080552882507727325 0 0.39967735397270959 -0.072307000297579083 0 0.40555832972599831 -0.095826118330896617 0 0.44249197108241189 -0.074007360679063244 0 0.42834270349958448 -0.099226311759436261 0 0.41884290658632428 -0.080552882507727325 0 0.44249197108241189 -0.074007360679063244 0 0.41814417465091752 -0.061397621471661459 0 0.43963483674523918 -0.055334607978488382 0 0.44249197108241189 -0.074007360679063244 0 0.41814417465091752 -0.061397621471661459 0 0.44249197108241189 -0.074007360679063244 0 0.41884290658632428 -0.080552882507727325 0 0.41814417465091752 -0.061397621471661459 0 0.41884290658632428 -0.080552882507727325 0 0.39967735397270959 -0.072307000297579083 0 0.41814417465091752 -0.061397621471661459 0 0.39967735397270959 -0.072307000297579083 0 0.38669795957132042 -0.057310603286660967 0 0.37240766699872252 -0.068318548019290964 0 0.39967735397270959 -0.072307000297579083 0 0.37781097748786241 -0.089314889372882261 0 0.37240766699872252 -0.068318548019290964 0 0.39967735397270959 -0.072307000297579083 0 0.37781097748786241 -0.089314889372882261 0 0.40555832972599831 -0.095826118330896617 0 0.39967735397270959 -0.072307000297579083 0 0.40555832972599831 -0.095826118330896617 0 0.40555832972599831 -0.095826118330896617 0 0.38953803654933628 -0.10754997095337659 0 0.39823574772599779 -0.11763079726210079 0 0.37781097748786241 -0.089314889372882261 0 0.40555832972599831 -0.095826118330896617 0 0.38953803654933628 -0.10754997095337659 0 0.37781097748786241 -0.089314889372882261 0 0.38953803654933628 -0.10754997095337659 0 0.37644505785585192 -0.1058120404938334 0 0.38953803654933628 -0.10754997095337659 0 0.37644505785585192 -0.1058120404938334 0 0.37720890243704291 -0.12310924361699779 0 0.38953803654933628 -0.10754997095337659 0 0.37720890243704291 -0.12310924361699779 0 0.38918813321375051 -0.12739880168557821 0 0.38953803654933628 -0.10754997095337659 0 0.39823574772599779 -0.11763079726210079 0 0.38918813321375051 -0.12739880168557821 0 0.41143930547928681 -0.11934523636421419 0 0.39823574772599779 -0.11763079726210079 0 0.40257569972698831 -0.13396225485532559 0 0.41143930547928681 -0.11934523636421419 0 0.40555832972599831 -0.095826118330896617 0 0.39823574772599779 -0.11763079726210079 0 0.42011428296152808 -0.02169968792975261 0 0.41401194260749391 -0.028450411104576211 0 0.41343304557213612 -0.018371446868227208 0 0.42011428296152808 -0.02169968792975261 0 0.41343304557213612 -0.018371446868227208 0 0.41928481904255338 -0.01548900553927589 0 0.42011428296152808 -0.02169968792975261 0 0.41928481904255338 -0.01548900553927589 0 0.42542521438275183 -0.0144422395697206 0 0.42011428296152808 -0.02169968792975261 0 0.41401194260749391 -0.028450411104576211 0 0.42742255973229643 -0.030069766767760062 0 0.41401194260749391 -0.028450411104576211 0 0.40522076275047969 -0.019933987949522329 0 0.40044964155059998 -0.029094842751199331 0 0.41401194260749391 -0.028450411104576211 0 0.41343304557213612 -0.018371446868227208 0 0.40522076275047969 -0.019933987949522329 0 0.41343304557213612 -0.018371446868227208 0 0.40806592415966281 -0.01253819616599721 0 0.40522076275047969 -0.019933987949522329 0 0.40806592415966281 -0.01253819616599721 0 0.4135204533098043 -0.0054466611181140526 0 0.41498054603746559 -0.011947546426581419 0 0.41343304557213612 -0.018371446868227208 0 0.40806592415966281 -0.01253819616599721 0 0.41498054603746559 -0.011947546426581419 0 0.41081432206005303 0.0037114498956348132 0 0.4135204533098043 -0.0054466611181140526 0 0.4046584776842293 -0.0050702490882302163 0 0.40806592415966281 -0.01253819616599721 0 0.4135204533098043 -0.0054466611181140526 0 0.4046584776842293 -0.0050702490882302163 0 0.41081432206005303 0.0037114498956348132 0 0.42248564151892998 0.0016345051066286029 0 0.4135204533098043 -0.0054466611181140526 0 0.42248564151892998 0.0016345051066286029 0 0.4135204533098043 -0.0054466611181140526 0 0.42119781252485211 -0.0083000839364812864 0 0.41343304557213612 -0.018371446868227208 0 0.41498054603746559 -0.011947546426581419 0 0.41928481904255338 -0.01548900553927589 0 0.4135204533098043 -0.0054466611181140526 0 0.41498054603746559 -0.011947546426581419 0 0.42119781252485211 -0.0083000839364812864 0 0.41498054603746559 -0.011947546426581419 0 0.42119781252485211 -0.0083000839364812864 0 0.41928481904255338 -0.01548900553927589 0 0.42542521438275183 -0.0144422395697206 0 0.42820760236351979 -0.0076976995852137747 0 0.42907711285764621 -0.01818842757435184 0 0.4382820622288856 -0.0014159552958160841 0 0.42820760236351979 -0.0076976995852137747 0 0.42907711285764621 -0.01818842757435184 0 0.42119781252485211 -0.0083000839364812864 0 0.41928481904255338 -0.01548900553927589 0 0.42542521438275183 -0.0144422395697206 0 0.42248564151892998 0.0016345051066286029 0 0.4382820622288856 -0.0014159552958160841 0 0.42820760236351979 -0.0076976995852137747 0 0.42119781252485211 -0.0083000839364812864 0 0.42542521438275183 -0.0144422395697206 0 0.42820760236351979 -0.0076976995852137747 0 0.42248564151892998 0.0016345051066286029 0 0.42119781252485211 -0.0083000839364812864 0 0.42820760236351979 -0.0076976995852137747 0 0.44971415759127392 -0.039358306738208573 0 0.42907711285764621 -0.01818842757435184 0 0.42742255973229643 -0.030069766767760062 0 0.42011428296152808 -0.02169968792975261 0 0.42907711285764621 -0.01818842757435184 0 0.42742255973229643 -0.030069766767760062 0 0.42011428296152808 -0.02169968792975261 0 0.42542521438275183 -0.0144422395697206 0 0.42907711285764621 -0.01818842757435184 0 0.42011428296152808 -0.02169968792975261 0 0.42907711285764621 -0.01818842757435184 0 0.42542521438275183 -0.0144422395697206 0 0.42907711285764621 -0.01818842757435184 0 0.44971415759127392 -0.039358306738208573 0 0.42742255973229643 -0.030069766767760062 0 0.42419530264354072 -0.042652000491910397 0 0.41401194260749391 -0.028450411104576211 0 0.42742255973229643 -0.030069766767760062 0 0.42419530264354072 -0.042652000491910397 0 0.43963483674523918 -0.055334607978488382 0 0.42419530264354072 -0.042652000491910397 0 0.41814417465091752 -0.061397621471661459 0 0.41814417465091752 -0.061397621471661459 0 0.41107184061272262 -0.047596707948501772 0 0.39379637821942232 -0.04878788226426127 0 0.42419530264354072 -0.042652000491910397 0 0.41814417465091752 -0.061397621471661459 0 0.41107184061272262 -0.047596707948501772 0 0.41401194260749391 -0.028450411104576211 0 0.42419530264354072 -0.042652000491910397 0 0.40815150693701141 -0.037549327566173699 0 0.42419530264354072 -0.042652000491910397 0 0.41107184061272262 -0.047596707948501772 0 0.40815150693701141 -0.037549327566173699 0 0.41401194260749391 -0.028450411104576211 0 0.40815150693701141 -0.037549327566173699 0 0.40044964155059998 -0.029094842751199331 0 0.41107184061272262 -0.047596707948501772 0 0.40815150693701141 -0.037549327566173699 0 0.39379637821942232 -0.04878788226426127 0 0.40815150693701141 -0.037549327566173699 0 0.39379637821942232 -0.04878788226426127 0 0.40044964155059998 -0.029094842751199331 0 0.39379637821942232 -0.04878788226426127 0 0.38867892262788012 -0.028322223649632432 0 0.39379637821942232 -0.04878788226426127 0 0.38867892262788012 -0.028322223649632432 0 0.40044964155059998 -0.029094842751199331 0 0.39967735397270959 -0.072307000297579083 0 0.39379637821942232 -0.04878788226426127 0 0.38669795957132042 -0.057310603286660967 0 0.41814417465091752 -0.061397621471661459 0 0.39379637821942232 -0.04878788226426127 0 0.39967735397270959 -0.072307000297579083 0 0.39379637821942232 -0.04878788226426127 0 0.39967735397270959 -0.072307000297579083 0 0.41814417465091752 -0.061397621471661459 0 0.39379637821942232 -0.04878788226426127 0 0.39379637821942232 -0.04878788226426127 0 0.38896036142985008 -0.046283306103098283 0 0.38669795957132042 -0.057310603286660967 0 0.37839056082150663 -0.050608978831784571 0 0.37240766699872252 -0.068318548019290964 0 0.38669795957132042 -0.057310603286660967 0 0.37839056082150663 -0.050608978831784571 0 0.38896036142985008 -0.046283306103098283 0 0.39379637821942232 -0.04878788226426127 0 0.38669795957132042 -0.057310603286660967 0 0.38896036142985008 -0.046283306103098283 0 0.39379637821942232 -0.04878788226426127 0 0.38896036142985008 -0.046283306103098283 0 0.38867892262788012 -0.028322223649632432 0 0.3834615598562825 -0.037386722635115492 0 0.38896036142985008 -0.046283306103098283 0 0.38867892262788012 -0.028322223649632432 0 0.37839056082150663 -0.050608978831784571 0 0.3834615598562825 -0.037386722635115492 0 0.38896036142985008 -0.046283306103098283 0 0.37839056082150663 -0.050608978831784571 0 0.3834615598562825 -0.037386722635115492 0 0.37356965880113402 -0.040783236975350308 0 0.38867892262788012 -0.028322223649632432 0 0.38356146703633898 -0.0078565650350033434 0 0.3834615598562825 -0.037386722635115492 0 0.37600683512296651 -0.014087071697862221 0 0.37356965880113402 -0.040783236975350308 0 0.3834615598562825 -0.037386722635115492 0 0.38867892262788012 -0.028322223649632432 0 0.37600683512296651 -0.014087071697862221 0 0.38867892262788012 -0.028322223649632432 0 0.37600683512296651 -0.014087071697862221 0 0.38356146703633898 -0.0078565650350033434 0 0.38867892262788012 -0.028322223649632432 0 0.39658225960386179 -0.014459285545308009 0 0.38356146703633898 -0.0078565650350033434 0 0.38867892262788012 -0.028322223649632432 0 0.40044964155059998 -0.029094842751199331 0 0.39658225960386179 -0.014459285545308009 0 0.40522076275047969 -0.019933987949522329 0 0.40044964155059998 -0.029094842751199331 0 0.39658225960386179 -0.014459285545308009 0 0.40806592415966281 -0.01253819616599721 0 0.40522076275047969 -0.019933987949522329 0 0.39658225960386179 -0.014459285545308009 0 0.40060323373222451 0.0042547197705496897 0 0.4046584776842293 -0.0050702490882302163 0 0.39531848553630572 -0.0042569273994520467 0 0.40806592415966281 -0.01253819616599721 0 0.4046584776842293 -0.0050702490882302163 0 0.39658225960386179 -0.014459285545308009 0 0.4046584776842293 -0.0050702490882302163 0 0.39658225960386179 -0.014459285545308009 0 0.39531848553630572 -0.0042569273994520467 0 0.39658225960386179 -0.014459285545308009 0 0.39531848553630572 -0.0042569273994520467 0 0.38356146703633898 -0.0078565650350033434 0 0.39025836247721268 0.0036292771787240202 0 0.39531848553630572 -0.0042569273994520467 0 0.38356146703633898 -0.0078565650350033434 0 0.37844401144479839 0.012609093579625891 0 0.37600683512296651 -0.014087071697862221 0 0.37844401144479839 0.012609093579625891 0 0.37600683512296651 -0.014087071697862221 0 0.38356146703633898 -0.0078565650350033434 0 0.37600683512296651 -0.014087071697862221 0 0.36665723294200347 -0.001883505129568449 0 0.35850646790810559 -0.01395473468271459 0 0.37844401144479839 0.012609093579625891 0 0.37600683512296651 -0.014087071697862221 0 0.36665723294200347 -0.001883505129568449 0 0.36665723294200347 -0.001883505129568449 0 0.35531676971978082 -0.0033532784323768001 0 0.35850646790810559 -0.01395473468271459 0 0.37600683512296651 -0.014087071697862221 0 0.37356965880113402 -0.040783236975350308 0 0.37600683512296651 -0.014087071697862221 0 0.36404947753274258 -0.026706798856440471 0 0.35850646790810559 -0.01395473468271459 0 0.37600683512296651 -0.014087071697862221 0 0.36404947753274258 -0.026706798856440471 0 0.37356965880113402 -0.040783236975350308 0 0.34748556133762742 -0.02738266599094942 0 0.35850646790810559 -0.01395473468271459 0 0.34370628527030811 -0.0115647124322744 0 0.36404947753274258 -0.026706798856440471 0 0.34748556133762742 -0.02738266599094942 0 0.35850646790810559 -0.01395473468271459 0 0.36404947753274258 -0.026706798856440471 0 0.34748556133762742 -0.02738266599094942 0 0.36012817770438982 -0.039413746555128387 0 0.33689267375143878 0.0039255003288513873 0 0.35531676971978082 -0.0033532784323768001 0 0.34370628527030811 -0.0115647124322744 0 0.35531676971978082 -0.0033532784323768001 0 0.35850646790810559 -0.01395473468271459 0 0.34370628527030811 -0.0115647124322744 0 0.33689267375143878 0.0039255003288513873 0 0.34370628527030811 -0.0115647124322744 0 0.32469666258817742 -0.019557632270551 0 0.33689267375143878 0.0039255003288513873 0 0.30352242257352219 0.0039185454548519476 0 0.32469666258817742 -0.019557632270551 0 0.34748556133762742 -0.02738266599094942 0 0.34370628527030811 -0.0115647124322744 0 0.32469666258817742 -0.019557632270551 0 0.34748556133762742 -0.02738266599094942 0 0.32469666258817742 -0.019557632270551 0 0.33457477032001748 -0.043965109755099818 0 0.31326255248553708 -0.043768501277314603 0 0.32924913997341337 -0.063603686862235317 0 0.31014365419524398 -0.06072536978512106 0 0.31326255248553708 -0.043768501277314603 0 0.32924913997341337 -0.063603686862235317 0 0.31326255248553708 -0.043768501277314603 0 0.33457477032001748 -0.043965109755099818 0 0.32924913997341337 -0.063603686862235317 0 0.32469666258817742 -0.019557632270551 0 0.31326255248553708 -0.043768501277314603 0 0.33457477032001748 -0.043965109755099818 0 0.33457477032001748 -0.043965109755099818 0 0.34313363496153881 -0.061193084728204693 0 0.35029003257871461 -0.048624574981710279 0 0.33457477032001748 -0.043965109755099818 0 0.34313363496153881 -0.061193084728204693 0 0.32924913997341337 -0.063603686862235317 0 0.35029003257871461 -0.048624574981710279 0 0.36524615827173029 -0.053571455971191423 0 0.35631850447425872 -0.066333179594821989 0 0.34313363496153881 -0.061193084728204693 0 0.35029003257871461 -0.048624574981710279 0 0.35631850447425872 -0.066333179594821989 0 0.35029003257871461 -0.048624574981710279 0 0.36012817770438982 -0.039413746555128387 0 0.36524615827173029 -0.053571455971191423 0 0.34748556133762742 -0.02738266599094942 0 0.33457477032001748 -0.043965109755099818 0 0.35029003257871461 -0.048624574981710279 0 0.34748556133762742 -0.02738266599094942 0 0.35029003257871461 -0.048624574981710279 0 0.36012817770438982 -0.039413746555128387 0 0.36404947753274258 -0.026706798856440471 0 0.36012817770438982 -0.039413746555128387 0 0.37356965880113402 -0.040783236975350308 0 0.36012817770438982 -0.039413746555128387 0 0.37356965880113402 -0.040783236975350308 0 0.36524615827173029 -0.053571455971191423 0 0.37839056082150663 -0.050608978831784571 0 0.36524615827173029 -0.053571455971191423 0 0.37240766699872252 -0.068318548019290964 0 0.37839056082150663 -0.050608978831784571 0 0.37356965880113402 -0.040783236975350308 0 0.36524615827173029 -0.053571455971191423 0 0.36524615827173029 -0.053571455971191423 0 0.37240766699872252 -0.068318548019290964 0 0.35631850447425872 -0.066333179594821989 0 0.37240766699872252 -0.068318548019290964 0 0.36259903827425999 -0.08213590949324566 0 0.35631850447425872 -0.066333179594821989 0 0.37781097748786241 -0.089314889372882261 0 0.37240766699872252 -0.068318548019290964 0 0.36259903827425999 -0.08213590949324566 0 0.37781097748786241 -0.089314889372882261 0 0.36259903827425999 -0.08213590949324566 0 0.3612223149491664 -0.1032740580320769 0 0.34523572746128989 -0.083438872447156087 0 0.3612223149491664 -0.1032740580320769 0 0.36259903827425999 -0.08213590949324566 0 0.34523572746128989 -0.083438872447156087 0 0.3612223149491664 -0.1032740580320769 0 0.34313363496153881 -0.061193084728204693 0 0.34523572746128989 -0.083438872447156087 0 0.35631850447425872 -0.066333179594821989 0 0.36259903827425999 -0.08213590949324566 0 0.34523572746128989 -0.083438872447156087 0 0.35631850447425872 -0.066333179594821989 0 0.37720890243704291 -0.12310924361699779 0 0.36253108037134668 -0.1248744885805331 0 0.3612223149491664 -0.1032740580320769 0 0.37644505785585192 -0.1058120404938334 0 0.37720890243704291 -0.12310924361699779 0 0.3612223149491664 -0.1032740580320769 0 0.37720890243704291 -0.12310924361699779 0 0.3612223149491664 -0.1032740580320769 0 0.37781097748786241 -0.089314889372882261 0 0.37644505785585192 -0.1058120404938334 0 0.3612223149491664 -0.1032740580320769 0 0.34523572746128989 -0.083438872447156087 0 0.3612223149491664 -0.1032740580320769 0 0.33932087337301742 -0.1007066993955318 0 0.3612223149491664 -0.1032740580320769 0 0.34941185211170689 -0.1127717253903176 0 0.33932087337301742 -0.1007066993955318 0 0.36253108037134668 -0.1248744885805331 0 0.33587402752894302 -0.122350175475488 0 0.36253108037134668 -0.1248744885805331 0 0.34941185211170689 -0.1127717253903176 0 0.33587402752894302 -0.122350175475488 0 0.36253108037134668 -0.1248744885805331 0 0.3612223149491664 -0.1032740580320769 0 0.34941185211170689 -0.1127717253903176 0 0.34941185211170689 -0.1127717253903176 0 0.33587402752894302 -0.122350175475488 0 0.33932087337301742 -0.1007066993955318 0 0.33587402752894302 -0.122350175475488 0 0.33932087337301742 -0.1007066993955318 0 0.31943204723016899 -0.10139701157958859 0 0.33932087337301742 -0.1007066993955318 0 0.31943204723016899 -0.10139701157958859 0 0.32474927095682959 -0.081008353448563344 0 0.33587402752894302 -0.122350175475488 0 0.31943204723016899 -0.10139701157958859 0 0.3092169746865393 -0.1198258623704429 0 0.33587402752894302 -0.122350175475488 0 0.3092169746865393 -0.1198258623704429 0 0.34523572746128989 -0.083438872447156087 0 0.32924913997341337 -0.063603686862235317 0 0.32474927095682959 -0.081008353448563344 0 0.34523572746128989 -0.083438872447156087 0 0.32924913997341337 -0.063603686862235317 0 0.34313363496153881 -0.061193084728204693 0 0.34523572746128989 -0.083438872447156087 0 0.32924913997341337 -0.063603686862235317 0 0.34523572746128989 -0.083438872447156087 0 0.33932087337301742 -0.1007066993955318 0 0.32474927095682959 -0.081008353448563344 0 0.31943204723016899 -0.10139701157958859 0 0.32474927095682959 -0.081008353448563344 0 0.31117343018006932 -0.08835554327446378 0 0.32474927095682959 -0.081008353448563344 0 0.30201438303726968 -0.075929904193525521 0 0.32474927095682959 -0.081008353448563344 0 0.30201438303726968 -0.075929904193525521 0 0.31117343018006932 -0.08835554327446378 0 0.32924913997341337 -0.063603686862235317 0 0.32474927095682959 -0.081008353448563344 0 0.31014365419524398 -0.06072536978512106 0 0.32474927095682959 -0.081008353448563344 0 0.30201438303726968 -0.075929904193525521 0 0.31014365419524398 -0.06072536978512106 0 0.30201438303726968 -0.075929904193525521 0 0.31014365419524398 -0.06072536978512106 0 0.29222542489931519 -0.060978945333093171 0 0.31117343018006932 -0.08835554327446378 0 0.29442961060618023 -0.089764156713605506 0 0.30306705175182019 -0.101009202806625 0 0.30201438303726968 -0.075929904193525521 0 0.31117343018006932 -0.08835554327446378 0 0.29442961060618023 -0.089764156713605506 0 0.29442961060618023 -0.089764156713605506 0 0.28691460331806928 -0.079185378374353493 0 0.27734124638624891 -0.089737863242296378 0 0.30201438303726968 -0.075929904193525521 0 0.29442961060618023 -0.089764156713605506 0 0.28691460331806928 -0.079185378374353493 0 0.30201438303726968 -0.075929904193525521 0 0.27927949511770961 -0.070851454938488739 0 0.29222542489931519 -0.060978945333093171 0 0.30201438303726968 -0.075929904193525521 0 0.27927949511770961 -0.070851454938488739 0 0.30201438303726968 -0.075929904193525521 0 0.28691460331806928 -0.079185378374353493 0 0.27927949511770961 -0.070851454938488739 0 0.28691460331806928 -0.079185378374353493 0 0.27927949511770961 -0.070851454938488739 0 0.27809334201771629 -0.079209584513290715 0 0.28691460331806928 -0.079185378374353493 0 0.27927949511770961 -0.070851454938488739 0 0.27927949511770961 -0.070851454938488739 0 0.27868582307562201 -0.055886184139343542 0 0.29222542489931519 -0.060978945333093171 0 0.31943204723016899 -0.10139701157958859 0 0.3092169746865393 -0.1198258623704429 0 0.30306705175182019 -0.101009202806625 0 0.3092169746865393 -0.1198258623704429 0 0.30306705175182019 -0.101009202806625 0 0.28879183359809052 -0.10393054527906551 0 0.31943204723016899 -0.10139701157958859 0 0.31117343018006932 -0.08835554327446378 0 0.30306705175182019 -0.101009202806625 0 0.28879183359809052 -0.10393054527906551 0 0.28255992184413548 -0.11730154926539781 0 0.27267591943638608 -0.1048970298088977 0 0.29442961060618023 -0.089764156713605506 0 0.28879183359809052 -0.10393054527906551 0 0.27734124638624891 -0.089737863242296378 0 0.29442961060618023 -0.089764156713605506 0 0.30306705175182019 -0.101009202806625 0 0.28879183359809052 -0.10393054527906551 0 0.3092169746865393 -0.1198258623704429 0 0.28255992184413548 -0.11730154926539781 0 0.3092169746865393 -0.1198258623704429 0 0.28879183359809052 -0.10393054527906551 0 0.28255992184413548 -0.11730154926539781 0 0.3092169746865393 -0.1198258623704429 0 0.28255992184413548 -0.11730154926539781 0 0.28721398294742878 -0.13035474923543569 0 0.28255992184413548 -0.11730154926539781 0 0.26776517015272971 -0.1222840496799191 0 0.28721398294742878 -0.13035474923543569 0 0.28255992184413548 -0.11730154926539781 0 0.26776517015272971 -0.1222840496799191 0 0.27267591943638608 -0.1048970298088977 0 0.26776517015272971 -0.1222840496799191 0 0.27267591943638608 -0.1048970298088977 0 0.26047800574605201 -0.11084537767631369 0 0.28879183359809052 -0.10393054527906551 0 0.27267591943638608 -0.1048970298088977 0 0.27734124638624891 -0.089737863242296378 0 0.27267591943638608 -0.1048970298088977 0 0.27734124638624891 -0.089737863242296378 0 0.26256105175446781 -0.092679464148907056 0 0.25771864553297669 -0.099620140202181948 0 0.26047800574605201 -0.11084537767631369 0 0.24375228786211539 -0.116580291014256 0 0.27267591943638608 -0.1048970298088977 0 0.25771864553297669 -0.099620140202181948 0 0.26256105175446781 -0.092679464148907056 0 0.25771864553297669 -0.099620140202181948 0 0.25304747237378489 -0.090741332181114118 0 0.24292322406264641 -0.096552741650977186 0 0.25771864553297669 -0.099620140202181948 0 0.26256105175446781 -0.092679464148907056 0 0.25304747237378489 -0.090741332181114118 0 0.27267591943638608 -0.1048970298088977 0 0.25771864553297669 -0.099620140202181948 0 0.26047800574605201 -0.11084537767631369 0 0.26776517015272971 -0.1222840496799191 0 0.26153006621115998 -0.13421007507225571 0 0.24375228786211539 -0.116580291014256 0 0.26776517015272971 -0.1222840496799191 0 0.24375228786211539 -0.116580291014256 0 0.26776517015272971 -0.1222840496799191 0 0.26047800574605201 -0.11084537767631369 0 0.24375228786211539 -0.116580291014256 0 0.27927949511770961 -0.070851454938488739 0 0.25811154610651499 -0.066123023671663908 0 0.26329678137076351 -0.053405898285071182 0 0.27927949511770961 -0.070851454938488739 0 0.25811154610651499 -0.066123023671663908 0 0.26883802324883782 -0.077063641498024305 0 0.27927949511770961 -0.070851454938488739 0 0.25811154610651499 -0.066123023671663908 0 0.26883802324883782 -0.077063641498024305 0 0.27927949511770961 -0.070851454938488739 0 0.27809334201771629 -0.079209584513290715 0 0.26883802324883782 -0.077063641498024305 0 0.27809334201771629 -0.079209584513290715 0 0.27734124638624891 -0.089737863242296378 0 0.26883802324883782 -0.077063641498024305 0 0.27734124638624891 -0.089737863242296378 0 0.25202197504294188 -0.078400955310045109 0 0.28691460331806928 -0.079185378374353493 0 0.27809334201771629 -0.079209584513290715 0 0.27734124638624891 -0.089737863242296378 0 0.27734124638624891 -0.089737863242296378 0 0.26256105175446781 -0.092679464148907056 0 0.25202197504294188 -0.078400955310045109 0 0.27734124638624891 -0.089737863242296378 0 0.25202197504294188 -0.078400955310045109 0 0.26256105175446781 -0.092679464148907056 0 0.25304747237378489 -0.090741332181114118 0 0.25202197504294188 -0.078400955310045109 0 0.25304747237378489 -0.090741332181114118 0 0.25202197504294188 -0.078400955310045109 0 0.24624903761231479 -0.086847438891893419 0 0.26883802324883782 -0.077063641498024305 0 0.25202197504294188 -0.078400955310045109 0 0.25811154610651499 -0.066123023671663908 0 0.25811154610651499 -0.066123023671663908 0 0.26329678137076351 -0.053405898285071182 0 0.24870160087168189 -0.052882304334001928 0 0.26329678137076351 -0.053405898285071182 0 0.24870160087168189 -0.052882304334001928 0 0.24731406762381819 -0.035960341631652723 0 0.27927949511770961 -0.070851454938488739 0 0.26329678137076351 -0.053405898285071182 0 0.27868582307562201 -0.055886184139343542 0 0.27927949511770961 -0.070851454938488739 0 0.26329678137076351 -0.053405898285071182 0 0.26329678137076351 -0.053405898285071182 0 0.27868582307562201 -0.055886184139343542 0 0.27337213238318842 -0.044040078526876879 0 0.27868582307562201 -0.055886184139343542 0 0.27337213238318842 -0.044040078526876879 0 0.28525528160713332 -0.050154543613187753 0 0.26329678137076351 -0.053405898285071182 0 0.27337213238318842 -0.044040078526876879 0 0.26311483972878968 -0.036713614733010089 0 0.27337213238318842 -0.044040078526876879 0 0.27217486102646721 -0.027861542379398439 0 0.28494473946257981 -0.034556038004921102 0 0.27337213238318842 -0.044040078526876879 0 0.26311483972878968 -0.036713614733010089 0 0.27217486102646721 -0.027861542379398439 0 0.27337213238318842 -0.044040078526876879 0 0.28525528160713332 -0.050154543613187753 0 0.28494473946257981 -0.034556038004921102 0 0.26311483972878968 -0.036713614733010089 0 0.25941635623971138 -0.02230021284205122 0 0.24731406762381819 -0.035960341631652723 0 0.26329678137076351 -0.053405898285071182 0 0.24731406762381819 -0.035960341631652723 0 0.26329678137076351 -0.053405898285071182 0 0.26311483972878968 -0.036713614733010089 0 0.24731406762381819 -0.035960341631652723 0 0.25941635623971138 -0.02230021284205122 0 0.24731406762381819 -0.035960341631652723 0 0.2482857443068576 -0.021714794414400052 0 0.25941635623971138 -0.02230021284205122 0 0.25508119948702751 -0.010083838205662381 0 0.2482857443068576 -0.021714794414400052 0 0.26311483972878968 -0.036713614733010089 0 0.25941635623971138 -0.02230021284205122 0 0.27217486102646721 -0.027861542379398439 0 0.2541426920980116 -0.0036136263454906951 0 0.25508119948702751 -0.010083838205662381 0 0.24138147174972829 -0.0061427828714447699 0 0.2541426920980116 -0.0036136263454906951 0 0.25508119948702751 -0.010083838205662381 0 0.26047117107291767 -0.0019720443344692288 0 0.25446675038947358 0.0029162606258486688 0 0.2541426920980116 -0.0036136263454906951 0 0.26047117107291767 -0.0019720443344692288 0 0.25941635623971138 -0.02230021284205122 0 0.25508119948702751 -0.010083838205662381 0 0.26474460583379889 -0.01023883548432745 0 0.25941635623971138 -0.02230021284205122 0 0.26474460583379889 -0.01023883548432745 0 0.27166734417845928 -0.01430021117376327 0 0.25508119948702751 -0.010083838205662381 0 0.26474460583379889 -0.01023883548432745 0 0.26047117107291767 -0.0019720443344692288 0 0.26474460583379889 -0.01023883548432745 0 0.26047117107291767 -0.0019720443344692288 0 0.27708695819087842 -0.0025378708656911609 0 0.26474460583379889 -0.01023883548432745 0 0.27166734417845928 -0.01430021117376327 0 0.27708695819087842 -0.0025378708656911609 0 0.27166734417845928 -0.01430021117376327 0 0.27708695819087842 -0.0025378708656911609 0 0.28469269166600031 -0.01545933141113482 0 0.27217486102646721 -0.027861542379398439 0 0.28469269166600031 -0.01545933141113482 0 0.28494473946257981 -0.034556038004921102 0 0.25941635623971138 -0.02230021284205122 0 0.27166734417845928 -0.01430021117376327 0 0.27217486102646721 -0.027861542379398439 0 0.27166734417845928 -0.01430021117376327 0 0.27217486102646721 -0.027861542379398439 0 0.28469269166600031 -0.01545933141113482 0 0.28469269166600031 -0.01545933141113482 0 0.29727596499766062 -0.023933315692393788 0 0.28494473946257981 -0.034556038004921102 0 0.30352242257352219 0.0039185454548519476 0 0.28469269166600031 -0.01545933141113482 0 0.29727596499766062 -0.023933315692393788 0 0.30352242257352219 0.0039185454548519476 0 0.27708695819087842 -0.0025378708656911609 0 0.28469269166600031 -0.01545933141113482 0 0.30352242257352219 0.0039185454548519476 0 0.32469666258817742 -0.019557632270551 0 0.29727596499766062 -0.023933315692393788 0 0.32469666258817742 -0.019557632270551 0 0.31326255248553708 -0.043768501277314603 0 0.29727596499766062 -0.023933315692393788 0 0.31326255248553708 -0.043768501277314603 0 0.29727596499766062 -0.023933315692393788 0 0.2968975050950291 -0.045887416406534938 0 0.31326255248553708 -0.043768501277314603 0 0.29727596499766062 -0.023933315692393788 0 0.31326255248553708 -0.043768501277314603 0 0.2968975050950291 -0.045887416406534938 0 0.31014365419524398 -0.06072536978512106 0 0.2968975050950291 -0.045887416406534938 0 0.31014365419524398 -0.06072536978512106 0 0.29222542489931519 -0.060978945333093171 0 0.2968975050950291 -0.045887416406534938 0 0.29222542489931519 -0.060978945333093171 0 0.28525528160713332 -0.050154543613187753 0 0.27868582307562201 -0.055886184139343542 0 0.29222542489931519 -0.060978945333093171 0 0.28525528160713332 -0.050154543613187753 0 0.2968975050950291 -0.045887416406534938 0 0.28525528160713332 -0.050154543613187753 0 0.28494473946257981 -0.034556038004921102 0 0.29727596499766062 -0.023933315692393788 0 0.2968975050950291 -0.045887416406534938 0 0.28494473946257981 -0.034556038004921102 0 0.29579617193404978 -0.19432558104056491 0 0.30588539897632072 -0.22256652654210629 0 0.2776594049058328 -0.2175861504380624 0 0.29579617193404978 -0.19432558104056491 0 0.2776594049058328 -0.2175861504380624 0 0.2764107852420567 -0.19644220614923899 0 0.29579617193404978 -0.19432558104056491 0 0.2764107852420567 -0.19644220614923899 0 0.2792899687438003 -0.18116405860585089 0 0.29579617193404978 -0.19432558104056491 0 0.31045946319455608 -0.20263901644370941 0 0.31057073564158039 -0.17760626025882659 0 0.29579617193404978 -0.19432558104056491 0 0.30588539897632072 -0.22256652654210629 0 0.31045946319455608 -0.20263901644370941 0 0.30588539897632072 -0.22256652654210629 0 0.32020032842118662 -0.2136972324735969 0 0.29579617193404978 -0.19432558104056491 0 0.31045946319455608 -0.20263901644370941 0 0.30588539897632072 -0.22256652654210629 0 0.29681701546221179 -0.23419681124085551 0 0.31597462601859122 -0.25080747204364812 0 0.30111904597271899 -0.2536098058489899 0 0.30588539897632072 -0.22256652654210629 0 0.29681701546221179 -0.23419681124085551 0 0.31597462601859122 -0.25080747204364812 0 0.30588539897632072 -0.22256652654210629 0 0.31597462601859122 -0.25080747204364812 0 0.29681701546221179 -0.23419681124085551 0 0.31597462601859122 -0.25080747204364812 0 0.29681701546221179 -0.23419681124085551 0 0.30111904597271899 -0.2536098058489899 0 0.28456511698073272 -0.25518130134833977 0 0.29681701546221179 -0.23419681124085551 0 0.27830026498091959 -0.23745462562099759 0 0.28456511698073272 -0.25518130134833977 0 0.30588539897632072 -0.22256652654210629 0 0.29681701546221179 -0.23419681124085551 0 0.2776594049058328 -0.2175861504380624 0 0.29681701546221179 -0.23419681124085551 0 0.27830026498091959 -0.23745462562099759 0 0.2776594049058328 -0.2175861504380624 0 0.29681701546221179 -0.23419681124085551 0 0.2776594049058328 -0.2175861504380624 0 0.26584409390649738 -0.23415831621220631 0 0.27830026498091959 -0.23745462562099759 0 0.2776594049058328 -0.2175861504380624 0 0.26584409390649738 -0.23415831621220631 0 0.25658827463044448 -0.2222138965281123 0 0.2776594049058328 -0.2175861504380624 0 0.27830026498091959 -0.23745462562099759 0 0.28456511698073272 -0.25518130134833977 0 0.26629969424128969 -0.25192769388052821 0 0.26584409390649738 -0.23415831621220631 0 0.27830026498091959 -0.23745462562099759 0 0.26629969424128969 -0.25192769388052821 0 0.26584409390649738 -0.23415831621220631 0 0.25037283077400019 -0.2416092145933311 0 0.26629969424128969 -0.25192769388052821 0 0.25037283077400019 -0.2416092145933311 0 0.25658827463044448 -0.2222138965281123 0 0.2446094219978813 -0.2276121794933563 0 0.26584409390649738 -0.23415831621220631 0 0.25037283077400019 -0.2416092145933311 0 0.25658827463044448 -0.2222138965281123 0 0.25658827463044448 -0.2222138965281123 0 0.2776594049058328 -0.2175861504380624 0 0.25850179434945381 -0.20097548963526929 0 0.25658827463044448 -0.2222138965281123 0 0.25850179434945381 -0.20097548963526929 0 0.23907695871134879 -0.21289681242661959 0 0.2776594049058328 -0.2175861504380624 0 0.25850179434945381 -0.20097548963526929 0 0.2776594049058328 -0.2175861504380624 0 0.2764107852420567 -0.19644220614923899 0 0.25850179434945381 -0.20097548963526929 0 0.2764107852420567 -0.19644220614923899 0 0.25850179434945381 -0.20097548963526929 0 0.26539786460737957 -0.18100391429238191 0 0.25850179434945381 -0.20097548963526929 0 0.26539786460737957 -0.18100391429238191 0 0.23934418379307471 -0.18436482883247621 0 0.26539786460737957 -0.18100391429238191 0 0.25449645062408999 -0.16331052089379791 0 0.23934418379307471 -0.18436482883247621 0 0.26539786460737957 -0.18100391429238191 0 0.25449645062408999 -0.16331052089379791 0 0.27043371620885309 -0.16438603764101259 0 0.25449645062408999 -0.16331052089379791 0 0.27043371620885309 -0.16438603764101259 0 0.2633734196266177 -0.15149826902969399 0 0.27043371620885309 -0.16438603764101259 0 0.2792899687438003 -0.18116405860585089 0 0.28570694489177878 -0.1660846355390232 0 0.27043371620885309 -0.16438603764101259 0 0.27930784456020519 -0.15183985913025491 0 0.28570694489177878 -0.1660846355390232 0 0.26539786460737957 -0.18100391429238191 0 0.27043371620885309 -0.16438603764101259 0 0.2792899687438003 -0.18116405860585089 0 0.2764107852420567 -0.19644220614923899 0 0.26539786460737957 -0.18100391429238191 0 0.2792899687438003 -0.18116405860585089 0 0.26153006621115998 -0.13421007507225571 0 0.24375228786211539 -0.116580291014256 0 0.24955680073527009 -0.143898101237383 0 0.26153006621115998 -0.13421007507225571 0 0.24375228786211539 -0.116580291014256 0 0.25449645062408999 -0.16331052089379791 0 0.2633734196266177 -0.15149826902969399 0 0.24955680073527009 -0.143898101237383 0 0.26153006621115998 -0.13421007507225571 0 0.2633734196266177 -0.15149826902969399 0 0.24955680073527009 -0.143898101237383 0 0.27043371620885309 -0.16438603764101259 0 0.2633734196266177 -0.15149826902969399 0 0.27930784456020519 -0.15183985913025491 0 0.27561771784950778 -0.13784369003748159 0 0.28570694489177878 -0.1660846355390232 0 0.26153006621115998 -0.13421007507225571 0 0.27930784456020519 -0.15183985913025491 0 0.27561771784950778 -0.13784369003748159 0 0.27930784456020519 -0.15183985913025491 0 0.27561771784950778 -0.13784369003748159 0 0.28570694489177878 -0.1660846355390232 0 0.26153006621115998 -0.13421007507225571 0 0.2633734196266177 -0.15149826902969399 0 0.27930784456020519 -0.15183985913025491 0 0.26153006621115998 -0.13421007507225571 0 0.27930784456020519 -0.15183985913025491 0 0.26776517015272971 -0.1222840496799191 0 0.27561771784950778 -0.13784369003748159 0 0.28721398294742878 -0.13035474923543569 0 0.26776517015272971 -0.1222840496799191 0 0.26153006621115998 -0.13421007507225571 0 0.27561771784950778 -0.13784369003748159 0 0.27561771784950778 -0.13784369003748159 0 0.28721398294742878 -0.13035474923543569 0 0.28891568690104508 -0.14625428249578579 0 0.28721398294742878 -0.13035474923543569 0 0.28891568690104508 -0.14625428249578579 0 0.29920842625061578 -0.1386190615635868 0 0.28891568690104508 -0.14625428249578579 0 0.29920842625061578 -0.1386190615635868 0 0.29789574789403661 -0.15876522012859751 0 0.27561771784950778 -0.13784369003748159 0 0.28891568690104508 -0.14625428249578579 0 0.28570694489177878 -0.1660846355390232 0 0.30985117626407932 -0.1486491484402036 0 0.29920842625061578 -0.1386190615635868 0 0.29789574789403661 -0.15876522012859751 0 0.30985117626407932 -0.1486491484402036 0 0.29789574789403661 -0.15876522012859751 0 0.3134799250960158 -0.16133035304856411 0 0.30985117626407932 -0.1486491484402036 0 0.29920842625061578 -0.1386190615635868 0 0.31980994510895661 -0.13408045692276491 0 0.3092169746865393 -0.1198258623704429 0 0.28721398294742878 -0.13035474923543569 0 0.29920842625061578 -0.1386190615635868 0 0.3092169746865393 -0.1198258623704429 0 0.29920842625061578 -0.1386190615635868 0 0.31980994510895661 -0.13408045692276491 0 0.29579617193404978 -0.19432558104056491 0 0.2792899687438003 -0.18116405860585089 0 0.28570694489177878 -0.1660846355390232 0 0.29579617193404978 -0.19432558104056491 0 0.28570694489177878 -0.1660846355390232 0 0.29579617193404978 -0.19432558104056491 0 0.28570694489177878 -0.1660846355390232 0 0.29784246694311001 -0.17248502473641619 0 0.28891568690104508 -0.14625428249578579 0 0.28570694489177878 -0.1660846355390232 0 0.29789574789403661 -0.15876522012859751 0 0.28570694489177878 -0.1660846355390232 0 0.29789574789403661 -0.15876522012859751 0 0.29784246694311001 -0.17248502473641619 0 0.29789574789403661 -0.15876522012859751 0 0.31057073564158039 -0.17760626025882659 0 0.3134799250960158 -0.16133035304856411 0 0.29789574789403661 -0.15876522012859751 0 0.31057073564158039 -0.17760626025882659 0 0.29784246694311001 -0.17248502473641619 0 0.29789574789403661 -0.15876522012859751 0 0.31057073564158039 -0.17760626025882659 0 0.29579617193404978 -0.19432558104056491 0 0.31057073564158039 -0.17760626025882659 0 0.29784246694311001 -0.17248502473641619 0 0.31057073564158039 -0.17760626025882659 0 0.33117051957001492 -0.16690810347740409 0 0.33960500058918919 -0.18923554211963439 0 0.31057073564158039 -0.17760626025882659 0 0.32324572338912438 -0.19644730038905581 0 0.3134799250960158 -0.16133035304856411 0 0.33117051957001492 -0.16690810347740409 0 0.32297156368297691 -0.15191279281852399 0 0.31057073564158039 -0.17760626025882659 0 0.3134799250960158 -0.16133035304856411 0 0.33117051957001492 -0.16690810347740409 0 0.33117051957001492 -0.16690810347740409 0 0.34312821131240068 -0.1490342399984359 0 0.35150112372442083 -0.17432517416681301 0 0.33117051957001492 -0.16690810347740409 0 0.35150112372442083 -0.17432517416681301 0 0.33960500058918919 -0.18923554211963439 0 0.33587402752894302 -0.122350175475488 0 0.3092169746865393 -0.1198258623704429 0 0.31980994510895661 -0.13408045692276491 0 0.30985117626407932 -0.1486491484402036 0 0.31980994510895661 -0.13408045692276491 0 0.32297156368297691 -0.15191279281852399 0 0.30985117626407932 -0.1486491484402036 0 0.3134799250960158 -0.16133035304856411 0 0.32297156368297691 -0.15191279281852399 0 0.33117051957001492 -0.16690810347740409 0 0.32297156368297691 -0.15191279281852399 0 0.34312821131240068 -0.1490342399984359 0 0.31980994510895661 -0.13408045692276491 0 0.32297156368297691 -0.15191279281852399 0 0.34312821131240068 -0.1490342399984359 0 0.33587402752894302 -0.122350175475488 0 0.31980994510895661 -0.13408045692276491 0 0.34312821131240068 -0.1490342399984359 0 0.36253108037134668 -0.1248744885805331 0 0.33587402752894302 -0.122350175475488 0 0.3555623608711499 -0.1359942506039106 0 0.33587402752894302 -0.122350175475488 0 0.34312821131240068 -0.1490342399984359 0 0.3555623608711499 -0.1359942506039106 0 0.34312821131240068 -0.1490342399984359 0 0.3555623608711499 -0.1359942506039106 0 0.36858459771950869 -0.15733985743645959 0 0.3555623608711499 -0.1359942506039106 0 0.36652086356581781 -0.12946943863695781 0 0.36858459771950869 -0.15733985743645959 0 0.36652086356581781 -0.12946943863695781 0 0.36858459771950869 -0.15733985743645959 0 0.36652086356581781 -0.12946943863695781 0 0.36858459771950869 -0.15733985743645959 0 0.3787995421462832 -0.1425544525875144 0 0.36652086356581781 -0.12946943863695781 0 0.37808333446084269 -0.1309391893982525 0 0.3787995421462832 -0.1425544525875144 0 0.36253108037134668 -0.1248744885805331 0 0.36652086356581781 -0.12946943863695781 0 0.37808333446084269 -0.1309391893982525 0 0.36253108037134668 -0.1248744885805331 0 0.3555623608711499 -0.1359942506039106 0 0.36652086356581781 -0.12946943863695781 0 0.35150112372442083 -0.17432517416681301 0 0.37064833187319962 -0.1852102762359614 0 0.35587008128221181 -0.19822302573298239 0 0.35150112372442083 -0.17432517416681301 0 0.35587008128221181 -0.19822302573298239 0 0.33960500058918919 -0.18923554211963439 0 0.34312821131240068 -0.1490342399984359 0 0.35150112372442083 -0.17432517416681301 0 0.36858459771950869 -0.15733985743645959 0 0.36858459771950869 -0.15733985743645959 0 0.37064833187319962 -0.1852102762359614 0 0.35150112372442083 -0.17432517416681301 0 0.36858459771950869 -0.15733985743645959 0 0.37064833187319962 -0.1852102762359614 0 0.36858459771950869 -0.15733985743645959 0 0.37064833187319962 -0.1852102762359614 0 0.3834788620725188 -0.17954848884060079 0 0.37064833187319962 -0.1852102762359614 0 0.37271206602689039 -0.21308069503546309 0 0.38139900114097952 -0.20469292352659629 0 0.37064833187319962 -0.1852102762359614 0 0.37271206602689039 -0.21308069503546309 0 0.37064833187319962 -0.1852102762359614 0 0.37271206602689039 -0.21308069503546309 0 0.35587008128221181 -0.19822302573298239 0 0.37271206602689039 -0.21308069503546309 0 0.35603419272415182 -0.2169366224123114 0 0.35587008128221181 -0.19822302573298239 0 0.35603419272415182 -0.2169366224123114 0 0.35587008128221181 -0.19822302573298239 0 0.33592071113666833 -0.21528834051928489 0 0.35587008128221181 -0.19822302573298239 0 0.33960500058918919 -0.18923554211963439 0 0.33592071113666833 -0.21528834051928489 0 0.33960500058918919 -0.18923554211963439 0 0.33592071113666833 -0.21528834051928489 0 0.32324572338912438 -0.19644730038905581 0 0.33592071113666833 -0.21528834051928489 0 0.32324572338912438 -0.19644730038905581 0 0.33592071113666833 -0.21528834051928489 0 0.32020032842118662 -0.2136972324735969 0 0.32324572338912438 -0.19644730038905581 0 0.31045946319455608 -0.20263901644370941 0 0.32020032842118662 -0.2136972324735969 0 0.32324572338912438 -0.19644730038905581 0 0.31057073564158039 -0.17760626025882659 0 0.33960500058918919 -0.18923554211963439 0 0.32324572338912438 -0.19644730038905581 0 0.31045946319455608 -0.20263901644370941 0 0.31057073564158039 -0.17760626025882659 0 0.32324572338912438 -0.19644730038905581 0 0.32549034540926353 -0.23154497847382799 0 0.33517615116993849 -0.24743488902137309 0 0.31597462601859122 -0.25080747204364812 0 0.30588539897632072 -0.22256652654210629 0 0.32549034540926353 -0.23154497847382799 0 0.31597462601859122 -0.25080747204364812 0 0.30588539897632072 -0.22256652654210629 0 0.32020032842118662 -0.2136972324735969 0 0.32549034540926353 -0.23154497847382799 0 0.33592071113666833 -0.21528834051928489 0 0.32020032842118662 -0.2136972324735969 0 0.32549034540926353 -0.23154497847382799 0 0.33592071113666833 -0.21528834051928489 0 0.32549034540926353 -0.23154497847382799 0 0.34859569888421221 -0.23412938064951411 0 0.33592071113666833 -0.21528834051928489 0 0.34859569888421221 -0.23412938064951411 0 0.32549034540926353 -0.23154497847382799 0 0.33517615116993849 -0.24743488902137309 0 0.34859569888421221 -0.23412938064951411 0 0.33517615116993849 -0.24743488902137309 0 0.34859569888421221 -0.23412938064951411 0 0.35185333732921159 -0.25428502110151557 0 0.34859569888421221 -0.23412938064951411 0 0.36075586336603621 -0.2426037127049111 0 0.35185333732921159 -0.25428502110151557 0 0.34859569888421221 -0.23412938064951411 0 0.36291464790978972 -0.22902601310760301 0 0.36075586336603621 -0.2426037127049111 0 0.35603419272415182 -0.2169366224123114 0 0.34859569888421221 -0.23412938064951411 0 0.36291464790978972 -0.22902601310760301 0 0.35603419272415182 -0.2169366224123114 0 0.33592071113666833 -0.21528834051928489 0 0.34859569888421221 -0.23412938064951411 0 0.37271206602689039 -0.21308069503546309 0 0.35603419272415182 -0.2169366224123114 0 0.36291464790978972 -0.22902601310760301 0 0.37271206602689039 -0.21308069503546309 0 0.37477580018058132 -0.24095111383496479 0 0.37555308153547928 -0.22286467051027881 0 0.37271206602689039 -0.21308069503546309 0 0.37477580018058132 -0.24095111383496479 0 0.37271206602689039 -0.21308069503546309 0 0.36291464790978972 -0.22902601310760301 0 0.37477580018058132 -0.24095111383496479 0 0.36075586336603621 -0.2426037127049111 0 0.37477580018058132 -0.24095111383496479 0 0.36563983252638571 -0.25462703483095822 0 0.36291464790978972 -0.22902601310760301 0 0.36075586336603621 -0.2426037127049111 0 0.37477580018058132 -0.24095111383496479 0 0.37477580018058132 -0.24095111383496479 0 0.39321551516580561 -0.23618023300957031 0 0.38725375881062551 -0.25185160038302579 0 0.39321551516580561 -0.23618023300957031 0 0.41087794879613182 -0.2494957955088617 0 0.40741230325918792 -0.23450562481703699 0 0.39321551516580561 -0.23618023300957031 0 0.41087794879613182 -0.2494957955088617 0 0.39321551516580561 -0.23618023300957031 0 0.38725375881062551 -0.25185160038302579 0 0.39640803358832022 -0.25154779433757402 0 0.39321551516580561 -0.23618023300957031 0 0.41087794879613182 -0.2494957955088617 0 0.39640803358832022 -0.25154779433757402 0 0.4055308246994358 -0.22407667781788709 0 0.39424069285124719 -0.22310079746779379 0 0.40434357831770951 -0.21487406561090469 0 0.4055308246994358 -0.22407667781788709 0 0.39424069285124719 -0.22310079746779379 0 0.40741230325918792 -0.23450562481703699 0 0.39321551516580561 -0.23618023300957031 0 0.39424069285124719 -0.22310079746779379 0 0.40741230325918792 -0.23450562481703699 0 0.37477580018058132 -0.24095111383496479 0 0.39321551516580561 -0.23618023300957031 0 0.37555308153547928 -0.22286467051027881 0 0.39424069285124719 -0.22310079746779379 0 0.37555308153547928 -0.22286467051027881 0 0.38300691860546521 -0.21527996176244341 0 0.39321551516580561 -0.23618023300957031 0 0.37555308153547928 -0.22286467051027881 0 0.39321551516580561 -0.23618023300957031 0 0.39424069285124719 -0.22310079746779379 0 0.37555308153547928 -0.22286467051027881 0 0.37271206602689039 -0.21308069503546309 0 0.37555308153547928 -0.22286467051027881 0 0.38300691860546521 -0.21527996176244341 0 0.37271206602689039 -0.21308069503546309 0 0.38139900114097952 -0.20469292352659629 0 0.38300691860546521 -0.21527996176244341 0 0.38139900114097952 -0.20469292352659629 0 0.39078770323730427 -0.19674260859680251 0 0.39112975147272949 -0.2126607222720846 0 0.38139900114097952 -0.20469292352659629 0 0.38300691860546521 -0.21527996176244341 0 0.39112975147272949 -0.2126607222720846 0 0.39424069285124719 -0.22310079746779379 0 0.38300691860546521 -0.21527996176244341 0 0.39112975147272949 -0.2126607222720846 0 0.37064833187319962 -0.1852102762359614 0 0.38139900114097952 -0.20469292352659629 0 0.39078770323730427 -0.19674260859680251 0 0.39078770323730427 -0.19674260859680251 0 0.40475141021500721 -0.1910589369573561 0 0.39510197637232292 -0.1839605883432579 0 0.39078770323730427 -0.19674260859680251 0 0.40426546228868082 -0.20108352786525729 0 0.397631623829106 -0.20634023108626229 0 0.39078770323730427 -0.19674260859680251 0 0.40426546228868082 -0.20108352786525729 0 0.40475141021500721 -0.1910589369573561 0 0.39078770323730427 -0.19674260859680251 0 0.39112975147272949 -0.2126607222720846 0 0.397631623829106 -0.20634023108626229 0 0.39112975147272949 -0.2126607222720846 0 0.397631623829106 -0.20634023108626229 0 0.40434357831770951 -0.21487406561090469 0 0.39424069285124719 -0.22310079746779379 0 0.39112975147272949 -0.2126607222720846 0 0.40434357831770951 -0.21487406561090469 0 0.40426546228868082 -0.20108352786525729 0 0.397631623829106 -0.20634023108626229 0 0.40434357831770951 -0.21487406561090469 0 0.40434357831770951 -0.21487406561090469 0 0.41713092845542321 -0.20900944133272009 0 0.41612672436959858 -0.22382622337581301 0 0.40426546228868082 -0.20108352786525729 0 0.40434357831770951 -0.21487406561090469 0 0.41713092845542321 -0.20900944133272009 0 0.41713092845542321 -0.20900944133272009 0 0.42330136258736267 -0.2174116668913772 0 0.41612672436959858 -0.22382622337581301 0 0.40475141021500721 -0.1910589369573561 0 0.41487892771890261 -0.19826025474908979 0 0.4146572714410397 -0.186958864794112 0 0.40426546228868082 -0.20108352786525729 0 0.41713092845542321 -0.20900944133272009 0 0.41487892771890261 -0.19826025474908979 0 0.40426546228868082 -0.20108352786525729 0 0.40475141021500721 -0.1910589369573561 0 0.41487892771890261 -0.19826025474908979 0 0.41713092845542321 -0.20900944133272009 0 0.41487892771890261 -0.19826025474908979 0 0.42701217502226602 -0.19751647228806199 0 0.41487892771890261 -0.19826025474908979 0 0.42053294087941678 -0.1923617771039739 0 0.42701217502226602 -0.19751647228806199 0 0.42053294087941678 -0.1923617771039739 0 0.4146572714410397 -0.186958864794112 0 0.42558338933545942 -0.1867115165846317 0 0.41487892771890261 -0.19826025474908979 0 0.42053294087941678 -0.1923617771039739 0 0.4146572714410397 -0.186958864794112 0 0.42701217502226602 -0.19751647228806199 0 0.43844209377108118 -0.18689286854296691 0 0.44355474576021348 -0.2050869029196882 0 0.42053294087941678 -0.1923617771039739 0 0.42701217502226602 -0.19751647228806199 0 0.42558338933545942 -0.1867115165846317 0 0.42701217502226602 -0.19751647228806199 0 0.42558338933545942 -0.1867115165846317 0 0.43844209377108118 -0.18689286854296691 0 0.42701217502226602 -0.19751647228806199 0 0.43006687167525981 -0.21185300334864521 0 0.44355474576021348 -0.2050869029196882 0 0.41713092845542321 -0.20900944133272009 0 0.42330136258736267 -0.2174116668913772 0 0.43006687167525981 -0.21185300334864521 0 0.42330136258736267 -0.2174116668913772 0 0.43006687167525981 -0.21185300334864521 0 0.42988092584916948 -0.2249579995083304 0 0.41713092845542321 -0.20900944133272009 0 0.42701217502226602 -0.19751647228806199 0 0.43006687167525981 -0.21185300334864521 0 0.43006687167525981 -0.21185300334864521 0 0.42988092584916948 -0.2249579995083304 0 0.44009267276725389 -0.2176624614444449 0 0.42330136258736267 -0.2174116668913772 0 0.42988092584916948 -0.2249579995083304 0 0.41612672436959858 -0.22382622337581301 0 0.42988092584916948 -0.2249579995083304 0 0.43458399188612801 -0.2397076170126072 0 0.42159465327244361 -0.23640953485310751 0 0.42988092584916948 -0.2249579995083304 0 0.42159465327244361 -0.23640953485310751 0 0.41612672436959858 -0.22382622337581301 0 0.42988092584916948 -0.2249579995083304 0 0.43458399188612801 -0.2397076170126072 0 0.44416109061426973 -0.22983272991065171 0 0.43458399188612801 -0.2397076170126072 0 0.42656562700980838 -0.24831468624349931 0 0.4372088962240912 -0.25169219704383999 0 0.43458399188612801 -0.2397076170126072 0 0.42656562700980838 -0.24831468624349931 0 0.42159465327244361 -0.23640953485310751 0 0.42656562700980838 -0.24831468624349931 0 0.42159465327244361 -0.23640953485310751 0 0.41087794879613182 -0.2494957955088617 0 0.42159465327244361 -0.23640953485310751 0 0.41087794879613182 -0.2494957955088617 0 0.40741230325918792 -0.23450562481703699 0 0.4055308246994358 -0.22407667781788709 0 0.40741230325918792 -0.23450562481703699 0 0.41612672436959858 -0.22382622337581301 0 0.4055308246994358 -0.22407667781788709 0 0.40434357831770951 -0.21487406561090469 0 0.41612672436959858 -0.22382622337581301 0 0.42159465327244361 -0.23640953485310751 0 0.40741230325918792 -0.23450562481703699 0 0.41612672436959858 -0.22382622337581301 0 0.39823574772599779 -0.11763079726210079 0 0.40257569972698831 -0.13396225485532559 0 0.38918813321375051 -0.12739880168557821 0 0.40257569972698831 -0.13396225485532559 0 0.38918813321375051 -0.12739880168557821 0 0.39017348084279901 -0.13955387731924049 0 0.38918813321375051 -0.12739880168557821 0 0.37808333446084269 -0.1309391893982525 0 0.39017348084279901 -0.13955387731924049 0 0.37720890243704291 -0.12310924361699779 0 0.36253108037134668 -0.1248744885805331 0 0.38918813321375051 -0.12739880168557821 0 0.36253108037134668 -0.1248744885805331 0 0.38918813321375051 -0.12739880168557821 0 0.37808333446084269 -0.1309391893982525 0 0.36253108037134668 -0.1248744885805331 0 0.38918813321375051 -0.12739880168557821 0 0.37808333446084269 -0.1309391893982525 0 0.39017348084279901 -0.13955387731924049 0 0.3787995421462832 -0.1425544525875144 0 0.36858459771950869 -0.15733985743645959 0 0.3787995421462832 -0.1425544525875144 0 0.38535727780346091 -0.1527557998392445 0 0.39017348084279901 -0.13955387731924049 0 0.3787995421462832 -0.1425544525875144 0 0.38535727780346091 -0.1527557998392445 0 0.40257569972698831 -0.13396225485532559 0 0.39822107621443897 -0.1501202070538992 0 0.41732028123257531 -0.14286435439753159 0 0.40257569972698831 -0.13396225485532559 0 0.39017348084279901 -0.13955387731924049 0 0.39822107621443897 -0.1501202070538992 0 0.39017348084279901 -0.13955387731924049 0 0.38535727780346091 -0.1527557998392445 0 0.39822107621443897 -0.1501202070538992 0 0.39822107621443897 -0.1501202070538992 0 0.39107178753907162 -0.16851380255406381 0 0.40713652226246821 -0.16744863749245631 0 0.39107178753907162 -0.16851380255406381 0 0.40713652226246821 -0.16744863749245631 0 0.38535727780346091 -0.1527557998392445 0 0.39822107621443897 -0.1501202070538992 0 0.39107178753907162 -0.16851380255406381 0 0.39107178753907162 -0.16851380255406381 0 0.40460499843718001 -0.17902112385493851 0 0.40713652226246821 -0.16744863749245631 0 0.36858459771950869 -0.15733985743645959 0 0.38535727780346091 -0.1527557998392445 0 0.39107178753907162 -0.16851380255406381 0 0.36858459771950869 -0.15733985743645959 0 0.39107178753907162 -0.16851380255406381 0 0.3834788620725188 -0.17954848884060079 0 0.39107178753907162 -0.16851380255406381 0 0.3834788620725188 -0.17954848884060079 0 0.39510197637232292 -0.1839605883432579 0 0.39078770323730427 -0.19674260859680251 0 0.3834788620725188 -0.17954848884060079 0 0.39510197637232292 -0.1839605883432579 0 0.37064833187319962 -0.1852102762359614 0 0.39078770323730427 -0.19674260859680251 0 0.3834788620725188 -0.17954848884060079 0 0.39107178753907162 -0.16851380255406381 0 0.39510197637232292 -0.1839605883432579 0 0.40460499843718001 -0.17902112385493851 0 0.40475141021500721 -0.1910589369573561 0 0.39510197637232292 -0.1839605883432579 0 0.40460499843718001 -0.17902112385493851 0 0.40475141021500721 -0.1910589369573561 0 0.40460499843718001 -0.17902112385493851 0 0.4146572714410397 -0.186958864794112 0 0.40460499843718001 -0.17902112385493851 0 0.41491102279317088 -0.17618591298838529 0 0.4146572714410397 -0.186958864794112 0 0.40460499843718001 -0.17902112385493851 0 0.41491102279317088 -0.17618591298838529 0 0.40713652226246821 -0.16744863749245631 0 0.41491102279317088 -0.17618591298838529 0 0.42527009306055918 -0.1746571334479238 0 0.4232012569858648 -0.16638347243084889 0 0.41491102279317088 -0.17618591298838529 0 0.42095079563492938 -0.18072636251124541 0 0.42527009306055918 -0.1746571334479238 0 0.41491102279317088 -0.17618591298838529 0 0.42095079563492938 -0.18072636251124541 0 0.4146572714410397 -0.186958864794112 0 0.42095079563492938 -0.18072636251124541 0 0.4146572714410397 -0.186958864794112 0 0.42558338933545942 -0.1867115165846317 0 0.43180268423531071 -0.1802632517690351 0 0.42527009306055918 -0.1746571334479238 0 0.44880083799057491 -0.164686103644653 0 0.42095079563492938 -0.18072636251124541 0 0.42558338933545942 -0.1867115165846317 0 0.43180268423531071 -0.1802632517690351 0 0.42558338933545942 -0.1867115165846317 0 0.43180268423531071 -0.1802632517690351 0 0.43844209377108118 -0.18689286854296691 0 0.42095079563492938 -0.18072636251124541 0 0.43180268423531071 -0.1802632517690351 0 0.42527009306055918 -0.1746571334479238 0 0.42527009306055918 -0.1746571334479238 0 0.4232012569858648 -0.16638347243084889 0 0.44880083799057491 -0.164686103644653 0 0.4232012569858648 -0.16638347243084889 0 0.43334283997313311 -0.15135273030925811 0 0.44880083799057491 -0.164686103644653 0 0.4232012569858648 -0.16638347243084889 0 0.44880083799057491 -0.164686103644653 0 0.42527009306055918 -0.1746571334479238 0 0.4232012569858648 -0.16638347243084889 0 0.4232012569858648 -0.16638347243084889 0 0.40713652226246821 -0.16744863749245631 0 0.41732028123257531 -0.14286435439753159 0 0.41491102279317088 -0.17618591298838529 0 0.4232012569858648 -0.16638347243084889 0 0.40713652226246821 -0.16744863749245631 0 0.4232012569858648 -0.16638347243084889 0 0.40713652226246821 -0.16744863749245631 0 0.4232012569858648 -0.16638347243084889 0 0.41732028123257531 -0.14286435439753159 0 0.39822107621443897 -0.1501202070538992 0 0.40713652226246821 -0.16744863749245631 0 0.41732028123257531 -0.14286435439753159 0 0.41732028123257531 -0.14286435439753159 0 0.43334283997313311 -0.15135273030925811 0 0.43763345530417341 -0.13584027725706749 0 0.4232012569858648 -0.16638347243084889 0 0.41732028123257531 -0.14286435439753159 0 0.43334283997313311 -0.15135273030925811 0 0.42916935431308728 -0.1205456085246996 0 0.41732028123257531 -0.14286435439753159 0 0.43763345530417341 -0.13584027725706749 0 0.42916935431308728 -0.1205456085246996 0 0.4435038969132965 -0.12540022695152131 0 0.43763345530417341 -0.13584027725706749 0 0.41143930547928681 -0.11934523636421419 0 0.42916935431308728 -0.1205456085246996 0 0.41732028123257531 -0.14286435439753159 0 0.41143930547928681 -0.11934523636421419 0 0.40257569972698831 -0.13396225485532559 0 0.41732028123257531 -0.14286435439753159 0 0.41143930547928681 -0.11934523636421419 0 0.41732028123257531 -0.14286435439753159 0 0.46257396642688631 -0.12529077885077469 0 0.46381730130484328 -0.1363472541609663 0 0.4585659370706795 -0.1308283620105129 0 0.46381730130484328 -0.1363472541609663 0 0.4585659370706795 -0.1308283620105129 0 0.45274550479158487 -0.1345999168850856 0 0.46381730130484328 -0.1363472541609663 0 0.45274550479158487 -0.1345999168850856 0 0.46138481906560302 -0.14686228775601681 0 0.46257396642688631 -0.12529077885077469 0 0.4585659370706795 -0.1308283620105129 0 0.45239247298790419 -0.125419693033265 0 0.4585659370706795 -0.1308283620105129 0 0.45239247298790419 -0.125419693033265 0 0.45274550479158487 -0.1345999168850856 0 0.45239247298790419 -0.125419693033265 0 0.4435038969132965 -0.12540022695152131 0 0.45274550479158487 -0.1345999168850856 0 0.4435038969132965 -0.12540022695152131 0 0.43763345530417341 -0.13584027725706749 0 0.45274550479158487 -0.1345999168850856 0 0.43763345530417341 -0.13584027725706749 0 0.45274550479158487 -0.1345999168850856 0 0.44678149142501389 -0.1466682631704162 0 0.43334283997313311 -0.15135273030925811 0 0.44678149142501389 -0.1466682631704162 0 0.44880083799057491 -0.164686103644653 0 0.44678149142501389 -0.1466682631704162 0 0.46138481906560302 -0.14686228775601681 0 0.44880083799057491 -0.164686103644653 0 0.43334283997313311 -0.15135273030925811 0 0.43763345530417341 -0.13584027725706749 0 0.44678149142501389 -0.1466682631704162 0 0.45274550479158487 -0.1345999168850856 0 0.44678149142501389 -0.1466682631704162 0 0.46138481906560302 -0.14686228775601681 0 0.46138481906560302 -0.14686228775601681 0 0.44880083799057491 -0.164686103644653 0 0.47440041899528501 -0.16298873485845719 0 0.44880083799057491 -0.164686103644653 0 0.46834799031954211 -0.17915452781490099 0 0.47440041899528501 -0.16298873485845719 0 0.44880083799057491 -0.164686103644653 0 0.47440041899528501 -0.16298873485845719 0 0.43180268423531071 -0.1802632517690351 0 0.44880083799057491 -0.164686103644653 0 0.43844209377108118 -0.18689286854296691 0 0.44880083799057491 -0.164686103644653 0 0.43844209377108118 -0.18689286854296691 0 0.45508032593701309 -0.1914137801830845 0 0.44880083799057491 -0.164686103644653 0 0.46834799031954211 -0.17915452781490099 0 0.45508032593701309 -0.1914137801830845 0 0.46834799031954211 -0.17915452781490099 0 0.48419704391512092 -0.17843144908975531 0 0.47440041899528501 -0.16298873485845719 0 0.46834799031954211 -0.17915452781490099 0 0.48419704391512092 -0.17843144908975531 0 0.47823681026078202 -0.19812675643970101 0 0.48419704391512092 -0.17843144908975531 0 0.49999999999999523 -0.16129136607226169 0 0.5 -0.1905958602634561 0 0.49999999999999523 -0.16129136607226169 0 0.47440041899528501 -0.16298873485845719 0 0.50000000000000067 -0.1547763741112759 0 0.48419704391512092 -0.17843144908975531 0 0.49999999999999523 -0.16129136607226169 0 0.47440041899528501 -0.16298873485845719 0 0.49999999999999523 -0.16129136607226169 0 0.47440041899528501 -0.16298873485845719 0 0.46138481906560302 -0.14686228775601681 0 0.47440041899528501 -0.16298873485845719 0 0.48128698321344371 -0.14003357648102521 0 0.46381730130484328 -0.1363472541609663 0 0.46138481906560302 -0.14686228775601681 0 0.48128698321344371 -0.14003357648102521 0 0.50000000000000067 -0.1547763741112759 0 0.48128698321344371 -0.14003357648102521 0 0.50000000000000067 -0.1547763741112759 0 0.5 -0.13349841451636779 0 0.48128698321344371 -0.14003357648102521 0 0.47440041899528501 -0.16298873485845719 0 0.50000000000000067 -0.1547763741112759 0 0.48128698321344371 -0.14003357648102521 0 0.48087269318342413 -0.1216818802472065 0 0.5 -0.13349841451636779 0 0.48128698321344371 -0.14003357648102521 0 0.46257396642688631 -0.12529077885077469 0 0.48128698321344371 -0.14003357648102521 0 0.46257396642688631 -0.12529077885077469 0 0.46381730130484328 -0.1363472541609663 0 0.48128698321344371 -0.14003357648102521 0 0.47129126618897188 -0.1223351355815797 0 0.48087269318342413 -0.1216818802472065 0 0.48128698321344371 -0.14003357648102521 0 0.47129126618897188 -0.1223351355815797 0 0.46257396642688631 -0.12529077885077469 0 0.48128698321344371 -0.14003357648102521 0 0.46029750420545162 -0.23134667767863379 0 0.45079963313025367 -0.219495204315066 0 0.46126535540865482 -0.21094244298034759 0 0.46029750420545162 -0.23134667767863379 0 0.46126535540865482 -0.21094244298034759 0 0.47937109712497578 -0.22608105856418539 0 0.46029750420545162 -0.23134667767863379 0 0.44856132313442931 -0.24393079079591279 0 0.47387431588802909 -0.25499376211151131 0 0.46029750420545162 -0.23134667767863379 0 0.44856132313442931 -0.24393079079591279 0 0.44416109061426973 -0.22983272991065171 0 0.43458399188612801 -0.2397076170126072 0 0.44856132313442931 -0.24393079079591279 0 0.4372088962240912 -0.25169219704383999 0 0.43458399188612801 -0.2397076170126072 0 0.44856132313442931 -0.24393079079591279 0 0.44416109061426973 -0.22983272991065171 0 0.46029750420545162 -0.23134667767863379 0 0.44416109061426973 -0.22983272991065171 0 0.45079963313025367 -0.219495204315066 0 0.44416109061426973 -0.22983272991065171 0 0.45079963313025367 -0.219495204315066 0 0.44009267276725389 -0.2176624614444449 0 0.42988092584916948 -0.2249579995083304 0 0.44416109061426973 -0.22983272991065171 0 0.44009267276725389 -0.2176624614444449 0 0.45079963313025367 -0.219495204315066 0 0.44355474576021348 -0.2050869029196882 0 0.46126535540865482 -0.21094244298034759 0 0.43006687167525981 -0.21185300334864521 0 0.44009267276725389 -0.2176624614444449 0 0.44355474576021348 -0.2050869029196882 0 0.45079963313025367 -0.219495204315066 0 0.44009267276725389 -0.2176624614444449 0 0.44355474576021348 -0.2050869029196882 0 0.43844209377108118 -0.18689286854296691 0 0.44355474576021348 -0.2050869029196882 0 0.45508032593701309 -0.1914137801830845 0 0.46834799031954211 -0.17915452781490099 0 0.45508032593701309 -0.1914137801830845 0 0.47823681026078202 -0.19812675643970101 0 0.44355474576021348 -0.2050869029196882 0 0.45508032593701309 -0.1914137801830845 0 0.46126535540865482 -0.21094244298034759 0 0.45508032593701309 -0.1914137801830845 0 0.46126535540865482 -0.21094244298034759 0 0.47823681026078202 -0.19812675643970101 0 0.46126535540865482 -0.21094244298034759 0 0.47823681026078202 -0.19812675643970101 0 0.47937109712497578 -0.22608105856418539 0 0.48419704391512092 -0.17843144908975531 0 0.47823681026078202 -0.19812675643970101 0 0.5 -0.1905958602634561 0 0.47823681026078202 -0.19812675643970101 0 0.5 -0.1905958602634561 0 0.5 -0.21990035445465039 0 0.47823681026078202 -0.19812675643970101 0 0.5 -0.21990035445465039 0 0.47937109712497578 -0.22608105856418539 0 0.5 -0.21990035445465039 0 0.47937109712497578 -0.22608105856418539 0 0.50000000000000444 -0.24920484864584491 0 0.46029750420545162 -0.23134667767863379 0 0.47937109712497578 -0.22608105856418539 0 0.47387431588802909 -0.25499376211151131 0 0.47937109712497578 -0.22608105856418539 0 0.50000000000000444 -0.24920484864584491 0 0.47387431588802909 -0.25499376211151131 0 0.50000000000000444 -0.24920484864584491 0 0.4915669900217115 -0.25615479242606781 0 0.5 -0.27170772691138367 0 0.50000000000000444 -0.24920484864584491 0 0.4915669900217115 -0.25615479242606781 0 0.47387431588802909 -0.25499376211151131 0 0.50000000000000444 -0.24920484864584491 0 0.47387431588802909 -0.25499376211151131 0 0.4915669900217115 -0.25615479242606781 0 0.48280749151585822 -0.27129304150170008 0 0.47954864786353962 -0.26301133191085868 0 0.4915669900217115 -0.25615479242606781 0 0.5 -0.27170772691138367 0 0.48280749151585822 -0.27129304150170008 0 0.5 -0.27170772691138367 0 0.48280749151585822 -0.27129304150170008 0 0.48951500520952212 -0.28458010338455908 0 0.48280749151585822 -0.27129304150170008 0 0.47474596181800061 -0.28621450290334632 0 0.48951500520952212 -0.28458010338455908 0 0.48280749151585822 -0.27129304150170008 0 0.47416229901770612 -0.26612875971404459 0 0.47954864786353962 -0.26301133191085868 0 0.48280749151585822 -0.27129304150170008 0 0.47416229901770612 -0.26612875971404459 0 0.47052118473631321 -0.27447720361836658 0 0.47416229901770612 -0.26612875971404459 0 0.47052118473631321 -0.27447720361836658 0 0.46319689217890331 -0.26835660325056299 0 0.48280749151585822 -0.27129304150170008 0 0.47052118473631321 -0.27447720361836658 0 0.47474596181800061 -0.28621450290334632 0 0.4915669900217115 -0.25615479242606781 0 0.46965781089888248 -0.25846873400162218 0 0.4915669900217115 -0.25615479242606781 0 0.47387431588802909 -0.25499376211151131 0 0.46965781089888248 -0.25846873400162218 0 0.4915669900217115 -0.25615479242606781 0 0.47954864786353962 -0.26301133191085868 0 0.46965781089888248 -0.25846873400162218 0 0.47416229901770612 -0.26612875971404459 0 0.47954864786353962 -0.26301133191085868 0 0.46965781089888248 -0.25846873400162218 0 0.47416229901770612 -0.26612875971404459 0 0.46965781089888248 -0.25846873400162218 0 0.46319689217890331 -0.26835660325056299 0 0.46965781089888248 -0.25846873400162218 0 0.46319689217890331 -0.26835660325056299 0 0.4477486317760534 -0.26078267557717671 0 0.44856132313442931 -0.24393079079591279 0 0.47387431588802909 -0.25499376211151131 0 0.4477486317760534 -0.26078267557717671 0 0.47387431588802909 -0.25499376211151131 0 0.4477486317760534 -0.26078267557717671 0 0.46965781089888248 -0.25846873400162218 0 0.4477486317760534 -0.26078267557717671 0 0.47387431588802909 -0.25499376211151131 0 0.46965781089888248 -0.25846873400162218 0 0.4477486317760534 -0.26078267557717671 0 0.47052118473631321 -0.27447720361836658 0 0.45389453446556111 -0.28192564334160541 0 0.47474596181800061 -0.28621450290334632 0 0.47052118473631321 -0.27447720361836658 0 0.46319689217890331 -0.26835660325056299 0 0.45389453446556111 -0.28192564334160541 0 0.46319689217890331 -0.26835660325056299 0 0.4477486317760534 -0.26078267557717671 0 0.45389453446556111 -0.28192564334160541 0 0.45389453446556111 -0.28192564334160541 0 0.430823863629894 -0.26453285558412298 0 0.45389453446556111 -0.28192564334160541 0 0.430823863629894 -0.26453285558412298 0 0.43570592202634773 -0.28205449164250063 0 0.4477486317760534 -0.26078267557717671 0 0.45389453446556111 -0.28192564334160541 0 0.430823863629894 -0.26453285558412298 0 0.4477486317760534 -0.26078267557717671 0 0.42854038242645709 -0.26281135800815408 0 0.44856132313442931 -0.24393079079591279 0 0.4477486317760534 -0.26078267557717671 0 0.4372088962240912 -0.25169219704383999 0 0.4477486317760534 -0.26078267557717671 0 0.42854038242645709 -0.26281135800815408 0 0.4372088962240912 -0.25169219704383999 0 0.4477486317760534 -0.26078267557717671 0 0.430823863629894 -0.26453285558412298 0 0.44815314542162782 -0.30273998798419938 0 0.44271266904340639 -0.31513600928105973 0 0.43092107089682352 -0.30573631325696571 0 0.44815314542162782 -0.30273998798419938 0 0.43874415768382158 -0.29310671547163403 0 0.43092107089682352 -0.30573631325696571 0 0.43874415768382158 -0.29310671547163403 0 0.45389453446556111 -0.28192564334160541 0 0.43570592202634773 -0.28205449164250063 0 0.44815314542162782 -0.30273998798419938 0 0.43874415768382158 -0.29310671547163403 0 0.45389453446556111 -0.28192564334160541 0 0.45389453446556111 -0.28192564334160541 0 0.46668010371271101 -0.29937682325086112 0 0.47474596181800061 -0.28621450290334632 0 0.44815314542162782 -0.30273998798419938 0 0.45389453446556111 -0.28192564334160541 0 0.46668010371271101 -0.29937682325086112 0 0.46668010371271101 -0.29937682325086112 0 0.45907432653114449 -0.32014896664993769 0 0.44815314542162782 -0.30273998798419938 0 0.46668010371271101 -0.29937682325086112 0 0.45907432653114449 -0.32014896664993769 0 0.46668010371271101 -0.29937682325086112 0 0.48375110351916628 -0.30725513966339157 0 0.45907432653114449 -0.32014896664993769 0 0.46668010371271101 -0.29937682325086112 0 0.48375110351916628 -0.30725513966339157 0 0.47474596181800061 -0.28621450290334632 0 0.48375110351916628 -0.30725513966339157 0 0.47474596181800061 -0.28621450290334632 0 0.48951500520952212 -0.28458010338455908 0 0.48375110351916628 -0.30725513966339157 0 0.5 -0.29421060517692271 0 0.48951500520952212 -0.28458010338455908 0 0.5 -0.27170772691138367 0 0.5 -0.29421060517692271 0 0.48951500520952212 -0.28458010338455908 0 0.48375110351916628 -0.30725513966339157 0 0.5 -0.29421060517692271 0 0.49999999999999972 -0.31671348344246159 0 0.48375110351916628 -0.30725513966339157 0 0.49999999999999972 -0.31671348344246159 0 0.48658745812515303 -0.32591538654610069 0 0.49999999999999972 -0.31671348344246159 0 0.49107839048707969 -0.33844651150006611 0 0.49999999999999972 -0.31671348344246159 0 0.48658745812515303 -0.32591538654610069 0 0.49107839048707969 -0.33844651150006611 0 0.49999999999999972 -0.31671348344246159 0 0.5 -0.34354646621870782 0 0.49107839048707969 -0.33844651150006611 0 0.48658745812515303 -0.32591538654610069 0 0.49107839048707969 -0.33844651150006611 0 0.48013111160135669 -0.33592777501669763 0 0.48658745812515303 -0.32591538654610069 0 0.48013111160135669 -0.33592777501669763 0 0.47588582758327369 -0.32632043512378739 0 0.48013111160135669 -0.33592777501669763 0 0.46883970942210401 -0.33989811375075968 0 0.47588582758327369 -0.32632043512378739 0 0.48375110351916628 -0.30725513966339157 0 0.48658745812515303 -0.32591538654610069 0 0.47588582758327369 -0.32632043512378739 0 0.48375110351916628 -0.30725513966339157 0 0.47588582758327369 -0.32632043512378739 0 0.45907432653114449 -0.32014896664993769 0 0.5 -0.37037944899495368 0 0.48466784746851571 -0.3739080713738358 0 0.48215678097416009 -0.36017953955767068 0 0.5 -0.34354646621870782 0 0.49107839048707969 -0.33844651150006611 0 0.48215678097416009 -0.36017953955767068 0 0.49107839048707969 -0.33844651150006611 0 0.48013111160135669 -0.33592777501669763 0 0.48215678097416009 -0.36017953955767068 0 0.5 -0.34354646621870782 0 0.5 -0.37037944899495368 0 0.48215678097416009 -0.36017953955767068 0 0.49107839048707969 -0.33844651150006611 0 0.48215678097416009 -0.36017953955767068 0 0.48013111160135669 -0.33592777501669763 0 0.46883970942210401 -0.33989811375075968 0 0.48215678097416009 -0.36017953955767068 0 0.46883970942210401 -0.33989811375075968 0 0.48215678097416009 -0.36017953955767068 0 0.46166172922915721 -0.35810144835948332 0 0.48215678097416009 -0.36017953955767068 0 0.47323517146124039 -0.38191256761527542 0 0.48215678097416009 -0.36017953955767068 0 0.4671179630262795 -0.37324494563770522 0 0.47323517146124039 -0.38191256761527542 0 0.48466784746851571 -0.3739080713738358 0 0.48215678097416009 -0.36017953955767068 0 0.47323517146124039 -0.38191256761527542 0 0.48215678097416009 -0.36017953955767068 0 0.4671179630262795 -0.37324494563770522 0 0.46166172922915721 -0.35810144835948332 0 0.45652460043480969 -0.37267172771365881 0 0.46166172922915721 -0.35810144835948332 0 0.44386277216801179 -0.36169325344809122 0 0.45652460043480969 -0.37267172771365881 0 0.4671179630262795 -0.37324494563770522 0 0.46166172922915721 -0.35810144835948332 0 0.46883970942210401 -0.33989811375075968 0 0.46166172922915721 -0.35810144835948332 0 0.45146854934957792 -0.34092111004901438 0 0.43963091224731599 -0.34751792105314822 0 0.44386277216801179 -0.36169325344809122 0 0.45146854934957792 -0.34092111004901438 0 0.44386277216801179 -0.36169325344809122 0 0.45146854934957792 -0.34092111004901438 0 0.46166172922915721 -0.35810144835948332 0 0.44386277216801179 -0.36169325344809122 0 0.45146854934957792 -0.34092111004901438 0 0.44386277216801179 -0.36169325344809122 0 0.43376943787959182 -0.36708850497004442 0 0.43808065797110041 -0.37748478958974491 0 0.45652460043480969 -0.37267172771365881 0 0.44386277216801179 -0.36169325344809122 0 0.44783900322824399 -0.38008781189722518 0 0.44386277216801179 -0.36169325344809122 0 0.43808065797110041 -0.37748478958974491 0 0.44386277216801179 -0.36169325344809122 0 0.43808065797110041 -0.37748478958974491 0 0.44783900322824399 -0.38008781189722518 0 0.45652460043480969 -0.37267172771365881 0 0.44386277216801179 -0.36169325344809122 0 0.46883970942210401 -0.33989811375075968 0 0.45907432653114449 -0.32014896664993769 0 0.45146854934957792 -0.34092111004901438 0 0.45907432653114449 -0.32014896664993769 0 0.45146854934957792 -0.34092111004901438 0 0.46883970942210401 -0.33989811375075968 0 0.47588582758327369 -0.32632043512378739 0 0.45907432653114449 -0.32014896664993769 0 0.43963091224731599 -0.34751792105314822 0 0.45146854934957792 -0.34092111004901438 0 0.43565299676263758 -0.3352386806192425 0 0.45146854934957792 -0.34092111004901438 0 0.44493724809618768 -0.32603283426431229 0 0.43565299676263758 -0.3352386806192425 0 0.45907432653114449 -0.32014896664993769 0 0.45146854934957792 -0.34092111004901438 0 0.44493724809618768 -0.32603283426431229 0 0.45907432653114449 -0.32014896664993769 0 0.44493724809618768 -0.32603283426431229 0 0.44271266904340639 -0.31513600928105973 0 0.44493724809618768 -0.32603283426431229 0 0.44271266904340639 -0.31513600928105973 0 0.43047755427124879 -0.32102194424988317 0 0.44815314542162782 -0.30273998798419938 0 0.45907432653114449 -0.32014896664993769 0 0.44271266904340639 -0.31513600928105973 0 0.44271266904340639 -0.31513600928105973 0 0.43047755427124879 -0.32102194424988317 0 0.43092107089682352 -0.30573631325696571 0 0.43047755427124879 -0.32102194424988317 0 0.41919911313656122 -0.31385112706466711 0 0.41739686236043672 -0.32199345155319897 0 0.43047755427124879 -0.32102194424988317 0 0.41919911313656122 -0.31385112706466711 0 0.43092107089682352 -0.30573631325696571 0 0.43047755427124879 -0.32102194424988317 0 0.42053718701310799 -0.32957674384091618 0 0.41739686236043672 -0.32199345155319897 0 0.44493724809618768 -0.32603283426431229 0 0.43047755427124879 -0.32102194424988317 0 0.43565299676263758 -0.3352386806192425 0 0.43565299676263758 -0.3352386806192425 0 0.42053718701310799 -0.32957674384091618 0 0.4250793590774925 -0.34540704162396091 0 0.43963091224731599 -0.34751792105314822 0 0.43565299676263758 -0.3352386806192425 0 0.4250793590774925 -0.34540704162396091 0 0.43047755427124879 -0.32102194424988317 0 0.43565299676263758 -0.3352386806192425 0 0.42053718701310799 -0.32957674384091618 0 0.4062959459869725 -0.32912082979983148 0 0.4250793590774925 -0.34540704162396091 0 0.41055923831377589 -0.34398547157316572 0 0.42053718701310799 -0.32957674384091618 0 0.4062959459869725 -0.32912082979983148 0 0.4250793590774925 -0.34540704162396091 0 0.4062959459869725 -0.32912082979983148 0 0.4250793590774925 -0.34540704162396091 0 0.42053718701310799 -0.32957674384091618 0 0.4062959459869725 -0.32912082979983148 0 0.40802480504278882 -0.32457497099322458 0 0.4062959459869725 -0.32912082979983148 0 0.40802480504278882 -0.32457497099322458 0 0.4062959459869725 -0.32912082979983148 0 0.40802480504278882 -0.32457497099322458 0 0.40572459905769331 -0.31910551143285631 0 0.40802480504278882 -0.32457497099322458 0 0.4119015194344513 -0.31818912214386269 0 0.41739686236043672 -0.32199345155319897 0 0.40802480504278882 -0.32457497099322458 0 0.4119015194344513 -0.31818912214386269 0 0.40572459905769331 -0.31910551143285631 0 0.4119015194344513 -0.31818912214386269 0 0.41919911313656122 -0.31385112706466711 0 0.40916221757477672 -0.31142054967536659 0 0.4119015194344513 -0.31818912214386269 0 0.40572459905769331 -0.31910551143285631 0 0.40916221757477672 -0.31142054967536659 0 0.4119015194344513 -0.31818912214386269 0 0.41919911313656122 -0.31385112706466711 0 0.41739686236043672 -0.32199345155319897 0 0.42053718701310799 -0.32957674384091618 0 0.40802480504278882 -0.32457497099322458 0 0.41739686236043672 -0.32199345155319897 0 0.44386277216801179 -0.36169325344809122 0 0.43376943787959182 -0.36708850497004442 0 0.42728564025893462 -0.35958684797927032 0 0.42489657602010461 -0.37065940299189432 0 0.43376943787959182 -0.36708850497004442 0 0.43808065797110041 -0.37748478958974491 0 0.42489657602010461 -0.37065940299189432 0 0.43376943787959182 -0.36708850497004442 0 0.42728564025893462 -0.35958684797927032 0 0.44386277216801179 -0.36169325344809122 0 0.4250793590774925 -0.34540704162396091 0 0.43963091224731599 -0.34751792105314822 0 0.44386277216801179 -0.36169325344809122 0 0.4250793590774925 -0.34540704162396091 0 0.44386277216801179 -0.36169325344809122 0 0.42728564025893462 -0.35958684797927032 0 0.4250793590774925 -0.34540704162396091 0 0.42728564025893462 -0.35958684797927032 0 0.4250793590774925 -0.34540704162396091 0 0.41069622259092692 -0.35617360609135817 0 0.4250793590774925 -0.34540704162396091 0 0.41055923831377589 -0.34398547157316572 0 0.41069622259092692 -0.35617360609135817 0 0.41055923831377589 -0.34398547157316572 0 0.41069622259092692 -0.35617360609135817 0 0.40016542559971202 -0.34524040877751239 0 0.42489657602010461 -0.37065940299189432 0 0.42728564025893462 -0.35958684797927032 0 0.41069622259092692 -0.35617360609135817 0 0.42489657602010461 -0.37065940299189432 0 0.41069622259092692 -0.35617360609135817 0 0.4070765621089808 -0.37107032214525337 0 0.42489657602010461 -0.37065940299189432 0 0.41069622259092692 -0.35617360609135817 0 0.39585190457779329 -0.37201308858561799 0 0.3940349052124521 -0.36135998775519362 0 0.38601585554704992 -0.38244526212700758 0 0.41069622259092692 -0.35617360609135817 0 0.4070765621089808 -0.37107032214525337 0 0.3940349052124521 -0.36135998775519362 0 0.4070765621089808 -0.37107032214525337 0 0.39585190457779329 -0.37201308858561799 0 0.3940349052124521 -0.36135998775519362 0 0.39585190457779329 -0.37201308858561799 0 0.3940349052124521 -0.36135998775519362 0 0.3940349052124521 -0.36135998775519362 0 0.40016542559971202 -0.34524040877751239 0 0.38974443050024338 -0.33620485529262373 0 0.3940349052124521 -0.36135998775519362 0 0.38974443050024338 -0.33620485529262373 0 0.3940349052124521 -0.36135998775519362 0 0.40016542559971202 -0.34524040877751239 0 0.41069622259092692 -0.35617360609135817 0 0.3940349052124521 -0.36135998775519362 0 0.40016542559971202 -0.34524040877751239 0 0.3940349052124521 -0.36135998775519362 0 0.38974443050024338 -0.33620485529262373 0 0.37368731816096312 -0.34897020548070451 0 0.3940349052124521 -0.36135998775519362 0 0.38601585554704992 -0.38244526212700758 0 0.3940349052124521 -0.36135998775519362 0 0.38601585554704992 -0.38244526212700758 0 0.3689120952668708 -0.37284951495870189 0 0.3940349052124521 -0.36135998775519362 0 0.3689120952668708 -0.37284951495870189 0 0.37368731816096312 -0.34897020548070451 0 0.4062959459869725 -0.32912082979983148 0 0.40572459905769331 -0.31910551143285631 0 0.39816778062817881 -0.31191488097197773 0 0.4062959459869725 -0.32912082979983148 0 0.38974443050024338 -0.33620485529262373 0 0.38545395578803499 -0.31104972283005378 0 0.4062959459869725 -0.32912082979983148 0 0.38545395578803499 -0.31104972283005378 0 0.4062959459869725 -0.32912082979983148 0 0.38545395578803499 -0.31104972283005378 0 0.39816778062817881 -0.31191488097197773 0 0.40572459905769331 -0.31910551143285631 0 0.39816778062817881 -0.31191488097197773 0 0.40916221757477672 -0.31142054967536659 0 0.4062959459869725 -0.32912082979983148 0 0.40016542559971202 -0.34524040877751239 0 0.38974443050024338 -0.33620485529262373 0 0.4062959459869725 -0.32912082979983148 0 0.40016542559971202 -0.34524040877751239 0 0.4062959459869725 -0.32912082979983148 0 0.41055923831377589 -0.34398547157316572 0 0.40016542559971202 -0.34524040877751239 0 0.38974443050024338 -0.33620485529262373 0 0.36945761595668469 -0.32738841673247931 0 0.37368731816096312 -0.34897020548070451 0 0.38974443050024338 -0.33620485529262373 0 0.38545395578803499 -0.31104972283005378 0 0.36945761595668469 -0.32738841673247931 0 0.38974443050024338 -0.33620485529262373 0 0.38545395578803499 -0.31104972283005378 0 0.38545395578803499 -0.31104972283005378 0 0.38245755150739558 -0.29348174920317632 0 0.37101427446782781 -0.29852975601036341 0 0.38545395578803499 -0.31104972283005378 0 0.38245755150739558 -0.29348174920317632 0 0.38545395578803499 -0.31104972283005378 0 0.37101427446782781 -0.29852975601036341 0 0.38545395578803499 -0.31104972283005378 0 0.39567659353887108 -0.29306988619604551 0 0.38245755150739558 -0.29348174920317632 0 0.39816778062817881 -0.31191488097197773 0 0.40563314249086863 -0.30155395497769039 0 0.39567659353887108 -0.29306988619604551 0 0.38545395578803499 -0.31104972283005378 0 0.39816778062817881 -0.31191488097197773 0 0.39567659353887108 -0.29306988619604551 0 0.39816778062817881 -0.31191488097197773 0 0.40563314249086863 -0.30155395497769039 0 0.40916221757477672 -0.31142054967536659 0 0.39567659353887108 -0.29306988619604551 0 0.40514250542832608 -0.27022331558021301 0 0.41160024963212011 -0.28933460066763711 0 0.40563314249086863 -0.30155395497769039 0 0.39567659353887108 -0.29306988619604551 0 0.41160024963212011 -0.28933460066763711 0 0.38245755150739558 -0.29348174920317632 0 0.37946114722675722 -0.27591377557629859 0 0.39567659353887108 -0.29306988619604551 0 0.38245755150739558 -0.29348174920317632 0 0.37946114722675722 -0.27591377557629859 0 0.38245755150739558 -0.29348174920317632 0 0.37795999762798671 -0.28395322059410122 0 0.37946114722675722 -0.27591377557629859 0 0.37519981906117678 -0.29055939022370142 0 0.38245755150739558 -0.29348174920317632 0 0.37101427446782781 -0.29852975601036341 0 0.37519981906117678 -0.29055939022370142 0 0.38245755150739558 -0.29348174920317632 0 0.37795999762798671 -0.28395322059410122 0 0.37795999762798671 -0.28395322059410122 0 0.37946114722675722 -0.27591377557629859 0 0.37739853904771847 -0.27637080706343392 0 0.37739853904771847 -0.27637080706343392 0 0.37683953433427181 -0.26882153263446662 0 0.37273728942595791 -0.27740364396778311 0 0.37795999762798671 -0.28395322059410122 0 0.37739853904771847 -0.27637080706343392 0 0.37273728942595791 -0.27740364396778311 0 0.37946114722675722 -0.27591377557629859 0 0.38774772661347989 -0.26664574742688191 0 0.3964002279028962 -0.26984905957103239 0 0.37946114722675722 -0.27591377557629859 0 0.3964002279028962 -0.26984905957103239 0 0.37795999762798671 -0.28395322059410122 0 0.37739853904771847 -0.27637080706343392 0 0.37739853904771847 -0.27637080706343392 0 0.37273728942595791 -0.27740364396778311 0 0.37946114722675722 -0.27591377557629859 0 0.37739853904771847 -0.27637080706343392 0 0.37683953433427181 -0.26882153263446662 0 0.37946114722675722 -0.27591377557629859 0 0.37739853904771847 -0.27637080706343392 0 0.37946114722675722 -0.27591377557629859 0 0.37843581040967561 -0.26746760801825881 0 0.38284686623937531 -0.26497045393317709 0 0.37946114722675722 -0.27591377557629859 0 0.37683953433427181 -0.26882153263446662 0 0.37843581040967561 -0.26746760801825881 0 0.37739853904771847 -0.27637080706343392 0 0.37683953433427181 -0.26882153263446662 0 0.37683953433427181 -0.26882153263446662 0 0.37843581040967561 -0.26746760801825881 0 0.37946114722675722 -0.27591377557629859 0 0.38774772661347989 -0.26664574742688191 0 0.38284686623937531 -0.26497045393317709 0 0.37477580018058132 -0.24095111383496479 0 0.37683953433427181 -0.26882153263446662 0 0.38107906364546162 -0.25934379353391329 0 0.37477580018058132 -0.24095111383496479 0 0.37683953433427181 -0.26882153263446662 0 0.37477580018058132 -0.24095111383496479 0 0.38107906364546162 -0.25934379353391329 0 0.38725375881062551 -0.25185160038302579 0 0.37843581040967561 -0.26746760801825881 0 0.38107906364546162 -0.25934379353391329 0 0.38284686623937531 -0.26497045393317709 0 0.37683953433427181 -0.26882153263446662 0 0.37843581040967561 -0.26746760801825881 0 0.38107906364546162 -0.25934379353391329 0 0.38107906364546162 -0.25934379353391329 0 0.38632261189823958 -0.26200045239958702 0 0.38284686623937531 -0.26497045393317709 0 0.38774772661347989 -0.26664574742688191 0 0.38632261189823958 -0.26200045239958702 0 0.38284686623937531 -0.26497045393317709 0 0.38774772661347989 -0.26664574742688191 0 0.38955528694719099 -0.2630172622662057 0 0.39295554709344072 -0.26445586107842978 0 0.38774772661347989 -0.26664574742688191 0 0.38632261189823958 -0.26200045239958702 0 0.38955528694719099 -0.2630172622662057 0 0.38632261189823958 -0.26200045239958702 0 0.38955528694719099 -0.2630172622662057 0 0.39119526218360401 -0.25896698815992442 0 0.38632261189823958 -0.26200045239958702 0 0.38725375881062551 -0.25185160038302579 0 0.39119526218360401 -0.25896698815992442 0 0.38107906364546162 -0.25934379353391329 0 0.38632261189823958 -0.26200045239958702 0 0.38725375881062551 -0.25185160038302579 0 0.40314688718896508 -0.2619981766022052 0 0.39707581272688741 -0.26613449373937459 0 0.41345304600685079 -0.26440480953867462 0 0.39707581272688741 -0.26613449373937459 0 0.41345304600685079 -0.26440480953867462 0 0.38725375881062551 -0.25185160038302579 0 0.39640803358832022 -0.25154779433757402 0 0.39119526218360401 -0.25896698815992442 0 0.39640803358832022 -0.25154779433757402 0 0.39702034872720737 -0.26014738253762237 0 0.39119526218360401 -0.25896698815992442 0 0.39702034872720737 -0.26014738253762237 0 0.39119526218360401 -0.25896698815992442 0 0.39295554709344072 -0.26445586107842978 0 0.38955528694719099 -0.2630172622662057 0 0.39119526218360401 -0.25896698815992442 0 0.39295554709344072 -0.26445586107842978 0 0.39702034872720737 -0.26014738253762237 0 0.39295554709344072 -0.26445586107842978 0 0.39707581272688741 -0.26613449373937459 0 0.39702034872720737 -0.26014738253762237 0 0.40314688718896508 -0.2619981766022052 0 0.39707581272688741 -0.26613449373937459 0 0.40314688718896508 -0.2619981766022052 0 0.40257909468765629 -0.25704117102420471 0 0.40998094690083942 -0.2590606397541646 0 0.39702034872720737 -0.26014738253762237 0 0.40314688718896508 -0.2619981766022052 0 0.40257909468765629 -0.25704117102420471 0 0.39640803358832022 -0.25154779433757402 0 0.39702034872720737 -0.26014738253762237 0 0.40257909468765629 -0.25704117102420471 0 0.41087794879613182 -0.2494957955088617 0 0.39640803358832022 -0.25154779433757402 0 0.40257909468765629 -0.25704117102420471 0 0.40514250542832608 -0.27022331558021301 0 0.3964002279028962 -0.26984905957103239 0 0.41345304600685079 -0.26440480953867462 0 0.37946114722675722 -0.27591377557629859 0 0.40514250542832608 -0.27022331558021301 0 0.3964002279028962 -0.26984905957103239 0 0.39707581272688741 -0.26613449373937459 0 0.3964002279028962 -0.26984905957103239 0 0.41345304600685079 -0.26440480953867462 0 0.37946114722675722 -0.27591377557629859 0 0.40514250542832608 -0.27022331558021301 0 0.3964002279028962 -0.26984905957103239 0 0.41345304600685079 -0.26440480953867462 0 0.39567659353887108 -0.29306988619604551 0 0.37946114722675722 -0.27591377557629859 0 0.40514250542832608 -0.27022331558021301 0 0.38774772661347989 -0.26664574742688191 0 0.39295554709344072 -0.26445586107842978 0 0.3964002279028962 -0.26984905957103239 0 0.39295554709344072 -0.26445586107842978 0 0.39707581272688741 -0.26613449373937459 0 0.3964002279028962 -0.26984905957103239 0 0.40514250542832608 -0.27022331558021301 0 0.41345304600685079 -0.26440480953867462 0 0.430823863629894 -0.26453285558412298 0 0.40514250542832608 -0.27022331558021301 0 0.430823863629894 -0.26453285558412298 0 0.40514250542832608 -0.27022331558021301 0 0.42166373126508722 -0.27984448092147479 0 0.41160024963212011 -0.28933460066763711 0 0.40514250542832608 -0.27022331558021301 0 0.42166373126508722 -0.27984448092147479 0 0.430823863629894 -0.26453285558412298 0 0.41087794879613182 -0.2494957955088617 0 0.41984775782459283 -0.2623632460968765 0 0.42854038242645709 -0.26281135800815408 0 0.41087794879613182 -0.2494957955088617 0 0.42854038242645709 -0.26281135800815408 0 0.41087794879613182 -0.2494957955088617 0 0.40257909468765629 -0.25704117102420471 0 0.40998094690083942 -0.2590606397541646 0 0.41087794879613182 -0.2494957955088617 0 0.40998094690083942 -0.2590606397541646 0 0.41984775782459283 -0.2623632460968765 0 0.40314688718896508 -0.2619981766022052 0 0.40998094690083942 -0.2590606397541646 0 0.41345304600685079 -0.26440480953867462 0 0.41345304600685079 -0.26440480953867462 0 0.41984775782459283 -0.2623632460968765 0 0.42854038242645709 -0.26281135800815408 0 0.40998094690083942 -0.2590606397541646 0 0.41345304600685079 -0.26440480953867462 0 0.41984775782459283 -0.2623632460968765 0 0.41345304600685079 -0.26440480953867462 0 0.42854038242645709 -0.26281135800815408 0 0.41345304600685079 -0.26440480953867462 0 0.41984775782459283 -0.2623632460968765 0 0.42656562700980838 -0.24831468624349931 0 0.41087794879613182 -0.2494957955088617 0 0.42854038242645709 -0.26281135800815408 0 0.4477486317760534 -0.26078267557717671 0 0.42854038242645709 -0.26281135800815408 0 0.430823863629894 -0.26453285558412298 0 0.41345304600685079 -0.26440480953867462 0 0.42854038242645709 -0.26281135800815408 0 0.430823863629894 -0.26453285558412298 0 0.42854038242645709 -0.26281135800815408 0 0.430823863629894 -0.26453285558412298 0 0.42656562700980838 -0.24831468624349931 0 0.42854038242645709 -0.26281135800815408 0 0.4372088962240912 -0.25169219704383999 0 0.42166373126508722 -0.27984448092147479 0 0.430823863629894 -0.26453285558412298 0 0.43570592202634773 -0.28205449164250063 0 0.42166373126508722 -0.27984448092147479 0 0.43570592202634773 -0.28205449164250063 0 0.42504611560874761 -0.29307714113289868 0 0.43874415768382158 -0.29310671547163403 0 0.43570592202634773 -0.28205449164250063 0 0.42504611560874761 -0.29307714113289868 0 0.43874415768382158 -0.29310671547163403 0 0.42504611560874761 -0.29307714113289868 0 0.43092107089682352 -0.30573631325696571 0 0.41919911313656122 -0.31385112706466711 0 0.43092107089682352 -0.30573631325696571 0 0.41692698488998292 -0.30249561446253759 0 0.42504611560874761 -0.29307714113289868 0 0.43092107089682352 -0.30573631325696571 0 0.41692698488998292 -0.30249561446253759 0 0.41919911313656122 -0.31385112706466711 0 0.41692698488998292 -0.30249561446253759 0 0.40916221757477672 -0.31142054967536659 0 0.40563314249086863 -0.30155395497769039 0 0.41692698488998292 -0.30249561446253759 0 0.40916221757477672 -0.31142054967536659 0 0.40563314249086863 -0.30155395497769039 0 0.41692698488998292 -0.30249561446253759 0 0.41160024963212011 -0.28933460066763711 0 0.42166373126508722 -0.27984448092147479 0 0.42504611560874761 -0.29307714113289868 0 0.41160024963212011 -0.28933460066763711 0 0.42504611560874761 -0.29307714113289868 0 0.41692698488998292 -0.30249561446253759 0 0.41160024963212011 -0.28933460066763711 0 0.5 -0.5 0 0.47532784176218862 -0.47257481327436679 0 0.43264288253940292 -0.48275234633568048 0 0.5 -0.5 0 0.41749257905485199 -0.50000000000000033 0 0.43264288253940292 -0.48275234633568048 0 0.47532784176218862 -0.47257481327436679 0 0.44779318602395363 -0.46550469267136052 0 0.43264288253940292 -0.48275234633568048 0 0.44779318602395363 -0.46550469267136052 0 0.43264288253940292 -0.48275234633568048 0 0.5 -0.5 0 0.47532784176218862 -0.47257481327436679 0 0.49999999999999828 -0.44642064777577001 0 0.47532784176218862 -0.47257481327436679 0 0.47918453573141367 -0.4495963838019249 0 0.46294348950850428 -0.44825703900704061 0 0.47532784176218862 -0.47257481327436679 0 0.49999999999999828 -0.44642064777577001 0 0.47918453573141367 -0.4495963838019249 0 0.49999999999999828 -0.44642064777577001 0 0.47846681165496419 -0.4311330351505217 0 0.49999999999999828 -0.44642064777577001 0 0.47918453573141367 -0.4495963838019249 0 0.47846681165496419 -0.4311330351505217 0 0.47918453573141367 -0.4495963838019249 0 0.46294348950850428 -0.44825703900704061 0 0.47846681165496419 -0.4311330351505217 0 0.46294348950850428 -0.44825703900704061 0 0.44442683605218691 -0.44583817528272968 0 0.45721208074107311 -0.43281318479414382 0 0.46294348950850428 -0.44825703900704061 0 0.44779318602395363 -0.46550469267136052 0 0.47532784176218862 -0.47257481327436679 0 0.46294348950850428 -0.44825703900704061 0 0.44779318602395363 -0.46550469267136052 0 0.44779318602395363 -0.46550469267136052 0 0.44442683605218691 -0.44583817528272968 0 0.43057418754349119 -0.46211781715143319 0 0.46294348950850428 -0.44825703900704061 0 0.44779318602395363 -0.46550469267136052 0 0.44442683605218691 -0.44583817528272968 0 0.44442683605218691 -0.44583817528272968 0 0.44324354583686831 -0.42153379012121539 0 0.45721208074107311 -0.43281318479414382 0 0.44442683605218691 -0.44583817528272968 0 0.44324354583686831 -0.42153379012121539 0 0.42653452723640378 -0.44279137365393179 0 0.44324354583686831 -0.42153379012121539 0 0.45693362330993059 -0.41584542252527262 0 0.45721208074107311 -0.43281318479414382 0 0.45693362330993059 -0.41584542252527262 0 0.4354004349648965 -0.40055780990002432 0 0.44324354583686831 -0.42153379012121539 0 0.45693362330993059 -0.41584542252527262 0 0.4354004349648965 -0.40055780990002432 0 0.45693362330993059 -0.41584542252527262 0 0.46461049463358839 -0.41117161714406408 0 0.47846681165496419 -0.4311330351505217 0 0.45693362330993059 -0.41584542252527262 0 0.46461049463358839 -0.41117161714406408 0 0.45329728287846061 -0.39963099679296588 0 0.46294348950850428 -0.44825703900704061 0 0.45721208074107311 -0.43281318479414382 0 0.47846681165496419 -0.4311330351505217 0 0.45693362330993059 -0.41584542252527262 0 0.45721208074107311 -0.43281318479414382 0 0.47846681165496419 -0.4311330351505217 0 0.45693362330993059 -0.41584542252527262 0 0.47846681165496419 -0.4311330351505217 0 0.49999999999999828 -0.44642064777577001 0 0.47846681165496419 -0.4311330351505217 0 0.5 -0.42181653977348488 0 0.5 -0.42181653977348488 0 0.48394518954555588 -0.41195106762427058 0 0.49999999999999789 -0.3972124317711998 0 0.47846681165496419 -0.4311330351505217 0 0.5 -0.42181653977348488 0 0.48394518954555588 -0.41195106762427058 0 0.46461049463358839 -0.41117161714406408 0 0.47846681165496419 -0.4311330351505217 0 0.48394518954555588 -0.41195106762427058 0 0.46461049463358839 -0.41117161714406408 0 0.48394518954555588 -0.41195106762427058 0 0.47664864143922919 -0.39842171428208217 0 0.47664864143922919 -0.39842171428208217 0 0.47975395238035062 -0.3854291032725421 0 0.46812846895096999 -0.38912968091376021 0 0.47664864143922919 -0.39842171428208217 0 0.49999999999999789 -0.3972124317711998 0 0.48779058149940679 -0.38751051868815611 0 0.48394518954555588 -0.41195106762427058 0 0.47664864143922919 -0.39842171428208217 0 0.49999999999999789 -0.3972124317711998 0 0.47664864143922919 -0.39842171428208217 0 0.49999999999999789 -0.3972124317711998 0 0.5 -0.37037944899495368 0 0.49999999999999789 -0.3972124317711998 0 0.48779058149940679 -0.38751051868815611 0 0.5 -0.37037944899495368 0 0.48466784746851571 -0.3739080713738358 0 0.48779058149940679 -0.38751051868815611 0 0.48466784746851571 -0.3739080713738358 0 0.47975395238035062 -0.3854291032725421 0 0.47323517146124039 -0.38191256761527542 0 0.48466784746851571 -0.3739080713738358 0 0.48779058149940679 -0.38751051868815611 0 0.47975395238035062 -0.3854291032725421 0 0.47664864143922919 -0.39842171428208217 0 0.48779058149940679 -0.38751051868815611 0 0.47975395238035062 -0.3854291032725421 0 0.47975395238035062 -0.3854291032725421 0 0.47323517146124039 -0.38191256761527542 0 0.46812846895096999 -0.38912968091376021 0 0.46918642870160698 -0.38365020197922722 0 0.47323517146124039 -0.38191256761527542 0 0.46812846895096999 -0.38912968091376021 0 0.4671179630262795 -0.37324494563770522 0 0.46918642870160698 -0.38365020197922722 0 0.47323517146124039 -0.38191256761527542 0 0.45652460043480969 -0.37267172771365881 0 0.4671179630262795 -0.37324494563770522 0 0.46918642870160698 -0.38365020197922722 0 0.45652460043480969 -0.37267172771365881 0 0.46918642870160698 -0.38365020197922722 0 0.45652460043480969 -0.37267172771365881 0 0.45606522570456098 -0.38599652494351028 0 0.44783900322824399 -0.38008781189722518 0 0.45652460043480969 -0.37267172771365881 0 0.46918642870160698 -0.38365020197922722 0 0.45606522570456098 -0.38599652494351028 0 0.46918642870160698 -0.38365020197922722 0 0.45606522570456098 -0.38599652494351028 0 0.46812846895096999 -0.38912968091376021 0 0.46461049463358839 -0.41117161714406408 0 0.47664864143922919 -0.39842171428208217 0 0.45329728287846061 -0.39963099679296588 0 0.47664864143922919 -0.39842171428208217 0 0.45329728287846061 -0.39963099679296588 0 0.47664864143922919 -0.39842171428208217 0 0.46812846895096999 -0.38912968091376021 0 0.45329728287846061 -0.39963099679296588 0 0.46461049463358839 -0.41117161714406408 0 0.45329728287846061 -0.39963099679296588 0 0.45606522570456098 -0.38599652494351028 0 0.46812846895096999 -0.38912968091376021 0 0.45329728287846061 -0.39963099679296588 0 0.45693362330993059 -0.41584542252527262 0 0.45329728287846061 -0.39963099679296588 0 0.4354004349648965 -0.40055780990002432 0 0.45329728287846061 -0.39963099679296588 0 0.4354004349648965 -0.40055780990002432 0 0.45329728287846061 -0.39963099679296588 0 0.4390969294492823 -0.3851451998924304 0 0.4354004349648965 -0.40055780990002432 0 0.45329728287846061 -0.39963099679296588 0 0.4390969294492823 -0.3851451998924304 0 0.45606522570456098 -0.38599652494351028 0 0.4390969294492823 -0.3851451998924304 0 0.44783900322824399 -0.38008781189722518 0 0.45606522570456098 -0.38599652494351028 0 0.45329728287846061 -0.39963099679296588 0 0.4390969294492823 -0.3851451998924304 0 0.4390969294492823 -0.3851451998924304 0 0.43808065797110041 -0.37748478958974491 0 0.44783900322824399 -0.38008781189722518 0 0.42782015831496062 -0.38505662608606978 0 0.4354004349648965 -0.40055780990002432 0 0.41188669282555868 -0.38386409155992901 0 0.42489657602010461 -0.37065940299189432 0 0.4390969294492823 -0.3851451998924304 0 0.42782015831496062 -0.38505662608606978 0 0.42489657602010461 -0.37065940299189432 0 0.4390969294492823 -0.3851451998924304 0 0.43808065797110041 -0.37748478958974491 0 0.42489657602010461 -0.37065940299189432 0 0.4390969294492823 -0.3851451998924304 0 0.4390969294492823 -0.3851451998924304 0 0.42782015831496062 -0.38505662608606978 0 0.4354004349648965 -0.40055780990002432 0 0.4354004349648965 -0.40055780990002432 0 0.41188669282555868 -0.38386409155992901 0 0.4354004349648965 -0.40055780990002432 0 0.40669862042327182 -0.40204417319942209 0 0.4354004349648965 -0.40055780990002432 0 0.40669862042327182 -0.40204417319942209 0 0.41188669282555868 -0.38386409155992901 0 0.42489657602010461 -0.37065940299189432 0 0.42782015831496062 -0.38505662608606978 0 0.41188669282555868 -0.38386409155992901 0 0.42489657602010461 -0.37065940299189432 0 0.4070765621089808 -0.37107032214525337 0 0.41188669282555868 -0.38386409155992901 0 0.4070765621089808 -0.37107032214525337 0 0.39585190457779329 -0.37201308858561799 0 0.39886607975096749 -0.38470810625682389 0 0.40669862042327182 -0.40204417319942209 0 0.41188669282555868 -0.38386409155992901 0 0.39886607975096749 -0.38470810625682389 0 0.4070765621089808 -0.37107032214525337 0 0.41188669282555868 -0.38386409155992901 0 0.39886607975096749 -0.38470810625682389 0 0.39585190457779329 -0.37201308858561799 0 0.39886607975096749 -0.38470810625682389 0 0.38601585554704992 -0.38244526212700758 0 0.39886607975096749 -0.38470810625682389 0 0.38601585554704992 -0.38244526212700758 0 0.37799680588164719 -0.40353053649882148 0 0.38601585554704992 -0.38244526212700758 0 0.37799680588164719 -0.40353053649882148 0 0.38601585554704992 -0.38244526212700758 0 0.37799680588164719 -0.40353053649882148 0 0.36816388811638329 -0.39545065246060412 0 0.37799680588164719 -0.40353053649882148 0 0.37635446215448021 -0.40784891206015261 0 0.37799680588164719 -0.40353053649882148 0 0.37505152225636262 -0.40368306209891941 0 0.37635446215448021 -0.40784891206015261 0 0.37799680588164719 -0.40353053649882148 0 0.37505152225636262 -0.40368306209891941 0 0.40669862042327182 -0.40204417319942209 0 0.39886607975096749 -0.38470810625682389 0 0.37799680588164719 -0.40353053649882148 0 0.40669862042327182 -0.40204417319942209 0 0.37799680588164719 -0.40353053649882148 0 0.40669862042327182 -0.40204417319942209 0 0.38553791301154328 -0.41840677215457472 0 0.40567792500840172 -0.4277251834563135 0 0.40669862042327182 -0.40204417319942209 0 0.37799680588164719 -0.40353053649882148 0 0.38553791301154328 -0.41840677215457472 0 0.38553791301154328 -0.41840677215457472 0 0.36905142820508552 -0.42917232846767789 0 0.37241381966677689 -0.417360225696081 0 0.38553791301154328 -0.41840677215457472 0 0.37635446215448021 -0.40784891206015261 0 0.37241381966677689 -0.417360225696081 0 0.37799680588164719 -0.40353053649882148 0 0.38553791301154328 -0.41840677215457472 0 0.37635446215448021 -0.40784891206015261 0 0.38553791301154328 -0.41840677215457472 0 0.38807715457860831 -0.4388905332329941 0 0.36905142820508552 -0.42917232846767789 0 0.38553791301154328 -0.41840677215457472 0 0.40567792500840172 -0.4277251834563135 0 0.38807715457860831 -0.4388905332329941 0 0.40567792500840172 -0.4277251834563135 0 0.42351101069396863 -0.41893046606618117 0 0.42653452723640378 -0.44279137365393179 0 0.4354004349648965 -0.40055780990002432 0 0.40669862042327182 -0.40204417319942209 0 0.42351101069396863 -0.41893046606618117 0 0.40669862042327182 -0.40204417319942209 0 0.40567792500840172 -0.4277251834563135 0 0.42351101069396863 -0.41893046606618117 0 0.44324354583686831 -0.42153379012121539 0 0.4354004349648965 -0.40055780990002432 0 0.42351101069396863 -0.41893046606618117 0 0.44324354583686831 -0.42153379012121539 0 0.42653452723640378 -0.44279137365393179 0 0.44324354583686831 -0.42153379012121539 0 0.42351101069396863 -0.41893046606618117 0 0.42653452723640378 -0.44279137365393179 0 0.44442683605218691 -0.44583817528272968 0 0.42653452723640378 -0.44279137365393179 0 0.43057418754349119 -0.46211781715143319 0 0.42653452723640378 -0.44279137365393179 0 0.43057418754349119 -0.46211781715143319 0 0.40982550863593931 -0.46404895718664829 0 0.42653452723640378 -0.44279137365393179 0 0.40982550863593931 -0.46404895718664829 0 0.42653452723640378 -0.44279137365393179 0 0.40982550863593931 -0.46404895718664829 0 0.4036378289262339 -0.44671034290208689 0 0.40567792500840172 -0.4277251834563135 0 0.42653452723640378 -0.44279137365393179 0 0.4036378289262339 -0.44671034290208689 0 0.40567792500840172 -0.4277251834563135 0 0.4036378289262339 -0.44671034290208689 0 0.38807715457860831 -0.4388905332329941 0 0.4036378289262339 -0.44671034290208689 0 0.38807715457860831 -0.4388905332329941 0 0.38807402917181633 -0.46009566698054732 0 0.38807715457860831 -0.4388905332329941 0 0.3733961412993268 -0.45022493016754961 0 0.36905142820508552 -0.42917232846767789 0 0.38807715457860831 -0.4388905332329941 0 0.38807402917181633 -0.46009566698054732 0 0.3733961412993268 -0.45022493016754961 0 0.38807402917181633 -0.46009566698054732 0 0.36593927904035028 -0.47432204071884282 0 0.3733961412993268 -0.45022493016754961 0 0.40982550863593931 -0.46404895718664829 0 0.4036378289262339 -0.44671034290208689 0 0.38807402917181633 -0.46009566698054732 0 0.40982550863593931 -0.46404895718664829 0 0.39311649003547477 -0.48530654071936469 0 0.40982550863593931 -0.46404895718664829 0 0.38807402917181633 -0.46009566698054732 0 0.39311649003547477 -0.48530654071936469 0 0.38807402917181633 -0.46009566698054732 0 0.39311649003547477 -0.48530654071936469 0 0.36593927904035028 -0.47432204071884282 0 0.37603974257992701 -0.49999999999999978 0 0.39311649003547477 -0.48530654071936469 0 0.36593927904035028 -0.47432204071884282 0 0.37603974257992701 -0.49999999999999978 0 0.39676616081738958 -0.5 0 0.39311649003547477 -0.48530654071936469 0 0.39676616081738958 -0.5 0 0.39311649003547477 -0.48530654071936469 0 0.41749257905485199 -0.50000000000000033 0 0.40982550863593931 -0.46404895718664829 0 0.41749257905485199 -0.50000000000000033 0 0.43264288253940292 -0.48275234633568048 0 0.40982550863593931 -0.46404895718664829 0 0.39311649003547477 -0.48530654071936469 0 0.41749257905485199 -0.50000000000000033 0 0.43057418754349119 -0.46211781715143319 0 0.40982550863593931 -0.46404895718664829 0 0.43264288253940292 -0.48275234633568048 0 0.44779318602395363 -0.46550469267136052 0 0.43057418754349119 -0.46211781715143319 0 0.43264288253940292 -0.48275234633568048 0 0.41749257905485199 -0.50000000000000033 0 0.43264288253940292 -0.48275234633568048 0 0.32215468257820618 -0.5 0 0.33760568703239408 -0.47417818032706111 0 0.31005432530219129 -0.48106067464861729 0 0.33760568703239408 -0.47417818032706111 0 0.3189449745883719 -0.46117016543644002 0 0.31005432530219129 -0.48106067464861729 0 0.32215468257820618 -0.5 0 0.33760568703239408 -0.47417818032706111 0 0.34909721257906662 -0.5 0 0.37603974257992701 -0.49999999999999978 0 0.34909721257906662 -0.5 0 0.36593927904035028 -0.47432204071884282 0 0.37603974257992701 -0.49999999999999978 0 0.36593927904035028 -0.47432204071884282 0 0.33760568703239408 -0.47417818032706111 0 0.34909721257906662 -0.5 0 0.36593927904035028 -0.47432204071884282 0 0.33760568703239408 -0.47417818032706111 0 0.36593927904035028 -0.47432204071884282 0 0.35583881550077368 -0.44864408143768569 0 0.36593927904035028 -0.47432204071884282 0 0.35583881550077368 -0.44864408143768569 0 0.36593927904035028 -0.47432204071884282 0 0.3733961412993268 -0.45022493016754961 0 0.35583881550077368 -0.44864408143768569 0 0.3733961412993268 -0.45022493016754961 0 0.35583881550077368 -0.44864408143768569 0 0.36905142820508552 -0.42917232846767789 0 0.35583881550077368 -0.44864408143768569 0 0.33540415989768779 -0.44905252560006492 0 0.34573835196119679 -0.42296612215652868 0 0.33760568703239408 -0.47417818032706111 0 0.35583881550077368 -0.44864408143768569 0 0.33540415989768779 -0.44905252560006492 0 0.33760568703239408 -0.47417818032706111 0 0.33540415989768779 -0.44905252560006492 0 0.3189449745883719 -0.46117016543644002 0 0.33540415989768779 -0.44905252560006492 0 0.3189449745883719 -0.46117016543644002 0 0.32126124445813709 -0.43429719032362252 0 0.3189449745883719 -0.46117016543644002 0 0.32126124445813709 -0.43429719032362252 0 0.30480654487456732 -0.44641521679941309 0 0.32126124445813709 -0.43429719032362252 0 0.3193156137706864 -0.40941365839269389 0 0.29937418247959258 -0.41817563384508599 0 0.3193156137706864 -0.40941365839269389 0 0.34573835196119679 -0.42296612215652868 0 0.33563788842162012 -0.39728816287537172 0 0.34573835196119679 -0.42296612215652868 0 0.33563788842162012 -0.39728816287537172 0 0.33540415989768779 -0.44905252560006492 0 0.32126124445813709 -0.43429719032362252 0 0.34573835196119679 -0.42296612215652868 0 0.32126124445813709 -0.43429719032362252 0 0.3193156137706864 -0.40941365839269389 0 0.34573835196119679 -0.42296612215652868 0 0.35583881550077368 -0.44864408143768569 0 0.34573835196119679 -0.42296612215652868 0 0.36905142820508552 -0.42917232846767789 0 0.35583881550077368 -0.44864408143768569 0 0.34573835196119679 -0.42296612215652868 0 0.36905142820508552 -0.42917232846767789 0 0.37241381966677689 -0.417360225696081 0 0.36195200988480669 -0.41065981681110758 0 0.36990343230398692 -0.40830781576793279 0 0.37241381966677689 -0.417360225696081 0 0.36195200988480669 -0.41065981681110758 0 0.37635446215448021 -0.40784891206015261 0 0.36990343230398692 -0.40830781576793279 0 0.37241381966677689 -0.417360225696081 0 0.37505152225636262 -0.40368306209891941 0 0.37635446215448021 -0.40784891206015261 0 0.36990343230398692 -0.40830781576793279 0 0.36990343230398692 -0.40830781576793279 0 0.36195200988480669 -0.41065981681110758 0 0.36876771314038492 -0.40452533678464098 0 0.34573835196119679 -0.42296612215652868 0 0.36195200988480669 -0.41065981681110758 0 0.35211107663302149 -0.40015425695529971 0 0.34573835196119679 -0.42296612215652868 0 0.36905142820508552 -0.42917232846767789 0 0.36195200988480669 -0.41065981681110758 0 0.34573835196119679 -0.42296612215652868 0 0.35211107663302149 -0.40015425695529971 0 0.33563788842162012 -0.39728816287537172 0 0.35211107663302149 -0.40015425695529971 0 0.35352794608594401 -0.38791341326287138 0 0.33563788842162012 -0.39728816287537172 0 0.35211107663302149 -0.40015425695529971 0 0.36816388811638329 -0.39545065246060412 0 0.35352794608594401 -0.38791341326287138 0 0.36195200988480669 -0.41065981681110758 0 0.36816388811638329 -0.39545065246060412 0 0.36876771314038492 -0.40452533678464098 0 0.36195200988480669 -0.41065981681110758 0 0.35211107663302149 -0.40015425695529971 0 0.36816388811638329 -0.39545065246060412 0 0.37505152225636262 -0.40368306209891941 0 0.36816388811638329 -0.39545065246060412 0 0.36876771314038492 -0.40452533678464098 0 0.37799680588164719 -0.40353053649882148 0 0.37505152225636262 -0.40368306209891941 0 0.36816388811638329 -0.39545065246060412 0 0.37505152225636262 -0.40368306209891941 0 0.36990343230398692 -0.40830781576793279 0 0.36876771314038492 -0.40452533678464098 0 0.38601585554704992 -0.38244526212700758 0 0.36816388811638329 -0.39545065246060412 0 0.3689120952668708 -0.37284951495870189 0 0.36816388811638329 -0.39545065246060412 0 0.35352794608594401 -0.38791341326287138 0 0.3689120952668708 -0.37284951495870189 0 0.35352794608594401 -0.38791341326287138 0 0.33563788842162012 -0.39728816287537172 0 0.34467783115022588 -0.37252705130409253 0 0.35352794608594401 -0.38791341326287138 0 0.3689120952668708 -0.37284951495870189 0 0.34467783115022588 -0.37252705130409253 0 0.33563788842162012 -0.39728816287537172 0 0.3255374248820434 -0.37161020359421471 0 0.33563788842162012 -0.39728816287537172 0 0.34467783115022588 -0.37252705130409253 0 0.3255374248820434 -0.37161020359421471 0 0.3193156137706864 -0.40941365839269389 0 0.33563788842162012 -0.39728816287537172 0 0.30534853388527528 -0.38930881101125692 0 0.33563788842162012 -0.39728816287537172 0 0.30534853388527528 -0.38930881101125692 0 0.3255374248820434 -0.37161020359421471 0 0.30534853388527528 -0.38930881101125692 0 0.3255374248820434 -0.37161020359421471 0 0.30525369772634148 -0.37164386163485291 0 0.30534853388527528 -0.38930881101125692 0 0.28783989868818821 -0.37644057584389279 0 0.30525369772634148 -0.37164386163485291 0 0.3193156137706864 -0.40941365839269389 0 0.30534853388527528 -0.38930881101125692 0 0.29937418247959258 -0.41817563384508599 0 0.30534853388527528 -0.38930881101125692 0 0.28922044672054198 -0.39637746652331562 0 0.29937418247959258 -0.41817563384508599 0 0.28922044672054198 -0.39637746652331562 0 0.27510086349567708 -0.39798721671617321 0 0.28320928432356041 -0.41012407252970262 0 0.28922044672054198 -0.39637746652331562 0 0.28783989868818821 -0.37644057584389279 0 0.27924907625512951 -0.38731579260330862 0 0.30534853388527528 -0.38930881101125692 0 0.28922044672054198 -0.39637746652331562 0 0.28783989868818821 -0.37644057584389279 0 0.30534853388527528 -0.38930881101125692 0 0.28783989868818821 -0.37644057584389279 0 0.28783989868818821 -0.37644057584389279 0 0.27447250226623809 -0.37821124143188289 0 0.27924907625512951 -0.38731579260330862 0 0.27447250226623809 -0.37821124143188289 0 0.27924907625512951 -0.38731579260330862 0 0.26961167010500181 -0.38756246250127813 0 0.27447250226623809 -0.37821124143188289 0 0.26961167010500181 -0.38756246250127813 0 0.26423397132697279 -0.37890457124200982 0 0.26961167010500181 -0.38756246250127813 0 0.26423397132697279 -0.37890457124200982 0 0.25687819372407023 -0.38903915957053298 0 0.26423397132697279 -0.37890457124200982 0 0.25687819372407023 -0.38903915957053298 0 0.24987622704845311 -0.37613765202982719 0 0.25108303853213881 -0.40002667887407228 0 0.26390234922262928 -0.39930308446362528 0 0.256136481120742 -0.41447562176841068 0 0.25687819372407023 -0.38903915957053298 0 0.25108303853213881 -0.40002667887407228 0 0.24309899287842279 -0.39271330151873202 0 0.25687819372407023 -0.38903915957053298 0 0.25108303853213881 -0.40002667887407228 0 0.26390234922262928 -0.39930308446362528 0 0.26961167010500181 -0.38756246250127813 0 0.25687819372407023 -0.38903915957053298 0 0.26390234922262928 -0.39930308446362528 0 0.26390234922262928 -0.39930308446362528 0 0.27510086349567708 -0.39798721671617321 0 0.2708804648698091 -0.41009655218672442 0 0.26961167010500181 -0.38756246250127813 0 0.26390234922262928 -0.39930308446362528 0 0.27510086349567708 -0.39798721671617321 0 0.28922044672054198 -0.39637746652331562 0 0.27924907625512951 -0.38731579260330862 0 0.27510086349567708 -0.39798721671617321 0 0.27924907625512951 -0.38731579260330862 0 0.26961167010500181 -0.38756246250127813 0 0.27510086349567708 -0.39798721671617321 0 0.27510086349567708 -0.39798721671617321 0 0.2708804648698091 -0.41009655218672442 0 0.28320928432356041 -0.41012407252970262 0 0.2708804648698091 -0.41009655218672442 0 0.256136481120742 -0.41447562176841068 0 0.27433621812851161 -0.42550461519375637 0 0.2708804648698091 -0.41009655218672442 0 0.27433621812851161 -0.42550461519375637 0 0.28320928432356041 -0.41012407252970262 0 0.26390234922262928 -0.39930308446362528 0 0.2708804648698091 -0.41009655218672442 0 0.256136481120742 -0.41447562176841068 0 0.25108303853213881 -0.40002667887407228 0 0.256136481120742 -0.41447562176841068 0 0.24629253832767661 -0.41022035877505542 0 0.256136481120742 -0.41447562176841068 0 0.25513396950241118 -0.43290986753561628 0 0.2453827316299185 -0.42192330194190181 0 0.256136481120742 -0.41447562176841068 0 0.25513396950241118 -0.43290986753561628 0 0.27433621812851161 -0.42550461519375637 0 0.25513396950241118 -0.43290986753561628 0 0.27433621812851161 -0.42550461519375637 0 0.26752346795397081 -0.44788636482661331 0 0.27433621812851161 -0.42550461519375637 0 0.29937418247959258 -0.41817563384508599 0 0.28546596250580908 -0.44246723239800262 0 0.29937418247959258 -0.41817563384508599 0 0.30480654487456732 -0.44641521679941309 0 0.28546596250580908 -0.44246723239800262 0 0.28922044672054198 -0.39637746652331562 0 0.28320928432356041 -0.41012407252970262 0 0.29937418247959258 -0.41817563384508599 0 0.27433621812851161 -0.42550461519375637 0 0.28320928432356041 -0.41012407252970262 0 0.29937418247959258 -0.41817563384508599 0 0.32126124445813709 -0.43429719032362252 0 0.29937418247959258 -0.41817563384508599 0 0.30480654487456732 -0.44641521679941309 0 0.3189449745883719 -0.46117016543644002 0 0.30480654487456732 -0.44641521679941309 0 0.28880919487484108 -0.4658549053918814 0 0.30480654487456732 -0.44641521679941309 0 0.28880919487484108 -0.4658549053918814 0 0.28546596250580908 -0.44246723239800262 0 0.27433621812851161 -0.42550461519375637 0 0.28546596250580908 -0.44246723239800262 0 0.26752346795397081 -0.44788636482661331 0 0.28880919487484108 -0.4658549053918814 0 0.28546596250580908 -0.44246723239800262 0 0.26752346795397081 -0.44788636482661331 0 0.25513396950241118 -0.43290986753561628 0 0.26752346795397081 -0.44788636482661331 0 0.24480843210435321 -0.45079661158300749 0 0.26752346795397081 -0.44788636482661331 0 0.2588368117714554 -0.46700690363883102 0 0.24480843210435321 -0.45079661158300749 0 0.28880919487484108 -0.4658549053918814 0 0.26752346795397081 -0.44788636482661331 0 0.2588368117714554 -0.46700690363883102 0 0.28880919487484108 -0.4658549053918814 0 0.2588368117714554 -0.46700690363883102 0 0.27227655507569209 -0.48076744006000099 0 0.2588368117714554 -0.46700690363883102 0 0.27227655507569209 -0.48076744006000099 0 0.25270961841775552 -0.48460016746525392 0 0.2588368117714554 -0.46700690363883102 0 0.25270961841775552 -0.48460016746525392 0 0.23949561189523169 -0.47426551941090739 0 0.25270961841775552 -0.48460016746525392 0 0.26826962257648529 -0.5 0 0.2413270925756249 -0.5 0 0.27227655507569209 -0.48076744006000099 0 0.25270961841775552 -0.48460016746525392 0 0.26826962257648529 -0.5 0 0.27227655507569209 -0.48076744006000099 0 0.26826962257648529 -0.5 0 0.29521215257734579 -0.5 0 0.28880919487484108 -0.4658549053918814 0 0.27227655507569209 -0.48076744006000099 0 0.29521215257734579 -0.5 0 0.28880919487484108 -0.4658549053918814 0 0.29521215257734579 -0.5 0 0.31005432530219129 -0.48106067464861729 0 0.3189449745883719 -0.46117016543644002 0 0.28880919487484108 -0.4658549053918814 0 0.31005432530219129 -0.48106067464861729 0 0.32215468257820618 -0.5 0 0.29521215257734579 -0.5 0 0.31005432530219129 -0.48106067464861729 0 0.33463237856908817 -0.28956894479377399 0 0.33485830675890288 -0.30442904333306592 0 0.35657459314761941 -0.2860097891906741 0 0.33463237856908817 -0.28956894479377399 0 0.32894302133540282 -0.28710755170783531 0 0.35195887039823659 -0.28200771363307098 0 0.32894302133540282 -0.28710755170783531 0 0.35195887039823659 -0.28200771363307098 0 0.32894302133540282 -0.28710755170783531 0 0.33255663915089151 -0.29722249741805129 0 0.33463237856908817 -0.28956894479377399 0 0.32894302133540282 -0.28710755170783531 0 0.33255663915089151 -0.29722249741805129 0 0.32894302133540282 -0.28710755170783531 0 0.33255663915089151 -0.29722249741805129 0 0.32301709761150521 -0.2972128627914089 0 0.33485830675890288 -0.30442904333306592 0 0.34824447571033601 -0.30253517369681238 0 0.34533870308018377 -0.31598934501886372 0 0.33485830675890288 -0.30442904333306592 0 0.33255663915089151 -0.29722249741805129 0 0.32434770264142349 -0.30499280498860082 0 0.33463237856908817 -0.28956894479377399 0 0.33485830675890288 -0.30442904333306592 0 0.33255663915089151 -0.29722249741805129 0 0.32301709761150521 -0.2972128627914089 0 0.32434770264142349 -0.30499280498860082 0 0.3171485971304504 -0.30589952111326829 0 0.32434770264142349 -0.30499280498860082 0 0.3171485971304504 -0.30589952111326829 0 0.31314202037018413 -0.32284829747545468 0 0.33485830675890288 -0.30442904333306592 0 0.32434770264142349 -0.30499280498860082 0 0.31314202037018413 -0.32284829747545468 0 0.33255663915089151 -0.29722249741805129 0 0.32301709761150521 -0.2972128627914089 0 0.32434770264142349 -0.30499280498860082 0 0.3171485971304504 -0.30589952111326829 0 0.31208952779935789 -0.2908419387292881 0 0.30833746379913463 -0.30503745501229762 0 0.32301709761150521 -0.2972128627914089 0 0.3171485971304504 -0.30589952111326829 0 0.31208952779935789 -0.2908419387292881 0 0.32894302133540282 -0.28710755170783531 0 0.31611371382327402 -0.28007222207304999 0 0.31208952779935789 -0.2908419387292881 0 0.32894302133540282 -0.28710755170783531 0 0.32301709761150521 -0.2972128627914089 0 0.31208952779935789 -0.2908419387292881 0 0.32894302133540282 -0.28710755170783531 0 0.31208952779935789 -0.2908419387292881 0 0.32894302133540282 -0.28710755170783531 0 0.32245882367699719 -0.26895751187574157 0 0.32894302133540282 -0.28710755170783531 0 0.31611371382327402 -0.28007222207304999 0 0.32245882367699719 -0.26895751187574157 0 0.31611371382327402 -0.28007222207304999 0 0.32245882367699719 -0.26895751187574157 0 0.30706455279928557 -0.27339796693147528 0 0.32245882367699719 -0.26895751187574157 0 0.30981211567343969 -0.26250129009931661 0 0.30706455279928557 -0.27339796693147528 0 0.32245882367699719 -0.26895751187574157 0 0.31597462601859122 -0.25080747204364812 0 0.32245882367699719 -0.26895751187574157 0 0.31597462601859122 -0.25080747204364812 0 0.30981211567343969 -0.26250129009931661 0 0.32245882367699719 -0.26895751187574157 0 0.31597462601859122 -0.25080747204364812 0 0.33396674820841349 -0.26640759283836002 0 0.31597462601859122 -0.25080747204364812 0 0.33396674820841349 -0.26640759283836002 0 0.33517615116993849 -0.24743488902137309 0 0.33396674820841349 -0.26640759283836002 0 0.35185333732921159 -0.25428502110151557 0 0.33517615116993849 -0.24743488902137309 0 0.31597462601859122 -0.25080747204364812 0 0.33396674820841349 -0.26640759283836002 0 0.32894302133540282 -0.28710755170783531 0 0.32245882367699719 -0.26895751187574157 0 0.33396674820841349 -0.26640759283836002 0 0.33396674820841349 -0.26640759283836002 0 0.35195887039823659 -0.28200771363307098 0 0.32894302133540282 -0.28710755170783531 0 0.33396674820841349 -0.26640759283836002 0 0.35195887039823659 -0.28200771363307098 0 0.33396674820841349 -0.26640759283836002 0 0.35159414215374007 -0.26901089914998932 0 0.35195887039823659 -0.28200771363307098 0 0.35159414215374007 -0.26901089914998932 0 0.36459381448795669 -0.2792080702757721 0 0.35195887039823659 -0.28200771363307098 0 0.36459381448795669 -0.2792080702757721 0 0.35195887039823659 -0.28200771363307098 0 0.33396674820841349 -0.26640759283836002 0 0.35159414215374007 -0.26901089914998932 0 0.35185333732921159 -0.25428502110151557 0 0.35159414215374007 -0.26901089914998932 0 0.35185333732921159 -0.25428502110151557 0 0.36435388824524378 -0.26651308148643732 0 0.37477580018058132 -0.24095111383496479 0 0.37683953433427181 -0.26882153263446662 0 0.36563983252638571 -0.25462703483095822 0 0.36075586336603621 -0.2426037127049111 0 0.35185333732921159 -0.25428502110151557 0 0.36563983252638571 -0.25462703483095822 0 0.35185333732921159 -0.25428502110151557 0 0.36563983252638571 -0.25462703483095822 0 0.36435388824524378 -0.26651308148643732 0 0.37683953433427181 -0.26882153263446662 0 0.36563983252638571 -0.25462703483095822 0 0.36435388824524378 -0.26651308148643732 0 0.36459381448795669 -0.2792080702757721 0 0.36308990924476459 -0.28048364807874221 0 0.35195887039823659 -0.28200771363307098 0 0.36459381448795669 -0.2792080702757721 0 0.36308990924476459 -0.28048364807874221 0 0.37273728942595791 -0.27740364396778311 0 0.36459381448795669 -0.2792080702757721 0 0.36308990924476459 -0.28048364807874221 0 0.35159414215374007 -0.26901089914998932 0 0.36459381448795669 -0.2792080702757721 0 0.36435388824524378 -0.26651308148643732 0 0.37683953433427181 -0.26882153263446662 0 0.36459381448795669 -0.2792080702757721 0 0.36435388824524378 -0.26651308148643732 0 0.36459381448795669 -0.2792080702757721 0 0.37273728942595791 -0.27740364396778311 0 0.37683953433427181 -0.26882153263446662 0 0.36459381448795669 -0.2792080702757721 0 0.37273728942595791 -0.27740364396778311 0 0.37683953433427181 -0.26882153263446662 0 0.36459381448795669 -0.2792080702757721 0 0.36308990924476459 -0.28048364807874221 0 0.37273728942595791 -0.27740364396778311 0 0.37795999762798671 -0.28395322059410122 0 0.37273728942595791 -0.27740364396778311 0 0.36936745264149701 -0.28627283508716472 0 0.35657459314761941 -0.2860097891906741 0 0.35620629985463748 -0.30371251724464648 0 0.37101427446782781 -0.29852975601036341 0 0.36308990924476459 -0.28048364807874221 0 0.37273728942595791 -0.27740364396778311 0 0.36936745264149701 -0.28627283508716472 0 0.37519981906117678 -0.29055939022370142 0 0.37795999762798671 -0.28395322059410122 0 0.36936745264149701 -0.28627283508716472 0 0.37519981906117678 -0.29055939022370142 0 0.36936745264149701 -0.28627283508716472 0 0.37101427446782781 -0.29852975601036341 0 0.36936745264149701 -0.28627283508716472 0 0.35657459314761941 -0.2860097891906741 0 0.37101427446782781 -0.29852975601036341 0 0.35657459314761941 -0.2860097891906741 0 0.37101427446782781 -0.29852975601036341 0 0.36308990924476459 -0.28048364807874221 0 0.36936745264149701 -0.28627283508716472 0 0.35657459314761941 -0.2860097891906741 0 0.36308990924476459 -0.28048364807874221 0 0.35657459314761941 -0.2860097891906741 0 0.36308990924476459 -0.28048364807874221 0 0.35366972758071469 -0.28349111722646431 0 0.33463237856908817 -0.28956894479377399 0 0.35366972758071469 -0.28349111722646431 0 0.33463237856908817 -0.28956894479377399 0 0.35366972758071469 -0.28349111722646431 0 0.35195887039823659 -0.28200771363307098 0 0.36308990924476459 -0.28048364807874221 0 0.35366972758071469 -0.28349111722646431 0 0.35195887039823659 -0.28200771363307098 0 0.33485830675890288 -0.30442904333306592 0 0.35657459314761941 -0.2860097891906741 0 0.36308990924476459 -0.28048364807874221 0 0.35366972758071469 -0.28349111722646431 0 0.35657459314761941 -0.2860097891906741 0 0.33463237856908817 -0.28956894479377399 0 0.35366972758071469 -0.28349111722646431 0 0.35657459314761941 -0.2860097891906741 0 0.35366972758071469 -0.28349111722646431 0 0.35657459314761941 -0.2860097891906741 0 0.35366972758071469 -0.28349111722646431 0 0.35195887039823659 -0.28200771363307098 0 0.35620629985463748 -0.30371251724464648 0 0.36380134767337091 -0.31365371592763602 0 0.34533870308018377 -0.31598934501886372 0 0.35657459314761941 -0.2860097891906741 0 0.34824447571033601 -0.30253517369681238 0 0.35620629985463748 -0.30371251724464648 0 0.33485830675890288 -0.30442904333306592 0 0.35657459314761941 -0.2860097891906741 0 0.34824447571033601 -0.30253517369681238 0 0.34824447571033601 -0.30253517369681238 0 0.35620629985463748 -0.30371251724464648 0 0.34533870308018377 -0.31598934501886372 0 0.38545395578803499 -0.31104972283005378 0 0.37101427446782781 -0.29852975601036341 0 0.36380134767337091 -0.31365371592763602 0 0.35620629985463748 -0.30371251724464648 0 0.37101427446782781 -0.29852975601036341 0 0.36380134767337091 -0.31365371592763602 0 0.38545395578803499 -0.31104972283005378 0 0.36380134767337091 -0.31365371592763602 0 0.36945761595668469 -0.32738841673247931 0 0.36380134767337091 -0.31365371592763602 0 0.36945761595668469 -0.32738841673247931 0 0.35533723689285712 -0.32525253772940937 0 0.36945761595668469 -0.32738841673247931 0 0.35618710249729552 -0.34088690244721892 0 0.35533723689285712 -0.32525253772940937 0 0.36945761595668469 -0.32738841673247931 0 0.35618710249729552 -0.34088690244721892 0 0.37368731816096312 -0.34897020548070451 0 0.35618710249729552 -0.34088690244721892 0 0.33810128782584858 -0.35072533414536311 0 0.34064131712366241 -0.33181983138849169 0 0.35618710249729552 -0.34088690244721892 0 0.35533723689285712 -0.32525253772940937 0 0.34064131712366241 -0.33181983138849169 0 0.34533870308018377 -0.31598934501886372 0 0.35533723689285712 -0.32525253772940937 0 0.34064131712366241 -0.33181983138849169 0 0.36380134767337091 -0.31365371592763602 0 0.34533870308018377 -0.31598934501886372 0 0.35533723689285712 -0.32525253772940937 0 0.3689120952668708 -0.37284951495870189 0 0.37368731816096312 -0.34897020548070451 0 0.35738528973841999 -0.35772904562383351 0 0.35618710249729552 -0.34088690244721892 0 0.37368731816096312 -0.34897020548070451 0 0.35738528973841999 -0.35772904562383351 0 0.35618710249729552 -0.34088690244721892 0 0.35738528973841999 -0.35772904562383351 0 0.33810128782584858 -0.35072533414536311 0 0.35738528973841999 -0.35772904562383351 0 0.34467783115022588 -0.37252705130409253 0 0.33810128782584858 -0.35072533414536311 0 0.3689120952668708 -0.37284951495870189 0 0.35738528973841999 -0.35772904562383351 0 0.34467783115022588 -0.37252705130409253 0 0.34467783115022588 -0.37252705130409253 0 0.33810128782584858 -0.35072533414536311 0 0.3255374248820434 -0.37161020359421471 0 0.31543696134246668 -0.34593224431305769 0 0.3255374248820434 -0.37161020359421471 0 0.30900602422585888 -0.35865430802761772 0 0.31543696134246668 -0.34593224431305769 0 0.3255374248820434 -0.37161020359421471 0 0.33810128782584858 -0.35072533414536311 0 0.31543696134246668 -0.34593224431305769 0 0.3255374248820434 -0.37161020359421471 0 0.3255374248820434 -0.37161020359421471 0 0.30525369772634148 -0.37164386163485291 0 0.30900602422585888 -0.35865430802761772 0 0.34533870308018377 -0.31598934501886372 0 0.33130220335757699 -0.32186248444176119 0 0.34064131712366241 -0.33181983138849169 0 0.33485830675890288 -0.30442904333306592 0 0.34533870308018377 -0.31598934501886372 0 0.33130220335757699 -0.32186248444176119 0 0.33810128782584858 -0.35072533414536311 0 0.34064131712366241 -0.33181983138849169 0 0.3268430880468266 -0.33457206034663262 0 0.33130220335757699 -0.32186248444176119 0 0.34064131712366241 -0.33181983138849169 0 0.3268430880468266 -0.33457206034663262 0 0.31543696134246668 -0.34593224431305769 0 0.3268430880468266 -0.33457206034663262 0 0.31314202037018413 -0.32284829747545468 0 0.33810128782584858 -0.35072533414536311 0 0.31543696134246668 -0.34593224431305769 0 0.3268430880468266 -0.33457206034663262 0 0.33130220335757699 -0.32186248444176119 0 0.3268430880468266 -0.33457206034663262 0 0.31314202037018413 -0.32284829747545468 0 0.33485830675890288 -0.30442904333306592 0 0.31314202037018413 -0.32284829747545468 0 0.3171485971304504 -0.30589952111326829 0 0.31314202037018413 -0.32284829747545468 0 0.3109911447756647 -0.31350988965823029 0 0.33485830675890288 -0.30442904333306592 0 0.33130220335757699 -0.32186248444176119 0 0.31314202037018413 -0.32284829747545468 0 0.31314202037018413 -0.32284829747545468 0 0.30533649780288991 -0.32025428503190068 0 0.3109911447756647 -0.31350988965823029 0 0.30533649780288991 -0.32025428503190068 0 0.3109911447756647 -0.31350988965823029 0 0.30833746379913463 -0.30503745501229762 0 0.31543696134246668 -0.34593224431305769 0 0.30533649780288991 -0.32025428503190068 0 0.30314188851555429 -0.3464145030398364 0 0.30533649780288991 -0.32025428503190068 0 0.29792146783109758 -0.32077626486014349 0 0.30314188851555429 -0.3464145030398364 0 0.31543696134246668 -0.34593224431305769 0 0.31314202037018413 -0.32284829747545468 0 0.30533649780288991 -0.32025428503190068 0 0.29792146783109758 -0.32077626486014349 0 0.30314188851555429 -0.3464145030398364 0 0.31543696134246668 -0.34593224431305769 0 0.30533649780288991 -0.32025428503190068 0 0.29792146783109758 -0.32077626486014349 0 0.29422135484035322 -0.33366994296298719 0 0.30314188851555429 -0.3464145030398364 0 0.29422135484035322 -0.33366994296298719 0 0.29546103181119637 -0.34185893253319311 0 0.30314188851555429 -0.3464145030398364 0 0.29422135484035322 -0.33366994296298719 0 0.29546103181119637 -0.34185893253319311 0 0.28827175492889229 -0.34275780055790278 0 0.29546103181119637 -0.34185893253319311 0 0.28827175492889229 -0.34275780055790278 0 0.29811044553331972 -0.34650788457159087 0 0.29422135484035322 -0.33366994296298719 0 0.28827175492889229 -0.34275780055790278 0 0.27955848846152698 -0.33666113426449551 0 0.29422135484035322 -0.33366994296298719 0 0.28744860979629389 -0.32474860906702402 0 0.27955848846152698 -0.33666113426449551 0 0.28744860979629389 -0.32474860906702402 0 0.29019889155513462 -0.31620785207956748 0 0.28097437988070417 -0.31138482246715898 0 0.29792146783109758 -0.32077626486014349 0 0.29019889155513462 -0.31620785207956748 0 0.29244758100571983 -0.32385066724243061 0 0.29422135484035322 -0.33366994296298719 0 0.28744860979629389 -0.32474860906702402 0 0.29244758100571983 -0.32385066724243061 0 0.29792146783109758 -0.32077626486014349 0 0.29422135484035322 -0.33366994296298719 0 0.29244758100571983 -0.32385066724243061 0 0.28744860979629389 -0.32474860906702402 0 0.29019889155513462 -0.31620785207956748 0 0.29244758100571983 -0.32385066724243061 0 0.30525369772634148 -0.37164386163485291 0 0.30031449930387721 -0.36082981960256849 0 0.30900602422585888 -0.35865430802761772 0 0.30525369772634148 -0.37164386163485291 0 0.30031449930387721 -0.36082981960256849 0 0.29483415024835152 -0.36747827247447862 0 0.30080593951138668 -0.35381036279877531 0 0.30900602422585888 -0.35865430802761772 0 0.30314188851555429 -0.3464145030398364 0 0.30080593951138668 -0.35381036279877531 0 0.29811044553331972 -0.34650788457159087 0 0.29345683997832372 -0.35664529875226292 0 0.30031449930387721 -0.36082981960256849 0 0.30080593951138668 -0.35381036279877531 0 0.30900602422585888 -0.35865430802761772 0 0.30031449930387721 -0.36082981960256849 0 0.30080593951138668 -0.35381036279877531 0 0.29345683997832372 -0.35664529875226292 0 0.31543696134246668 -0.34593224431305769 0 0.30900602422585888 -0.35865430802761772 0 0.30314188851555429 -0.3464145030398364 0 0.30080593951138668 -0.35381036279877531 0 0.30314188851555429 -0.3464145030398364 0 0.29811044553331972 -0.34650788457159087 0 0.29546103181119637 -0.34185893253319311 0 0.30314188851555429 -0.3464145030398364 0 0.29811044553331972 -0.34650788457159087 0 0.29811044553331972 -0.34650788457159087 0 0.29345683997832372 -0.35664529875226292 0 0.28122462644821988 -0.35688066365974619 0 0.28827175492889229 -0.34275780055790278 0 0.29811044553331972 -0.34650788457159087 0 0.28122462644821988 -0.35688066365974619 0 0.28827175492889229 -0.34275780055790278 0 0.28122462644821988 -0.35688066365974619 0 0.27955848846152698 -0.33666113426449551 0 0.29811044553331972 -0.34650788457159087 0 0.28122462644821988 -0.35688066365974619 0 0.29345683997832372 -0.35664529875226292 0 0.28676543400443838 -0.36101512068260139 0 0.28122462644821988 -0.35688066365974619 0 0.28676543400443838 -0.36101512068260139 0 0.28122462644821988 -0.35688066365974619 0 0.28783989868818821 -0.37644057584389279 0 0.30525369772634148 -0.37164386163485291 0 0.29483415024835152 -0.36747827247447862 0 0.28783989868818821 -0.37644057584389279 0 0.28676543400443838 -0.36101512068260139 0 0.27033126349110148 -0.36357234067652822 0 0.29357505063040601 -0.36145191270551408 0 0.28676543400443838 -0.36101512068260139 0 0.29483415024835152 -0.36747827247447862 0 0.30031449930387721 -0.36082981960256849 0 0.29357505063040601 -0.36145191270551408 0 0.29483415024835152 -0.36747827247447862 0 0.30031449930387721 -0.36082981960256849 0 0.29345683997832372 -0.35664529875226292 0 0.29357505063040601 -0.36145191270551408 0 0.29345683997832372 -0.35664529875226292 0 0.29357505063040601 -0.36145191270551408 0 0.28676543400443838 -0.36101512068260139 0 0.28783989868818821 -0.37644057584389279 0 0.28676543400443838 -0.36101512068260139 0 0.29483415024835152 -0.36747827247447862 0 0.28783989868818821 -0.37644057584389279 0 0.27033126349110148 -0.36357234067652822 0 0.28783989868818821 -0.37644057584389279 0 0.27447250226623809 -0.37821124143188289 0 0.27033126349110148 -0.36357234067652822 0 0.28676543400443838 -0.36101512068260139 0 0.27033126349110148 -0.36357234067652822 0 0.28122462644821988 -0.35688066365974619 0 0.27447250226623809 -0.37821124143188289 0 0.26423397132697279 -0.37890457124200982 0 0.27033126349110148 -0.36357234067652822 0 0.27033126349110148 -0.36357234067652822 0 0.28122462644821988 -0.35688066365974619 0 0.28122462644821988 -0.35688066365974619 0 0.26082083375001269 -0.34165569813656432 0 0.27033126349110148 -0.36357234067652822 0 0.28122462644821988 -0.35688066365974619 0 0.26082083375001269 -0.34165569813656432 0 0.28122462644821988 -0.35688066365974619 0 0.27955848846152698 -0.33666113426449551 0 0.26082083375001269 -0.34165569813656432 0 0.27033126349110148 -0.36357234067652822 0 0.25099839141978419 -0.34936335514031408 0 0.27033126349110148 -0.36357234067652822 0 0.25099839141978419 -0.34936335514031408 0 0.26082083375001269 -0.34165569813656432 0 0.27033126349110148 -0.36357234067652822 0 0.25099839141978419 -0.34936335514031408 0 0.24534349961555019 -0.36253701182870851 0 0.26423397132697279 -0.37890457124200982 0 0.27033126349110148 -0.36357234067652822 0 0.24987622704845311 -0.37613765202982719 0 0.27033126349110148 -0.36357234067652822 0 0.24534349961555019 -0.36253701182870851 0 0.24987622704845311 -0.37613765202982719 0 0.27033126349110148 -0.36357234067652822 0 0.24987622704845311 -0.37613765202982719 0 0.28744860979629389 -0.32474860906702402 0 0.26598899428458778 -0.32103793389256657 0 0.27955848846152698 -0.33666113426449551 0 0.28744860979629389 -0.32474860906702402 0 0.26598899428458778 -0.32103793389256657 0 0.28097437988070417 -0.31138482246715898 0 0.26598899428458778 -0.32103793389256657 0 0.27955848846152698 -0.33666113426449551 0 0.26082083375001269 -0.34165569813656432 0 0.26082083375001269 -0.34165569813656432 0 0.2404170410518052 -0.32643073261338312 0 0.26598899428458778 -0.32103793389256657 0 0.26082083375001269 -0.34165569813656432 0 0.2404170410518052 -0.32643073261338312 0 0.25099839141978419 -0.34936335514031408 0 0.26082083375001269 -0.34165569813656432 0 0.2404170410518052 -0.32643073261338312 0 0.26598899428458778 -0.32103793389256657 0 0.24423538898563429 -0.30587701823941071 0 0.2404170410518052 -0.32643073261338312 0 0.26846821806613752 -0.30050752245993012 0 0.24423538898563429 -0.30587701823941071 0 0.25301376652256202 -0.2892367573709661 0 0.26846821806613752 -0.30050752245993012 0 0.24423538898563429 -0.30587701823941071 0 0.26598899428458778 -0.32103793389256657 0 0.26846821806613752 -0.30050752245993012 0 0.24423538898563429 -0.30587701823941071 0 0.25301376652256202 -0.2892367573709661 0 0.26500420865911251 -0.28331687632378699 0 0.26846821806613752 -0.30050752245993012 0 0.25301376652256202 -0.2892367573709661 0 0.26500420865911251 -0.28331687632378699 0 0.2507153324002197 -0.27704953531328702 0 0.26500420865911251 -0.28331687632378699 0 0.27805302037335089 -0.28584974436810762 0 0.26846821806613752 -0.30050752245993012 0 0.27805302037335089 -0.28584974436810762 0 0.26846821806613752 -0.30050752245993012 0 0.29270104714664102 -0.29513802668045069 0 0.26500420865911251 -0.28331687632378699 0 0.27805302037335089 -0.28584974436810762 0 0.27342558025451552 -0.27498979272208851 0 0.26598899428458778 -0.32103793389256657 0 0.26846821806613752 -0.30050752245993012 0 0.28097437988070417 -0.31138482246715898 0 0.26846821806613752 -0.30050752245993012 0 0.28097437988070417 -0.31138482246715898 0 0.29270104714664102 -0.29513802668045069 0 0.26846821806613752 -0.30050752245993012 0 0.29270104714664102 -0.29513802668045069 0 0.29792146783109758 -0.32077626486014349 0 0.29270104714664102 -0.29513802668045069 0 0.29019889155513462 -0.31620785207956748 0 0.28097437988070417 -0.31138482246715898 0 0.29270104714664102 -0.29513802668045069 0 0.29792146783109758 -0.32077626486014349 0 0.29019889155513462 -0.31620785207956748 0 0.29270104714664102 -0.29513802668045069 0 0.29792146783109758 -0.32077626486014349 0 0.29270104714664102 -0.29513802668045069 0 0.29523603426331357 -0.29457632575074338 0 0.27805302037335089 -0.28584974436810762 0 0.29026987947112831 -0.28319821192468808 0 0.29270104714664102 -0.29513802668045069 0 0.27805302037335089 -0.28584974436810762 0 0.29026987947112831 -0.28319821192468808 0 0.28863308206368682 -0.27515966401439529 0 0.29026987947112831 -0.28319821192468808 0 0.29523603426331357 -0.29457632575074338 0 0.29026987947112831 -0.28319821192468808 0 0.29523603426331357 -0.29457632575074338 0 0.30320790951940702 -0.28313078900162059 0 0.29026987947112831 -0.28319821192468808 0 0.29270104714664102 -0.29513802668045069 0 0.29523603426331357 -0.29457632575074338 0 0.29026987947112831 -0.28319821192468808 0 0.29270104714664102 -0.29513802668045069 0 0.29270104714664102 -0.29513802668045069 0 0.29523603426331357 -0.29457632575074338 0 0.29523603426331357 -0.29457632575074338 0 0.31208952779935789 -0.2908419387292881 0 0.29523603426331357 -0.29457632575074338 0 0.30320790951940702 -0.28313078900162059 0 0.31208952779935789 -0.2908419387292881 0 0.29523603426331357 -0.29457632575074338 0 0.31208952779935789 -0.2908419387292881 0 0.30833746379913463 -0.30503745501229762 0 0.31611371382327402 -0.28007222207304999 0 0.30320790951940702 -0.28313078900162059 0 0.31208952779935789 -0.2908419387292881 0 0.30533649780288991 -0.32025428503190068 0 0.29523603426331357 -0.29457632575074338 0 0.30833746379913463 -0.30503745501229762 0 0.30533649780288991 -0.32025428503190068 0 0.29792146783109758 -0.32077626486014349 0 0.29523603426331357 -0.29457632575074338 0 0.30533649780288991 -0.32025428503190068 0 0.29523603426331357 -0.29457632575074338 0 0.3171485971304504 -0.30589952111326829 0 0.3109911447756647 -0.31350988965823029 0 0.30833746379913463 -0.30503745501229762 0 0.29812220868357159 -0.26533402464574418 0 0.30111904597271899 -0.2536098058489899 0 0.30981211567343969 -0.26250129009931661 0 0.31597462601859122 -0.25080747204364812 0 0.30111904597271899 -0.2536098058489899 0 0.30981211567343969 -0.26250129009931661 0 0.29812220868357159 -0.26533402464574418 0 0.30981211567343969 -0.26250129009931661 0 0.30706455279928557 -0.27339796693147528 0 0.31611371382327402 -0.28007222207304999 0 0.30320790951940702 -0.28313078900162059 0 0.30706455279928557 -0.27339796693147528 0 0.29026987947112831 -0.28319821192468808 0 0.30320790951940702 -0.28313078900162059 0 0.29755036247591721 -0.27602563541609298 0 0.30320790951940702 -0.28313078900162059 0 0.30706455279928557 -0.27339796693147528 0 0.29755036247591721 -0.27602563541609298 0 0.29812220868357159 -0.26533402464574418 0 0.30706455279928557 -0.27339796693147528 0 0.29755036247591721 -0.27602563541609298 0 0.29812220868357159 -0.26533402464574418 0 0.29755036247591721 -0.27602563541609298 0 0.28863308206368682 -0.27515966401439529 0 0.29026987947112831 -0.28319821192468808 0 0.28863308206368682 -0.27515966401439529 0 0.29026987947112831 -0.28319821192468808 0 0.29755036247591721 -0.27602563541609298 0 0.28863308206368682 -0.27515966401439529 0 0.28863308206368682 -0.27515966401439529 0 0.28456511698073272 -0.25518130134833977 0 0.29812220868357159 -0.26533402464574418 0 0.28863308206368682 -0.27515966401439529 0 0.28456511698073272 -0.25518130134833977 0 0.29812220868357159 -0.26533402464574418 0 0.30111904597271899 -0.2536098058489899 0 0.28456511698073272 -0.25518130134833977 0 0.28863308206368682 -0.27515966401439529 0 0.28456511698073272 -0.25518130134833977 0 0.27223885194073971 -0.26265851400849172 0 0.28456511698073272 -0.25518130134833977 0 0.27223885194073971 -0.26265851400849172 0 0.26629969424128969 -0.25192769388052821 0 0.27223885194073971 -0.26265851400849172 0 0.26629969424128969 -0.25192769388052821 0 0.2629172406837702 -0.26740365320709081 0 0.26500420865911251 -0.28331687632378699 0 0.27342558025451552 -0.27498979272208851 0 0.2629172406837702 -0.26740365320709081 0 0.28863308206368682 -0.27515966401439529 0 0.27223885194073971 -0.26265851400849172 0 0.27342558025451552 -0.27498979272208851 0 0.27805302037335089 -0.28584974436810762 0 0.28863308206368682 -0.27515966401439529 0 0.27342558025451552 -0.27498979272208851 0 0.27223885194073971 -0.26265851400849172 0 0.27342558025451552 -0.27498979272208851 0 0.2629172406837702 -0.26740365320709081 0 0.26500420865911251 -0.28331687632378699 0 0.2629172406837702 -0.26740365320709081 0 0.2507153324002197 -0.27704953531328702 0 0.2629172406837702 -0.26740365320709081 0 0.2507153324002197 -0.27704953531328702 0 0.2466218950091964 -0.26012473444713258 0 0.25037283077400019 -0.2416092145933311 0 0.26629969424128969 -0.25192769388052821 0 0.2466218950091964 -0.26012473444713258 0 0.26629969424128969 -0.25192769388052821 0 0.2629172406837702 -0.26740365320709081 0 0.2466218950091964 -0.26012473444713258 0 0.25037283077400019 -0.2416092145933311 0 0.2466218950091964 -0.26012473444713258 0 0.2339549802858914 -0.24933471903745599 0 0.2466218950091964 -0.26012473444713258 0 0.22717476572977791 -0.26325637954660608 0 0.2339549802858914 -0.24933471903745599 0 0.2466218950091964 -0.26012473444713258 0 0.23628574795648369 -0.27498419313581679 0 0.22717476572977791 -0.26325637954660608 0 0.2507153324002197 -0.27704953531328702 0 0.2466218950091964 -0.26012473444713258 0 0.23628574795648369 -0.27498419313581679 0 0.2507153324002197 -0.27704953531328702 0 0.23628574795648369 -0.27498419313581679 0 0.24044913557019401 -0.28723099739492908 0 0.2247339410531527 -0.27667652802353632 0 0.21554844428562811 -0.26491471108287651 0 0.21653111649902579 -0.28712771180040292 0 0.23628574795648369 -0.27498419313581679 0 0.2247339410531527 -0.27667652802353632 0 0.22717476572977791 -0.26325637954660608 0 0.2247339410531527 -0.27667652802353632 0 0.22717476572977791 -0.26325637954660608 0 0.21554844428562811 -0.26491471108287651 0 0.22717476572977791 -0.26325637954660608 0 0.22331750647786899 -0.25281133177650322 0 0.2339549802858914 -0.24933471903745599 0 0.22717476572977791 -0.26325637954660608 0 0.22331750647786899 -0.25281133177650322 0 0.21554844428562811 -0.26491471108287651 0 0.2084475354763706 -0.25511513831035743 0 0.21554844428562811 -0.26491471108287651 0 0.1982966667633215 -0.26354120971092698 0 0.21554844428562811 -0.26491471108287651 0 0.21456577207223029 -0.24270171036535029 0 0.22331750647786899 -0.25281133177650322 0 0.21554844428562811 -0.26491471108287651 0 0.21456577207223029 -0.24270171036535029 0 0.2084475354763706 -0.25511513831035743 0 0.21554844428562811 -0.26491471108287651 0 0.21336353465090491 -0.24693864317134839 0 0.21554844428562811 -0.26491471108287651 0 0.21336353465090491 -0.24693864317134839 0 0.21456577207223029 -0.24270171036535029 0 0.2084475354763706 -0.25511513831035743 0 0.1982966667633215 -0.26354120971092698 0 0.2080714594183444 -0.2424179483002232 0 0.1982966667633215 -0.26354120971092698 0 0.2080714594183444 -0.2424179483002232 0 0.21554844428562811 -0.26491471108287651 0 0.21653111649902579 -0.28712771180040292 0 0.21554844428562811 -0.26491471108287651 0 0.20859607852913339 -0.28093905456482821 0 0.21653111649902579 -0.28712771180040292 0 0.21554844428562811 -0.26491471108287651 0 0.20859607852913339 -0.28093905456482821 0 0.2011380539128553 -0.27767933622792518 0 0.21554844428562811 -0.26491471108287651 0 0.2011380539128553 -0.27767933622792518 0 0.1982966667633215 -0.26354120971092698 0 0.1982966667633215 -0.26354120971092698 0 0.18852187410829821 -0.28466447112163068 0 0.1982966667633215 -0.26354120971092698 0 0.18852187410829821 -0.28466447112163068 0 0.1845366839674035 -0.26640487959885623 0 0.2011380539128553 -0.27767933622792518 0 0.1982966667633215 -0.26354120971092698 0 0.18852187410829821 -0.28466447112163068 0 0.1982966667633215 -0.26354120971092698 0 0.2080714594183444 -0.2424179483002232 0 0.19254414318066221 -0.24961624770678509 0 0.1982966667633215 -0.26354120971092698 0 0.18706352147094041 -0.25756661524031438 0 0.1845366839674035 -0.26640487959885623 0 0.1982966667633215 -0.26354120971092698 0 0.18706352147094041 -0.25756661524031438 0 0.19254414318066221 -0.24961624770678509 0 0.18706352147094041 -0.25756661524031438 0 0.19254414318066221 -0.24961624770678509 0 0.18399505531774341 -0.24981832115951039 0 0.20249447748908611 -0.29813355613580778 0 0.1976485991634879 -0.30796138879627621 0 0.19462594870140809 -0.30164723750547567 0 0.20249447748908611 -0.29813355613580778 0 0.19462594870140809 -0.30164723750547567 0 0.19392418081794471 -0.29575522021664652 0 0.20249447748908611 -0.29813355613580778 0 0.1976485991634879 -0.30796138879627621 0 0.20782414549410869 -0.30817847155873718 0 0.1976485991634879 -0.30796138879627621 0 0.20782414549410869 -0.30817847155873718 0 0.20282381327660201 -0.31505297042611552 0 0.1976485991634879 -0.30796138879627621 0 0.19009702279388629 -0.3064242775921906 0 0.18802618722583669 -0.31833181955932999 0 0.1976485991634879 -0.30796138879627621 0 0.19009702279388629 -0.3064242775921906 0 0.19462594870140809 -0.30164723750547567 0 0.19009702279388629 -0.3064242775921906 0 0.19462594870140809 -0.30164723750547567 0 0.1880606218677118 -0.30022154946313712 0 0.19462594870140809 -0.30164723750547567 0 0.19110113081553529 -0.29631368747161629 0 0.19392418081794471 -0.29575522021664652 0 0.1880606218677118 -0.30022154946313712 0 0.19110113081553529 -0.29631368747161629 0 0.18734834214976739 -0.29514628785519947 0 0.19462594870140809 -0.30164723750547567 0 0.1880606218677118 -0.30022154946313712 0 0.19110113081553529 -0.29631368747161629 0 0.20249447748908611 -0.29813355613580778 0 0.18747516626574931 -0.28692639975368628 0 0.20249447748908611 -0.29813355613580778 0 0.19392418081794471 -0.29575522021664652 0 0.18747516626574931 -0.28692639975368628 0 0.19110113081553529 -0.29631368747161629 0 0.19392418081794471 -0.29575522021664652 0 0.18747516626574931 -0.28692639975368628 0 0.19110113081553529 -0.29631368747161629 0 0.18747516626574931 -0.28692639975368628 0 0.18734834214976739 -0.29514628785519947 0 0.18852187410829821 -0.28466447112163068 0 0.19787122383615691 -0.29172525818392958 0 0.18852187410829821 -0.28466447112163068 0 0.19731262536099689 -0.28481999283041842 0 0.19787122383615691 -0.29172525818392958 0 0.18852187410829821 -0.28466447112163068 0 0.19787122383615691 -0.29172525818392958 0 0.18747516626574931 -0.28692639975368628 0 0.18852187410829821 -0.28466447112163068 0 0.18747516626574931 -0.28692639975368628 0 0.2011380539128553 -0.27767933622792518 0 0.18852187410829821 -0.28466447112163068 0 0.19731262536099689 -0.28481999283041842 0 0.201719349586677 -0.2852109057881882 0 0.19787122383615691 -0.29172525818392958 0 0.206049533411369 -0.28982701925762389 0 0.19731262536099689 -0.28481999283041842 0 0.201719349586677 -0.2852109057881882 0 0.19787122383615691 -0.29172525818392958 0 0.2011380539128553 -0.27767933622792518 0 0.19731262536099689 -0.28481999283041842 0 0.201719349586677 -0.2852109057881882 0 0.20249447748908611 -0.29813355613580778 0 0.19787122383615691 -0.29172525818392958 0 0.18747516626574931 -0.28692639975368628 0 0.20249447748908611 -0.29813355613580778 0 0.19787122383615691 -0.29172525818392958 0 0.206049533411369 -0.28982701925762389 0 0.20249447748908611 -0.29813355613580778 0 0.206049533411369 -0.28982701925762389 0 0.20903552332543929 -0.29406903275804652 0 0.206049533411369 -0.28982701925762389 0 0.20903552332543929 -0.29406903275804652 0 0.21653111649902579 -0.28712771180040292 0 0.20249447748908611 -0.29813355613580778 0 0.20903552332543929 -0.29406903275804652 0 0.2123558614978226 -0.29827812898856709 0 0.20859607852913339 -0.28093905456482821 0 0.206049533411369 -0.28982701925762389 0 0.21653111649902579 -0.28712771180040292 0 0.20859607852913339 -0.28093905456482821 0 0.201719349586677 -0.2852109057881882 0 0.206049533411369 -0.28982701925762389 0 0.20859607852913339 -0.28093905456482821 0 0.2011380539128553 -0.27767933622792518 0 0.201719349586677 -0.2852109057881882 0 0.20903552332543929 -0.29406903275804652 0 0.21653111649902579 -0.28712771180040292 0 0.2123558614978226 -0.29827812898856709 0 0.21653111649902579 -0.28712771180040292 0 0.2175137887124228 -0.30934071251792922 0 0.21653111649902579 -0.28712771180040292 0 0.2123558614978226 -0.29827812898856709 0 0.2175137887124228 -0.30934071251792922 0 0.20249447748908611 -0.29813355613580778 0 0.2123558614978226 -0.29827812898856709 0 0.2175137887124228 -0.30934071251792922 0 0.20249447748908611 -0.29813355613580778 0 0.2175137887124228 -0.30934071251792922 0 0.20782414549410869 -0.30817847155873718 0 0.2176214393273678 -0.31177412129290383 0 0.20282381327660201 -0.31505297042611552 0 0.20249447748908611 -0.29813355613580778 0 0.20782414549410869 -0.30817847155873718 0 0.2175137887124228 -0.30934071251792922 0 0.20782414549410869 -0.30817847155873718 0 0.2175137887124228 -0.30934071251792922 0 0.2176214393273678 -0.31177412129290383 0 0.2175137887124228 -0.30934071251792922 0 0.2176214393273678 -0.31177412129290383 0 0.2175137887124228 -0.30934071251792922 0 0.2176214393273678 -0.31177412129290383 0 0.21999804566891551 -0.31122614102315033 0 0.21999804566891551 -0.31122614102315033 0 0.24423538898563429 -0.30587701823941071 0 0.2175137887124228 -0.30934071251792922 0 0.21999804566891551 -0.31122614102315033 0 0.22812963079484819 -0.29309964455197901 0 0.21999804566891551 -0.31122614102315033 0 0.22812963079484819 -0.29309964455197901 0 0.21999804566891551 -0.31122614102315033 0 0.22812963079484819 -0.29309964455197901 0 0.24423538898563429 -0.30587701823941071 0 0.2176214393273678 -0.31177412129290383 0 0.21999804566891551 -0.31122614102315033 0 0.2175137887124228 -0.30934071251792922 0 0.21999804566891551 -0.31122614102315033 0 0.23628574795648369 -0.27498419313581679 0 0.22812963079484819 -0.29309964455197901 0 0.2247339410531527 -0.27667652802353632 0 0.21653111649902579 -0.28712771180040292 0 0.22812963079484819 -0.29309964455197901 0 0.23628574795648369 -0.27498419313581679 0 0.2247339410531527 -0.27667652802353632 0 0.22812963079484819 -0.29309964455197901 0 0.21653111649902579 -0.28712771180040292 0 0.2175137887124228 -0.30934071251792922 0 0.22812963079484819 -0.29309964455197901 0 0.23628574795648369 -0.27498419313581679 0 0.22812963079484819 -0.29309964455197901 0 0.24044913557019401 -0.28723099739492908 0 0.25301376652256202 -0.2892367573709661 0 0.24044913557019401 -0.28723099739492908 0 0.24423538898563429 -0.30587701823941071 0 0.22812963079484819 -0.29309964455197901 0 0.24044913557019401 -0.28723099739492908 0 0.24423538898563429 -0.30587701823941071 0 0.25301376652256202 -0.2892367573709661 0 0.2507153324002197 -0.27704953531328702 0 0.24044913557019401 -0.28723099739492908 0 0.21999804566891551 -0.31122614102315033 0 0.24423538898563429 -0.30587701823941071 0 0.2404170410518052 -0.32643073261338312 0 0.25099839141978419 -0.34936335514031408 0 0.2316655193484673 -0.33515436960409939 0 0.25099839141978419 -0.34936335514031408 0 0.2404170410518052 -0.32643073261338312 0 0.2316655193484673 -0.33515436960409939 0 0.2404170410518052 -0.32643073261338312 0 0.2316655193484673 -0.33515436960409939 0 0.2247705650129608 -0.32491873692320528 0 0.2316655193484673 -0.33515436960409939 0 0.22208049410379579 -0.34309390150507102 0 0.22867514261462599 -0.34782526071452929 0 0.2316655193484673 -0.33515436960409939 0 0.22208049410379579 -0.34309390150507102 0 0.220555537226792 -0.33578323097752499 0 0.22208049410379579 -0.34309390150507102 0 0.220555537226792 -0.33578323097752499 0 0.21451162402718699 -0.34512658597487872 0 0.220555537226792 -0.33578323097752499 0 0.2247705650129608 -0.32491873692320528 0 0.21820242441149371 -0.32490710899175251 0 0.2316655193484673 -0.33515436960409939 0 0.220555537226792 -0.33578323097752499 0 0.2247705650129608 -0.32491873692320528 0 0.21999804566891551 -0.31122614102315033 0 0.2404170410518052 -0.32643073261338312 0 0.2247705650129608 -0.32491873692320528 0 0.21999804566891551 -0.31122614102315033 0 0.2404170410518052 -0.32643073261338312 0 0.2247705650129608 -0.32491873692320528 0 0.21780935440599439 -0.31602188338433101 0 0.21820242441149371 -0.32490710899175251 0 0.21999804566891551 -0.31122614102315033 0 0.2247705650129608 -0.32491873692320528 0 0.21780935440599439 -0.31602188338433101 0 0.21999804566891551 -0.31122614102315033 0 0.21780935440599439 -0.31602188338433101 0 0.23679608458568241 -0.3713456781615978 0 0.24534349961555019 -0.36253701182870851 0 0.24987622704845311 -0.37613765202982719 0 0.23679608458568241 -0.3713456781615978 0 0.24534349961555019 -0.36253701182870851 0 0.23133102347449649 -0.35950822589080189 0 0.25099839141978419 -0.34936335514031408 0 0.2316655193484673 -0.33515436960409939 0 0.23760271529458479 -0.35087764463569071 0 0.24534349961555019 -0.36253701182870851 0 0.23760271529458479 -0.35087764463569071 0 0.23133102347449649 -0.35950822589080189 0 0.25099839141978419 -0.34936335514031408 0 0.24534349961555019 -0.36253701182870851 0 0.23760271529458479 -0.35087764463569071 0 0.2316655193484673 -0.33515436960409939 0 0.23760271529458479 -0.35087764463569071 0 0.22867514261462599 -0.34782526071452929 0 0.22208049410379579 -0.34309390150507102 0 0.22076837523631451 -0.35267920974236072 0 0.21451162402718699 -0.34512658597487872 0 0.22208049410379579 -0.34309390150507102 0 0.22867514261462599 -0.34782526071452929 0 0.22076837523631451 -0.35267920974236072 0 0.22076837523631451 -0.35267920974236072 0 0.22341137818785181 -0.36337688942730773 0 0.21609027172906259 -0.36087537471117581 0 0.22076837523631451 -0.35267920974236072 0 0.23133102347449649 -0.35950822589080189 0 0.22341137818785181 -0.36337688942730773 0 0.22867514261462599 -0.34782526071452929 0 0.22076837523631451 -0.35267920974236072 0 0.23133102347449649 -0.35950822589080189 0 0.23760271529458479 -0.35087764463569071 0 0.22867514261462599 -0.34782526071452929 0 0.23133102347449649 -0.35950822589080189 0 0.23133102347449649 -0.35950822589080189 0 0.22341137818785181 -0.36337688942730773 0 0.22699371624108439 -0.37103399677892651 0 0.22341137818785181 -0.36337688942730773 0 0.22699371624108439 -0.37103399677892651 0 0.21663927632257499 -0.37152038636996992 0 0.22699371624108439 -0.37103399677892651 0 0.21663927632257499 -0.37152038636996992 0 0.22189277223980711 -0.38054577212349588 0 0.23679608458568241 -0.3713456781615978 0 0.22699371624108439 -0.37103399677892651 0 0.23010576568282681 -0.37607478874810818 0 0.23679608458568241 -0.3713456781615978 0 0.23133102347449649 -0.35950822589080189 0 0.22699371624108439 -0.37103399677892651 0 0.21663927632257499 -0.37152038636996992 0 0.20683644217058031 -0.36558797855932218 0 0.20576161095015591 -0.37595213443190167 0 0.22341137818785181 -0.36337688942730773 0 0.21663927632257499 -0.37152038636996992 0 0.21609027172906259 -0.36087537471117581 0 0.21609027172906259 -0.36087537471117581 0 0.20683644217058031 -0.36558797855932218 0 0.21089823393406021 -0.35324530101306001 0 0.21663927632257499 -0.37152038636996992 0 0.21609027172906259 -0.36087537471117581 0 0.20683644217058031 -0.36558797855932218 0 0.19940837682496099 -0.35689206815154528 0 0.20777431361625601 -0.33831058893907762 0 0.21089823393406021 -0.35324530101306001 0 0.19940837682496099 -0.35689206815154528 0 0.20777431361625601 -0.33831058893907762 0 0.20683644217058031 -0.36558797855932218 0 0.21089823393406021 -0.35324530101306001 0 0.19940837682496099 -0.35689206815154528 0 0.22076837523631451 -0.35267920974236072 0 0.21609027172906259 -0.36087537471117581 0 0.21089823393406021 -0.35324530101306001 0 0.21089823393406021 -0.35324530101306001 0 0.21451162402718699 -0.34512658597487872 0 0.20777431361625601 -0.33831058893907762 0 0.22076837523631451 -0.35267920974236072 0 0.21089823393406021 -0.35324530101306001 0 0.21451162402718699 -0.34512658597487872 0 0.1971616983813648 -0.34495631128618592 0 0.19940837682496099 -0.35689206815154528 0 0.20777431361625601 -0.33831058893907762 0 0.1971616983813648 -0.34495631128618592 0 0.18787137947787569 -0.35180034780069419 0 0.18864170350563411 -0.33720407153827198 0 0.1971616983813648 -0.34495631128618592 0 0.18787137947787569 -0.35180034780069419 0 0.19940837682496099 -0.35689206815154528 0 0.20683644217058031 -0.36558797855932218 0 0.20576161095015591 -0.37595213443190167 0 0.1910424400336663 -0.37547354736401328 0 0.18787137947787569 -0.35180034780069419 0 0.19940837682496099 -0.35689206815154528 0 0.1910424400336663 -0.37547354736401328 0 0.19940837682496099 -0.35689206815154528 0 0.1910424400336663 -0.37547354736401328 0 0.20683644217058031 -0.36558797855932218 0 0.19940837682496099 -0.35689206815154528 0 0.1910424400336663 -0.37547354736401328 0 0.21780935440599439 -0.31602188338433101 0 0.20777431361625601 -0.33831058893907762 0 0.21780935440599439 -0.31602188338433101 0 0.20777431361625601 -0.33831058893907762 0 0.20282381327660201 -0.31505297042611552 0 0.21780935440599439 -0.31602188338433101 0 0.21820242441149371 -0.32490710899175251 0 0.20777431361625601 -0.33831058893907762 0 0.2176214393273678 -0.31177412129290383 0 0.20282381327660201 -0.31505297042611552 0 0.2176214393273678 -0.31177412129290383 0 0.21780935440599439 -0.31602188338433101 0 0.20282381327660201 -0.31505297042611552 0 0.2176214393273678 -0.31177412129290383 0 0.21780935440599439 -0.31602188338433101 0 0.2176214393273678 -0.31177412129290383 0 0.21999804566891551 -0.31122614102315033 0 0.21780935440599439 -0.31602188338433101 0 0.21780935440599439 -0.31602188338433101 0 0.21820242441149371 -0.32490710899175251 0 0.220555537226792 -0.33578323097752499 0 0.21820242441149371 -0.32490710899175251 0 0.20777431361625601 -0.33831058893907762 0 0.220555537226792 -0.33578323097752499 0 0.21451162402718699 -0.34512658597487872 0 0.20777431361625601 -0.33831058893907762 0 0.21451162402718699 -0.34512658597487872 0 0.20777431361625601 -0.33831058893907762 0 0.1971616983813648 -0.34495631128618592 0 0.20777431361625601 -0.33831058893907762 0 0.18864170350563411 -0.33720407153827198 0 0.20777431361625601 -0.33831058893907762 0 0.18802618722583669 -0.31833181955932999 0 0.20777431361625601 -0.33831058893907762 0 0.18864170350563411 -0.33720407153827198 0 0.18802618722583669 -0.31833181955932999 0 0.20777431361625601 -0.33831058893907762 0 0.20282381327660201 -0.31505297042611552 0 0.18802618722583669 -0.31833181955932999 0 0.20282381327660201 -0.31505297042611552 0 0.18802618722583669 -0.31833181955932999 0 0.1976485991634879 -0.30796138879627621 0 0.20282381327660201 -0.31505297042611552 0 0.18802618722583669 -0.31833181955932999 0 0.18802618722583669 -0.31833181955932999 0 0.1791507244663583 -0.32983729973660558 0 0.16791254130802971 -0.3227885891963716 0 0.18802618722583669 -0.31833181955932999 0 0.17151825735526699 -0.31325416760549368 0 0.16791254130802971 -0.3227885891963716 0 0.18802618722583669 -0.31833181955932999 0 0.16791254130802971 -0.3227885891963716 0 0.18864170350563411 -0.33720407153827198 0 0.18802618722583669 -0.31833181955932999 0 0.1791507244663583 -0.32983729973660558 0 0.17202246582593331 -0.34102471865244838 0 0.1791507244663583 -0.32983729973660558 0 0.16791254130802971 -0.3227885891963716 0 0.18787137947787569 -0.35180034780069419 0 0.18864170350563411 -0.33720407153827198 0 0.17202246582593331 -0.34102471865244838 0 0.18864170350563411 -0.33720407153827198 0 0.17202246582593331 -0.34102471865244838 0 0.1791507244663583 -0.32983729973660558 0 0.17202246582593331 -0.34102471865244838 0 0.1546435437787094 -0.34381338892778002 0 0.1557586906108582 -0.32786840018592928 0 0.17202246582593331 -0.34102471865244838 0 0.16791254130802971 -0.3227885891963716 0 0.1557586906108582 -0.32786840018592928 0 0.16791254130802971 -0.3227885891963716 0 0.1557586906108582 -0.32786840018592928 0 0.1602411687519314 -0.31190927739118429 0 0.17151825735526699 -0.31325416760549368 0 0.16791254130802971 -0.3227885891963716 0 0.1602411687519314 -0.31190927739118429 0 0.18787137947787569 -0.35180034780069419 0 0.17662324672053431 -0.35795823269279659 0 0.1910424400336663 -0.37547354736401328 0 0.17662324672053431 -0.35795823269279659 0 0.17035242753357599 -0.36877211446365682 0 0.1910424400336663 -0.37547354736401328 0 0.17035242753357599 -0.36877211446365682 0 0.1910424400336663 -0.37547354736401328 0 0.1737051017910701 -0.38004230502140057 0 0.18787137947787569 -0.35180034780069419 0 0.17202246582593331 -0.34102471865244838 0 0.17662324672053431 -0.35795823269279659 0 0.17202246582593331 -0.34102471865244838 0 0.17662324672053431 -0.35795823269279659 0 0.16265844046108829 -0.35526087104265458 0 0.17202246582593331 -0.34102471865244838 0 0.16265844046108829 -0.35526087104265458 0 0.1546435437787094 -0.34381338892778002 0 0.17662324672053431 -0.35795823269279659 0 0.16265844046108829 -0.35526087104265458 0 0.17035242753357599 -0.36877211446365682 0 0.16265844046108829 -0.35526087104265458 0 0.1569593121701936 -0.36832063090657668 0 0.17035242753357599 -0.36877211446365682 0 0.1569593121701936 -0.36832063090657668 0 0.17035242753357599 -0.36877211446365682 0 0.16307541855137739 -0.37743582412871929 0 0.14536400873927011 -0.3681220756701501 0 0.1426630499740982 -0.35652090160864008 0 0.13524945632583441 -0.37311377610700652 0 0.16265844046108829 -0.35526087104265458 0 0.1569593121701936 -0.36832063090657668 0 0.1426630499740982 -0.35652090160864008 0 0.14536400873927011 -0.3681220756701501 0 0.13524945632583441 -0.37311377610700652 0 0.14973869037300869 -0.38096853745143089 0 0.1569593121701936 -0.36832063090657668 0 0.14536400873927011 -0.3681220756701501 0 0.14973869037300869 -0.38096853745143089 0 0.1569593121701936 -0.36832063090657668 0 0.14536400873927011 -0.3681220756701501 0 0.1426630499740982 -0.35652090160864008 0 0.1546435437787094 -0.34381338892778002 0 0.1426630499740982 -0.35652090160864008 0 0.1424354920479888 -0.33775294740649747 0 0.16265844046108829 -0.35526087104265458 0 0.1546435437787094 -0.34381338892778002 0 0.1426630499740982 -0.35652090160864008 0 0.13449730155472761 -0.34743155680512378 0 0.12784456261830821 -0.36308533366748658 0 0.123981461538115 -0.35128285539313481 0 0.1426630499740982 -0.35652090160864008 0 0.13449730155472761 -0.34743155680512378 0 0.1424354920479888 -0.33775294740649747 0 0.1426630499740982 -0.35652090160864008 0 0.13449730155472761 -0.34743155680512378 0 0.12784456261830821 -0.36308533366748658 0 0.13449730155472761 -0.34743155680512378 0 0.13051916655351839 -0.33696304048325831 0 0.123981461538115 -0.35128285539313481 0 0.1426630499740982 -0.35652090160864008 0 0.12784456261830821 -0.36308533366748658 0 0.13524945632583441 -0.37311377610700652 0 0.12784456261830821 -0.36308533366748658 0 0.13524945632583441 -0.37311377610700652 0 0.12609635470998201 -0.38402791619100712 0 0.14855409589738661 -0.31441038212804873 0 0.1557586906108582 -0.32786840018592928 0 0.1602411687519314 -0.31190927739118429 0 0.1445015266660287 -0.32337949759917511 0 0.14855409589738661 -0.31441038212804873 0 0.13871327718005111 -0.31332369293528212 0 0.1445015266660287 -0.32337949759917511 0 0.14855409589738661 -0.31441038212804873 0 0.1557586906108582 -0.32786840018592928 0 0.1546435437787094 -0.34381338892778002 0 0.1557586906108582 -0.32786840018592928 0 0.1424354920479888 -0.33775294740649747 0 0.1445015266660287 -0.32337949759917511 0 0.1557586906108582 -0.32786840018592928 0 0.1424354920479888 -0.33775294740649747 0 0.1445015266660287 -0.32337949759917511 0 0.1424354920479888 -0.33775294740649747 0 0.13219802669416811 -0.32498852212276208 0 0.1424354920479888 -0.33775294740649747 0 0.13051916655351839 -0.33696304048325831 0 0.13219802669416811 -0.32498852212276208 0 0.13449730155472761 -0.34743155680512378 0 0.1424354920479888 -0.33775294740649747 0 0.13051916655351839 -0.33696304048325831 0 0.13051916655351839 -0.33696304048325831 0 0.13219802669416811 -0.32498852212276208 0 0.12260601330919629 -0.33072698382653798 0 0.1445015266660287 -0.32337949759917511 0 0.13219802669416811 -0.32498852212276208 0 0.13871327718005111 -0.31332369293528212 0 0.13219802669416811 -0.32498852212276208 0 0.1265219532001009 -0.3124330460259736 0 0.1192961391526948 -0.32261879728377291 0 0.13219802669416811 -0.32498852212276208 0 0.13871327718005111 -0.31332369293528212 0 0.1265219532001009 -0.3124330460259736 0 0.1265219532001009 -0.3124330460259736 0 0.1332586495603032 -0.30031372317270688 0 0.1198701537204314 -0.30089140532399938 0 0.1332586495603032 -0.30031372317270688 0 0.1242383748246253 -0.29131174999725179 0 0.1198701537204314 -0.30089140532399938 0 0.13871327718005111 -0.31332369293528212 0 0.1265219532001009 -0.3124330460259736 0 0.1332586495603032 -0.30031372317270688 0 0.13871327718005111 -0.31332369293528212 0 0.1332586495603032 -0.30031372317270688 0 0.147245411062319 -0.30441698656302629 0 0.14855409589738661 -0.31441038212804873 0 0.13871327718005111 -0.31332369293528212 0 0.147245411062319 -0.30441698656302629 0 0.147245411062319 -0.30441698656302629 0 0.15432967412725099 -0.29846298066074151 0 0.14327492933615671 -0.29425024746867751 0 0.1332586495603032 -0.30031372317270688 0 0.147245411062319 -0.30441698656302629 0 0.14327492933615671 -0.29425024746867751 0 0.147245411062319 -0.30441698656302629 0 0.15432967412725099 -0.29846298066074151 0 0.1602411687519314 -0.31190927739118429 0 0.14855409589738661 -0.31441038212804873 0 0.147245411062319 -0.30441698656302629 0 0.1602411687519314 -0.31190927739118429 0 0.15432967412725099 -0.29846298066074151 0 0.1517600770447052 -0.28164214899084639 0 0.14327492933615671 -0.29425024746867751 0 0.1517600770447052 -0.28164214899084639 0 0.14327492933615671 -0.29425024746867751 0 0.13646338677899769 -0.28546266283427663 0 0.1332586495603032 -0.30031372317270688 0 0.14327492933615671 -0.29425024746867751 0 0.13646338677899769 -0.28546266283427663 0 0.1332586495603032 -0.30031372317270688 0 0.13646338677899769 -0.28546266283427663 0 0.1242383748246253 -0.29131174999725179 0 0.13646338677899769 -0.28546266283427663 0 0.1233023238440631 -0.28097148456094378 0 0.1242383748246253 -0.29131174999725179 0 0.1517600770447052 -0.28164214899084639 0 0.13646338677899769 -0.28546266283427663 0 0.1311170075682456 -0.27142576198599933 0 0.1517600770447052 -0.28164214899084639 0 0.1311170075682456 -0.27142576198599933 0 0.1364827709165429 -0.26618641562940759 0 0.13646338677899769 -0.28546266283427663 0 0.1311170075682456 -0.27142576198599933 0 0.1233023238440631 -0.28097148456094378 0 0.1311170075682456 -0.27142576198599933 0 0.1364827709165429 -0.26618641562940759 0 0.1212054647883809 -0.25073068226796852 0 0.1364827709165429 -0.26618641562940759 0 0.13217397618885759 -0.25462043987800831 0 0.1212054647883809 -0.25073068226796852 0 0.1364827709165429 -0.26618641562940759 0 0.1212054647883809 -0.25073068226796852 0 0.1364827709165429 -0.26618641562940759 0 0.13217397618885759 -0.25462043987800831 0 0.14275904560399111 -0.25945725309375861 0 0.13217397618885759 -0.25462043987800831 0 0.1429630926125974 -0.2502577086919005 0 0.14275904560399111 -0.25945725309375861 0 0.1429630926125974 -0.2502577086919005 0 0.16574248336044761 -0.26746108990676593 0 0.1429630926125974 -0.2502577086919005 0 0.15128247879849499 -0.26292486595599002 0 0.16574248336044761 -0.26746108990676593 0 0.1429630926125974 -0.2502577086919005 0 0.16574248336044761 -0.26746108990676593 0 0.16001236861667459 -0.2513654190734112 0 0.1429630926125974 -0.2502577086919005 0 0.14275904560399111 -0.25945725309375861 0 0.15128247879849499 -0.26292486595599002 0 0.1364827709165429 -0.26618641562940759 0 0.14275904560399111 -0.25945725309375861 0 0.15128247879849499 -0.26292486595599002 0 0.1517600770447052 -0.28164214899084639 0 0.1364827709165429 -0.26618641562940759 0 0.15128247879849499 -0.26292486595599002 0 0.1517600770447052 -0.28164214899084639 0 0.15128247879849499 -0.26292486595599002 0 0.15776774232478771 -0.26956647822523339 0 0.1517600770447052 -0.28164214899084639 0 0.1311170075682456 -0.27142576198599933 0 0.1517600770447052 -0.28164214899084639 0 0.1364827709165429 -0.26618641562940759 0 0.1517600770447052 -0.28164214899084639 0 0.16209364730358741 -0.27452888323759039 0 0.16594555478614451 -0.28284233368471318 0 0.1517600770447052 -0.28164214899084639 0 0.16209364730358741 -0.27452888323759039 0 0.15776774232478771 -0.26956647822523339 0 0.16209364730358741 -0.27452888323759039 0 0.15776774232478771 -0.26956647822523339 0 0.16574248336044761 -0.26746108990676593 0 0.15128247879849499 -0.26292486595599002 0 0.15776774232478771 -0.26956647822523339 0 0.16574248336044761 -0.26746108990676593 0 0.16209364730358741 -0.27452888323759039 0 0.16574248336044761 -0.26746108990676593 0 0.16920230535812411 -0.27329149954452342 0 0.16209364730358741 -0.27452888323759039 0 0.16920230535812411 -0.27329149954452342 0 0.16594555478614451 -0.28284233368471318 0 0.16920230535812411 -0.27329149954452342 0 0.1710222018321049 -0.28124575318360368 0 0.16594555478614451 -0.28284233368471318 0 0.16574248336044761 -0.26746108990676593 0 0.16001236861667459 -0.2513654190734112 0 0.16988601458932601 -0.2589500224365659 0 0.16574248336044761 -0.26746108990676593 0 0.16988601458932601 -0.2589500224365659 0 0.17628584543496439 -0.26683535894776161 0 0.16001236861667459 -0.2513654190734112 0 0.16988601458932601 -0.2589500224365659 0 0.16978669848249819 -0.25098739912941831 0 0.1767458594742066 -0.25730285456071711 0 0.17619278994504239 -0.24587918172992959 0 0.18399505531774341 -0.24981832115951039 0 0.16978669848249819 -0.25098739912941831 0 0.1767458594742066 -0.25730285456071711 0 0.17619278994504239 -0.24587918172992959 0 0.16988601458932601 -0.2589500224365659 0 0.16978669848249819 -0.25098739912941831 0 0.1767458594742066 -0.25730285456071711 0 0.16988601458932601 -0.2589500224365659 0 0.1767458594742066 -0.25730285456071711 0 0.17628584543496439 -0.26683535894776161 0 0.1767458594742066 -0.25730285456071711 0 0.17628584543496439 -0.26683535894776161 0 0.1845366839674035 -0.26640487959885623 0 0.1767458594742066 -0.25730285456071711 0 0.18706352147094041 -0.25756661524031438 0 0.1845366839674035 -0.26640487959885623 0 0.1767458594742066 -0.25730285456071711 0 0.18706352147094041 -0.25756661524031438 0 0.18399505531774341 -0.24981832115951039 0 0.18852187410829821 -0.28466447112163068 0 0.17628584543496439 -0.26683535894776161 0 0.1845366839674035 -0.26640487959885623 0 0.18852187410829821 -0.28466447112163068 0 0.16574248336044761 -0.26746108990676593 0 0.18852187410829821 -0.28466447112163068 0 0.16574248336044761 -0.26746108990676593 0 0.17628584543496439 -0.26683535894776161 0 0.16920230535812411 -0.27329149954452342 0 0.18747516626574931 -0.28692639975368628 0 0.17602993407772211 -0.2832030986568283 0 0.18852187410829821 -0.28466447112163068 0 0.16574248336044761 -0.26746108990676593 0 0.16920230535812411 -0.27329149954452342 0 0.16920230535812411 -0.27329149954452342 0 0.18747516626574931 -0.28692639975368628 0 0.16920230535812411 -0.27329149954452342 0 0.1710222018321049 -0.28124575318360368 0 0.17602993407772211 -0.2832030986568283 0 0.18747516626574931 -0.28692639975368628 0 0.1806905449634813 -0.28832929748571318 0 0.17602993407772211 -0.2832030986568283 0 0.18852187410829821 -0.28466447112163068 0 0.16920230535812411 -0.27329149954452342 0 0.18747516626574931 -0.28692639975368628 0 0.18747516626574931 -0.28692639975368628 0 0.1806905449634813 -0.28832929748571318 0 0.18301660310609241 -0.29114958545392738 0 0.17291101310642881 -0.28564608084835003 0 0.17864991096044419 -0.29495009963706692 0 0.16594555478614451 -0.28284233368471318 0 0.1806905449634813 -0.28832929748571318 0 0.17602993407772211 -0.2832030986568283 0 0.17673138357400531 -0.28840876668861409 0 0.17602993407772211 -0.2832030986568283 0 0.17673138357400531 -0.28840876668861409 0 0.17291101310642881 -0.28564608084835003 0 0.1710222018321049 -0.28124575318360368 0 0.17602993407772211 -0.2832030986568283 0 0.17291101310642881 -0.28564608084835003 0 0.17673138357400531 -0.28840876668861409 0 0.17291101310642881 -0.28564608084835003 0 0.17864991096044419 -0.29495009963706692 0 0.17673138357400531 -0.28840876668861409 0 0.17909088347012619 -0.29088019083727579 0 0.17864991096044419 -0.29495009963706692 0 0.1806905449634813 -0.28832929748571318 0 0.17673138357400531 -0.28840876668861409 0 0.17909088347012619 -0.29088019083727579 0 0.17909088347012619 -0.29088019083727579 0 0.17864991096044419 -0.29495009963706692 0 0.18114425154506539 -0.29221912984395187 0 0.18747516626574931 -0.28692639975368628 0 0.18734834214976739 -0.29514628785519947 0 0.1827564496500734 -0.29712351473235832 0 0.18747516626574931 -0.28692639975368628 0 0.18301660310609241 -0.29114958545392738 0 0.1827564496500734 -0.29712351473235832 0 0.18114425154506539 -0.29221912984395187 0 0.18301660310609241 -0.29114958545392738 0 0.1827564496500734 -0.29712351473235832 0 0.17864991096044419 -0.29495009963706692 0 0.18114425154506539 -0.29221912984395187 0 0.1827564496500734 -0.29712351473235832 0 0.18747516626574931 -0.28692639975368628 0 0.1827564496500734 -0.29712351473235832 0 0.1806905449634813 -0.28832929748571318 0 0.18114425154506539 -0.29221912984395187 0 0.18301660310609241 -0.29114958545392738 0 0.1806905449634813 -0.28832929748571318 0 0.17909088347012619 -0.29088019083727579 0 0.18114425154506539 -0.29221912984395187 0 0.18802618722583669 -0.31833181955932999 0 0.18221347423979239 -0.30458962683289892 0 0.1698931321352706 -0.29998698427508858 0 0.1880606218677118 -0.30022154946313712 0 0.18734834214976739 -0.29514628785519947 0 0.1827564496500734 -0.29712351473235832 0 0.19009702279388629 -0.3064242775921906 0 0.1880606218677118 -0.30022154946313712 0 0.18221347423979239 -0.30458962683289892 0 0.18802618722583669 -0.31833181955932999 0 0.17151825735526699 -0.31325416760549368 0 0.1698931321352706 -0.29998698427508858 0 0.1880606218677118 -0.30022154946313712 0 0.18221347423979239 -0.30458962683289892 0 0.1827564496500734 -0.29712351473235832 0 0.18802618722583669 -0.31833181955932999 0 0.1698931321352706 -0.29998698427508858 0 0.17864991096044419 -0.29495009963706692 0 0.1827564496500734 -0.29712351473235832 0 0.17837824174639511 -0.29916255636935318 0 0.18221347423979239 -0.30458962683289892 0 0.1827564496500734 -0.29712351473235832 0 0.17837824174639511 -0.29916255636935318 0 0.19009702279388629 -0.3064242775921906 0 0.18802618722583669 -0.31833181955932999 0 0.18221347423979239 -0.30458962683289892 0 0.18221347423979239 -0.30458962683289892 0 0.17837824174639511 -0.29916255636935318 0 0.1698931321352706 -0.29998698427508858 0 0.17864991096044419 -0.29495009963706692 0 0.17837824174639511 -0.29916255636935318 0 0.1698931321352706 -0.29998698427508858 0 0.17151825735526699 -0.31325416760549368 0 0.1698931321352706 -0.29998698427508858 0 0.1602411687519314 -0.31190927739118429 0 0.15432967412725099 -0.29846298066074151 0 0.1698931321352706 -0.29998698427508858 0 0.1602411687519314 -0.31190927739118429 0 0.1517600770447052 -0.28164214899084639 0 0.17864991096044419 -0.29495009963706692 0 0.1698931321352706 -0.29998698427508858 0 0.1517600770447052 -0.28164214899084639 0 0.1698931321352706 -0.29998698427508858 0 0.15432967412725099 -0.29846298066074151 0 0.1517600770447052 -0.28164214899084639 0 0.1698931321352706 -0.29998698427508858 0 0.1517600770447052 -0.28164214899084639 0 0.17864991096044419 -0.29495009963706692 0 0.1517600770447052 -0.28164214899084639 0 0.17864991096044419 -0.29495009963706692 0 0.16594555478614451 -0.28284233368471318 0 0.1710222018321049 -0.28124575318360368 0 0.17291101310642881 -0.28564608084835003 0 0.16594555478614451 -0.28284233368471318 0 0.21438456257476449 -0.5 0 0.2048745361024723 -0.48472171768082351 0 0.18744203257390391 -0.5 0 0.19122796324104871 -0.48466606029959602 0 0.2048745361024723 -0.48472171768082351 0 0.18744203257390391 -0.5 0 0.19122796324104871 -0.48466606029959602 0 0.20365346230900849 -0.47086657296764728 0 0.1938641377332887 -0.4633108835168005 0 0.19122796324104871 -0.48466606029959602 0 0.20365346230900849 -0.47086657296764728 0 0.2048745361024723 -0.48472171768082351 0 0.21766866328091511 -0.47157360957620892 0 0.2048745361024723 -0.48472171768082351 0 0.22288060450936709 -0.48400008360299168 0 0.20365346230900849 -0.47086657296764728 0 0.21766866328091511 -0.47157360957620892 0 0.2048745361024723 -0.48472171768082351 0 0.21438456257476449 -0.5 0 0.2048745361024723 -0.48472171768082351 0 0.22288060450936709 -0.48400008360299168 0 0.21438456257476449 -0.5 0 0.23633351028628971 -0.48712361601618398 0 0.2413270925756249 -0.5 0 0.21438456257476449 -0.5 0 0.23633351028628971 -0.48712361601618398 0 0.22288060450936709 -0.48400008360299168 0 0.25270961841775552 -0.48460016746525392 0 0.23633351028628971 -0.48712361601618398 0 0.2413270925756249 -0.5 0 0.25270961841775552 -0.48460016746525392 0 0.23633351028628971 -0.48712361601618398 0 0.23949561189523169 -0.47426551941090739 0 0.23949561189523169 -0.47426551941090739 0 0.22288060450936709 -0.48400008360299168 0 0.22545312399173489 -0.46028769725088831 0 0.21766866328091511 -0.47157360957620892 0 0.22288060450936709 -0.48400008360299168 0 0.22545312399173489 -0.46028769725088831 0 0.23633351028628971 -0.48712361601618398 0 0.23949561189523169 -0.47426551941090739 0 0.22288060450936709 -0.48400008360299168 0 0.22288060450936709 -0.48400008360299168 0 0.22545312399173489 -0.46028769725088831 0 0.21766866328091511 -0.47157360957620892 0 0.22545312399173489 -0.46028769725088831 0 0.2186728293425339 -0.44755637628226819 0 0.2588368117714554 -0.46700690363883102 0 0.23949561189523169 -0.47426551941090739 0 0.2409729068143365 -0.46262444708906358 0 0.22545312399173489 -0.46028769725088831 0 0.2409729068143365 -0.46262444708906358 0 0.24480843210435321 -0.45079661158300749 0 0.2588368117714554 -0.46700690363883102 0 0.2409729068143365 -0.46262444708906358 0 0.24480843210435321 -0.45079661158300749 0 0.23949561189523169 -0.47426551941090739 0 0.22545312399173489 -0.46028769725088831 0 0.2409729068143365 -0.46262444708906358 0 0.24480843210435321 -0.45079661158300749 0 0.22802564347410281 -0.43657531089878487 0 0.2418992233321238 -0.43333026798624508 0 0.25513396950241118 -0.43290986753561628 0 0.24480843210435321 -0.45079661158300749 0 0.2418992233321238 -0.43333026798624508 0 0.22545312399173489 -0.46028769725088831 0 0.22802564347410281 -0.43657531089878487 0 0.2186728293425339 -0.44755637628226819 0 0.21246462128442831 -0.43168381348743168 0 0.22802564347410281 -0.43657531089878487 0 0.22545312399173489 -0.46028769725088831 0 0.2186728293425339 -0.44755637628226819 0 0.22802564347410281 -0.43657531089878487 0 0.22545312399173489 -0.46028769725088831 0 0.24480843210435321 -0.45079661158300749 0 0.22802564347410281 -0.43657531089878487 0 0.20442019459899149 -0.44533796874460208 0 0.2186728293425339 -0.44755637628226819 0 0.21246462128442831 -0.43168381348743168 0 0.21766866328091511 -0.47157360957620892 0 0.20442019459899149 -0.44533796874460208 0 0.21766866328091511 -0.47157360957620892 0 0.20442019459899149 -0.44533796874460208 0 0.2186728293425339 -0.44755637628226819 0 0.20365346230900849 -0.47086657296764728 0 0.21766866328091511 -0.47157360957620892 0 0.20442019459899149 -0.44533796874460208 0 0.20365346230900849 -0.47086657296764728 0 0.20442019459899149 -0.44533796874460208 0 0.1938641377332887 -0.4633108835168005 0 0.20442019459899149 -0.44533796874460208 0 0.18484232774876749 -0.43033534366960768 0 0.18590039067086719 -0.44115637567916172 0 0.20442019459899149 -0.44533796874460208 0 0.18923595964957429 -0.45067509688328122 0 0.18590039067086719 -0.44115637567916172 0 0.20442019459899149 -0.44533796874460208 0 0.1938641377332887 -0.4633108835168005 0 0.18923595964957429 -0.45067509688328122 0 0.20442019459899149 -0.44533796874460208 0 0.1911717259170673 -0.41910232791299562 0 0.20473537155931409 -0.42802668409371708 0 0.20442019459899149 -0.44533796874460208 0 0.1911717259170673 -0.41910232791299562 0 0.20442019459899149 -0.44533796874460208 0 0.1911717259170673 -0.41910232791299562 0 0.18484232774876749 -0.43033534366960768 0 0.1911717259170673 -0.41910232791299562 0 0.21088494443676881 -0.41598262622983972 0 0.20473537155931409 -0.42802668409371708 0 0.18851111772050869 -0.41383358608972459 0 0.208966154163157 -0.40126827473642579 0 0.1911717259170673 -0.41910232791299562 0 0.21088494443676881 -0.41598262622983972 0 0.1911717259170673 -0.41910232791299562 0 0.18851111772050869 -0.41383358608972459 0 0.21088494443676881 -0.41598262622983972 0 0.18851111772050869 -0.41383358608972459 0 0.21088494443676881 -0.41598262622983972 0 0.208966154163157 -0.40126827473642579 0 0.1911717259170673 -0.41910232791299562 0 0.18851111772050869 -0.41383358608972459 0 0.21088494443676881 -0.41598262622983972 0 0.22155668588658281 -0.40529615173032069 0 0.208966154163157 -0.40126827473642579 0 0.21088494443676881 -0.41598262622983972 0 0.20473537155931409 -0.42802668409371708 0 0.21246462128442831 -0.43168381348743168 0 0.21088494443676881 -0.41598262622983972 0 0.21246462128442831 -0.43168381348743168 0 0.21959695705502991 -0.42408781639437282 0 0.20442019459899149 -0.44533796874460208 0 0.20473537155931409 -0.42802668409371708 0 0.21246462128442831 -0.43168381348743168 0 0.21246462128442831 -0.43168381348743168 0 0.21959695705502991 -0.42408781639437282 0 0.22802564347410281 -0.43657531089878487 0 0.22802564347410281 -0.43657531089878487 0 0.23614533994983331 -0.4244462479719151 0 0.23059816295646979 -0.4128629245466815 0 0.22802564347410281 -0.43657531089878487 0 0.23059816295646979 -0.4128629245466815 0 0.21959695705502991 -0.42408781639437282 0 0.22802564347410281 -0.43657531089878487 0 0.23059816295646979 -0.4128629245466815 0 0.22802564347410281 -0.43657531089878487 0 0.2418992233321238 -0.43333026798624508 0 0.23614533994983331 -0.4244462479719151 0 0.2418992233321238 -0.43333026798624508 0 0.23614533994983331 -0.4244462479719151 0 0.2453827316299185 -0.42192330194190181 0 0.25513396950241118 -0.43290986753561628 0 0.2418992233321238 -0.43333026798624508 0 0.2453827316299185 -0.42192330194190181 0 0.256136481120742 -0.41447562176841068 0 0.2453827316299185 -0.42192330194190181 0 0.24629253832767661 -0.41022035877505542 0 0.2453827316299185 -0.42192330194190181 0 0.24629253832767661 -0.41022035877505542 0 0.2366098857920339 -0.41191154353144788 0 0.23614533994983331 -0.4244462479719151 0 0.2366098857920339 -0.41191154353144788 0 0.23059816295646979 -0.4128629245466815 0 0.23614533994983331 -0.4244462479719151 0 0.2453827316299185 -0.42192330194190181 0 0.2366098857920339 -0.41191154353144788 0 0.24629253832767661 -0.41022035877505542 0 0.2366098857920339 -0.41191154353144788 0 0.2422505545635501 -0.40276464775944387 0 0.21088494443676881 -0.41598262622983972 0 0.23059816295646979 -0.4128629245466815 0 0.2366098857920339 -0.41191154353144788 0 0.23059816295646979 -0.4128629245466815 0 0.23156745731421779 -0.4039283829592023 0 0.23059816295646979 -0.4128629245466815 0 0.22155668588658281 -0.40529615173032069 0 0.23156745731421779 -0.4039283829592023 0 0.23059816295646979 -0.4128629245466815 0 0.23156745731421779 -0.4039283829592023 0 0.21088494443676881 -0.41598262622983972 0 0.23059816295646979 -0.4128629245466815 0 0.22155668588658281 -0.40529615173032069 0 0.21088494443676881 -0.41598262622983972 0 0.21959695705502991 -0.42408781639437282 0 0.23059816295646979 -0.4128629245466815 0 0.2366098857920339 -0.41191154353144788 0 0.23059816295646979 -0.4128629245466815 0 0.22155668588658281 -0.40529615173032069 0 0.22942119060580499 -0.38870296338312649 0 0.208966154163157 -0.40126827473642579 0 0.22155668588658281 -0.40529615173032069 0 0.23156745731421779 -0.4039283829592023 0 0.22942119060580499 -0.38870296338312649 0 0.22942119060580499 -0.38870296338312649 0 0.208966154163157 -0.40126827473642579 0 0.23156745731421779 -0.4039283829592023 0 0.24309899287842279 -0.39271330151873202 0 0.2422505545635501 -0.40276464775944387 0 0.2366098857920339 -0.41191154353144788 0 0.23156745731421779 -0.4039283829592023 0 0.2422505545635501 -0.40276464775944387 0 0.23156745731421779 -0.4039283829592023 0 0.24309899287842279 -0.39271330151873202 0 0.22942119060580499 -0.38870296338312649 0 0.25108303853213881 -0.40002667887407228 0 0.24629253832767661 -0.41022035877505542 0 0.2422505545635501 -0.40276464775944387 0 0.25108303853213881 -0.40002667887407228 0 0.24309899287842279 -0.39271330151873202 0 0.2422505545635501 -0.40276464775944387 0 0.24987622704845311 -0.37613765202982719 0 0.22942119060580499 -0.38870296338312649 0 0.24309899287842279 -0.39271330151873202 0 0.24987622704845311 -0.37613765202982719 0 0.22942119060580499 -0.38870296338312649 0 0.24987622704845311 -0.37613765202982719 0 0.23474048966473349 -0.38137370792841258 0 0.22942119060580499 -0.38870296338312649 0 0.25687819372407023 -0.38903915957053298 0 0.24309899287842279 -0.39271330151873202 0 0.24987622704845311 -0.37613765202982719 0 0.23679608458568241 -0.3713456781615978 0 0.24987622704845311 -0.37613765202982719 0 0.23474048966473349 -0.38137370792841258 0 0.23474048966473349 -0.38137370792841258 0 0.23010576568282681 -0.37607478874810818 0 0.22189277223980711 -0.38054577212349588 0 0.23474048966473349 -0.38137370792841258 0 0.22189277223980711 -0.38054577212349588 0 0.20961824525516401 -0.3936281247522696 0 0.23474048966473349 -0.38137370792841258 0 0.22942119060580499 -0.38870296338312649 0 0.20961824525516401 -0.3936281247522696 0 0.23679608458568241 -0.3713456781615978 0 0.23474048966473349 -0.38137370792841258 0 0.23010576568282681 -0.37607478874810818 0 0.23474048966473349 -0.38137370792841258 0 0.20961824525516401 -0.3936281247522696 0 0.22699371624108439 -0.37103399677892651 0 0.23010576568282681 -0.37607478874810818 0 0.22189277223980711 -0.38054577212349588 0 0.21663927632257499 -0.37152038636996992 0 0.22189277223980711 -0.38054577212349588 0 0.21119602619295649 -0.38157571206759561 0 0.21663927632257499 -0.37152038636996992 0 0.21119602619295649 -0.38157571206759561 0 0.20576161095015591 -0.37595213443190167 0 0.21119602619295649 -0.38157571206759561 0 0.20576161095015591 -0.37595213443190167 0 0.20229958674085519 -0.38616776423662919 0 0.21119602619295649 -0.38157571206759561 0 0.20961824525516401 -0.3936281247522696 0 0.20229958674085519 -0.38616776423662919 0 0.22189277223980711 -0.38054577212349588 0 0.21119602619295649 -0.38157571206759561 0 0.20961824525516401 -0.3936281247522696 0 0.22942119060580499 -0.38870296338312649 0 0.208966154163157 -0.40126827473642579 0 0.20961824525516401 -0.3936281247522696 0 0.20961824525516401 -0.3936281247522696 0 0.18449600084559339 -0.40588254157612419 0 0.20961824525516401 -0.3936281247522696 0 0.19262774622386039 -0.39991289132556063 0 0.20229958674085519 -0.38616776423662919 0 0.18851111772050869 -0.41383358608972459 0 0.20961824525516401 -0.3936281247522696 0 0.18449600084559339 -0.40588254157612419 0 0.19262774622386039 -0.39991289132556063 0 0.193172237845981 -0.38760648281860499 0 0.20229958674085519 -0.38616776423662919 0 0.20961824525516401 -0.3936281247522696 0 0.19262774622386039 -0.39991289132556063 0 0.18449600084559339 -0.40588254157612419 0 0.18851111772050869 -0.41383358608972459 0 0.208966154163157 -0.40126827473642579 0 0.20961824525516401 -0.3936281247522696 0 0.19262774622386039 -0.39991289132556063 0 0.18963514604776821 -0.39361523539988952 0 0.193172237845981 -0.38760648281860499 0 0.19262774622386039 -0.39991289132556063 0 0.18963514604776821 -0.39361523539988952 0 0.18221634088723479 -0.40136818287387582 0 0.18963514604776821 -0.39361523539988952 0 0.193172237845981 -0.38760648281860499 0 0.18267650324237161 -0.39405502657648112 0 0.193172237845981 -0.38760648281860499 0 0.1910424400336663 -0.37547354736401328 0 0.18267650324237161 -0.39405502657648112 0 0.20576161095015591 -0.37595213443190167 0 0.1910424400336663 -0.37547354736401328 0 0.20229958674085519 -0.38616776423662919 0 0.193172237845981 -0.38760648281860499 0 0.1910424400336663 -0.37547354736401328 0 0.20229958674085519 -0.38616776423662919 0 0.1910424400336663 -0.37547354736401328 0 0.17822948803450961 -0.38676940160015832 0 0.1737051017910701 -0.38004230502140057 0 0.1910424400336663 -0.37547354736401328 0 0.18267650324237161 -0.39405502657648112 0 0.1910424400336663 -0.37547354736401328 0 0.17822948803450961 -0.38676940160015832 0 0.18267650324237161 -0.39405502657648112 0 0.17822948803450961 -0.38676940160015832 0 0.17910183421640119 -0.39520059623836468 0 0.1646215608890387 -0.38907553280053181 0 0.17822948803450961 -0.38676940160015832 0 0.1737051017910701 -0.38004230502140057 0 0.1646215608890387 -0.38907553280053181 0 0.17822948803450961 -0.38676940160015832 0 0.18267650324237161 -0.39405502657648112 0 0.17910183421640119 -0.39520059623836468 0 0.18221634088723479 -0.40136818287387582 0 0.17910183421640119 -0.39520059623836468 0 0.15805845094365739 -0.40474493864538458 0 0.18963514604776821 -0.39361523539988952 0 0.18267650324237161 -0.39405502657648112 0 0.18221634088723479 -0.40136818287387582 0 0.18267650324237161 -0.39405502657648112 0 0.18221634088723479 -0.40136818287387582 0 0.17910183421640119 -0.39520059623836468 0 0.18221634088723479 -0.40136818287387582 0 0.17910183421640119 -0.39520059623836468 0 0.19262774622386039 -0.39991289132556063 0 0.18221634088723479 -0.40136818287387582 0 0.19262774622386039 -0.39991289132556063 0 0.18449600084559339 -0.40588254157612419 0 0.18221634088723479 -0.40136818287387582 0 0.18449600084559339 -0.40588254157612419 0 0.18221634088723479 -0.40136818287387582 0 0.17910183421640119 -0.39520059623836468 0 0.15805845094365739 -0.40474493864538458 0 0.1646215608890387 -0.38907553280053181 0 0.18221634088723479 -0.40136818287387582 0 0.15805845094365739 -0.40474493864538458 0 0.15805845094365739 -0.40474493864538458 0 0.1646215608890387 -0.38907553280053181 0 0.14706277844018539 -0.39464292458295508 0 0.1737051017910701 -0.38004230502140057 0 0.1646215608890387 -0.38907553280053181 0 0.16307541855137739 -0.37743582412871929 0 0.17035242753357599 -0.36877211446365682 0 0.1737051017910701 -0.38004230502140057 0 0.16307541855137739 -0.37743582412871929 0 0.1569593121701936 -0.36832063090657668 0 0.16307541855137739 -0.37743582412871929 0 0.14973869037300869 -0.38096853745143089 0 0.1646215608890387 -0.38907553280053181 0 0.16307541855137739 -0.37743582412871929 0 0.14973869037300869 -0.38096853745143089 0 0.1646215608890387 -0.38907553280053181 0 0.14973869037300869 -0.38096853745143089 0 0.14706277844018539 -0.39464292458295508 0 0.14973869037300869 -0.38096853745143089 0 0.1375772795987745 -0.38493757303029391 0 0.14706277844018539 -0.39464292458295508 0 0.13524945632583441 -0.37311377610700652 0 0.14973869037300869 -0.38096853745143089 0 0.1375772795987745 -0.38493757303029391 0 0.13524945632583441 -0.37311377610700652 0 0.1375772795987745 -0.38493757303029391 0 0.12609635470998201 -0.38402791619100712 0 0.1375772795987745 -0.38493757303029391 0 0.12609635470998201 -0.38402791619100712 0 0.13569313113510631 -0.39589912548093298 0 0.12645644117523869 -0.39722706905544619 0 0.13569313113510631 -0.39589912548093298 0 0.1339005610000801 -0.40812169441689322 0 0.12645644117523869 -0.39722706905544619 0 0.1339005610000801 -0.40812169441689322 0 0.1250254850364893 -0.40936224001308058 0 0.12609635470998201 -0.38402791619100712 0 0.12645644117523869 -0.39722706905544619 0 0.13569313113510631 -0.39589912548093298 0 0.1375772795987745 -0.38493757303029391 0 0.13569313113510631 -0.39589912548093298 0 0.14706277844018539 -0.39464292458295508 0 0.13569313113510631 -0.39589912548093298 0 0.14706277844018539 -0.39464292458295508 0 0.1339005610000801 -0.40812169441689322 0 0.13569313113510631 -0.39589912548093298 0 0.1339005610000801 -0.40812169441689322 0 0.15805845094365739 -0.40474493864538458 0 0.14706277844018539 -0.39464292458295508 0 0.1339005610000801 -0.40812169441689322 0 0.15805845094365739 -0.40474493864538458 0 0.1339005610000801 -0.40812169441689322 0 0.15805845094365739 -0.40474493864538458 0 0.15398562739609989 -0.414436145328195 0 0.14500783119440661 -0.41410657591589572 0 0.15805845094365739 -0.40474493864538458 0 0.14500783119440661 -0.41410657591589572 0 0.1339005610000801 -0.40812169441689322 0 0.15398562739609989 -0.414436145328195 0 0.15088002640467921 -0.42009116626417142 0 0.14500783119440661 -0.41410657591589572 0 0.15088002640467921 -0.42009116626417142 0 0.15979138776423191 -0.42406840149736191 0 0.15636365466176849 -0.41960526040447821 0 0.15398562739609989 -0.414436145328195 0 0.15088002640467921 -0.42009116626417142 0 0.15636365466176849 -0.41960526040447821 0 0.15088002640467921 -0.42009116626417142 0 0.14500783119440661 -0.41410657591589572 0 0.14354831806896931 -0.42663893719234869 0 0.14500783119440661 -0.41410657591589572 0 0.1339005610000801 -0.40812169441689322 0 0.13212255532719441 -0.42024495614079282 0 0.14500783119440661 -0.41410657591589572 0 0.13212255532719441 -0.42024495614079282 0 0.14354831806896931 -0.42663893719234869 0 0.1339005610000801 -0.40812169441689322 0 0.13212255532719441 -0.42024495614079282 0 0.13212255532719441 -0.42024495614079282 0 0.1250254850364893 -0.40936224001308058 0 0.117866085899093 -0.41583132647739651 0 0.13212255532719441 -0.42024495614079282 0 0.1250254850364893 -0.40936224001308058 0 0.1339005610000801 -0.40812169441689322 0 0.13212255532719441 -0.42024495614079282 0 0.1250254850364893 -0.40936224001308058 0 0.1339005610000801 -0.40812169441689322 0 0.1250254850364893 -0.40936224001308058 0 0.13212255532719441 -0.42024495614079282 0 0.14354831806896931 -0.42663893719234869 0 0.1460535583969573 -0.44160689079445481 0 0.13212255532719441 -0.42024495614079282 0 0.128223579302082 -0.44682997076052833 0 0.13212255532719441 -0.42024495614079282 0 0.128223579302082 -0.44682997076052833 0 0.1159996351348133 -0.43474120747525058 0 0.13212255532719441 -0.42024495614079282 0 0.1460535583969573 -0.44160689079445481 0 0.13212255532719441 -0.42024495614079282 0 0.1460535583969573 -0.44160689079445481 0 0.128223579302082 -0.44682997076052833 0 0.15088002640467921 -0.42009116626417142 0 0.14354831806896931 -0.42663893719234869 0 0.15979138776423191 -0.42406840149736191 0 0.14354831806896931 -0.42663893719234869 0 0.15979138776423191 -0.42406840149736191 0 0.14354831806896931 -0.42663893719234869 0 0.15423293294423909 -0.43386412417913311 0 0.1460535583969573 -0.44160689079445481 0 0.14354831806896931 -0.42663893719234869 0 0.15423293294423909 -0.43386412417913311 0 0.15979138776423191 -0.42406840149736191 0 0.15423293294423909 -0.43386412417913311 0 0.16088991666547389 -0.43196094602310392 0 0.16557730454712019 -0.44172028084172121 0 0.1713980071398 -0.42434598792645378 0 0.15979138776423191 -0.42406840149736191 0 0.1760344574594947 -0.42149786580237669 0 0.15423293294423909 -0.43386412417913311 0 0.16088991666547389 -0.43196094602310392 0 0.15979138776423191 -0.42406840149736191 0 0.15979138776423191 -0.42406840149736191 0 0.1760344574594947 -0.42149786580237669 0 0.16626302434537371 -0.43076979168845952 0 0.17509911994716071 -0.43336510097506958 0 0.16557730454712019 -0.44172028084172121 0 0.16088991666547389 -0.43196094602310392 0 0.16626302434537371 -0.43076979168845952 0 0.16557730454712019 -0.44172028084172121 0 0.16626302434537371 -0.43076979168845952 0 0.1713980071398 -0.42434598792645378 0 0.17509911994716071 -0.43336510097506958 0 0.16626302434537371 -0.43076979168845952 0 0.1713980071398 -0.42434598792645378 0 0.15979138776423191 -0.42406840149736191 0 0.16088991666547389 -0.43196094602310392 0 0.16626302434537371 -0.43076979168845952 0 0.15979138776423191 -0.42406840149736191 0 0.15636365466176849 -0.41960526040447821 0 0.16176651730702801 -0.41283252991975622 0 0.17042982775368151 -0.41274390099030239 0 0.18221634088723479 -0.40136818287387582 0 0.15805845094365739 -0.40474493864538458 0 0.17042982775368151 -0.41274390099030239 0 0.15979138776423191 -0.42406840149736191 0 0.15636365466176849 -0.41960526040447821 0 0.17042982775368151 -0.41274390099030239 0 0.15636365466176849 -0.41960526040447821 0 0.17042982775368151 -0.41274390099030239 0 0.15979138776423191 -0.42406840149736191 0 0.17042982775368151 -0.41274390099030239 0 0.1760344574594947 -0.42149786580237669 0 0.15398562739609989 -0.414436145328195 0 0.15636365466176849 -0.41960526040447821 0 0.16176651730702801 -0.41283252991975622 0 0.15805845094365739 -0.40474493864538458 0 0.15398562739609989 -0.414436145328195 0 0.16176651730702801 -0.41283252991975622 0 0.15805845094365739 -0.40474493864538458 0 0.16176651730702801 -0.41283252991975622 0 0.17042982775368151 -0.41274390099030239 0 0.17042982775368151 -0.41274390099030239 0 0.1760344574594947 -0.42149786580237669 0 0.17986785094481991 -0.4134894736146324 0 0.18449600084559339 -0.40588254157612419 0 0.17042982775368151 -0.41274390099030239 0 0.18449600084559339 -0.40588254157612419 0 0.18221634088723479 -0.40136818287387582 0 0.17042982775368151 -0.41274390099030239 0 0.18449600084559339 -0.40588254157612419 0 0.17042982775368151 -0.41274390099030239 0 0.17986785094481991 -0.4134894736146324 0 0.18851111772050869 -0.41383358608972459 0 0.18449600084559339 -0.40588254157612419 0 0.18851111772050869 -0.41383358608972459 0 0.18449600084559339 -0.40588254157612419 0 0.17986785094481991 -0.4134894736146324 0 0.18851111772050869 -0.41383358608972459 0 0.1760344574594947 -0.42149786580237669 0 0.1911717259170673 -0.41910232791299562 0 0.1760344574594947 -0.42149786580237669 0 0.18851111772050869 -0.41383358608972459 0 0.1760344574594947 -0.42149786580237669 0 0.17986785094481991 -0.4134894736146324 0 0.1911717259170673 -0.41910232791299562 0 0.18851111772050869 -0.41383358608972459 0 0.1760344574594947 -0.42149786580237669 0 0.1911717259170673 -0.41910232791299562 0 0.1760344574594947 -0.42149786580237669 0 0.18484232774876749 -0.43033534366960768 0 0.18484232774876749 -0.43033534366960768 0 0.17509911994716071 -0.43336510097506958 0 0.18590039067086719 -0.44115637567916172 0 0.18484232774876749 -0.43033534366960768 0 0.17509911994716071 -0.43336510097506958 0 0.17653319474121221 -0.42750765242104072 0 0.1713980071398 -0.42434598792645378 0 0.17509911994716071 -0.43336510097506958 0 0.17653319474121221 -0.42750765242104072 0 0.1760344574594947 -0.42149786580237669 0 0.18484232774876749 -0.43033534366960768 0 0.17653319474121221 -0.42750765242104072 0 0.1713980071398 -0.42434598792645378 0 0.1760344574594947 -0.42149786580237669 0 0.17653319474121221 -0.42750765242104072 0 0.1713980071398 -0.42434598792645378 0 0.1760344574594947 -0.42149786580237669 0 0.17791556380287959 -0.4455361086535346 0 0.17376504419967539 -0.46076368888843938 0 0.16557730454712019 -0.44172028084172121 0 0.17509911994716071 -0.43336510097506958 0 0.17791556380287959 -0.4455361086535346 0 0.18590039067086719 -0.44115637567916172 0 0.17509911994716071 -0.43336510097506958 0 0.17791556380287959 -0.4455361086535346 0 0.16557730454712019 -0.44172028084172121 0 0.18923595964957429 -0.45067509688328122 0 0.17791556380287959 -0.4455361086535346 0 0.18590039067086719 -0.44115637567916172 0 0.18923595964957429 -0.45067509688328122 0 0.17791556380287959 -0.4455361086535346 0 0.17376504419967539 -0.46076368888843938 0 0.1938641377332887 -0.4633108835168005 0 0.18923595964957429 -0.45067509688328122 0 0.17376504419967539 -0.46076368888843938 0 0.1938641377332887 -0.4633108835168005 0 0.17376504419967539 -0.46076368888843938 0 0.17718182015316611 -0.48165544175840053 0 0.17376504419967539 -0.46076368888843938 0 0.15550290350416551 -0.45157236434768988 0 0.1539044029471725 -0.46809795184702829 0 0.17376504419967539 -0.46076368888843938 0 0.16557730454712019 -0.44172028084172121 0 0.15550290350416551 -0.45157236434768988 0 0.15423293294423909 -0.43386412417913311 0 0.16557730454712019 -0.44172028084172121 0 0.15550290350416551 -0.45157236434768988 0 0.15423293294423909 -0.43386412417913311 0 0.15550290350416551 -0.45157236434768988 0 0.1460535583969573 -0.44160689079445481 0 0.15550290350416551 -0.45157236434768988 0 0.1460535583969573 -0.44160689079445481 0 0.14153074802588431 -0.45654190970348868 0 0.1460535583969573 -0.44160689079445481 0 0.128223579302082 -0.44682997076052833 0 0.14153074802588431 -0.45654190970348868 0 0.128223579302082 -0.44682997076052833 0 0.12432460327697011 -0.47341498538026422 0 0.128223579302082 -0.44682997076052833 0 0.14153074802588431 -0.45654190970348868 0 0.12432460327697011 -0.47341498538026422 0 0.1539044029471725 -0.46809795184702829 0 0.14153074802588431 -0.45654190970348868 0 0.12432460327697011 -0.47341498538026422 0 0.15550290350416551 -0.45157236434768988 0 0.1539044029471725 -0.46809795184702829 0 0.14153074802588431 -0.45654190970348868 0 0.1539044029471725 -0.46809795184702829 0 0.15048103374274721 -0.48484579871078243 0 0.12432460327697011 -0.47341498538026422 0 0.1404625649124509 -0.5 0 0.15048103374274721 -0.48484579871078243 0 0.12432460327697011 -0.47341498538026422 0 0.1404625649124509 -0.5 0 0.12042562725185831 -0.49999999999999989 0 0.12432460327697011 -0.47341498538026422 0 0.1404625649124509 -0.5 0 0.15048103374274721 -0.48484579871078243 0 0.16049950257304349 -0.50000000000000033 0 0.16049950257304349 -0.50000000000000033 0 0.17718182015316611 -0.48165544175840053 0 0.15048103374274721 -0.48484579871078243 0 0.16049950257304349 -0.50000000000000033 0 0.17718182015316611 -0.48165544175840053 0 0.17376504419967539 -0.46076368888843938 0 0.1539044029471725 -0.46809795184702829 0 0.17718182015316611 -0.48165544175840053 0 0.1539044029471725 -0.46809795184702829 0 0.15048103374274721 -0.48484579871078243 0 0.17718182015316611 -0.48165544175840053 0 0.1938641377332887 -0.4633108835168005 0 0.17718182015316611 -0.48165544175840053 0 0.19122796324104871 -0.48466606029959602 0 0.1938641377332887 -0.4633108835168005 0 0.17718182015316611 -0.48165544175840053 0 0.16049950257304349 -0.50000000000000033 0 0.17718182015316611 -0.48165544175840053 0 0.18744203257390391 -0.5 0 0.19122796324104871 -0.48466606029959602 0 0.17718182015316611 -0.48165544175840053 0 0.18744203257390391 -0.5 0 0.072018957471098571 -0.48629524479662273 0 0.069142552082564368 -0.5 0 0.082735946582200875 -0.4892045976485363 0 0.072018957471098571 -0.48629524479662273 0 0.079568506083734697 -0.4785915255016745 0 0.082735946582200875 -0.4892045976485363 0 0.072018957471098571 -0.48629524479662273 0 0.062670741706174135 -0.48944359682069549 0 0.064881374578912687 -0.4815757870058418 0 0.072018957471098571 -0.48629524479662273 0 0.069142552082564368 -0.5 0 0.062670741706174135 -0.48944359682069549 0 0.073180054077148754 -0.46968413697177741 0 0.079568506083734697 -0.4785915255016745 0 0.081395248040860374 -0.46160025678040811 0 0.067447632246636219 -0.45716428258124142 0 0.05849497948899289 -0.47642287528831911 0 0.061758178687080389 -0.47580514524370598 0 0.072018957471098571 -0.48629524479662273 0 0.064881374578912687 -0.4815757870058418 0 0.070673492561877091 -0.4782128222507579 0 0.064881374578912687 -0.4815757870058418 0 0.066280053791524171 -0.47680462027284459 0 0.061758178687080389 -0.47580514524370598 0 0.064881374578912687 -0.4815757870058418 0 0.066280053791524171 -0.47680462027284459 0 0.070673492561877091 -0.4782128222507579 0 0.066280053791524171 -0.47680462027284459 0 0.067807169338226503 -0.47162472659107291 0 0.061758178687080389 -0.47580514524370598 0 0.066280053791524171 -0.47680462027284459 0 0.067807169338226503 -0.47162472659107291 0 0.070673492561877091 -0.4782128222507579 0 0.067807169338226503 -0.47162472659107291 0 0.073180054077148754 -0.46968413697177741 0 0.070673492561877091 -0.4782128222507579 0 0.073180054077148754 -0.46968413697177741 0 0.070673492561877091 -0.4782128222507579 0 0.079568506083734697 -0.4785915255016745 0 0.072018957471098571 -0.48629524479662273 0 0.070673492561877091 -0.4782128222507579 0 0.079568506083734697 -0.4785915255016745 0 0.096876661376123455 -0.48080012839020431 0 0.081395248040860374 -0.46160025678040811 0 0.096876661376123455 -0.48080012839020431 0 0.095349939854524335 -0.46404107218864848 0 0.081395248040860374 -0.46160025678040811 0 0.079568506083734697 -0.4785915255016745 0 0.082735946582200875 -0.4892045976485363 0 0.096876661376123455 -0.48080012839020431 0 0.079568506083734697 -0.4785915255016745 0 0.096876661376123455 -0.48080012839020431 0 0.081395248040860374 -0.46160025678040811 0 0.090750313396975479 -0.5 0 0.082735946582200875 -0.4892045976485363 0 0.096876661376123455 -0.48080012839020431 0 0.069142552082564368 -0.5 0 0.090750313396975479 -0.5 0 0.082735946582200875 -0.4892045976485363 0 0.1123580747113867 -0.50000000000000033 0 0.1124728586670535 -0.48406595427175642 0 0.096876661376123455 -0.48080012839020431 0 0.090750313396975479 -0.5 0 0.1123580747113867 -0.50000000000000033 0 0.096876661376123455 -0.48080012839020431 0 0.1123580747113867 -0.50000000000000033 0 0.096876661376123455 -0.48080012839020431 0 0.1123580747113867 -0.50000000000000033 0 0.12042562725185831 -0.49999999999999989 0 0.1124728586670535 -0.48406595427175642 0 0.12042562725185831 -0.49999999999999989 0 0.1124728586670535 -0.48406595427175642 0 0.12432460327697011 -0.47341498538026422 0 0.12042562725185831 -0.49999999999999989 0 0.12432460327697011 -0.47341498538026422 0 0.1124728586670535 -0.48406595427175642 0 0.12432460327697011 -0.47341498538026422 0 0.1082250197838846 -0.46311527911574241 0 0.096876661376123455 -0.48080012839020431 0 0.095349939854524335 -0.46404107218864848 0 0.1082250197838846 -0.46311527911574241 0 0.1124728586670535 -0.48406595427175642 0 0.096876661376123455 -0.48080012839020431 0 0.1082250197838846 -0.46311527911574241 0 0.095349939854524335 -0.46404107218864848 0 0.1082250197838846 -0.46311527911574241 0 0.094902830217228867 -0.45064862446823939 0 0.128223579302082 -0.44682997076052833 0 0.12432460327697011 -0.47341498538026422 0 0.1082250197838846 -0.46311527911574241 0 0.128223579302082 -0.44682997076052833 0 0.1069391861142964 -0.44299064961396012 0 0.1159996351348133 -0.43474120747525058 0 0.128223579302082 -0.44682997076052833 0 0.1082250197838846 -0.46311527911574241 0 0.1069391861142964 -0.44299064961396012 0 0.1082250197838846 -0.46311527911574241 0 0.1069391861142964 -0.44299064961396012 0 0.094902830217228867 -0.45064862446823939 0 0.1069391861142964 -0.44299064961396012 0 0.091812697424993442 -0.4386357446441016 0 0.098414951810672224 -0.43233268446502993 0 0.1069391861142964 -0.44299064961396012 0 0.094902830217228867 -0.45064862446823939 0 0.091812697424993442 -0.4386357446441016 0 0.094902830217228867 -0.45064862446823939 0 0.091812697424993442 -0.4386357446441016 0 0.082434724511159588 -0.44537142502386151 0 0.094902830217228867 -0.45064862446823939 0 0.082434724511159588 -0.44537142502386151 0 0.081395248040860374 -0.46160025678040811 0 0.091812697424993442 -0.4386357446441016 0 0.082434724511159588 -0.44537142502386151 0 0.078149012167117934 -0.43357211405594609 0 0.095349939854524335 -0.46404107218864848 0 0.094902830217228867 -0.45064862446823939 0 0.081395248040860374 -0.46160025678040811 0 0.067447632246636219 -0.45716428258124142 0 0.065913834705597293 -0.44240038517061198 0 0.057068655694905858 -0.46015288389510001 0 0.067447632246636219 -0.45716428258124142 0 0.05849497948899289 -0.47642287528831911 0 0.067807169338226503 -0.47162472659107291 0 0.067447632246636219 -0.45716428258124142 0 0.061758178687080389 -0.47580514524370598 0 0.081395248040860374 -0.46160025678040811 0 0.067447632246636219 -0.45716428258124142 0 0.065913834705597293 -0.44240038517061198 0 0.073180054077148754 -0.46968413697177741 0 0.081395248040860374 -0.46160025678040811 0 0.067447632246636219 -0.45716428258124142 0 0.067807169338226503 -0.47162472659107291 0 0.073180054077148754 -0.46968413697177741 0 0.067447632246636219 -0.45716428258124142 0 0.081395248040860374 -0.46160025678040811 0 0.065913834705597293 -0.44240038517061198 0 0.082434724511159588 -0.44537142502386151 0 0.081395248040860374 -0.46160025678040811 0 0.065913834705597293 -0.44240038517061198 0 0.082434724511159588 -0.44537142502386151 0 0.065913834705597293 -0.44240038517061198 0 0.078149012167117934 -0.43357211405594609 0 0.065921365320016911 -0.4273577277455588 0 0.073982485551444349 -0.42005290588181732 0 0.078149012167117934 -0.43357211405594609 0 0.065913834705597293 -0.44240038517061198 0 0.065921365320016911 -0.4273577277455588 0 0.078149012167117934 -0.43357211405594609 0 0.073982485551444349 -0.42005290588181732 0 0.069775570718114244 -0.40426700169235308 0 0.060774245729122177 -0.41691050055794487 0 0.065921365320016911 -0.4273577277455588 0 0.073982485551444349 -0.42005290588181732 0 0.060774245729122177 -0.41691050055794487 0 0.073982485551444349 -0.42005290588181732 0 0.086447448161059384 -0.41120764722282821 0 0.069775570718114244 -0.40426700169235308 0 0.073982485551444349 -0.42005290588181732 0 0.086447448161059384 -0.41120764722282821 0 0.088692331433278357 -0.42535053834926723 0 0.086447448161059384 -0.41120764722282821 0 0.093827427438274241 -0.41775801958915132 0 0.099702730965631758 -0.41290181884877419 0 0.086447448161059384 -0.41120764722282821 0 0.088692331433278357 -0.42535053834926723 0 0.093827427438274241 -0.41775801958915132 0 0.088692331433278357 -0.42535053834926723 0 0.097645949564215143 -0.42435504664253748 0 0.093827427438274241 -0.41775801958915132 0 0.073982485551444349 -0.42005290588181732 0 0.088692331433278357 -0.42535053834926723 0 0.078149012167117934 -0.43357211405594609 0 0.091812697424993442 -0.4386357446441016 0 0.088692331433278357 -0.42535053834926723 0 0.078149012167117934 -0.43357211405594609 0 0.091812697424993442 -0.4386357446441016 0 0.088692331433278357 -0.42535053834926723 0 0.098414951810672224 -0.43233268446502993 0 0.098414951810672224 -0.43233268446502993 0 0.097645949564215143 -0.42435504664253748 0 0.1061961683754654 -0.43004895598907111 0 0.088692331433278357 -0.42535053834926723 0 0.098414951810672224 -0.43233268446502993 0 0.097645949564215143 -0.42435504664253748 0 0.1061961683754654 -0.43004895598907111 0 0.11152958735588871 -0.42539382439527612 0 0.1045809803654715 -0.42051706085107571 0 0.097645949564215143 -0.42435504664253748 0 0.1061961683754654 -0.43004895598907111 0 0.1045809803654715 -0.42051706085107571 0 0.1069391861142964 -0.44299064961396012 0 0.098414951810672224 -0.43233268446502993 0 0.1061961683754654 -0.43004895598907111 0 0.1061961683754654 -0.43004895598907111 0 0.1159996351348133 -0.43474120747525058 0 0.11152958735588871 -0.42539382439527612 0 0.13212255532719441 -0.42024495614079282 0 0.1159996351348133 -0.43474120747525058 0 0.11851153239627241 -0.42275952171654291 0 0.1069391861142964 -0.44299064961396012 0 0.1061961683754654 -0.43004895598907111 0 0.1159996351348133 -0.43474120747525058 0 0.1159996351348133 -0.43474120747525058 0 0.11152958735588871 -0.42539382439527612 0 0.11851153239627241 -0.42275952171654291 0 0.11152958735588871 -0.42539382439527612 0 0.11851153239627241 -0.42275952171654291 0 0.1123596205074209 -0.41890237594444008 0 0.1250254850364893 -0.40936224001308058 0 0.117866085899093 -0.41583132647739651 0 0.1096180349996463 -0.41151587164058129 0 0.1250254850364893 -0.40936224001308058 0 0.1096180349996463 -0.41151587164058129 0 0.13212255532719441 -0.42024495614079282 0 0.11851153239627241 -0.42275952171654291 0 0.117866085899093 -0.41583132647739651 0 0.117866085899093 -0.41583132647739651 0 0.1123596205074209 -0.41890237594444008 0 0.1096180349996463 -0.41151587164058129 0 0.11851153239627241 -0.42275952171654291 0 0.117866085899093 -0.41583132647739651 0 0.1123596205074209 -0.41890237594444008 0 0.11152958735588871 -0.42539382439527612 0 0.1123596205074209 -0.41890237594444008 0 0.1045809803654715 -0.42051706085107571 0 0.1123596205074209 -0.41890237594444008 0 0.1096180349996463 -0.41151587164058129 0 0.1065506547415149 -0.41613106226330793 0 0.1096180349996463 -0.41151587164058129 0 0.1065506547415149 -0.41613106226330793 0 0.099702730965631758 -0.41290181884877419 0 0.1096180349996463 -0.41151587164058129 0 0.099702730965631758 -0.41290181884877419 0 0.1096180349996463 -0.41151587164058129 0 0.099702730965631758 -0.41290181884877419 0 0.1041447551606165 -0.40305668800175581 0 0.1123596205074209 -0.41890237594444008 0 0.1065506547415149 -0.41613106226330793 0 0.1045809803654715 -0.42051706085107571 0 0.1065506547415149 -0.41613106226330793 0 0.1045809803654715 -0.42051706085107571 0 0.099702730965631758 -0.41290181884877419 0 0.1045809803654715 -0.42051706085107571 0 0.093827427438274241 -0.41775801958915132 0 0.099702730965631758 -0.41290181884877419 0 0.097645949564215143 -0.42435504664253748 0 0.1045809803654715 -0.42051706085107571 0 0.093827427438274241 -0.41775801958915132 0 0.086447448161059384 -0.41120764722282821 0 0.099702730965631758 -0.41290181884877419 0 0.095691580682652475 -0.39908469234235189 0 0.095691580682652475 -0.39908469234235189 0 0.1041447551606165 -0.40305668800175581 0 0.1115666739945345 -0.38872436917531578 0 0.099702730965631758 -0.41290181884877419 0 0.095691580682652475 -0.39908469234235189 0 0.1041447551606165 -0.40305668800175581 0 0.1096180349996463 -0.41151587164058129 0 0.1041447551606165 -0.40305668800175581 0 0.1115666739945345 -0.38872436917531578 0 0.1250254850364893 -0.40936224001308058 0 0.1115666739945345 -0.38872436917531578 0 0.1096180349996463 -0.41151587164058129 0 0.1115666739945345 -0.38872436917531578 0 0.1250254850364893 -0.40936224001308058 0 0.1096180349996463 -0.41151587164058129 0 0.1115666739945345 -0.38872436917531578 0 0.12645644117523869 -0.39722706905544619 0 0.1250254850364893 -0.40936224001308058 0 0.1115666739945345 -0.38872436917531578 0 0.12609635470998201 -0.38402791619100712 0 0.1115666739945345 -0.38872436917531578 0 0.113745377556003 -0.36324200547299851 0 0.1115666739945345 -0.38872436917531578 0 0.113745377556003 -0.36324200547299851 0 0.12609635470998201 -0.38402791619100712 0 0.12645644117523869 -0.39722706905544619 0 0.1115666739945345 -0.38872436917531578 0 0.1115666739945345 -0.38872436917531578 0 0.096372132326470572 -0.36542491223168638 0 0.1115666739945345 -0.38872436917531578 0 0.089853218628298884 -0.38394717958202601 0 0.096372132326470572 -0.36542491223168638 0 0.095691580682652475 -0.39908469234235189 0 0.1115666739945345 -0.38872436917531578 0 0.089853218628298884 -0.38394717958202601 0 0.089853218628298884 -0.38394717958202601 0 0.082924844884061683 -0.39714926844771359 0 0.072939106935086151 -0.38728773006234168 0 0.089853218628298884 -0.38394717958202601 0 0.072939106935086151 -0.38728773006234168 0 0.07582030708563034 -0.37256671738353597 0 0.095691580682652475 -0.39908469234235189 0 0.089853218628298884 -0.38394717958202601 0 0.082924844884061683 -0.39714926844771359 0 0.086447448161059384 -0.41120764722282821 0 0.082924844884061683 -0.39714926844771359 0 0.069775570718114244 -0.40426700169235308 0 0.086447448161059384 -0.41120764722282821 0 0.095691580682652475 -0.39908469234235189 0 0.082924844884061683 -0.39714926844771359 0 0.069775570718114244 -0.40426700169235308 0 0.072939106935086151 -0.38728773006234168 0 0.058313699768321348 -0.39007371912844929 0 0.082924844884061683 -0.39714926844771359 0 0.069775570718114244 -0.40426700169235308 0 0.072939106935086151 -0.38728773006234168 0 0.072939106935086151 -0.38728773006234168 0 0.05933500968155693 -0.37671477575793533 0 0.058313699768321348 -0.39007371912844929 0 0.072939106935086151 -0.38728773006234168 0 0.05933500968155693 -0.37671477575793533 0 0.07582030708563034 -0.37256671738353597 0 0.05933500968155693 -0.37671477575793533 0 0.043300396670470892 -0.38581293046691678 0 0.039079294002052851 -0.37065651216905859 0 0.05933500968155693 -0.37671477575793533 0 0.058313699768321348 -0.39007371912844929 0 0.043300396670470892 -0.38581293046691678 0 0.058313699768321348 -0.39007371912844929 0 0.0466875803122518 -0.39705513158652528 0 0.054373060569327003 -0.40663711634463268 0 0.069775570718114244 -0.40426700169235308 0 0.058313699768321348 -0.39007371912844929 0 0.054373060569327003 -0.40663711634463268 0 0.058313699768321348 -0.39007371912844929 0 0.054373060569327003 -0.40663711634463268 0 0.0466875803122518 -0.39705513158652528 0 0.042121557959679479 -0.40689397827368962 0 0.054373060569327003 -0.40663711634463268 0 0.058313699768321348 -0.39007371912844929 0 0.0466875803122518 -0.39705513158652528 0 0.043300396670470892 -0.38581293046691678 0 0.0466875803122518 -0.39705513158652528 0 0.032645317368698572 -0.39721328630736241 0 0.043300396670470892 -0.38581293046691678 0 0.0466875803122518 -0.39705513158652528 0 0.032645317368698572 -0.39721328630736241 0 0.042121557959679479 -0.40689397827368962 0 0.032645317368698572 -0.39721328630736241 0 0.043300396670470892 -0.38581293046691678 0 0.025542853711361019 -0.38384675294920401 0 0.043300396670470892 -0.38581293046691678 0 0.025542853711361019 -0.38384675294920401 0 0.039079294002052851 -0.37065651216905859 0 0.025542853711361019 -0.38384675294920401 0 0.009690974369139977 -0.39295199195252922 0 0.016784443680880379 -0.36713146693108112 0 -0.0064694903547723136 -0.38059021958606692 0 0.009690974369139977 -0.39295199195252922 0 0.016784443680880379 -0.36713146693108112 0 0.032645317368698572 -0.39721328630736241 0 0.009690974369139977 -0.39295199195252922 0 0.030062121183744069 -0.41560348860952728 0 0.032645317368698572 -0.39721328630736241 0 0.025542853711361019 -0.38384675294920401 0 0.009690974369139977 -0.39295199195252922 0 0.009690974369139977 -0.39295199195252922 0 0.030062121183744069 -0.41560348860952728 0 0.01224976062295041 -0.42183763890738629 0 -0.0080625817845775948 -0.40608726553411861 0 0.009690974369139977 -0.39295199195252922 0 0.01224976062295041 -0.42183763890738629 0 0.009690974369139977 -0.39295199195252922 0 0.01224976062295041 -0.42183763890738629 0 0.01224976062295041 -0.42183763890738629 0 0.01480854687676085 -0.45072328586224342 0 0.030062121183744069 -0.41560348860952728 0 0.01224976062295041 -0.42183763890738629 0 0.028535899264767479 -0.43733174884408438 0 0.01224976062295041 -0.42183763890738629 0 0.028535899264767479 -0.43733174884408438 0 0.01480854687676085 -0.45072328586224342 0 0.030062121183744069 -0.41560348860952728 0 0.028535899264767479 -0.43733174884408438 0 0.039909128579099777 -0.42893709763038412 0 0.039909128579099777 -0.42893709763038412 0 0.050432421370333713 -0.42320051356081623 0 0.04400553312424714 -0.45021417746364167 0 0.039909128579099777 -0.42893709763038412 0 0.046509667952406512 -0.41833555967385072 0 0.050432421370333713 -0.42320051356081623 0 0.032645317368698572 -0.39721328630736241 0 0.030062121183744069 -0.41560348860952728 0 0.042121557959679479 -0.40689397827368962 0 0.030062121183744069 -0.41560348860952728 0 0.039909128579099777 -0.42893709763038412 0 0.046509667952406512 -0.41833555967385072 0 0.030062121183744069 -0.41560348860952728 0 0.042121557959679479 -0.40689397827368962 0 0.046509667952406512 -0.41833555967385072 0 0.054373060569327003 -0.40663711634463268 0 0.050432421370333713 -0.42320051356081623 0 0.046509667952406512 -0.41833555967385072 0 0.054373060569327003 -0.40663711634463268 0 0.050432421370333713 -0.42320051356081623 0 0.054373060569327003 -0.40663711634463268 0 0.060774245729122177 -0.41691050055794487 0 0.050432421370333713 -0.42320051356081623 0 0.046509667952406512 -0.41833555967385072 0 0.050432421370333713 -0.42320051356081623 0 0.042121557959679479 -0.40689397827368962 0 0.046509667952406512 -0.41833555967385072 0 0.054373060569327003 -0.40663711634463268 0 0.069775570718114244 -0.40426700169235308 0 0.054373060569327003 -0.40663711634463268 0 0.060774245729122177 -0.41691050055794487 0 0.050432421370333713 -0.42320051356081623 0 0.04400553312424714 -0.45021417746364167 0 0.065913834705597293 -0.44240038517061198 0 0.050432421370333713 -0.42320051356081623 0 0.065913834705597293 -0.44240038517061198 0 0.065921365320016911 -0.4273577277455588 0 0.050432421370333713 -0.42320051356081623 0 0.065921365320016911 -0.4273577277455588 0 0.060774245729122177 -0.41691050055794487 0 0.050432421370333713 -0.42320051356081623 0 0.065913834705597293 -0.44240038517061198 0 0.050432421370333713 -0.42320051356081623 0 0.04400553312424714 -0.45021417746364167 0 0.065913834705597293 -0.44240038517061198 0 0.057068655694905858 -0.46015288389510001 0 0.04400553312424714 -0.45021417746364167 0 0.057068655694905858 -0.46015288389510001 0 0.048043393468649283 -0.46676160836513853 0 0.04400553312424714 -0.45021417746364167 0 0.067447632246636219 -0.45716428258124142 0 0.057068655694905858 -0.46015288389510001 0 0.05849497948899289 -0.47642287528831911 0 0.057068655694905858 -0.46015288389510001 0 0.048043393468649283 -0.46676160836513853 0 0.052635520687858477 -0.47072247146996382 0 0.04400553312424714 -0.45021417746364167 0 0.037578644878161642 -0.47722784136646751 0 0.048043393468649283 -0.46676160836513853 0 0.04400553312424714 -0.45021417746364167 0 0.037578644878161642 -0.47722784136646751 0 0.04400553312424714 -0.45021417746364167 0 0.030366658319331299 -0.45781827645911538 0 0.037578644878161642 -0.47722784136646751 0 0.028535899264767479 -0.43733174884408438 0 0.039909128579099777 -0.42893709763038412 0 0.04400553312424714 -0.45021417746364167 0 0.028535899264767479 -0.43733174884408438 0 0.04400553312424714 -0.45021417746364167 0 0.030366658319331299 -0.45781827645911538 0 0.028535899264767479 -0.43733174884408438 0 0.01480854687676085 -0.45072328586224342 0 0.030366658319331299 -0.45781827645911538 0 -0.008216644178786571 -0.4466179140804285 0 0.01224976062295041 -0.42183763890738629 0 0.01480854687676085 -0.45072328586224342 0 0.01480854687676085 -0.45072328586224342 0 0.017367333130571299 -0.47960893281710049 0 0.0084119176919832291 -0.471974008478943 0 -0.0021957942935651631 -0.46571035637089769 0 0.01480854687676085 -0.45072328586224342 0 0.0084119176919832291 -0.471974008478943 0 -0.008216644178786571 -0.4466179140804285 0 -0.0021957942935651631 -0.46571035637089769 0 0.01480854687676085 -0.45072328586224342 0 0.01480854687676085 -0.45072328586224342 0 0.017367333130571299 -0.47960893281710049 0 0.01480854687676085 -0.45072328586224342 0 0.030366658319331299 -0.45781827645911538 0 0.0269046674527194 -0.47359432875914009 0 0.01480854687676085 -0.45072328586224342 0 0.0269046674527194 -0.47359432875914009 0 0.017367333130571299 -0.47960893281710049 0 0.017367333130571299 -0.47960893281710049 0 0.012735562036971701 -0.48508522326900949 0 0.035615270762982369 -0.48075404927866472 0 0.012735562036971701 -0.48508522326900949 0 0.035615270762982369 -0.48075404927866472 0 0.0269046674527194 -0.47359432875914009 0 0.017367333130571299 -0.47960893281710049 0 0.035615270762982369 -0.48075404927866472 0 0.017367333130571299 -0.47960893281710049 0 0.0084119176919832291 -0.471974008478943 0 0.012735562036971701 -0.48508522326900949 0 -0.00065605929082254884 -0.47874224407546379 0 0.0084119176919832291 -0.471974008478943 0 0.012735562036971701 -0.48508522326900949 0 -0.0021957942935651631 -0.46571035637089769 0 -0.00065605929082254884 -0.47874224407546379 0 0.0084119176919832291 -0.471974008478943 0 -0.010144146689038991 -0.48941639725935437 0 -0.00065605929082254884 -0.47874224407546379 0 0.012735562036971701 -0.48508522326900949 0 -0.010144146689038991 -0.48941639725935437 0 0.012735562036971701 -0.48508522326900949 0 -0.011489863113854141 -0.5 0 0.012735562036971701 -0.48508522326900949 0 0.01802246382714956 -0.5 0 0.01802246382714956 -0.5 0 0.025329369399590369 -0.48901546815995378 0 0.047534790768153173 -0.50000000000000044 0 0.012735562036971701 -0.48508522326900949 0 0.025329369399590369 -0.48901546815995378 0 0.035615270762982369 -0.48075404927866472 0 0.012735562036971701 -0.48508522326900949 0 0.01802246382714956 -0.5 0 0.025329369399590369 -0.48901546815995378 0 0.025329369399590369 -0.48901546815995378 0 0.035615270762982369 -0.48075404927866472 0 0.047534790768153173 -0.50000000000000044 0 0.030366658319331299 -0.45781827645911538 0 0.0269046674527194 -0.47359432875914009 0 0.037578644878161642 -0.47722784136646751 0 0.0269046674527194 -0.47359432875914009 0 0.037578644878161642 -0.47722784136646751 0 0.035615270762982369 -0.48075404927866472 0 0.048043393468649283 -0.46676160836513853 0 0.037578644878161642 -0.47722784136646751 0 0.046296380844488463 -0.47463440362945558 0 0.035615270762982369 -0.48075404927866472 0 0.046296380844488463 -0.47463440362945558 0 0.049693011087844949 -0.4756354888466594 0 0.037578644878161642 -0.47722784136646751 0 0.035615270762982369 -0.48075404927866472 0 0.046296380844488463 -0.47463440362945558 0 0.057068655694905858 -0.46015288389510001 0 0.052635520687858477 -0.47072247146996382 0 0.05849497948899289 -0.47642287528831911 0 0.035615270762982369 -0.48075404927866472 0 0.049693011087844949 -0.4756354888466594 0 0.05849497948899289 -0.47642287528831911 0 0.035615270762982369 -0.48075404927866472 0 0.05849497948899289 -0.47642287528831911 0 0.048043393468649283 -0.46676160836513853 0 0.046296380844488463 -0.47463440362945558 0 0.052635520687858477 -0.47072247146996382 0 0.049693011087844949 -0.4756354888466594 0 0.052635520687858477 -0.47072247146996382 0 0.05849497948899289 -0.47642287528831911 0 0.046296380844488463 -0.47463440362945558 0 0.049693011087844949 -0.4756354888466594 0 0.052635520687858477 -0.47072247146996382 0 0.05849497948899289 -0.47642287528831911 0 0.061758178687080389 -0.47580514524370598 0 0.062670741706174135 -0.48944359682069549 0 0.064881374578912687 -0.4815757870058418 0 0.05849497948899289 -0.47642287528831911 0 0.064881374578912687 -0.4815757870058418 0 0.05849497948899289 -0.47642287528831911 0 0.061758178687080389 -0.47580514524370598 0 0.069142552082564368 -0.5 0 0.062670741706174135 -0.48944359682069549 0 0.047534790768153173 -0.50000000000000044 0 0.05849497948899289 -0.47642287528831911 0 0.047534790768153173 -0.50000000000000044 0 0.035615270762982369 -0.48075404927866472 0 0.05849497948899289 -0.47642287528831911 0 0.047534790768153173 -0.50000000000000044 0 0.062670741706174135 -0.48944359682069549 0 0.05849497948899289 -0.47642287528831911 0 0.047534790768153173 -0.50000000000000044 0 0.089727975817252392 -0.29646224842349211 0 0.069967983226982527 -0.30495776272600778 0 0.075483032258224086 -0.28815868119130272 0 0.089727975817252392 -0.29646224842349211 0 0.088503230311337153 -0.27716835087377989 0 0.101883582619993 -0.28460947857741209 0 0.089727975817252392 -0.29646224842349211 0 0.075483032258224086 -0.28815868119130272 0 0.088503230311337153 -0.27716835087377989 0 0.089727975817252392 -0.29646224842349211 0 0.086214248119208581 -0.31193359067875348 0 0.069967983226982527 -0.30495776272600778 0 0.089727975817252392 -0.29646224842349211 0 0.086214248119208581 -0.31193359067875348 0 0.10049372866807189 -0.31082656242210721 0 0.069967983226982527 -0.30495776272600778 0 0.075483032258224086 -0.28815868119130272 0 0.059449054433483903 -0.28956707473318272 0 0.075483032258224086 -0.28815868119130272 0 0.0646939085167762 -0.2722383315448984 0 0.059449054433483903 -0.28956707473318272 0 0.0646939085167762 -0.2722383315448984 0 0.077350866508299074 -0.27549126298099152 0 0.080723294946858856 -0.26439968831398508 0 0.075483032258224086 -0.28815868119130272 0 0.0646939085167762 -0.2722383315448984 0 0.077350866508299074 -0.27549126298099152 0 0.0646939085167762 -0.2722383315448984 0 0.070005134957367529 -0.25889031236374099 0 0.080723294946858856 -0.26439968831398508 0 0.070005134957367529 -0.25889031236374099 0 0.061490933840310687 -0.25382890142296882 0 0.070069103552599196 -0.24823964670048029 0 0.0646939085167762 -0.2722383315448984 0 0.070005134957367529 -0.25889031236374099 0 0.060614126731859473 -0.2624009925450973 0 0.070005134957367529 -0.25889031236374099 0 0.061490933840310687 -0.25382890142296882 0 0.060614126731859473 -0.2624009925450973 0 0.070005134957367529 -0.25889031236374099 0 0.080071368274292315 -0.25145738896057979 0 0.080723294946858856 -0.26439968831398508 0 0.070005134957367529 -0.25889031236374099 0 0.080071368274292315 -0.25145738896057979 0 0.070069103552599196 -0.24823964670048029 0 0.080071368274292315 -0.25145738896057979 0 0.080723294946858856 -0.26439968831398508 0 0.090706365013478091 -0.25245448435890872 0 0.080723294946858856 -0.26439968831398508 0 0.090706365013478091 -0.25245448435890872 0 0.095060577752172304 -0.26241188567384149 0 0.075483032258224086 -0.28815868119130272 0 0.077350866508299074 -0.27549126298099152 0 0.088503230311337153 -0.27716835087377989 0 0.077350866508299074 -0.27549126298099152 0 0.080723294946858856 -0.26439968831398508 0 0.088503230311337153 -0.27716835087377989 0 0.080723294946858856 -0.26439968831398508 0 0.088503230311337153 -0.27716835087377989 0 0.095060577752172304 -0.26241188567384149 0 0.088503230311337153 -0.27716835087377989 0 0.1016952336099234 -0.27235330725820578 0 0.101883582619993 -0.28460947857741209 0 0.088503230311337153 -0.27716835087377989 0 0.1016952336099234 -0.27235330725820578 0 0.095060577752172304 -0.26241188567384149 0 0.1016952336099234 -0.27235330725820578 0 0.1104739380917857 -0.2612093749811526 0 0.1125548392743288 -0.27636744618484282 0 0.1016952336099234 -0.27235330725820578 0 0.1125548392743288 -0.27636744618484282 0 0.101883582619993 -0.28460947857741209 0 0.090706365013478091 -0.25245448435890872 0 0.099550463170151926 -0.25262580003909579 0 0.095060577752172304 -0.26241188567384149 0 0.1016952336099234 -0.27235330725820578 0 0.095060577752172304 -0.26241188567384149 0 0.1104739380917857 -0.2612093749811526 0 0.099550463170151926 -0.25262580003909579 0 0.095060577752172304 -0.26241188567384149 0 0.1104739380917857 -0.2612093749811526 0 0.099550463170151926 -0.25262580003909579 0 0.1104739380917857 -0.2612093749811526 0 0.1078238037173969 -0.24832262031645649 0 0.1311170075682456 -0.27142576198599933 0 0.1104739380917857 -0.2612093749811526 0 0.1212054647883809 -0.25073068226796852 0 0.1104739380917857 -0.2612093749811526 0 0.1212054647883809 -0.25073068226796852 0 0.1078238037173969 -0.24832262031645649 0 0.1311170075682456 -0.27142576198599933 0 0.1104739380917857 -0.2612093749811526 0 0.1311170075682456 -0.27142576198599933 0 0.1104739380917857 -0.2612093749811526 0 0.1193620271946058 -0.27249351692823448 0 0.1104739380917857 -0.2612093749811526 0 0.1125548392743288 -0.27636744618484282 0 0.1193620271946058 -0.27249351692823448 0 0.1125548392743288 -0.27636744618484282 0 0.1193620271946058 -0.27249351692823448 0 0.1233023238440631 -0.28097148456094378 0 0.1311170075682456 -0.27142576198599933 0 0.1193620271946058 -0.27249351692823448 0 0.1233023238440631 -0.28097148456094378 0 0.1233023238440631 -0.28097148456094378 0 0.1242383748246253 -0.29131174999725179 0 0.1141297936923768 -0.28878453930630188 0 0.1242383748246253 -0.29131174999725179 0 0.1141297936923768 -0.28878453930630188 0 0.1198701537204314 -0.30089140532399938 0 0.1141297936923768 -0.28878453930630188 0 0.10622170970645189 -0.29895353846799488 0 0.1198701537204314 -0.30089140532399938 0 0.1125548392743288 -0.27636744618484282 0 0.1233023238440631 -0.28097148456094378 0 0.1141297936923768 -0.28878453930630188 0 0.1125548392743288 -0.27636744618484282 0 0.1141297936923768 -0.28878453930630188 0 0.101883582619993 -0.28460947857741209 0 0.089727975817252392 -0.29646224842349211 0 0.101883582619993 -0.28460947857741209 0 0.10622170970645189 -0.29895353846799488 0 0.1141297936923768 -0.28878453930630188 0 0.101883582619993 -0.28460947857741209 0 0.10622170970645189 -0.29895353846799488 0 0.089727975817252392 -0.29646224842349211 0 0.10049372866807189 -0.31082656242210721 0 0.10622170970645189 -0.29895353846799488 0 0.10049372866807189 -0.31082656242210721 0 0.10622170970645189 -0.29895353846799488 0 0.1134387524627216 -0.31086840579325631 0 0.10622170970645189 -0.29895353846799488 0 0.1134387524627216 -0.31086840579325631 0 0.1198701537204314 -0.30089140532399938 0 0.1265219532001009 -0.3124330460259736 0 0.1134387524627216 -0.31086840579325631 0 0.1198701537204314 -0.30089140532399938 0 0.1265219532001009 -0.3124330460259736 0 0.1134387524627216 -0.31086840579325631 0 0.1192961391526948 -0.32261879728377291 0 0.1134387524627216 -0.31086840579325631 0 0.1192961391526948 -0.32261879728377291 0 0.1082288303285789 -0.31948708523568958 0 0.1192961391526948 -0.32261879728377291 0 0.1093748658769356 -0.32997486192450581 0 0.1082288303285789 -0.31948708523568958 0 0.1192961391526948 -0.32261879728377291 0 0.1168506625355451 -0.3296807312869221 0 0.1093748658769356 -0.32997486192450581 0 0.1192961391526948 -0.32261879728377291 0 0.12260601330919629 -0.33072698382653798 0 0.1168506625355451 -0.3296807312869221 0 0.13219802669416811 -0.32498852212276208 0 0.1192961391526948 -0.32261879728377291 0 0.12260601330919629 -0.33072698382653798 0 0.13051916655351839 -0.33696304048325831 0 0.12260601330919629 -0.33072698382653798 0 0.1159240811174677 -0.33775964177068091 0 0.12260601330919629 -0.33072698382653798 0 0.1159240811174677 -0.33775964177068091 0 0.1161256318033537 -0.33540228211287182 0 0.12260601330919629 -0.33072698382653798 0 0.1168506625355451 -0.3296807312869221 0 0.1161256318033537 -0.33540228211287182 0 0.13051916655351839 -0.33696304048325831 0 0.1159240811174677 -0.33775964177068091 0 0.13051916655351839 -0.33696304048325831 0 0.1159240811174677 -0.33775964177068091 0 0.123981461538115 -0.35128285539313481 0 0.1159240811174677 -0.33775964177068091 0 0.1161256318033537 -0.33540228211287182 0 0.1168506625355451 -0.3296807312869221 0 0.1161256318033537 -0.33540228211287182 0 0.1093748658769356 -0.32997486192450581 0 0.1159240811174677 -0.33775964177068091 0 0.1161256318033537 -0.33540228211287182 0 0.1093748658769356 -0.32997486192450581 0 0.1159240811174677 -0.33775964177068091 0 0.092335912071574502 -0.33904708650077298 0 0.1159240811174677 -0.33775964177068091 0 0.1093748658769356 -0.32997486192450581 0 0.092335912071574502 -0.33904708650077298 0 0.1093748658769356 -0.32997486192450581 0 0.096347407600029022 -0.32440529872184809 0 0.092335912071574502 -0.33904708650077298 0 0.1159240811174677 -0.33775964177068091 0 0.10211321446004019 -0.35101158716873732 0 0.092335912071574502 -0.33904708650077298 0 0.086214248119208581 -0.31193359067875348 0 0.10049372866807189 -0.31082656242210721 0 0.096347407600029022 -0.32440529872184809 0 0.10049372866807189 -0.31082656242210721 0 0.1134387524627216 -0.31086840579325631 0 0.1082288303285789 -0.31948708523568958 0 0.10049372866807189 -0.31082656242210721 0 0.096347407600029022 -0.32440529872184809 0 0.1082288303285789 -0.31948708523568958 0 0.1093748658769356 -0.32997486192450581 0 0.096347407600029022 -0.32440529872184809 0 0.1082288303285789 -0.31948708523568958 0 0.12784456261830821 -0.36308533366748658 0 0.12609635470998201 -0.38402791619100712 0 0.113745377556003 -0.36324200547299851 0 0.1159240811174677 -0.33775964177068091 0 0.113745377556003 -0.36324200547299851 0 0.123981461538115 -0.35128285539313481 0 0.1159240811174677 -0.33775964177068091 0 0.113745377556003 -0.36324200547299851 0 0.1159240811174677 -0.33775964177068091 0 0.113745377556003 -0.36324200547299851 0 0.10211321446004019 -0.35101158716873732 0 0.12784456261830821 -0.36308533366748658 0 0.113745377556003 -0.36324200547299851 0 0.123981461538115 -0.35128285539313481 0 0.1115666739945345 -0.38872436917531578 0 0.113745377556003 -0.36324200547299851 0 0.096372132326470572 -0.36542491223168638 0 0.113745377556003 -0.36324200547299851 0 0.10211321446004019 -0.35101158716873732 0 0.096372132326470572 -0.36542491223168638 0 0.089853218628298884 -0.38394717958202601 0 0.096372132326470572 -0.36542491223168638 0 0.07582030708563034 -0.37256671738353597 0 0.096372132326470572 -0.36542491223168638 0 0.082110249222110576 -0.35466523699539548 0 0.07582030708563034 -0.37256671738353597 0 0.10211321446004019 -0.35101158716873732 0 0.096372132326470572 -0.36542491223168638 0 0.082110249222110576 -0.35466523699539548 0 0.082110249222110576 -0.35466523699539548 0 0.092335912071574502 -0.33904708650077298 0 0.068747743025681235 -0.34033453123086538 0 0.10211321446004019 -0.35101158716873732 0 0.082110249222110576 -0.35466523699539548 0 0.092335912071574502 -0.33904708650077298 0 0.082110249222110576 -0.35466523699539548 0 0.068747743025681235 -0.34033453123086538 0 0.057272186363266697 -0.35960658745677498 0 0.082110249222110576 -0.35466523699539548 0 0.07582030708563034 -0.37256671738353597 0 0.057272186363266697 -0.35960658745677498 0 0.05933500968155693 -0.37671477575793533 0 0.07582030708563034 -0.37256671738353597 0 0.057272186363266697 -0.35960658745677498 0 0.086214248119208581 -0.31193359067875348 0 0.096347407600029022 -0.32440529872184809 0 0.078030795921920637 -0.32434601069550512 0 0.092335912071574502 -0.33904708650077298 0 0.068747743025681235 -0.34033453123086538 0 0.078030795921920637 -0.32434601069550512 0 0.092335912071574502 -0.33904708650077298 0 0.068747743025681235 -0.34033453123086538 0 0.096347407600029022 -0.32440529872184809 0 0.092335912071574502 -0.33904708650077298 0 0.078030795921920637 -0.32434601069550512 0 0.068747743025681235 -0.34033453123086538 0 0.078030795921920637 -0.32434601069550512 0 0.053863538987460123 -0.3232816795844588 0 0.069967983226982527 -0.30495776272600778 0 0.078030795921920637 -0.32434601069550512 0 0.053863538987460123 -0.3232816795844588 0 0.086214248119208581 -0.31193359067875348 0 0.069967983226982527 -0.30495776272600778 0 0.078030795921920637 -0.32434601069550512 0 0.068747743025681235 -0.34033453123086538 0 0.045159573979787898 -0.34162197596095778 0 0.068747743025681235 -0.34033453123086538 0 0.053863538987460123 -0.3232816795844588 0 0.045159573979787898 -0.34162197596095778 0 0.053863538987460123 -0.3232816795844588 0 0.034832013842728909 -0.33032259781876938 0 0.045159573979787898 -0.34162197596095778 0 0.034832013842728909 -0.33032259781876938 0 0.045159573979787898 -0.34162197596095778 0 0.02157140493389462 -0.34290942069105018 0 0.045159573979787898 -0.34162197596095778 0 0.02157140493389462 -0.34290942069105018 0 0.053863538987460123 -0.3232816795844588 0 0.034832013842728909 -0.33032259781876938 0 0.03621734991660093 -0.31670946998547028 0 0.053863538987460123 -0.3232816795844588 0 0.03621734991660093 -0.31670946998547028 0 0.048768037075517537 -0.30442990221103089 0 0.05933500968155693 -0.37671477575793533 0 0.057272186363266697 -0.35960658745677498 0 0.039079294002052851 -0.37065651216905859 0 0.068747743025681235 -0.34033453123086538 0 0.045159573979787898 -0.34162197596095778 0 0.057272186363266697 -0.35960658745677498 0 0.045159573979787898 -0.34162197596095778 0 0.034512899630155462 -0.3545258348651717 0 0.02157140493389462 -0.34290942069105018 0 0.045159573979787898 -0.34162197596095778 0 0.057272186363266697 -0.35960658745677498 0 0.034512899630155462 -0.3545258348651717 0 0.057272186363266697 -0.35960658745677498 0 0.034512899630155462 -0.3545258348651717 0 0.039079294002052851 -0.37065651216905859 0 0.025542853711361019 -0.38384675294920401 0 0.039079294002052851 -0.37065651216905859 0 0.016784443680880379 -0.36713146693108112 0 0.034512899630155462 -0.3545258348651717 0 0.039079294002052851 -0.37065651216905859 0 0.016784443680880379 -0.36713146693108112 0 0.034512899630155462 -0.3545258348651717 0 0.016784443680880379 -0.36713146693108112 0 0.02157140493389462 -0.34290942069105018 0 -0.0043130761299947744 -0.35643483176966217 0 0.016784443680880379 -0.36713146693108112 0 0.02157140493389462 -0.34290942069105018 0 -0.0038616663111063101 -0.33241552487502413 0 -0.0043130761299947744 -0.35643483176966217 0 0.02157140493389462 -0.34290942069105018 0 -0.0043130761299947744 -0.35643483176966217 0 -0.0064694903547723136 -0.38059021958606692 0 0.016784443680880379 -0.36713146693108112 0 0.03621734991660093 -0.31670946998547028 0 0.020048637459846991 -0.32439583124448262 0 0.029165048793799431 -0.30349547286963757 0 0.034832013842728909 -0.33032259781876938 0 0.03621734991660093 -0.31670946998547028 0 0.020048637459846991 -0.32439583124448262 0 0.020048637459846991 -0.32439583124448262 0 0.0094652366165251054 -0.31053241408104548 0 0.029165048793799431 -0.30349547286963757 0 0.034832013842728909 -0.33032259781876938 0 0.020048637459846991 -0.32439583124448262 0 0.02157140493389462 -0.34290942069105018 0 -0.0038616663111063101 -0.33241552487502413 0 0.020048637459846991 -0.32439583124448262 0 0.02157140493389462 -0.34290942069105018 0 -0.0038616663111063101 -0.33241552487502413 0 0.020048637459846991 -0.32439583124448262 0 0.0094652366165251054 -0.31053241408104548 0 -0.01007927323019326 -0.3103345258507364 0 0.0094652366165251054 -0.31053241408104548 0 0.0017563221397047381 -0.2997067901486577 0 0.0094652366165251054 -0.31053241408104548 0 0.0017563221397047381 -0.2997067901486577 0 0.017453688627786131 -0.29322190620108468 0 0.0017563221397047381 -0.2997067901486577 0 0.0066437179820165657 -0.2861171845936395 0 0.017453688627786131 -0.29322190620108468 0 -0.0080748459131490501 -0.2914060437848453 0 0.0017563221397047381 -0.2997067901486577 0 0.0066437179820165657 -0.2861171845936395 0 0.0066437179820165657 -0.2861171845936395 0 0.017453688627786131 -0.29322190620108468 0 0.01908241754038794 -0.28073467218482329 0 0.017453688627786131 -0.29322190620108468 0 0.029398966714908509 -0.28692964748338379 0 0.029165048793799431 -0.30349547286963757 0 0.017453688627786131 -0.29322190620108468 0 0.029398966714908509 -0.28692964748338379 0 0.01908241754038794 -0.28073467218482329 0 0.0094652366165251054 -0.31053241408104548 0 0.017453688627786131 -0.29322190620108468 0 0.029165048793799431 -0.30349547286963757 0 0.03621734991660093 -0.31670946998547028 0 0.029165048793799431 -0.30349547286963757 0 0.048768037075517537 -0.30442990221103089 0 0.029165048793799431 -0.30349547286963757 0 0.043029943860180789 -0.28970337243015992 0 0.048768037075517537 -0.30442990221103089 0 0.029398966714908509 -0.28692964748338379 0 0.029165048793799431 -0.30349547286963757 0 0.043029943860180789 -0.28970337243015992 0 0.029398966714908509 -0.28692964748338379 0 0.043029943860180789 -0.28970337243015992 0 0.038396769586432553 -0.27977596087564799 0 0.043029943860180789 -0.28970337243015992 0 0.051749435803858171 -0.27840569125857739 0 0.038396769586432553 -0.27977596087564799 0 0.043029943860180789 -0.28970337243015992 0 0.059449054433483903 -0.28956707473318272 0 0.051749435803858171 -0.27840569125857739 0 0.043029943860180789 -0.28970337243015992 0 0.059449054433483903 -0.28956707473318272 0 0.048768037075517537 -0.30442990221103089 0 0.069967983226982527 -0.30495776272600778 0 0.059449054433483903 -0.28956707473318272 0 0.048768037075517537 -0.30442990221103089 0 0.069967983226982527 -0.30495776272600778 0 0.053863538987460123 -0.3232816795844588 0 0.048768037075517537 -0.30442990221103089 0 0.053380735395516472 -0.25867595766617779 0 0.04428054005230446 -0.26275141268032309 0 0.045372505498807933 -0.25408090721008542 0 0.053380735395516472 -0.25867595766617779 0 0.053158010572478251 -0.26777612517812432 0 0.04428054005230446 -0.26275141268032309 0 0.053380735395516472 -0.25867595766617779 0 0.045372505498807933 -0.25408090721008542 0 0.05268811686830014 -0.24901610311096159 0 0.053380735395516472 -0.25867595766617779 0 0.061490933840310687 -0.25382890142296882 0 0.05268811686830014 -0.24901610311096159 0 0.053380735395516472 -0.25867595766617779 0 0.060614126731859473 -0.2624009925450973 0 0.053158010572478251 -0.26777612517812432 0 0.053380735395516472 -0.25867595766617779 0 0.061490933840310687 -0.25382890142296882 0 0.060614126731859473 -0.2624009925450973 0 0.0646939085167762 -0.2722383315448984 0 0.060614126731859473 -0.2624009925450973 0 0.053158010572478251 -0.26777612517812432 0 0.0646939085167762 -0.2722383315448984 0 0.059449054433483903 -0.28956707473318272 0 0.051749435803858171 -0.27840569125857739 0 0.0646939085167762 -0.2722383315448984 0 0.051749435803858171 -0.27840569125857739 0 0.053158010572478251 -0.26777612517812432 0 0.053158010572478251 -0.26777612517812432 0 0.044229316934554799 -0.27218436537367241 0 0.04428054005230446 -0.26275141268032309 0 0.051749435803858171 -0.27840569125857739 0 0.053158010572478251 -0.26777612517812432 0 0.044229316934554799 -0.27218436537367241 0 0.044229316934554799 -0.27218436537367241 0 0.031885251388666561 -0.26470215361104171 0 0.04428054005230446 -0.26275141268032309 0 0.051749435803858171 -0.27840569125857739 0 0.044229316934554799 -0.27218436537367241 0 0.038396769586432553 -0.27977596087564799 0 0.044229316934554799 -0.27218436537367241 0 0.038396769586432553 -0.27977596087564799 0 0.029696712261103771 -0.27487286106778819 0 0.029398966714908509 -0.28692964748338379 0 0.038396769586432553 -0.27977596087564799 0 0.029696712261103771 -0.27487286106778819 0 0.044229316934554799 -0.27218436537367241 0 0.031885251388666561 -0.26470215361104171 0 0.029696712261103771 -0.27487286106778819 0 0.037315510146954597 -0.25849363249326118 0 0.031885251388666561 -0.26470215361104171 0 0.04428054005230446 -0.26275141268032309 0 0.037315510146954597 -0.25849363249326118 0 0.031885251388666561 -0.26470215361104171 0 0.03069464768829987 -0.25176037071845259 0 0.037315510146954597 -0.25849363249326118 0 0.04428054005230446 -0.26275141268032309 0 0.045372505498807933 -0.25408090721008542 0 0.045372505498807933 -0.25408090721008542 0 0.03069464768829987 -0.25176037071845259 0 0.042588116356466379 -0.2448823624008481 0 0.037315510146954597 -0.25849363249326118 0 0.045372505498807933 -0.25408090721008542 0 0.03069464768829987 -0.25176037071845259 0 0.031885251388666561 -0.26470215361104171 0 0.021199614426200629 -0.26114166245967918 0 0.019908913466960752 -0.27058631964059482 0 0.031885251388666561 -0.26470215361104171 0 0.03069464768829987 -0.25176037071845259 0 0.021199614426200629 -0.26114166245967918 0 0.03069464768829987 -0.25176037071845259 0 0.021199614426200629 -0.26114166245967918 0 0.016145176335298529 -0.25210595968411048 0 0.029398966714908509 -0.28692964748338379 0 0.029696712261103771 -0.27487286106778819 0 0.01908241754038794 -0.28073467218482329 0 0.031885251388666561 -0.26470215361104171 0 0.029696712261103771 -0.27487286106778819 0 0.019908913466960752 -0.27058631964059482 0 0.019908913466960752 -0.27058631964059482 0 0.01908241754038794 -0.28073467218482329 0 0.01128192931255503 -0.27464126756021451 0 0.029696712261103771 -0.27487286106778819 0 0.019908913466960752 -0.27058631964059482 0 0.01908241754038794 -0.28073467218482329 0 -0.01145854626600548 -0.26602311564559261 0 0.01128192931255503 -0.27464126756021451 0 0.0057158633005241696 -0.26337829885565528 0 0.0066437179820165657 -0.2861171845936395 0 0.01908241754038794 -0.28073467218482329 0 0.01128192931255503 -0.27464126756021451 0 0.019908913466960752 -0.27058631964059482 0 0.01128192931255503 -0.27464126756021451 0 0.0057158633005241696 -0.26337829885565528 0 -0.002848760243290064 -0.27761611820401882 0 0.0066437179820165657 -0.2861171845936395 0 0.01128192931255503 -0.27464126756021451 0 0.016145176335298529 -0.25210595968411048 0 0.0057158633005241696 -0.26337829885565528 0 0.0054759062840018038 -0.25064707341720888 0 0.021199614426200629 -0.26114166245967918 0 0.019908913466960752 -0.27058631964059482 0 0.0057158633005241696 -0.26337829885565528 0 0.021199614426200629 -0.26114166245967918 0 0.016145176335298529 -0.25210595968411048 0 0.0057158633005241696 -0.26337829885565528 0 -0.0009620894167222515 -0.25496392916579452 0 0.0057158633005241696 -0.26337829885565528 0 0.0054759062840018038 -0.25064707341720888 0 -0.0009620894167222515 -0.25496392916579452 0 -0.0029313858115674811 -0.24854412401401971 0 0.0054759062840018038 -0.25064707341720888 0 0.0054759062840018038 -0.25064707341720888 0 0.0026199421412959989 -0.2430643023623929 0 0.011589873569895199 -0.24127835128668559 0 -0.0029313858115674811 -0.24854412401401971 0 0.0054759062840018038 -0.25064707341720888 0 0.0026199421412959989 -0.2430643023623929 0 0.016145176335298529 -0.25210595968411048 0 0.0054759062840018038 -0.25064707341720888 0 0.011589873569895199 -0.24127835128668559 0 0.011589873569895199 -0.24127835128668559 0 0.010668172172219499 -0.2272828987723072 0 0.020574075722817331 -0.2351284197632682 0 0.0026199421412959989 -0.2430643023623929 0 0.011589873569895199 -0.24127835128668559 0 0.0017465435191736189 -0.23378549097037141 0 -0.00080535468136348092 -0.21995366459000901 0 0.010668172172219499 -0.2272828987723072 0 0.01016515501406726 -0.20926501301563591 0 -0.00080535468136348092 -0.21995366459000901 0 0.0017465435191736189 -0.23378549097037141 0 0.010668172172219499 -0.2272828987723072 0 0.010668172172219499 -0.2272828987723072 0 0.02170661161633574 -0.22145314359659171 0 0.01016515501406726 -0.20926501301563591 0 0.011589873569895199 -0.24127835128668559 0 0.0017465435191736189 -0.23378549097037141 0 0.010668172172219499 -0.2272828987723072 0 0.010668172172219499 -0.2272828987723072 0 0.02170661161633574 -0.22145314359659171 0 0.020574075722817331 -0.2351284197632682 0 0.02170661161633574 -0.22145314359659171 0 0.02866695829179056 -0.22960637228307629 0 0.036392787169896093 -0.22322562645731159 0 0.02170661161633574 -0.22145314359659171 0 0.02866695829179056 -0.22960637228307629 0 0.020574075722817331 -0.2351284197632682 0 0.02866695829179056 -0.22960637228307629 0 0.020574075722817331 -0.2351284197632682 0 0.032071787069821417 -0.24054619649286721 0 0.022195152742869501 -0.2444300013669817 0 0.020574075722817331 -0.2351284197632682 0 0.032071787069821417 -0.24054619649286721 0 0.03069464768829987 -0.25176037071845259 0 0.022195152742869501 -0.2444300013669817 0 0.032071787069821417 -0.24054619649286721 0 0.03069464768829987 -0.25176037071845259 0 0.016145176335298529 -0.25210595968411048 0 0.022195152742869501 -0.2444300013669817 0 0.016145176335298529 -0.25210595968411048 0 0.011589873569895199 -0.24127835128668559 0 0.022195152742869501 -0.2444300013669817 0 0.011589873569895199 -0.24127835128668559 0 0.022195152742869501 -0.2444300013669817 0 0.020574075722817331 -0.2351284197632682 0 -0.003739977245034012 -0.19168309442994089 0 0.010514116253606281 -0.1925853606064957 0 0.01016515501406726 -0.20926501301563591 0 0.010514116253606281 -0.1925853606064957 0 0.01016515501406726 -0.20926501301563591 0 0.018596641755985681 -0.20049862993462389 0 0.02170661161633574 -0.22145314359659171 0 0.01016515501406726 -0.20926501301563591 0 0.028304225500431591 -0.20785134554231141 0 0.01016515501406726 -0.20926501301563591 0 0.028304225500431591 -0.20785134554231141 0 0.018596641755985681 -0.20049862993462389 0 0.02170661161633574 -0.22145314359659171 0 0.028304225500431591 -0.20785134554231141 0 0.036392787169896093 -0.22322562645731159 0 0.028304225500431591 -0.20785134554231141 0 0.018596641755985681 -0.20049862993462389 0 0.02540307025583758 -0.19229280057405279 0 0.010514116253606281 -0.1925853606064957 0 0.018596641755985681 -0.20049862993462389 0 0.02540307025583758 -0.19229280057405279 0 0.010514116253606281 -0.1925853606064957 0 0.02540307025583758 -0.19229280057405279 0 0.015764016274472759 -0.1812646672695073 0 0.02540307025583758 -0.19229280057405279 0 0.041440672425083092 -0.19607701236864419 0 0.030421272951226121 -0.1778391783376792 0 0.028304225500431591 -0.20785134554231141 0 0.02540307025583758 -0.19229280057405279 0 0.041440672425083092 -0.19607701236864419 0 0.041440672425083092 -0.19607701236864419 0 0.042310424588804782 -0.2140630995529598 0 0.055497750511994078 -0.2086068857692274 0 0.028304225500431591 -0.20785134554231141 0 0.041440672425083092 -0.19607701236864419 0 0.042310424588804782 -0.2140630995529598 0 0.028304225500431591 -0.20785134554231141 0 0.042310424588804782 -0.2140630995529598 0 0.036392787169896093 -0.22322562645731159 0 0.042310424588804782 -0.2140630995529598 0 0.055497750511994078 -0.2086068857692274 0 0.052955454276687589 -0.2198291654371925 0 0.062338921595789062 -0.21792006704763969 0 0.055497750511994078 -0.2086068857692274 0 0.052955454276687589 -0.2198291654371925 0 0.062338921595789062 -0.21792006704763969 0 0.055497750511994078 -0.2086068857692274 0 0.067863046951983474 -0.20503048868511209 0 0.055497750511994078 -0.2086068857692274 0 0.056257937900538298 -0.19577788601322099 0 0.067863046951983474 -0.20503048868511209 0 0.041440672425083092 -0.19607701236864419 0 0.056257937900538298 -0.19577788601322099 0 0.051449240160577621 -0.1762857105508405 0 0.041440672425083092 -0.19607701236864419 0 0.055497750511994078 -0.2086068857692274 0 0.056257937900538298 -0.19577788601322099 0 0.040491861427302538 -0.2355872617630255 0 0.042588116356466379 -0.2448823624008481 0 0.052307832003780613 -0.23884346229351339 0 0.040491861427302538 -0.2355872617630255 0 0.045866106706223042 -0.22907627795895011 0 0.052307832003780613 -0.23884346229351339 0 0.03069464768829987 -0.25176037071845259 0 0.042588116356466379 -0.2448823624008481 0 0.032071787069821417 -0.24054619649286721 0 0.040491861427302538 -0.2355872617630255 0 0.042588116356466379 -0.2448823624008481 0 0.032071787069821417 -0.24054619649286721 0 0.02866695829179056 -0.22960637228307629 0 0.040491861427302538 -0.2355872617630255 0 0.032071787069821417 -0.24054619649286721 0 0.02866695829179056 -0.22960637228307629 0 0.040491861427302538 -0.2355872617630255 0 0.036392787169896093 -0.22322562645731159 0 0.042310424588804782 -0.2140630995529598 0 0.036392787169896093 -0.22322562645731159 0 0.045866106706223042 -0.22907627795895011 0 0.040491861427302538 -0.2355872617630255 0 0.036392787169896093 -0.22322562645731159 0 0.045866106706223042 -0.22907627795895011 0 0.045866106706223042 -0.22907627795895011 0 0.058764067980626958 -0.22947949685718549 0 0.052307832003780613 -0.23884346229351339 0 0.045866106706223042 -0.22907627795895011 0 0.052955454276687589 -0.2198291654371925 0 0.058764067980626958 -0.22947949685718549 0 0.042310424588804782 -0.2140630995529598 0 0.045866106706223042 -0.22907627795895011 0 0.052955454276687589 -0.2198291654371925 0 0.062338921595789062 -0.21792006704763969 0 0.058764067980626958 -0.22947949685718549 0 0.065719467571416057 -0.22489822263154319 0 0.062338921595789062 -0.21792006704763969 0 0.052955454276687589 -0.2198291654371925 0 0.058764067980626958 -0.22947949685718549 0 0.058764067980626958 -0.22947949685718549 0 0.062159259289524899 -0.2368834247622158 0 0.052307832003780613 -0.23884346229351339 0 0.062159259289524899 -0.2368834247622158 0 0.052307832003780613 -0.23884346229351339 0 0.061229972926465738 -0.2445427902389527 0 0.045372505498807933 -0.25408090721008542 0 0.042588116356466379 -0.2448823624008481 0 0.05268811686830014 -0.24901610311096159 0 0.042588116356466379 -0.2448823624008481 0 0.052307832003780613 -0.23884346229351339 0 0.05268811686830014 -0.24901610311096159 0 0.061490933840310687 -0.25382890142296882 0 0.05268811686830014 -0.24901610311096159 0 0.061229972926465738 -0.2445427902389527 0 0.052307832003780613 -0.23884346229351339 0 0.05268811686830014 -0.24901610311096159 0 0.061229972926465738 -0.2445427902389527 0 0.061490933840310687 -0.25382890142296882 0 0.061229972926465738 -0.2445427902389527 0 0.070069103552599196 -0.24823964670048029 0 0.061229972926465738 -0.2445427902389527 0 0.070069103552599196 -0.24823964670048029 0 0.069856411684105391 -0.23913895996007839 0 0.062159259289524899 -0.2368834247622158 0 0.061229972926465738 -0.2445427902389527 0 0.069856411684105391 -0.23913895996007839 0 0.062159259289524899 -0.2368834247622158 0 0.069856411684105391 -0.23913895996007839 0 0.067142239376285745 -0.23139328163069281 0 0.069856411684105391 -0.23913895996007839 0 0.077788170153509889 -0.24196191377257101 0 0.076767606518392539 -0.23187249677345001 0 0.080071368274292315 -0.25145738896057979 0 0.070069103552599196 -0.24823964670048029 0 0.077788170153509889 -0.24196191377257101 0 0.070069103552599196 -0.24823964670048029 0 0.069856411684105391 -0.23913895996007839 0 0.077788170153509889 -0.24196191377257101 0 0.080071368274292315 -0.25145738896057979 0 0.090706365013478091 -0.25245448435890872 0 0.085906732882507178 -0.24385162082211831 0 0.080071368274292315 -0.25145738896057979 0 0.077788170153509889 -0.24196191377257101 0 0.085906732882507178 -0.24385162082211831 0 0.077788170153509889 -0.24196191377257101 0 0.085906732882507178 -0.24385162082211831 0 0.083256636250354649 -0.23616880796388259 0 0.077788170153509889 -0.24196191377257101 0 0.083256636250354649 -0.23616880796388259 0 0.076767606518392539 -0.23187249677345001 0 0.085906732882507178 -0.24385162082211831 0 0.089657973372422345 -0.23730775202069579 0 0.094006026236525903 -0.2441335510050745 0 0.085906732882507178 -0.24385162082211831 0 0.083256636250354649 -0.23616880796388259 0 0.089657973372422345 -0.23730775202069579 0 0.083256636250354649 -0.23616880796388259 0 0.089657973372422345 -0.23730775202069579 0 0.089763789457938253 -0.2306791647953326 0 0.089657973372422345 -0.23730775202069579 0 0.089763789457938253 -0.2306791647953326 0 0.096012267649498176 -0.23702186761809721 0 0.089657973372422345 -0.23730775202069579 0 0.094006026236525903 -0.2441335510050745 0 0.096012267649498176 -0.23702186761809721 0 0.090706365013478091 -0.25245448435890872 0 0.085906732882507178 -0.24385162082211831 0 0.094006026236525903 -0.2441335510050745 0 0.086446736705125371 -0.22420087797706609 0 0.091303359373345411 -0.22339335178318359 0 0.089763789457938253 -0.2306791647953326 0 0.086446736705125371 -0.22420087797706609 0 0.091303359373345411 -0.22339335178318359 0 0.086853981468707001 -0.2185547472363609 0 0.091303359373345411 -0.22339335178318359 0 0.086853981468707001 -0.2185547472363609 0 0.09077468002378962 -0.21857675351640271 0 0.091303359373345411 -0.22339335178318359 0 0.09077468002378962 -0.21857675351640271 0 0.094530837428433365 -0.22086489816084981 0 0.091303359373345411 -0.22339335178318359 0 0.089763789457938253 -0.2306791647953326 0 0.098670227838192195 -0.22970514568366851 0 0.086446736705125371 -0.22420087797706609 0 0.089763789457938253 -0.2306791647953326 0 0.083020570332336119 -0.22791650227557511 0 0.083256636250354649 -0.23616880796388259 0 0.083020570332336119 -0.22791650227557511 0 0.076767606518392539 -0.23187249677345001 0 0.083256636250354649 -0.23616880796388259 0 0.089763789457938253 -0.2306791647953326 0 0.083020570332336119 -0.22791650227557511 0 0.083020570332336119 -0.22791650227557511 0 0.077930889523722374 -0.22519622511208121 0 0.076767606518392539 -0.23187249677345001 0 0.083020570332336119 -0.22791650227557511 0 0.081291982893300085 -0.22046062379487821 0 0.077930889523722374 -0.22519622511208121 0 0.086446736705125371 -0.22420087797706609 0 0.083020570332336119 -0.22791650227557511 0 0.081291982893300085 -0.22046062379487821 0 0.086446736705125371 -0.22420087797706609 0 0.081291982893300085 -0.22046062379487821 0 0.086853981468707001 -0.2185547472363609 0 0.081291982893300085 -0.22046062379487821 0 0.077930889523722374 -0.22519622511208121 0 0.073706539318973169 -0.21796036257100029 0 0.072234091795087663 -0.22574485878751241 0 0.065719467571416057 -0.22489822263154319 0 0.073706539318973169 -0.21796036257100029 0 0.077930889523722374 -0.22519622511208121 0 0.072234091795087663 -0.22574485878751241 0 0.073706539318973169 -0.21796036257100029 0 0.069856411684105391 -0.23913895996007839 0 0.076767606518392539 -0.23187249677345001 0 0.067142239376285745 -0.23139328163069281 0 0.072234091795087663 -0.22574485878751241 0 0.076767606518392539 -0.23187249677345001 0 0.067142239376285745 -0.23139328163069281 0 0.077930889523722374 -0.22519622511208121 0 0.072234091795087663 -0.22574485878751241 0 0.076767606518392539 -0.23187249677345001 0 0.058764067980626958 -0.22947949685718549 0 0.062159259289524899 -0.2368834247622158 0 0.067142239376285745 -0.23139328163069281 0 0.058764067980626958 -0.22947949685718549 0 0.067142239376285745 -0.23139328163069281 0 0.065719467571416057 -0.22489822263154319 0 0.072234091795087663 -0.22574485878751241 0 0.067142239376285745 -0.23139328163069281 0 0.065719467571416057 -0.22489822263154319 0 0.062338921595789062 -0.21792006704763969 0 0.065719467571416057 -0.22489822263154319 0 0.073706539318973169 -0.21796036257100029 0 0.062338921595789062 -0.21792006704763969 0 0.067863046951983474 -0.20503048868511209 0 0.073706539318973169 -0.21796036257100029 0 0.067863046951983474 -0.20503048868511209 0 0.073706539318973169 -0.21796036257100029 0 0.079094442607528917 -0.20913243433380641 0 0.067863046951983474 -0.20503048868511209 0 0.081482512553192915 -0.1953056794767786 0 0.079094442607528917 -0.20913243433380641 0 0.056257937900538298 -0.19577788601322099 0 0.067863046951983474 -0.20503048868511209 0 0.066040058368007956 -0.18964665730407451 0 0.067863046951983474 -0.20503048868511209 0 0.066040058368007956 -0.18964665730407451 0 0.081482512553192915 -0.1953056794767786 0 0.081482512553192915 -0.1953056794767786 0 0.095454742848087734 -0.19451486061966669 0 0.093505174579280592 -0.1731787749771625 0 0.081482512553192915 -0.1953056794767786 0 0.08833530696517819 -0.21036332105093219 0 0.095454742848087734 -0.19451486061966669 0 0.08833530696517819 -0.21036332105093219 0 0.097404311116896569 -0.21585094626217091 0 0.095454742848087734 -0.19451486061966669 0 0.081291982893300085 -0.22046062379487821 0 0.073706539318973169 -0.21796036257100029 0 0.082946926161669862 -0.2149195339015407 0 0.082946926161669862 -0.2149195339015407 0 0.079094442607528917 -0.20913243433380641 0 0.08833530696517819 -0.21036332105093219 0 0.073706539318973169 -0.21796036257100029 0 0.082946926161669862 -0.2149195339015407 0 0.079094442607528917 -0.20913243433380641 0 0.081291982893300085 -0.22046062379487821 0 0.082946926161669862 -0.2149195339015407 0 0.086853981468707001 -0.2185547472363609 0 0.081482512553192915 -0.1953056794767786 0 0.079094442607528917 -0.20913243433380641 0 0.08833530696517819 -0.21036332105093219 0 0.082946926161669862 -0.2149195339015407 0 0.08833530696517819 -0.21036332105093219 0 0.086853981468707001 -0.2185547472363609 0 0.08833530696517819 -0.21036332105093219 0 0.086853981468707001 -0.2185547472363609 0 0.09077468002378962 -0.21857675351640271 0 0.08833530696517819 -0.21036332105093219 0 0.09077468002378962 -0.21857675351640271 0 0.092213447725184278 -0.21529843562297729 0 0.08833530696517819 -0.21036332105093219 0 0.092213447725184278 -0.21529843562297729 0 0.097404311116896569 -0.21585094626217091 0 0.09077468002378962 -0.21857675351640271 0 0.094501608789943028 -0.21679829355882299 0 0.094530837428433365 -0.22086489816084981 0 0.09077468002378962 -0.21857675351640271 0 0.092213447725184278 -0.21529843562297729 0 0.094501608789943028 -0.21679829355882299 0 0.094501608789943028 -0.21679829355882299 0 0.097404311116896569 -0.21585094626217091 0 0.094530837428433365 -0.22086489816084981 0 0.092213447725184278 -0.21529843562297729 0 0.094501608789943028 -0.21679829355882299 0 0.097404311116896569 -0.21585094626217091 0 0.097404311116896569 -0.21585094626217091 0 0.095454742848087734 -0.19451486061966669 0 0.097404311116896569 -0.21585094626217091 0 0.1059898830346106 -0.20430933332548051 0 0.095454742848087734 -0.19451486061966669 0 0.097404311116896569 -0.21585094626217091 0 0.1089347031997706 -0.21297733173581901 0 0.1146171121197104 -0.21980430615730401 0 0.097404311116896569 -0.21585094626217091 0 0.1059898830346106 -0.20430933332548051 0 0.1089347031997706 -0.21297733173581901 0 0.095454742848087734 -0.19451486061966669 0 0.1128143282819509 -0.19216489626002589 0 0.10772522460311169 -0.17968171223372481 0 0.1059898830346106 -0.20430933332548051 0 0.095454742848087734 -0.19451486061966669 0 0.1128143282819509 -0.19216489626002589 0 0.1128143282819509 -0.19216489626002589 0 0.1237689835273371 -0.19605207676116951 0 0.1178461100078927 -0.20838697738218431 0 0.1059898830346106 -0.20430933332548051 0 0.1128143282819509 -0.19216489626002589 0 0.1178461100078927 -0.20838697738218431 0 0.1128143282819509 -0.19216489626002589 0 0.1237689835273371 -0.19605207676116951 0 0.1232013989280239 -0.1819146573535104 0 0.1089347031997706 -0.21297733173581901 0 0.1178461100078927 -0.20838697738218431 0 0.1146171121197104 -0.21980430615730401 0 0.1059898830346106 -0.20430933332548051 0 0.1089347031997706 -0.21297733173581901 0 0.1178461100078927 -0.20838697738218431 0 0.1178461100078927 -0.20838697738218431 0 0.1146171121197104 -0.21980430615730401 0 0.12895394136930069 -0.22163642029703709 0 0.1146171121197104 -0.21980430615730401 0 0.12018370186474731 -0.23305432747703519 0 0.12895394136930069 -0.22163642029703709 0 0.097404311116896569 -0.21585094626217091 0 0.1146171121197104 -0.21980430615730401 0 0.12018370186474731 -0.23305432747703519 0 0.1212054647883809 -0.25073068226796852 0 0.12018370186474731 -0.23305432747703519 0 0.1059281586602189 -0.23527494890652931 0 0.13217397618885759 -0.25462043987800831 0 0.1212054647883809 -0.25073068226796852 0 0.12018370186474731 -0.23305432747703519 0 0.1212054647883809 -0.25073068226796852 0 0.1059281586602189 -0.23527494890652931 0 0.1078238037173969 -0.24832262031645649 0 0.1212054647883809 -0.25073068226796852 0 0.1059281586602189 -0.23527494890652931 0 0.099550463170151926 -0.25262580003909579 0 0.1078238037173969 -0.24832262031645649 0 0.10103467245524091 -0.24298905409433241 0 0.1059281586602189 -0.23527494890652931 0 0.1078238037173969 -0.24832262031645649 0 0.10103467245524091 -0.24298905409433241 0 0.099550463170151926 -0.25262580003909579 0 0.10103467245524091 -0.24298905409433241 0 0.094006026236525903 -0.2441335510050745 0 0.090706365013478091 -0.25245448435890872 0 0.099550463170151926 -0.25262580003909579 0 0.094006026236525903 -0.2441335510050745 0 0.1059281586602189 -0.23527494890652931 0 0.10103467245524091 -0.24298905409433241 0 0.096012267649498176 -0.23702186761809721 0 0.10103467245524091 -0.24298905409433241 0 0.094006026236525903 -0.2441335510050745 0 0.096012267649498176 -0.23702186761809721 0 0.1059281586602189 -0.23527494890652931 0 0.096012267649498176 -0.23702186761809721 0 0.098670227838192195 -0.22970514568366851 0 0.089763789457938253 -0.2306791647953326 0 0.096012267649498176 -0.23702186761809721 0 0.098670227838192195 -0.22970514568366851 0 0.097404311116896569 -0.21585094626217091 0 0.12018370186474731 -0.23305432747703519 0 0.097404311116896569 -0.21585094626217091 0 0.12018370186474731 -0.23305432747703519 0 0.1059281586602189 -0.23527494890652931 0 0.097404311116896569 -0.21585094626217091 0 0.1059281586602189 -0.23527494890652931 0 0.098670227838192195 -0.22970514568366851 0 0.091303359373345411 -0.22339335178318359 0 0.098670227838192195 -0.22970514568366851 0 0.094530837428433365 -0.22086489816084981 0 0.097404311116896569 -0.21585094626217091 0 0.098670227838192195 -0.22970514568366851 0 0.094530837428433365 -0.22086489816084981 0 0.097404311116896569 -0.21585094626217091 0 0.098670227838192195 -0.22970514568366851 0 0.1071373084330472 -0.14482826815459701 0 0.1035248479174861 -0.15311019857333261 0 0.098760878024456711 -0.14050656481393209 0 0.1071373084330472 -0.14482826815459701 0 0.1035248479174861 -0.15311019857333261 0 0.1121477659277255 -0.1503271840913511 0 0.1035248479174861 -0.15311019857333261 0 0.098760878024456711 -0.14050656481393209 0 0.091560400862706559 -0.15189516094014111 0 0.098760878024456711 -0.14050656481393209 0 0.099399694252258627 -0.1328638184600745 0 0.089615627146132512 -0.13061154690311971 0 0.099399694252258627 -0.1328638184600745 0 0.099525338641528904 -0.12611341339503321 0 0.089615627146132512 -0.13061154690311971 0 0.099525338641528904 -0.12611341339503321 0 0.1096969331969164 -0.13422374872821319 0 0.1121708616464093 -0.1216807098986791 0 0.099399694252258627 -0.1328638184600745 0 0.099525338641528904 -0.12611341339503321 0 0.1096969331969164 -0.13422374872821319 0 0.098760878024456711 -0.14050656481393209 0 0.099399694252258627 -0.1328638184600745 0 0.1096969331969164 -0.13422374872821319 0 0.1071373084330472 -0.14482826815459701 0 0.098760878024456711 -0.14050656481393209 0 0.1096969331969164 -0.13422374872821319 0 0.1096969331969164 -0.13422374872821319 0 0.1155243526086871 -0.14484298486410191 0 0.12532898621889721 -0.13663811256420449 0 0.1096969331969164 -0.13422374872821319 0 0.11997683785091839 -0.1276371159963853 0 0.12532898621889721 -0.13663811256420449 0 0.1096969331969164 -0.13422374872821319 0 0.11997683785091839 -0.1276371159963853 0 0.1121708616464093 -0.1216807098986791 0 0.1217036921304827 -0.1482443959076799 0 0.1155243526086871 -0.14484298486410191 0 0.12532898621889721 -0.13663811256420449 0 0.1217036921304827 -0.1482443959076799 0 0.1155243526086871 -0.14484298486410191 0 0.1179114041550178 -0.15136128022523329 0 0.1071373084330472 -0.14482826815459701 0 0.1155243526086871 -0.14484298486410191 0 0.1121477659277255 -0.1503271840913511 0 0.1071373084330472 -0.14482826815459701 0 0.1096969331969164 -0.13422374872821319 0 0.1155243526086871 -0.14484298486410191 0 0.1035248479174861 -0.15311019857333261 0 0.1121477659277255 -0.1503271840913511 0 0.1169082366172023 -0.15609331882735419 0 0.1155243526086871 -0.14484298486410191 0 0.1121477659277255 -0.1503271840913511 0 0.1179114041550178 -0.15136128022523329 0 0.1121477659277255 -0.1503271840913511 0 0.1169082366172023 -0.15609331882735419 0 0.1179114041550178 -0.15136128022523329 0 0.1169082366172023 -0.15609331882735419 0 0.1179114041550178 -0.15136128022523329 0 0.12324902196630889 -0.15465793599018671 0 0.1217036921304827 -0.1482443959076799 0 0.1179114041550178 -0.15136128022523329 0 0.12324902196630889 -0.15465793599018671 0 0.1217036921304827 -0.1482443959076799 0 0.12324902196630889 -0.15465793599018671 0 0.12831016946945831 -0.1492440347933528 0 0.1035248479174861 -0.15311019857333261 0 0.12443417021765769 -0.1709717485187108 0 0.1227471198665283 -0.15880086614903269 0 0.12098675462827781 -0.16200852072179159 0 0.1290045142054978 -0.1612372837293575 0 0.1035248479174861 -0.15311019857333261 0 0.12443417021765769 -0.1709717485187108 0 0.12083528946942131 -0.1711597280255607 0 0.1035248479174861 -0.15311019857333261 0 0.12098675462827781 -0.16200852072179159 0 0.12443417021765769 -0.1709717485187108 0 0.1035248479174861 -0.15311019857333261 0 0.1169082366172023 -0.15609331882735419 0 0.12098675462827781 -0.16200852072179159 0 0.1169082366172023 -0.15609331882735419 0 0.1227471198665283 -0.15880086614903269 0 0.12098675462827781 -0.16200852072179159 0 0.1169082366172023 -0.15609331882735419 0 0.12324902196630889 -0.15465793599018671 0 0.1227471198665283 -0.15880086614903269 0 0.12098675462827781 -0.16200852072179159 0 0.12443417021765769 -0.1709717485187108 0 0.12715697753007521 -0.16591248018761531 0 0.1128143282819509 -0.19216489626002589 0 0.1232013989280239 -0.1819146573535104 0 0.1157139550245927 -0.18029465614444529 0 0.12083528946942131 -0.1711597280255607 0 0.1232013989280239 -0.1819146573535104 0 0.1157139550245927 -0.18029465614444529 0 0.12443417021765769 -0.1709717485187108 0 0.12083528946942131 -0.1711597280255607 0 0.1232013989280239 -0.1819146573535104 0 0.12083528946942131 -0.1711597280255607 0 0.1157139550245927 -0.18029465614444529 0 0.10772522460311169 -0.17968171223372481 0 0.1128143282819509 -0.19216489626002589 0 0.1157139550245927 -0.18029465614444529 0 0.10772522460311169 -0.17968171223372481 0 0.095454742848087734 -0.19451486061966669 0 0.10772522460311169 -0.17968171223372481 0 0.093505174579280592 -0.1731787749771625 0 0.12083528946942131 -0.1711597280255607 0 0.093505174579280592 -0.1731787749771625 0 0.095454742848087734 -0.19451486061966669 0 0.093505174579280592 -0.1731787749771625 0 0.12083528946942131 -0.1711597280255607 0 0.10772522460311169 -0.17968171223372481 0 0.093505174579280592 -0.1731787749771625 0 0.1035248479174861 -0.15311019857333261 0 0.093505174579280592 -0.1731787749771625 0 0.091560400862706559 -0.15189516094014111 0 0.1035248479174861 -0.15311019857333261 0 0.12083528946942131 -0.1711597280255607 0 0.093505174579280592 -0.1731787749771625 0 0.078133883947979807 -0.15717501910519549 0 0.093505174579280592 -0.1731787749771625 0 0.091560400862706559 -0.15189516094014111 0 0.078133883947979807 -0.15717501910519549 0 0.093505174579280592 -0.1731787749771625 0 0.072477207369929117 -0.17473224276400179 0 0.093505174579280592 -0.1731787749771625 0 0.091560400862706559 -0.15189516094014111 0 0.081482512553192915 -0.1953056794767786 0 0.093505174579280592 -0.1731787749771625 0 0.072477207369929117 -0.17473224276400179 0 0.093505174579280592 -0.1731787749771625 0 0.072477207369929117 -0.17473224276400179 0 0.066040058368007956 -0.18964665730407451 0 0.072477207369929117 -0.17473224276400179 0 0.051449240160577621 -0.1762857105508405 0 0.066040058368007956 -0.18964665730407451 0 0.081482512553192915 -0.1953056794767786 0 0.072477207369929117 -0.17473224276400179 0 0.078133883947979807 -0.15717501910519549 0 0.072477207369929117 -0.17473224276400179 0 0.063878974636528515 -0.16401540189567099 0 0.072477207369929117 -0.17473224276400179 0 0.063878974636528515 -0.16401540189567099 0 0.051449240160577621 -0.1762857105508405 0 0.078133883947979807 -0.15717501910519549 0 0.063878974636528515 -0.16401540189567099 0 0.06522271263887458 -0.15305574504012881 0 0.06522271263887458 -0.15305574504012881 0 0.069316279952888193 -0.14186668388360371 0 0.075278834721760557 -0.14616760919767161 0 0.06522271263887458 -0.15305574504012881 0 0.069316279952888193 -0.14186668388360371 0 0.05757515479497001 -0.1486962131740798 0 0.069316279952888193 -0.14186668388360371 0 0.075278834721760557 -0.14616760919767161 0 0.079765110473415279 -0.13788087003968491 0 0.078133883947979807 -0.15717501910519549 0 0.06522271263887458 -0.15305574504012881 0 0.075278834721760557 -0.14616760919767161 0 0.098760878024456711 -0.14050656481393209 0 0.091560400862706559 -0.15189516094014111 0 0.089615627146132512 -0.13061154690311971 0 0.078133883947979807 -0.15717501910519549 0 0.083611330147541921 -0.14459745320402559 0 0.091560400862706559 -0.15189516094014111 0 0.091560400862706559 -0.15189516094014111 0 0.089615627146132512 -0.13061154690311971 0 0.078133883947979807 -0.15717501910519549 0 0.075278834721760557 -0.14616760919767161 0 0.083611330147541921 -0.14459745320402559 0 0.083611330147541921 -0.14459745320402559 0 0.091560400862706559 -0.15189516094014111 0 0.089615627146132512 -0.13061154690311971 0 0.075278834721760557 -0.14616760919767161 0 0.083611330147541921 -0.14459745320402559 0 0.079765110473415279 -0.13788087003968491 0 0.099525338641528904 -0.12611341339503321 0 0.089615627146132512 -0.13061154690311971 0 0.081894058627025895 -0.12584863130967919 0 0.083611330147541921 -0.14459745320402559 0 0.089615627146132512 -0.13061154690311971 0 0.079765110473415279 -0.13788087003968491 0 0.089615627146132512 -0.13061154690311971 0 0.079765110473415279 -0.13788087003968491 0 0.081894058627025895 -0.12584863130967919 0 0.081894058627025895 -0.12584863130967919 0 0.065576399090336079 -0.13067912082877309 0 0.057907204523981459 -0.13951585418161591 0 0.081894058627025895 -0.12584863130967919 0 0.057907204523981459 -0.13951585418161591 0 0.069316279952888193 -0.14186668388360371 0 0.081894058627025895 -0.12584863130967919 0 0.057907204523981459 -0.13951585418161591 0 0.081894058627025895 -0.12584863130967919 0 0.068207364780656948 -0.12563827965844471 0 0.065576399090336079 -0.13067912082877309 0 0.069316279952888193 -0.14186668388360371 0 0.079765110473415279 -0.13788087003968491 0 0.081894058627025895 -0.12584863130967919 0 0.068207364780656948 -0.12563827965844471 0 0.065576399090336079 -0.13067912082877309 0 0.054296968429680029 -0.13171371816535249 0 0.054296968429680029 -0.13171371816535249 0 0.057907204523981459 -0.13951585418161591 0 0.034849001543539322 -0.1503583031021323 0 0.054296968429680029 -0.13171371816535249 0 0.045553716665441668 -0.12681104972785159 0 0.052448498866582129 -0.1166826243517366 0 0.065576399090336079 -0.13067912082877309 0 0.054296968429680029 -0.13171371816535249 0 0.057907204523981459 -0.13951585418161591 0 0.069316279952888193 -0.14186668388360371 0 0.057907204523981459 -0.13951585418161591 0 0.05757515479497001 -0.1486962131740798 0 0.06522271263887458 -0.15305574504012881 0 0.05757515479497001 -0.1486962131740798 0 0.052111829065281459 -0.15882829201818821 0 0.046808539919221563 -0.15014413002933799 0 0.052111829065281459 -0.15882829201818821 0 0.043031393960321331 -0.1571354857308308 0 0.05757515479497001 -0.1486962131740798 0 0.046808539919221563 -0.15014413002933799 0 0.052111829065281459 -0.15882829201818821 0 0.057907204523981459 -0.13951585418161591 0 0.05757515479497001 -0.1486962131740798 0 0.046808539919221563 -0.15014413002933799 0 0.057907204523981459 -0.13951585418161591 0 0.046808539919221563 -0.15014413002933799 0 0.033920350420936912 -0.1531830770535528 0 0.057907204523981459 -0.13951585418161591 0 0.034849001543539322 -0.1503583031021323 0 0.033920350420936912 -0.1531830770535528 0 0.054296968429680029 -0.13171371816535249 0 0.034849001543539322 -0.1503583031021323 0 0.038558521200612962 -0.14006542407622449 0 0.054296968429680029 -0.13171371816535249 0 0.034849001543539322 -0.1503583031021323 0 0.057907204523981459 -0.13951585418161591 0 0.033920350420936912 -0.1531830770535528 0 0.046808539919221563 -0.15014413002933799 0 0.040219483271594643 -0.15466785876887121 0 0.033920350420936912 -0.1531830770535528 0 0.046808539919221563 -0.15014413002933799 0 0.040219483271594643 -0.15466785876887121 0 0.043031393960321331 -0.1571354857308308 0 0.040219483271594643 -0.15466785876887121 0 0.033920350420936912 -0.1531830770535528 0 0.037117648785898759 -0.15820874226176301 0 0.034849001543539322 -0.1503583031021323 0 0.031672068294339203 -0.14528428076340441 0 0.030051573782975471 -0.15027594372919439 0 0.034849001543539322 -0.1503583031021323 0 0.033920350420936912 -0.1531830770535528 0 0.030051573782975471 -0.15027594372919439 0 0.034849001543539322 -0.1503583031021323 0 0.031672068294339203 -0.14528428076340441 0 0.038558521200612962 -0.14006542407622449 0 0.031672068294339203 -0.14528428076340441 0 0.038558521200612962 -0.14006542407622449 0 0.030566093298411881 -0.13865773310914861 0 0.054296968429680029 -0.13171371816535249 0 0.038558521200612962 -0.14006542407622449 0 0.040644455285911409 -0.1338393175667463 0 0.038558521200612962 -0.14006542407622449 0 0.040644455285911409 -0.1338393175667463 0 0.030566093298411881 -0.13865773310914861 0 0.034824944079593127 -0.12500853882757099 0 0.040644455285911409 -0.1338393175667463 0 0.030566093298411881 -0.13865773310914861 0 0.034824944079593127 -0.12500853882757099 0 0.045553716665441668 -0.12681104972785159 0 0.040644455285911409 -0.1338393175667463 0 0.054296968429680029 -0.13171371816535249 0 0.045553716665441668 -0.12681104972785159 0 0.040644455285911409 -0.1338393175667463 0 0.072477207369929117 -0.17473224276400179 0 0.051449240160577621 -0.1762857105508405 0 0.056257937900538298 -0.19577788601322099 0 0.066040058368007956 -0.18964665730407451 0 0.051449240160577621 -0.1762857105508405 0 0.063878974636528515 -0.16401540189567099 0 0.051449240160577621 -0.1762857105508405 0 0.052111829065281459 -0.15882829201818821 0 0.051449240160577621 -0.1762857105508405 0 0.052111829065281459 -0.15882829201818821 0 0.040502396519655252 -0.1663673850483231 0 0.063878974636528515 -0.16401540189567099 0 0.06522271263887458 -0.15305574504012881 0 0.052111829065281459 -0.15882829201818821 0 0.043031393960321331 -0.1571354857308308 0 0.037117648785898759 -0.15820874226176301 0 0.040502396519655252 -0.1663673850483231 0 0.052111829065281459 -0.15882829201818821 0 0.043031393960321331 -0.1571354857308308 0 0.040502396519655252 -0.1663673850483231 0 0.040219483271594643 -0.15466785876887121 0 0.043031393960321331 -0.1571354857308308 0 0.037117648785898759 -0.15820874226176301 0 0.033920350420936912 -0.1531830770535528 0 0.033509818979212957 -0.15868168045615499 0 0.027465449436243041 -0.1628752445715565 0 0.037117648785898759 -0.15820874226176301 0 0.034071859908748191 -0.1623715567021686 0 0.040502396519655252 -0.1663673850483231 0 0.033920350420936912 -0.1531830770535528 0 0.037117648785898759 -0.15820874226176301 0 0.033509818979212957 -0.15868168045615499 0 0.037117648785898759 -0.15820874226176301 0 0.033509818979212957 -0.15868168045615499 0 0.034071859908748191 -0.1623715567021686 0 0.033509818979212957 -0.15868168045615499 0 0.034071859908748191 -0.1623715567021686 0 0.027465449436243041 -0.1628752445715565 0 0.031586668938662611 -0.1691709391612749 0 0.040502396519655252 -0.1663673850483231 0 0.030421272951226121 -0.1778391783376792 0 0.034071859908748191 -0.1623715567021686 0 0.031586668938662611 -0.1691709391612749 0 0.040502396519655252 -0.1663673850483231 0 0.051449240160577621 -0.1762857105508405 0 0.040502396519655252 -0.1663673850483231 0 0.030421272951226121 -0.1778391783376792 0 0.041440672425083092 -0.19607701236864419 0 0.051449240160577621 -0.1762857105508405 0 0.030421272951226121 -0.1778391783376792 0 0.051449240160577621 -0.1762857105508405 0 0.030421272951226121 -0.1778391783376792 0 0.02540307025583758 -0.19229280057405279 0 0.015764016274472759 -0.1812646672695073 0 0.030421272951226121 -0.1778391783376792 0 0.031586668938662611 -0.1691709391612749 0 0.030421272951226121 -0.1778391783376792 0 0.021575687727073561 -0.1734893605992324 0 0.015764016274472759 -0.1812646672695073 0 0.021575687727073561 -0.1734893605992324 0 0.012676990919703311 -0.16924925594887871 0 0.015764016274472759 -0.1812646672695073 0 0.030421272951226121 -0.1778391783376792 0 0.021575687727073561 -0.1734893605992324 0 0.033920350420936912 -0.1531830770535528 0 0.009933496317892726 -0.16685029992549011 0 0.02294500892830088 -0.1542832107784407 0 0.033920350420936912 -0.1531830770535528 0 0.027465449436243041 -0.1628752445715565 0 0.009933496317892726 -0.16685029992549011 0 0.019596439448784399 -0.16744493330375371 0 0.027465449436243041 -0.1628752445715565 0 0.009933496317892726 -0.16685029992549011 0 0.033920350420936912 -0.1531830770535528 0 0.009933496317892726 -0.16685029992549011 0 0.021575687727073561 -0.1734893605992324 0 0.019596439448784399 -0.16744493330375371 0 0.012676990919703311 -0.16924925594887871 0 0.021575687727073561 -0.1734893605992324 0 0.019596439448784399 -0.16744493330375371 0 0.025540403417393751 -0.1677775419388785 0 0.031586668938662611 -0.1691709391612749 0 0.021575687727073561 -0.1734893605992324 0 0.025540403417393751 -0.1677775419388785 0 0.019596439448784399 -0.16744493330375371 0 0.025540403417393751 -0.1677775419388785 0 0.027465449436243041 -0.1628752445715565 0 0.034071859908748191 -0.1623715567021686 0 0.031586668938662611 -0.1691709391612749 0 0.027465449436243041 -0.1628752445715565 0 0.031586668938662611 -0.1691709391612749 0 0.025540403417393751 -0.1677775419388785 0 0.027465449436243041 -0.1628752445715565 0 0.009933496317892726 -0.16685029992549011 0 0.01648447247354291 -0.15404273338364399 0 0.02294500892830088 -0.1542832107784407 0 0.009933496317892726 -0.16685029992549011 0 0.01648447247354291 -0.15404273338364399 0 0.0068311679390763679 -0.1533437069849535 0 0.019596439448784399 -0.16744493330375371 0 0.009933496317892726 -0.16685029992549011 0 0.012676990919703311 -0.16924925594887871 0 0.009933496317892726 -0.16685029992549011 0 0.012676990919703311 -0.16924925594887871 0 0.0034571977838801569 -0.17702496179755631 0 0.009933496317892726 -0.16685029992549011 0 0.012676990919703311 -0.16924925594887871 0 -0.0085976242789068957 -0.177408956520272 0 0.009933496317892726 -0.16685029992549011 0 -0.0085976242789068957 -0.177408956520272 0 0.009933496317892726 -0.16685029992549011 0 0.0034571977838801569 -0.17702496179755631 0 0.015764016274472759 -0.1812646672695073 0 0.012676990919703311 -0.16924925594887871 0 0.0034571977838801569 -0.17702496179755631 0 -0.003739977245034012 -0.19168309442994089 0 0.010514116253606281 -0.1925853606064957 0 0.0034571977838801569 -0.17702496179755631 0 0.010514116253606281 -0.1925853606064957 0 0.015764016274472759 -0.1812646672695073 0 0.0034571977838801569 -0.17702496179755631 0 0.02166725362828328 -0.1398342401410575 0 0.019282665512654749 -0.1297026577714144 0 0.01241268948209219 -0.14437852502616319 0 0.034824944079593127 -0.12500853882757099 0 0.019282665512654749 -0.1297026577714144 0 0.030566093298411881 -0.13865773310914861 0 0.02166725362828328 -0.1398342401410575 0 0.019282665512654749 -0.1297026577714144 0 0.030566093298411881 -0.13865773310914861 0 0.031672068294339203 -0.14528428076340441 0 0.030566093298411881 -0.13865773310914861 0 0.024335151646156381 -0.14706399980032239 0 0.02166725362828328 -0.1398342401410575 0 0.030566093298411881 -0.13865773310914861 0 0.024335151646156381 -0.14706399980032239 0 0.031672068294339203 -0.14528428076340441 0 0.024335151646156381 -0.14706399980032239 0 0.030051573782975471 -0.15027594372919439 0 0.033920350420936912 -0.1531830770535528 0 0.030051573782975471 -0.15027594372919439 0 0.02294500892830088 -0.1542832107784407 0 0.024335151646156381 -0.14706399980032239 0 0.030051573782975471 -0.15027594372919439 0 0.02294500892830088 -0.1542832107784407 0 0.024335151646156381 -0.14706399980032239 0 0.01648447247354291 -0.15404273338364399 0 0.01241268948209219 -0.14437852502616319 0 0.024335151646156381 -0.14706399980032239 0 0.01648447247354291 -0.15404273338364399 0 0.02294500892830088 -0.1542832107784407 0 0.02166725362828328 -0.1398342401410575 0 0.024335151646156381 -0.14706399980032239 0 0.01241268948209219 -0.14437852502616319 0 -0.011505986517222349 -0.14810326960451681 0 0.01241268948209219 -0.14437852502616319 0 0.0068311679390763679 -0.1533437069849535 0 -0.011505986517222349 -0.14810326960451681 0 0.009933496317892726 -0.16685029992549011 0 0.0068311679390763679 -0.1533437069849535 0 -0.011505986517222349 -0.14810326960451681 0 0.01241268948209219 -0.14437852502616319 0 0.0027021066240326768 -0.1317064378292063 0 0.01648447247354291 -0.15404273338364399 0 0.01241268948209219 -0.14437852502616319 0 0.0068311679390763679 -0.1533437069849535 0 0.019282665512654749 -0.1297026577714144 0 0.01241268948209219 -0.14437852502616319 0 0.0027021066240326768 -0.1317064378292063 0 0.019282665512654749 -0.1297026577714144 0 0.0027021066240326768 -0.1317064378292063 0 0.005085065621477718 -0.1151057880332567 0 0.019282665512654749 -0.1297026577714144 0 0.005085065621477718 -0.1151057880332567 0 0.024129304522527751 -0.1089818526354679 0 0.034824944079593127 -0.12500853882757099 0 0.019282665512654749 -0.1297026577714144 0 0.024129304522527751 -0.1089818526354679 0 0.024129304522527751 -0.1089818526354679 0 0.01380815825635252 -0.094132232187142617 0 0.031293966725895003 -0.08518965294817829 0 -0.00044729776891663488 -0.1011528385718463 0 0.005085065621477718 -0.1151057880332567 0 0.01380815825635252 -0.094132232187142617 0 0.005085065621477718 -0.1151057880332567 0 0.024129304522527751 -0.1089818526354679 0 0.01380815825635252 -0.094132232187142617 0 0.01380815825635252 -0.094132232187142617 0 0.0042106568376920582 -0.081118225430045127 0 0.020039989671696231 -0.071989185162356889 0 -0.00044729776891663488 -0.1011528385718463 0 0.01380815825635252 -0.094132232187142617 0 0.0042106568376920582 -0.081118225430045127 0 0.0042106568376920582 -0.081118225430045127 0 0.0052181775422467033 -0.064346337314722044 0 0.020039989671696231 -0.071989185162356889 0 -0.0043762627118289626 -0.071729097412358583 0 0.0042106568376920582 -0.081118225430045127 0 0.0052181775422467033 -0.064346337314722044 0 0.0052181775422467033 -0.064346337314722044 0 0.020039989671696231 -0.071989185162356889 0 0.0052181775422467033 -0.064346337314722044 0 0.020039989671696231 -0.071989185162356889 0 0.017880224012190679 -0.058506375123621113 0 0.020039989671696231 -0.071989185162356889 0 0.017880224012190679 -0.058506375123621113 0 0.035073137211611732 -0.060365082031122411 0 0.020039989671696231 -0.071989185162356889 0 0.031293966725895003 -0.08518965294817829 0 0.035073137211611732 -0.060365082031122411 0 0.01380815825635252 -0.094132232187142617 0 0.020039989671696231 -0.071989185162356889 0 0.031293966725895003 -0.08518965294817829 0 0.031293966725895003 -0.08518965294817829 0 0.050629459546369923 -0.074776417317023003 0 0.042727201812981508 -0.099892478072297022 0 0.050629459546369923 -0.074776417317023003 0 0.042727201812981508 -0.099892478072297022 0 0.031293966725895003 -0.08518965294817829 0 0.050629459546369923 -0.074776417317023003 0 0.035073137211611732 -0.060365082031122411 0 0.050629459546369923 -0.074776417317023003 0 0.058531717279758283 -0.049660356561749108 0 0.072219385832792832 -0.066659644627356851 0 0.050629459546369923 -0.074776417317023003 0 0.042727201812981508 -0.099892478072297022 0 0.069701838591585213 -0.089386546866783212 0 0.059655618646742382 -0.10475769562984739 0 0.052448498866582129 -0.1166826243517366 0 0.042727201812981508 -0.099892478072297022 0 0.059655618646742382 -0.10475769562984739 0 0.042727201812981508 -0.099892478072297022 0 0.069701838591585213 -0.089386546866783212 0 0.054296968429680029 -0.13171371816535249 0 0.052448498866582129 -0.1166826243517366 0 0.073744935315820714 -0.1130691332285727 0 0.059655618646742382 -0.10475769562984739 0 0.052448498866582129 -0.1166826243517366 0 0.073744935315820714 -0.1130691332285727 0 0.034824944079593127 -0.12500853882757099 0 0.045553716665441668 -0.12681104972785159 0 0.052448498866582129 -0.1166826243517366 0 0.034824944079593127 -0.12500853882757099 0 0.052448498866582129 -0.1166826243517366 0 0.042727201812981508 -0.099892478072297022 0 0.034824944079593127 -0.12500853882757099 0 0.024129304522527751 -0.1089818526354679 0 0.042727201812981508 -0.099892478072297022 0 0.034824944079593127 -0.12500853882757099 0 0.042727201812981508 -0.099892478072297022 0 0.024129304522527751 -0.1089818526354679 0 0.031293966725895003 -0.08518965294817829 0 0.042727201812981508 -0.099892478072297022 0 0.034885408484197772 0.0062912350017927032 0 0.01265631079038235 -0.01012693536007268 0 0.042517259973231587 -0.011683923625132649 0 -0.00118246574067416 -0.01324232368796026 0 0.0012074066645448821 -0.00065723147797176382 0 0.01265631079038235 -0.01012693536007268 0 0.01265631079038235 -0.01012693536007268 0 0.02406773205363014 -0.026959444655171291 0 0.0015263381015913891 -0.033415212413580753 0 0.01265631079038235 -0.01012693536007268 0 0.0015263381015913891 -0.033415212413580753 0 -0.00118246574067416 -0.01324232368796026 0 0.01265631079038235 -0.01012693536007268 0 0.0015263381015913891 -0.033415212413580753 0 0.01265631079038235 -0.01012693536007268 0 0.02406773205363014 -0.026959444655171291 0 0.042517259973231587 -0.011683923625132649 0 0.02406773205363014 -0.026959444655171291 0 0.021771409900077709 -0.044354063799483319 0 0.04186734150286768 -0.035217088077587062 0 0.02406773205363014 -0.026959444655171291 0 0.021771409900077709 -0.044354063799483319 0 0.0015263381015913891 -0.033415212413580753 0 0.021771409900077709 -0.044354063799483319 0 0.0015263381015913891 -0.033415212413580753 0 0.007298405735321048 -0.051477207310420908 0 -0.0096036345872028556 -0.056703489467087059 0 0.0052181775422467033 -0.064346337314722044 0 0.007298405735321048 -0.051477207310420908 0 0.0052181775422467033 -0.064346337314722044 0 0.007298405735321048 -0.051477207310420908 0 0.017880224012190679 -0.058506375123621113 0 0.021771409900077709 -0.044354063799483319 0 0.017880224012190679 -0.058506375123621113 0 0.035073137211611732 -0.060365082031122411 0 0.021771409900077709 -0.044354063799483319 0 0.007298405735321048 -0.051477207310420908 0 0.017880224012190679 -0.058506375123621113 0 0.035073137211611732 -0.060365082031122411 0 0.058531717279758283 -0.049660356561749108 0 0.04186734150286768 -0.035217088077587062 0 0.050629459546369923 -0.074776417317023003 0 0.058531717279758283 -0.049660356561749108 0 0.050629459546369923 -0.074776417317023003 0 0.035073137211611732 -0.060365082031122411 0 0.058531717279758283 -0.049660356561749108 0 0.058531717279758283 -0.049660356561749108 0 0.066433975013146629 -0.02454429580647528 0 0.058531717279758283 -0.049660356561749108 0 0.04186734150286768 -0.035217088077587062 0 0.066433975013146629 -0.02454429580647528 0 0.021771409900077709 -0.044354063799483319 0 0.035073137211611732 -0.060365082031122411 0 0.04186734150286768 -0.035217088077587062 0 0.02406773205363014 -0.026959444655171291 0 0.04186734150286768 -0.035217088077587062 0 0.042517259973231587 -0.011683923625132649 0 0.04186734150286768 -0.035217088077587062 0 0.042517259973231587 -0.011683923625132649 0 0.066433975013146629 -0.02454429580647528 0 0.052968053050369737 0.0090809173488315582 0 0.042517259973231587 -0.011683923625132649 0 0.067492943165135169 -0.0019794682467893379 0 0.042517259973231587 -0.011683923625132649 0 0.067492943165135169 -0.0019794682467893379 0 0.066433975013146629 -0.02454429580647528 0 0.087040675587819916 -0.0096101539263870796 0 0.066433975013146629 -0.02454429580647528 0 0.098032226742104309 -0.02831505409649597 0 0.083930998993742512 0.0059737405228527038 0 0.087040675587819916 -0.0096101539263870796 0 0.067492943165135169 -0.0019794682467893379 0 0.083930998993742512 0.0059737405228527038 0 0.098495163759696414 0.0029673617968291321 0 0.087040675587819916 -0.0096101539263870796 0 0.087040675587819916 -0.0096101539263870796 0 0.067492943165135169 -0.0019794682467893379 0 0.066433975013146629 -0.02454429580647528 0 0.066433975013146629 -0.02454429580647528 0 0.080663194565618018 -0.042742664855397232 0 0.098032226742104309 -0.02831505409649597 0 0.080663194565618018 -0.042742664855397232 0 0.099119978598511321 -0.045144617550746849 0 0.098032226742104309 -0.02831505409649597 0 0.058531717279758283 -0.049660356561749108 0 0.066433975013146629 -0.02454429580647528 0 0.080663194565618018 -0.042742664855397232 0 0.058531717279758283 -0.049660356561749108 0 0.080663194565618018 -0.042742664855397232 0 0.072219385832792832 -0.066659644627356851 0 0.080663194565618018 -0.042742664855397232 0 0.091985945990252393 -0.059557823171565508 0 0.072219385832792832 -0.066659644627356851 0 0.080663194565618018 -0.042742664855397232 0 0.091985945990252393 -0.059557823171565508 0 0.099119978598511321 -0.045144617550746849 0 0.091985945990252393 -0.059557823171565508 0 0.109385226414503 -0.056941989317685793 0 0.099119978598511321 -0.045144617550746849 0 0.109385226414503 -0.056941989317685793 0 0.1174221699598199 -0.069046986946925279 0 0.12664898879935529 -0.055605769639440771 0 0.109385226414503 -0.056941989317685793 0 0.1155332992800789 -0.038165556312589707 0 0.12664898879935529 -0.055605769639440771 0 0.1155332992800789 -0.038165556312589707 0 0.12954193793015309 -0.041748568408345607 0 0.12664898879935529 -0.055605769639440771 0 0.1155332992800789 -0.038165556312589707 0 0.1294320674019063 -0.023146095115484211 0 0.12954193793015309 -0.041748568408345607 0 0.109385226414503 -0.056941989317685793 0 0.1155332992800789 -0.038165556312589707 0 0.099119978598511321 -0.045144617550746849 0 0.1155332992800789 -0.038165556312589707 0 0.099119978598511321 -0.045144617550746849 0 0.098032226742104309 -0.02831505409649597 0 0.1155332992800789 -0.038165556312589707 0 0.098032226742104309 -0.02831505409649597 0 0.1112777463759113 -0.012222875866518469 0 0.087040675587819916 -0.0096101539263870796 0 0.098032226742104309 -0.02831505409649597 0 0.1112777463759113 -0.012222875866518469 0 0.1155332992800789 -0.038165556312589707 0 0.1112777463759113 -0.012222875866518469 0 0.1294320674019063 -0.023146095115484211 0 0.1158546052028349 0.0064685721448778594 0 0.13464870039648349 0.00080453217212592717 0 0.1112777463759113 -0.012222875866518469 0 0.098495163759696414 0.0029673617968291321 0 0.087040675587819916 -0.0096101539263870796 0 0.1112777463759113 -0.012222875866518469 0 0.1158546052028349 0.0064685721448778594 0 0.098495163759696414 0.0029673617968291321 0 0.1112777463759113 -0.012222875866518469 0 0.093192902201961414 -0.094424548291792879 0 0.088899626305776192 -0.1113374325741409 0 0.073744935315820714 -0.1130691332285727 0 0.093192902201961414 -0.094424548291792879 0 0.073744935315820714 -0.1130691332285727 0 0.069701838591585213 -0.089386546866783212 0 0.093192902201961414 -0.094424548291792879 0 0.073744935315820714 -0.1130691332285727 0 0.081894058627025895 -0.12584863130967919 0 0.088899626305776192 -0.1113374325741409 0 0.09397493983509804 -0.11322330148444169 0 0.081894058627025895 -0.12584863130967919 0 0.079920122843727764 -0.11786127252462281 0 0.075141871126288284 -0.1211898929860986 0 0.081894058627025895 -0.12584863130967919 0 0.088899626305776192 -0.1113374325741409 0 0.079920122843727764 -0.11786127252462281 0 0.088899626305776192 -0.1113374325741409 0 0.079920122843727764 -0.11786127252462281 0 0.073744935315820714 -0.1130691332285727 0 0.068207364780656948 -0.12563827965844471 0 0.054296968429680029 -0.13171371816535249 0 0.073744935315820714 -0.1130691332285727 0 0.054296968429680029 -0.13171371816535249 0 0.073744935315820714 -0.1130691332285727 0 0.068207364780656948 -0.12563827965844471 0 0.073744935315820714 -0.1130691332285727 0 0.075141871126288284 -0.1211898929860986 0 0.079920122843727764 -0.11786127252462281 0 0.073744935315820714 -0.1130691332285727 0 0.075141871126288284 -0.1211898929860986 0 0.081894058627025895 -0.12584863130967919 0 0.068207364780656948 -0.12563827965844471 0 0.075141871126288284 -0.1211898929860986 0 0.059655618646742382 -0.10475769562984739 0 0.073744935315820714 -0.1130691332285727 0 0.069701838591585213 -0.089386546866783212 0 0.050629459546369923 -0.074776417317023003 0 0.069701838591585213 -0.089386546866783212 0 0.072219385832792832 -0.066659644627356851 0 0.069701838591585213 -0.089386546866783212 0 0.072219385832792832 -0.066659644627356851 0 0.089711563165187497 -0.078251462936863553 0 0.091985945990252393 -0.059557823171565508 0 0.072219385832792832 -0.066659644627356851 0 0.089711563165187497 -0.078251462936863553 0 0.093192902201961414 -0.094424548291792879 0 0.069701838591585213 -0.089386546866783212 0 0.089711563165187497 -0.078251462936863553 0 0.093192902201961414 -0.094424548291792879 0 0.089711563165187497 -0.078251462936863553 0 0.1048667032735431 -0.089595599910983495 0 0.089711563165187497 -0.078251462936863553 0 0.1048667032735431 -0.089595599910983495 0 0.1056935618466131 -0.072691272791708894 0 0.1048667032735431 -0.089595599910983495 0 0.1056935618466131 -0.072691272791708894 0 0.11564058922802831 -0.08068930143821873 0 0.091985945990252393 -0.059557823171565508 0 0.089711563165187497 -0.078251462936863553 0 0.1056935618466131 -0.072691272791708894 0 0.091985945990252393 -0.059557823171565508 0 0.109385226414503 -0.056941989317685793 0 0.1056935618466131 -0.072691272791708894 0 0.1174221699598199 -0.069046986946925279 0 0.12840026197867099 -0.078951386265116219 0 0.12664898879935529 -0.055605769639440771 0 0.109385226414503 -0.056941989317685793 0 0.1056935618466131 -0.072691272791708894 0 0.1174221699598199 -0.069046986946925279 0 0.1056935618466131 -0.072691272791708894 0 0.1174221699598199 -0.069046986946925279 0 0.11564058922802831 -0.08068930143821873 0 0.1174221699598199 -0.069046986946925279 0 0.11564058922802831 -0.08068930143821873 0 0.12840026197867099 -0.078951386265116219 0 0.1048667032735431 -0.089595599910983495 0 0.11564058922802831 -0.08068930143821873 0 0.1191358060176364 -0.092450830711447801 0 0.1191358060176364 -0.092450830711447801 0 0.12840026197867099 -0.078951386265116219 0 0.11564058922802831 -0.08068930143821873 0 0.1191358060176364 -0.092450830711447801 0 0.12840026197867099 -0.078951386265116219 0 0.1058809127300703 -0.11218140843774239 0 0.12023297736745781 -0.1110263554770618 0 0.12986776683311119 -0.098514185565799078 0 0.1058809127300703 -0.11218140843774239 0 0.12986776683311119 -0.098514185565799078 0 0.1048667032735431 -0.089595599910983495 0 0.1191358060176364 -0.092450830711447801 0 0.10987135005660249 -0.1059502751577799 0 0.10987135005660249 -0.1059502751577799 0 0.1058809127300703 -0.11218140843774239 0 0.12986776683311119 -0.098514185565799078 0 0.1191358060176364 -0.092450830711447801 0 0.10987135005660249 -0.1059502751577799 0 0.12986776683311119 -0.098514185565799078 0 0.1191358060176364 -0.092450830711447801 0 0.10987135005660249 -0.1059502751577799 0 0.093192902201961414 -0.094424548291792879 0 0.088899626305776192 -0.1113374325741409 0 0.099225161677519755 -0.1035257336162041 0 0.1048667032735431 -0.089595599910983495 0 0.10987135005660249 -0.1059502751577799 0 0.099225161677519755 -0.1035257336162041 0 0.10987135005660249 -0.1059502751577799 0 0.099225161677519755 -0.1035257336162041 0 0.1058809127300703 -0.11218140843774239 0 0.088899626305776192 -0.1113374325741409 0 0.099225161677519755 -0.1035257336162041 0 0.09397493983509804 -0.11322330148444169 0 0.093192902201961414 -0.094424548291792879 0 0.1048667032735431 -0.089595599910983495 0 0.099225161677519755 -0.1035257336162041 0 0.081894058627025895 -0.12584863130967919 0 0.1058809127300703 -0.11218140843774239 0 0.099525338641528904 -0.12611341339503321 0 0.081894058627025895 -0.12584863130967919 0 0.1058809127300703 -0.11218140843774239 0 0.081894058627025895 -0.12584863130967919 0 0.09397493983509804 -0.11322330148444169 0 0.1058809127300703 -0.11218140843774239 0 0.099225161677519755 -0.1035257336162041 0 0.09397493983509804 -0.11322330148444169 0 0.1058809127300703 -0.11218140843774239 0 0.099525338641528904 -0.12611341339503321 0 0.1058809127300703 -0.11218140843774239 0 0.1121708616464093 -0.1216807098986791 0 0.1058809127300703 -0.11218140843774239 0 0.1121708616464093 -0.1216807098986791 0 0.12023297736745781 -0.1110263554770618 0 0.11997683785091839 -0.1276371159963853 0 0.121067612134044 -0.1214532534018402 0 0.13188977167139071 -0.12546883223523481 0 0.12023297736745781 -0.1110263554770618 0 0.121067612134044 -0.1214532534018402 0 0.13188977167139071 -0.12546883223523481 0 0.11997683785091839 -0.1276371159963853 0 0.1121708616464093 -0.1216807098986791 0 0.121067612134044 -0.1214532534018402 0 0.1121708616464093 -0.1216807098986791 0 0.12023297736745781 -0.1110263554770618 0 0.121067612134044 -0.1214532534018402 0 0.12023297736745781 -0.1110263554770618 0 0.12986776683311119 -0.098514185565799078 0 0.13188977167139071 -0.12546883223523481 0 0.12986776683311119 -0.098514185565799078 0 0.13188977167139071 -0.12546883223523481 0 0.14925441928633251 -0.10969288085116551 0 0.13995942417209239 -0.1034127274713456 0 0.13188977167139071 -0.12546883223523481 0 0.14724036225017881 -0.1245170930860646 0 0.14925441928633251 -0.10969288085116551 0 0.13188977167139071 -0.12546883223523481 0 0.14925441928633251 -0.10969288085116551 0 0.15485465026004211 -0.11932571079310079 0 0.15999890680388329 -0.1096406796162286 0 0.14724036225017881 -0.1245170930860646 0 0.15485465026004211 -0.11932571079310079 0 0.15557261582888751 -0.13003178131142151 0 0.14724036225017881 -0.1245170930860646 0 0.14925441928633251 -0.10969288085116551 0 0.15485465026004211 -0.11932571079310079 0 0.14925441928633251 -0.10969288085116551 0 0.14348993397904131 -0.092765062884646393 0 0.1620153957752187 -0.097165399419701551 0 0.14348993397904131 -0.092765062884646393 0 0.1620153957752187 -0.097165399419701551 0 0.14925441928633251 -0.10969288085116551 0 0.13995942417209239 -0.1034127274713456 0 0.14348993397904131 -0.092765062884646393 0 0.13995942417209239 -0.1034127274713456 0 0.12986776683311119 -0.098514185565799078 0 0.13188977167139071 -0.12546883223523481 0 0.13995942417209239 -0.1034127274713456 0 0.12986776683311119 -0.098514185565799078 0 0.14348993397904131 -0.092765062884646393 0 0.12986776683311119 -0.098514185565799078 0 0.12840026197867099 -0.078951386265116219 0 0.1428482005174804 -0.076716741777837147 0 0.1191358060176364 -0.092450830711447801 0 0.12986776683311119 -0.098514185565799078 0 0.12840026197867099 -0.078951386265116219 0 0.12986776683311119 -0.098514185565799078 0 0.12840026197867099 -0.078951386265116219 0 0.12840026197867099 -0.078951386265116219 0 0.12664898879935529 -0.055605769639440771 0 0.12840026197867099 -0.078951386265116219 0 0.12664898879935529 -0.055605769639440771 0 0.14464694777039611 -0.055277979731059648 0 0.12840026197867099 -0.078951386265116219 0 0.1428482005174804 -0.076716741777837147 0 0.14464694777039611 -0.055277979731059648 0 0.12840026197867099 -0.078951386265116219 0 0.14464694777039611 -0.055277979731059648 0 0.1428482005174804 -0.076716741777837147 0 0.15680899227989839 -0.06637062400294011 0 0.14464694777039611 -0.055277979731059648 0 0.1428482005174804 -0.076716741777837147 0 0.15451703372532541 -0.084469533324270707 0 0.15680899227989839 -0.06637062400294011 0 0.12986776683311119 -0.098514185565799078 0 0.15451703372532541 -0.084469533324270707 0 0.12986776683311119 -0.098514185565799078 0 0.14348993397904131 -0.092765062884646393 0 0.15451703372532541 -0.084469533324270707 0 0.14348993397904131 -0.092765062884646393 0 0.15451703372532541 -0.084469533324270707 0 0.1620153957752187 -0.097165399419701551 0 0.12986776683311119 -0.098514185565799078 0 0.1428482005174804 -0.076716741777837147 0 0.15451703372532541 -0.084469533324270707 0 0.15451703372532541 -0.084469533324270707 0 0.1674193516126988 -0.088794767656503876 0 0.1620153957752187 -0.097165399419701551 0 0.15451703372532541 -0.084469533324270707 0 0.1674193516126988 -0.088794767656503876 0 0.16389165652408541 -0.076485311925560115 0 0.1674193516126988 -0.088794767656503876 0 0.16389165652408541 -0.076485311925560115 0 0.17613181446746839 -0.084287857658230353 0 0.15451703372532541 -0.084469533324270707 0 0.15680899227989839 -0.06637062400294011 0 0.16389165652408541 -0.076485311925560115 0 0.16389165652408541 -0.076485311925560115 0 0.1717227713635387 -0.067009979361705274 0 0.17613181446746839 -0.084287857658230353 0 0.15680899227989839 -0.06637062400294011 0 0.16389165652408541 -0.076485311925560115 0 0.1717227713635387 -0.067009979361705274 0 0.15680899227989839 -0.06637062400294011 0 0.1717227713635387 -0.067009979361705274 0 0.1652446184022294 -0.054500080927008407 0 0.1717227713635387 -0.067009979361705274 0 0.17613181446746839 -0.084287857658230353 0 0.1717227713635387 -0.067009979361705274 0 0.18346211879182289 -0.064955309332027283 0 0.18137547142311691 -0.085525622921553163 0 0.18346211879182289 -0.064955309332027283 0 0.18137547142311691 -0.085525622921553163 0 0.1952329782378138 -0.068464889048657496 0 0.1717227713635387 -0.067009979361705274 0 0.18137547142311691 -0.085525622921553163 0 0.1717227713635387 -0.067009979361705274 0 0.18346211879182289 -0.064955309332027283 0 0.1746283364613696 -0.057560297553190053 0 0.18137547142311691 -0.085525622921553163 0 0.17613181446746839 -0.084287857658230353 0 0.18054085757139629 -0.1015657359547559 0 0.17613181446746839 -0.084287857658230353 0 0.18054085757139629 -0.1015657359547559 0 0.1674193516126988 -0.088794767656503876 0 0.17613181446746839 -0.084287857658230353 0 0.18054085757139629 -0.1015657359547559 0 0.1717227713635387 -0.067009979361705274 0 0.18137547142311691 -0.085525622921553163 0 0.17613181446746839 -0.084287857658230353 0 0.18137547142311691 -0.085525622921553163 0 0.19100769245097829 -0.1040519139747048 0 0.18137547142311691 -0.085525622921553163 0 0.18054085757139629 -0.1015657359547559 0 0.19100769245097829 -0.1040519139747048 0 0.18054085757139629 -0.1015657359547559 0 0.1749190978293893 -0.1165979942053425 0 0.16884250162088479 -0.1080310140379921 0 0.18054085757139629 -0.1015657359547559 0 0.19100769245097829 -0.1040519139747048 0 0.18054085757139629 -0.1015657359547559 0 0.1862357176231304 -0.1238823921021804 0 0.1749190978293893 -0.1165979942053425 0 0.18054085757139629 -0.1015657359547559 0 0.1862357176231304 -0.1238823921021804 0 0.19100769245097829 -0.1040519139747048 0 0.18054085757139629 -0.1015657359547559 0 0.1862357176231304 -0.1238823921021804 0 0.1862357176231304 -0.1238823921021804 0 0.1749190978293893 -0.1165979942053425 0 0.17324983187337631 -0.13165498831909611 0 0.1749190978293893 -0.1165979942053425 0 0.16471491079178111 -0.1205264202314431 0 0.16884250162088479 -0.1080310140379921 0 0.16471491079178111 -0.1205264202314431 0 0.15999890680388329 -0.1096406796162286 0 0.16884250162088479 -0.1080310140379921 0 0.1749190978293893 -0.1165979942053425 0 0.16471491079178111 -0.1205264202314431 0 0.17324983187337631 -0.13165498831909611 0 0.15485465026004211 -0.11932571079310079 0 0.16471491079178111 -0.1205264202314431 0 0.15557261582888751 -0.13003178131142151 0 0.15485465026004211 -0.11932571079310079 0 0.16471491079178111 -0.1205264202314431 0 0.15999890680388329 -0.1096406796162286 0 0.18054085757139629 -0.1015657359547559 0 0.1620153957752187 -0.097165399419701551 0 0.1674193516126988 -0.088794767656503876 0 0.18054085757139629 -0.1015657359547559 0 0.1620153957752187 -0.097165399419701551 0 0.14925441928633251 -0.10969288085116551 0 0.15999890680388329 -0.1096406796162286 0 0.1620153957752187 -0.097165399419701551 0 0.15999890680388329 -0.1096406796162286 0 0.1620153957752187 -0.097165399419701551 0 0.16884250162088479 -0.1080310140379921 0 0.18054085757139629 -0.1015657359547559 0 0.1620153957752187 -0.097165399419701551 0 0.16884250162088479 -0.1080310140379921 0 0.13464870039648349 0.00080453217212592717 0 0.15480995508657039 -0.001084596553268768 0 0.14892696920713289 -0.018041582065753459 0 0.13464870039648349 0.00080453217212592717 0 0.1294320674019063 -0.023146095115484211 0 0.14892696920713289 -0.018041582065753459 0 0.13464870039648349 0.00080453217212592717 0 0.1112777463759113 -0.012222875866518469 0 0.1294320674019063 -0.023146095115484211 0 0.1294320674019063 -0.023146095115484211 0 0.14892696920713289 -0.018041582065753459 0 0.14270131340979469 -0.036531096068384838 0 0.14892696920713289 -0.018041582065753459 0 0.14270131340979469 -0.036531096068384838 0 0.16089363356212191 -0.031604573197003549 0 0.14270131340979469 -0.036531096068384838 0 0.14464694777039611 -0.055277979731059648 0 0.16089363356212191 -0.031604573197003549 0 0.14464694777039611 -0.055277979731059648 0 0.15561449558007559 -0.051164132387281437 0 0.16089363356212191 -0.031604573197003549 0 0.14464694777039611 -0.055277979731059648 0 0.16089363356212191 -0.031604573197003549 0 0.14270131340979469 -0.036531096068384838 0 0.12954193793015309 -0.041748568408345607 0 0.14464694777039611 -0.055277979731059648 0 0.1294320674019063 -0.023146095115484211 0 0.14270131340979469 -0.036531096068384838 0 0.12954193793015309 -0.041748568408345607 0 0.12954193793015309 -0.041748568408345607 0 0.12664898879935529 -0.055605769639440771 0 0.14464694777039611 -0.055277979731059648 0 0.15680899227989839 -0.06637062400294011 0 0.14464694777039611 -0.055277979731059648 0 0.15561449558007559 -0.051164132387281437 0 0.15680899227989839 -0.06637062400294011 0 0.15561449558007559 -0.051164132387281437 0 0.1652446184022294 -0.054500080927008407 0 0.15561449558007559 -0.051164132387281437 0 0.1652446184022294 -0.054500080927008407 0 0.1617942405007988 -0.043199732881276223 0 0.1652446184022294 -0.054500080927008407 0 0.1746283364613696 -0.057560297553190053 0 0.1617942405007988 -0.043199732881276223 0 0.1717227713635387 -0.067009979361705274 0 0.1652446184022294 -0.054500080927008407 0 0.1717227713635387 -0.067009979361705274 0 0.1652446184022294 -0.054500080927008407 0 0.1746283364613696 -0.057560297553190053 0 0.1746283364613696 -0.057560297553190053 0 0.1828119860636557 -0.050363577362968731 0 0.1617942405007988 -0.043199732881276223 0 0.18346211879182289 -0.064955309332027283 0 0.1746283364613696 -0.057560297553190053 0 0.1828119860636557 -0.050363577362968731 0 0.18346211879182289 -0.064955309332027283 0 0.1828119860636557 -0.050363577362968731 0 0.19188844298534441 -0.056659859735039647 0 0.1617942405007988 -0.043199732881276223 0 0.18853740735089011 -0.033706188378118708 0 0.1828119860636557 -0.050363577362968731 0 0.1617942405007988 -0.043199732881276223 0 0.18853740735089011 -0.033706188378118708 0 0.15561449558007559 -0.051164132387281437 0 0.16089363356212191 -0.031604573197003549 0 0.1617942405007988 -0.043199732881276223 0 0.16089363356212191 -0.031604573197003549 0 0.1617942405007988 -0.043199732881276223 0 0.18853740735089011 -0.033706188378118708 0 0.16089363356212191 -0.031604573197003549 0 0.17714031935384769 -0.0079311666629475405 0 0.14892696920713289 -0.018041582065753459 0 0.16089363356212191 -0.031604573197003549 0 0.17714031935384769 -0.0079311666629475405 0 0.16089363356212191 -0.031604573197003549 0 0.17714031935384769 -0.0079311666629475405 0 0.18853740735089011 -0.033706188378118708 0 0.1657030786406338 0.0084270166623369204 0 0.15480995508657039 -0.001084596553268768 0 0.17714031935384769 -0.0079311666629475405 0 0.15480995508657039 -0.001084596553268768 0 0.14892696920713289 -0.018041582065753459 0 0.17714031935384769 -0.0079311666629475405 0 0.21351355446813719 -0.0021103410187178909 0 0.2110126965438916 -0.012672932103663791 0 0.2228246624943325 -0.0092295053444410857 0 0.2110126965438916 -0.012672932103663791 0 0.21911622703360889 -0.015650702578479541 0 0.2228246624943325 -0.0092295053444410857 0 0.21351355446813719 -0.0021103410187178909 0 0.2110126965438916 -0.012672932103663791 0 0.19836939172364151 -0.01016904411482358 0 0.1998105265397013 0.00335350757378736 0 0.21351355446813719 -0.0021103410187178909 0 0.19836939172364151 -0.01016904411482358 0 0.1998105265397013 0.00335350757378736 0 0.17714031935384769 -0.0079311666629475405 0 0.19836939172364151 -0.01016904411482358 0 0.17714031935384769 -0.0079311666629475405 0 0.19836939172364151 -0.01016904411482358 0 0.18853740735089011 -0.033706188378118708 0 0.2110126965438916 -0.012672932103663791 0 0.19836939172364151 -0.01016904411482358 0 0.18853740735089011 -0.033706188378118708 0 0.21528057420098159 -0.024212643874961401 0 0.18853740735089011 -0.033706188378118708 0 0.2110126965438916 -0.012672932103663791 0 0.21528057420098159 -0.024212643874961401 0 0.18853740735089011 -0.033706188378118708 0 0.21528057420098159 -0.024212643874961401 0 0.20886364623554921 -0.031523512657201581 0 0.18853740735089011 -0.033706188378118708 0 0.2110126965438916 -0.012672932103663791 0 0.21528057420098159 -0.024212643874961401 0 0.21911622703360889 -0.015650702578479541 0 0.21528057420098159 -0.024212643874961401 0 0.2158000993154765 -0.027276596113623111 0 0.21360323626451261 -0.02858374534336202 0 0.21528057420098159 -0.024212643874961401 0 0.2158000993154765 -0.027276596113623111 0 0.21995729679401421 -0.029331280632926501 0 0.2158000993154765 -0.027276596113623111 0 0.21503400689837671 -0.030930810510401429 0 0.21995729679401421 -0.029331280632926501 0 0.2158000993154765 -0.027276596113623111 0 0.21503400689837671 -0.030930810510401429 0 0.21360323626451261 -0.02858374534336202 0 0.21528057420098159 -0.024212643874961401 0 0.21360323626451261 -0.02858374534336202 0 0.20886364623554921 -0.031523512657201581 0 0.21503400689837671 -0.030930810510401429 0 0.21360323626451261 -0.02858374534336202 0 0.20886364623554921 -0.031523512657201581 0 0.2128060919330283 -0.035124071741943173 0 0.2180191377477218 -0.035203133534298187 0 0.2167024847658664 -0.043974661413588162 0 0.21503400689837671 -0.030930810510401429 0 0.2128060919330283 -0.035124071741943173 0 0.20886364623554921 -0.031523512657201581 0 0.21503400689837671 -0.030930810510401429 0 0.2128060919330283 -0.035124071741943173 0 0.2180191377477218 -0.035203133534298187 0 0.21503400689837671 -0.030930810510401429 0 0.2180191377477218 -0.035203133534298187 0 0.21995729679401421 -0.029331280632926501 0 0.2167024847658664 -0.043974661413588162 0 0.20890374551960481 -0.040729144831228678 0 0.20897987019450001 -0.050060865146210963 0 0.2128060919330283 -0.035124071741943173 0 0.2167024847658664 -0.043974661413588162 0 0.20890374551960481 -0.040729144831228678 0 0.20890374551960481 -0.040729144831228678 0 0.19655169947710091 -0.043788383486002072 0 0.20897987019450001 -0.050060865146210963 0 0.2128060919330283 -0.035124071741943173 0 0.20890374551960481 -0.040729144831228678 0 0.20886364623554921 -0.031523512657201581 0 0.20890374551960481 -0.040729144831228678 0 0.20886364623554921 -0.031523512657201581 0 0.19655169947710091 -0.043788383486002072 0 0.1828119860636557 -0.050363577362968731 0 0.18853740735089011 -0.033706188378118708 0 0.19655169947710091 -0.043788383486002072 0 0.20886364623554921 -0.031523512657201581 0 0.18853740735089011 -0.033706188378118708 0 0.19655169947710091 -0.043788383486002072 0 0.19655169947710091 -0.043788383486002072 0 0.20138343235632811 -0.055727139445542639 0 0.20897987019450001 -0.050060865146210963 0 0.19655169947710091 -0.043788383486002072 0 0.19188844298534441 -0.056659859735039647 0 0.20138343235632811 -0.055727139445542639 0 0.1828119860636557 -0.050363577362968731 0 0.19655169947710091 -0.043788383486002072 0 0.19188844298534441 -0.056659859735039647 0 0.19188844298534441 -0.056659859735039647 0 0.20138343235632811 -0.055727139445542639 0 0.1952329782378138 -0.068464889048657496 0 0.20138343235632811 -0.055727139445542639 0 0.22670270369963491 -0.067064047377793826 0 0.20138343235632811 -0.055727139445542639 0 0.21577564808412511 -0.056666161138016313 0 0.22670270369963491 -0.067064047377793826 0 0.20138343235632811 -0.055727139445542639 0 0.20897987019450001 -0.050060865146210963 0 0.21577564808412511 -0.056666161138016313 0 0.2167024847658664 -0.043974661413588162 0 0.20897987019450001 -0.050060865146210963 0 0.21577564808412511 -0.056666161138016313 0 0.21577564808412511 -0.056666161138016313 0 0.23694359709532001 -0.061394592404840097 0 0.22670270369963491 -0.067064047377793826 0 0.21577564808412511 -0.056666161138016313 0 0.22648325856373289 -0.049317463857355977 0 0.23694359709532001 -0.061394592404840097 0 0.21577564808412511 -0.056666161138016313 0 0.23694359709532001 -0.061394592404840097 0 0.2167024847658664 -0.043974661413588162 0 0.21577564808412511 -0.056666161138016313 0 0.22648325856373289 -0.049317463857355977 0 0.22648325856373289 -0.049317463857355977 0 0.23694359709532001 -0.061394592404840097 0 0.23716366819637241 -0.046229271507985323 0 0.25811154610651499 -0.066123023671663908 0 0.23694359709532001 -0.061394592404840097 0 0.24870160087168189 -0.052882304334001928 0 0.23694359709532001 -0.061394592404840097 0 0.24870160087168189 -0.052882304334001928 0 0.23716366819637241 -0.046229271507985323 0 0.24870160087168189 -0.052882304334001928 0 0.23716366819637241 -0.046229271507985323 0 0.24731406762381819 -0.035960341631652723 0 0.23716366819637241 -0.046229271507985323 0 0.24731406762381819 -0.035960341631652723 0 0.23342582712955959 -0.033308149953783547 0 0.23342582712955959 -0.033308149953783547 0 0.2258308946769807 -0.038322632822349968 0 0.22548915127375299 -0.027513718828695861 0 0.22648325856373289 -0.049317463857355977 0 0.23716366819637241 -0.046229271507985323 0 0.2258308946769807 -0.038322632822349968 0 0.23716366819637241 -0.046229271507985323 0 0.23342582712955959 -0.033308149953783547 0 0.2258308946769807 -0.038322632822349968 0 0.2180191377477218 -0.035203133534298187 0 0.2167024847658664 -0.043974661413588162 0 0.2258308946769807 -0.038322632822349968 0 0.2167024847658664 -0.043974661413588162 0 0.22648325856373289 -0.049317463857355977 0 0.2258308946769807 -0.038322632822349968 0 0.2180191377477218 -0.035203133534298187 0 0.2258308946769807 -0.038322632822349968 0 0.21995729679401421 -0.029331280632926501 0 0.2258308946769807 -0.038322632822349968 0 0.22548915127375299 -0.027513718828695861 0 0.21995729679401421 -0.029331280632926501 0 0.21528057420098159 -0.024212643874961401 0 0.2313313538768734 -0.018514784978234038 0 0.22829619310998309 -0.01520182636873813 0 0.21528057420098159 -0.024212643874961401 0 0.2313313538768734 -0.018514784978234038 0 0.21528057420098159 -0.024212643874961401 0 0.22548915127375299 -0.027513718828695861 0 0.2313313538768734 -0.018514784978234038 0 0.21528057420098159 -0.024212643874961401 0 0.22548915127375299 -0.027513718828695861 0 0.21995729679401421 -0.029331280632926501 0 0.21528057420098159 -0.024212643874961401 0 0.22829619310998309 -0.01520182636873813 0 0.21528057420098159 -0.024212643874961401 0 0.21911622703360889 -0.015650702578479541 0 0.22829619310998309 -0.01520182636873813 0 0.2313313538768734 -0.018514784978234038 0 0.22829619310998309 -0.01520182636873813 0 0.23342582712955959 -0.033308149953783547 0 0.22548915127375299 -0.027513718828695861 0 0.2313313538768734 -0.018514784978234038 0 0.25508119948702751 -0.010083838205662381 0 0.2313313538768734 -0.018514784978234038 0 0.2482857443068576 -0.021714794414400052 0 0.24731406762381819 -0.035960341631652723 0 0.2313313538768734 -0.018514784978234038 0 0.2482857443068576 -0.021714794414400052 0 0.24731406762381819 -0.035960341631652723 0 0.23342582712955959 -0.033308149953783547 0 0.2313313538768734 -0.018514784978234038 0 0.24731406762381819 -0.035960341631652723 0 0.2313313538768734 -0.018514784978234038 0 0.25508119948702751 -0.010083838205662381 0 0.2313313538768734 -0.018514784978234038 0 0.24138147174972829 -0.0061427828714447699 0 0.25508119948702751 -0.010083838205662381 0 0.2313313538768734 -0.018514784978234038 0 0.24138147174972829 -0.0061427828714447699 0 0.22829619310998309 -0.01520182636873813 0 0.25446675038947358 0.0029162606258486688 0 0.2541426920980116 -0.0036136263454906951 0 0.24138147174972829 -0.0061427828714447699 0 0.25446675038947358 0.0029162606258486688 0 0.24138147174972829 -0.0061427828714447699 0 0.22999165343287109 0.0038227322559807589 0 0.24138147174972829 -0.0061427828714447699 0 0.23189167676904729 -0.0064153040848911828 0 0.22999165343287109 0.0038227322559807589 0 0.23189167676904729 -0.0064153040848911828 0 0.2228246624943325 -0.0092295053444410857 0 0.22999165343287109 0.0038227322559807589 0 0.21351355446813719 -0.0021103410187178909 0 0.2228246624943325 -0.0092295053444410857 0 0.23189167676904729 -0.0064153040848911828 0 0.22829619310998309 -0.01520182636873813 0 0.2228246624943325 -0.0092295053444410857 0 0.2313313538768734 -0.018514784978234038 0 0.24138147174972829 -0.0061427828714447699 0 0.22829619310998309 -0.01520182636873813 0 0.24138147174972829 -0.0061427828714447699 0 0.23189167676904729 -0.0064153040848911828 0 0.22829619310998309 -0.01520182636873813 0 0.21911622703360889 -0.015650702578479541 0 0.22829619310998309 -0.01520182636873813 0 0.2228246624943325 -0.0092295053444410857 0 0.22829619310998309 -0.01520182636873813 0 0.2228246624943325 -0.0092295053444410857 0 0.2084634723971549 -0.097930235578601213 0 0.21737999015654699 -0.1103161024944793 0 0.2275791846540145 -0.10054182369239011 0 0.21737999015654699 -0.1103161024944793 0 0.19100769245097829 -0.1040519139747048 0 0.2084634723971549 -0.097930235578601213 0 0.21140608144591419 -0.084503356370523836 0 0.2275791846540145 -0.10054182369239011 0 0.2084634723971549 -0.097930235578601213 0 0.21737999015654699 -0.1103161024944793 0 0.19100769245097829 -0.1040519139747048 0 0.21737999015654699 -0.1103161024944793 0 0.21277072480774051 -0.1248863227998855 0 0.20025029595199689 -0.1218288277367077 0 0.21737999015654699 -0.1103161024944793 0 0.21277072480774051 -0.1248863227998855 0 0.2239597136694004 -0.1277946194696456 0 0.1862357176231304 -0.1238823921021804 0 0.20025029595199689 -0.1218288277367077 0 0.19100769245097829 -0.1040519139747048 0 0.21737999015654699 -0.1103161024944793 0 0.20025029595199689 -0.1218288277367077 0 0.19100769245097829 -0.1040519139747048 0 0.20025029595199689 -0.1218288277367077 0 0.19100769245097829 -0.1040519139747048 0 0.2084634723971549 -0.097930235578601213 0 0.19100769245097829 -0.1040519139747048 0 0.19624682445825681 -0.08914472739044943 0 0.18137547142311691 -0.085525622921553163 0 0.19100769245097829 -0.1040519139747048 0 0.19624682445825681 -0.08914472739044943 0 0.19624682445825681 -0.08914472739044943 0 0.1952329782378138 -0.068464889048657496 0 0.21140608144591419 -0.084503356370523836 0 0.18137547142311691 -0.085525622921553163 0 0.19624682445825681 -0.08914472739044943 0 0.1952329782378138 -0.068464889048657496 0 0.20138343235632811 -0.055727139445542639 0 0.1952329782378138 -0.068464889048657496 0 0.21149591893834541 -0.070957707586151192 0 0.18346211879182289 -0.064955309332027283 0 0.19188844298534441 -0.056659859735039647 0 0.1952329782378138 -0.068464889048657496 0 0.1952329782378138 -0.068464889048657496 0 0.21140608144591419 -0.084503356370523836 0 0.20138343235632811 -0.055727139445542639 0 0.21149591893834541 -0.070957707586151192 0 0.22670270369963491 -0.067064047377793826 0 0.1952329782378138 -0.068464889048657496 0 0.21149591893834541 -0.070957707586151192 0 0.21140608144591419 -0.084503356370523836 0 0.2084634723971549 -0.097930235578601213 0 0.19624682445825681 -0.08914472739044943 0 0.21140608144591419 -0.084503356370523836 0 0.21149591893834541 -0.070957707586151192 0 0.21140608144591419 -0.084503356370523836 0 0.2227543989520358 -0.079029105688238177 0 0.21140608144591419 -0.084503356370523836 0 0.2275791846540145 -0.10054182369239011 0 0.2227543989520358 -0.079029105688238177 0 0.23449163343577681 -0.083610487294907485 0 0.2275791846540145 -0.10054182369239011 0 0.21140608144591419 -0.084503356370523836 0 0.2227543989520358 -0.079029105688238177 0 0.2275791846540145 -0.10054182369239011 0 0.2227543989520358 -0.079029105688238177 0 0.22670270369963491 -0.067064047377793826 0 0.23449163343577681 -0.083610487294907485 0 0.21149591893834541 -0.070957707586151192 0 0.2227543989520358 -0.079029105688238177 0 0.22670270369963491 -0.067064047377793826 0 0.25202197504294188 -0.078400955310045109 0 0.25811154610651499 -0.066123023671663908 0 0.23694359709532001 -0.061394592404840097 0 0.25202197504294188 -0.078400955310045109 0 0.22670270369963491 -0.067064047377793826 0 0.25202197504294188 -0.078400955310045109 0 0.22670270369963491 -0.067064047377793826 0 0.23449163343577681 -0.083610487294907485 0 0.25202197504294188 -0.078400955310045109 0 0.23694359709532001 -0.061394592404840097 0 0.22670270369963491 -0.067064047377793826 0 0.25811154610651499 -0.066123023671663908 0 0.23694359709532001 -0.061394592404840097 0 0.25202197504294188 -0.078400955310045109 0 0.23449163343577681 -0.083610487294907485 0 0.24624903761231479 -0.086847438891893419 0 0.23449163343577681 -0.083610487294907485 0 0.24292322406264641 -0.096552741650977186 0 0.2275791846540145 -0.10054182369239011 0 0.23449163343577681 -0.083610487294907485 0 0.24624903761231479 -0.086847438891893419 0 0.24292322406264641 -0.096552741650977186 0 0.25304747237378489 -0.090741332181114118 0 0.24624903761231479 -0.086847438891893419 0 0.24292322406264641 -0.096552741650977186 0 0.2275791846540145 -0.10054182369239011 0 0.24375228786211539 -0.116580291014256 0 0.24292322406264641 -0.096552741650977186 0 0.2275791846540145 -0.10054182369239011 0 0.24375228786211539 -0.116580291014256 0 0.25771864553297669 -0.099620140202181948 0 0.24292322406264641 -0.096552741650977186 0 0.24375228786211539 -0.116580291014256 0 0.21737999015654699 -0.1103161024944793 0 0.2275791846540145 -0.10054182369239011 0 0.24375228786211539 -0.116580291014256 0 0.21737999015654699 -0.1103161024944793 0 0.24375228786211539 -0.116580291014256 0 0.2239597136694004 -0.1277946194696456 0 0.21737999015654699 -0.1103161024944793 0 0.24375228786211539 -0.116580291014256 0 0.24375228786211539 -0.116580291014256 0 0.235054631712311 -0.13955626642273861 0 0.24955680073527009 -0.143898101237383 0 0.235054631712311 -0.13955626642273861 0 0.24955680073527009 -0.143898101237383 0 0.23627457688356679 -0.15840319400941011 0 0.25449645062408999 -0.16331052089379791 0 0.24955680073527009 -0.143898101237383 0 0.23627457688356679 -0.15840319400941011 0 0.235054631712311 -0.13955626642273861 0 0.22199130801810529 -0.1478171468904442 0 0.23627457688356679 -0.15840319400941011 0 0.24375228786211539 -0.116580291014256 0 0.235054631712311 -0.13955626642273861 0 0.2239597136694004 -0.1277946194696456 0 0.235054631712311 -0.13955626642273861 0 0.22199130801810529 -0.1478171468904442 0 0.2239597136694004 -0.1277946194696456 0 0.20025029595199689 -0.1218288277367077 0 0.20949289945301761 -0.1396057414987095 0 0.22199130801810529 -0.1478171468904442 0 0.2239597136694004 -0.1277946194696456 0 0.20949289945301761 -0.1396057414987095 0 0.21277072480774051 -0.1248863227998855 0 0.20025029595199689 -0.1218288277367077 0 0.20949289945301761 -0.1396057414987095 0 0.21277072480774051 -0.1248863227998855 0 0.2239597136694004 -0.1277946194696456 0 0.20949289945301761 -0.1396057414987095 0 0.22199130801810529 -0.1478171468904442 0 0.20949289945301761 -0.1396057414987095 0 0.2069794531536403 -0.1537888919124783 0 0.20949289945301761 -0.1396057414987095 0 0.2069794531536403 -0.1537888919124783 0 0.1919305776748628 -0.1461990482496055 0 0.2069794531536403 -0.1537888919124783 0 0.1919305776748628 -0.1461990482496055 0 0.19225769977326759 -0.16432491474026781 0 0.1862357176231304 -0.1238823921021804 0 0.1919305776748628 -0.1461990482496055 0 0.19714487019074359 -0.1333469628700395 0 0.20025029595199689 -0.1218288277367077 0 0.20949289945301761 -0.1396057414987095 0 0.19714487019074359 -0.1333469628700395 0 0.20949289945301761 -0.1396057414987095 0 0.1919305776748628 -0.1461990482496055 0 0.19714487019074359 -0.1333469628700395 0 0.1862357176231304 -0.1238823921021804 0 0.1919305776748628 -0.1461990482496055 0 0.1862357176231304 -0.1238823921021804 0 0.20025029595199689 -0.1218288277367077 0 0.19714487019074359 -0.1333469628700395 0 0.19629081049063871 -0.1815365299480412 0 0.19225769977326759 -0.16432491474026781 0 0.17982600751226671 -0.1762593337595659 0 0.19629081049063871 -0.1815365299480412 0 0.19225769977326759 -0.16432491474026781 0 0.22018657323669569 -0.16775416802968299 0 0.2069794531536403 -0.1537888919124783 0 0.19225769977326759 -0.16432491474026781 0 0.22018657323669569 -0.16775416802968299 0 0.22199130801810529 -0.1478171468904442 0 0.2069794531536403 -0.1537888919124783 0 0.22018657323669569 -0.16775416802968299 0 0.19629081049063871 -0.1815365299480412 0 0.22018657323669569 -0.16775416802968299 0 0.21237941264848451 -0.18810475376770611 0 0.22018657323669569 -0.16775416802968299 0 0.23934418379307471 -0.18436482883247621 0 0.22018657323669569 -0.16775416802968299 0 0.23934418379307471 -0.18436482883247621 0 0.21237941264848451 -0.18810475376770611 0 0.22018657323669569 -0.16775416802968299 0 0.23627457688356679 -0.15840319400941011 0 0.23934418379307471 -0.18436482883247621 0 0.22199130801810529 -0.1478171468904442 0 0.22018657323669569 -0.16775416802968299 0 0.23627457688356679 -0.15840319400941011 0 0.25449645062408999 -0.16331052089379791 0 0.23627457688356679 -0.15840319400941011 0 0.23934418379307471 -0.18436482883247621 0 0.25850179434945381 -0.20097548963526929 0 0.23934418379307471 -0.18436482883247621 0 0.25850179434945381 -0.20097548963526929 0 0.23934418379307471 -0.18436482883247621 0 0.23907695871134879 -0.21289681242661959 0 0.23907695871134879 -0.21289681242661959 0 0.22308479462261119 -0.20217133576560289 0 0.21722062693650279 -0.2226466586169516 0 0.23934418379307471 -0.18436482883247621 0 0.22308479462261119 -0.20217133576560289 0 0.21237941264848451 -0.18810475376770611 0 0.23934418379307471 -0.18436482883247621 0 0.23907695871134879 -0.21289681242661959 0 0.22308479462261119 -0.20217133576560289 0 0.25037283077400019 -0.2416092145933311 0 0.23239962387573149 -0.2337287944253621 0 0.2339549802858914 -0.24933471903745599 0 0.25658827463044448 -0.2222138965281123 0 0.23907695871134879 -0.21289681242661959 0 0.2446094219978813 -0.2276121794933563 0 0.25037283077400019 -0.2416092145933311 0 0.2446094219978813 -0.2276121794933563 0 0.23239962387573149 -0.2337287944253621 0 0.23907695871134879 -0.21289681242661959 0 0.2446094219978813 -0.2276121794933563 0 0.23239962387573149 -0.2337287944253621 0 0.23907695871134879 -0.21289681242661959 0 0.23239962387573149 -0.2337287944253621 0 0.21722062693650279 -0.2226466586169516 0 0.23239962387573149 -0.2337287944253621 0 0.2194561222393229 -0.23682627783696539 0 0.21722062693650279 -0.2226466586169516 0 0.23239962387573149 -0.2337287944253621 0 0.22502312889380549 -0.2426362774769398 0 0.2339549802858914 -0.24933471903745599 0 0.2194561222393229 -0.23682627783696539 0 0.22502312889380549 -0.2426362774769398 0 0.21456577207223029 -0.24270171036535029 0 0.23239962387573149 -0.2337287944253621 0 0.2194561222393229 -0.23682627783696539 0 0.22502312889380549 -0.2426362774769398 0 0.22331750647786899 -0.25281133177650322 0 0.22502312889380549 -0.2426362774769398 0 0.21456577207223029 -0.24270171036535029 0 0.22331750647786899 -0.25281133177650322 0 0.22502312889380549 -0.2426362774769398 0 0.2339549802858914 -0.24933471903745599 0 0.2084475354763706 -0.25511513831035743 0 0.2080714594183444 -0.2424179483002232 0 0.21336353465090491 -0.24693864317134839 0 0.2080714594183444 -0.2424179483002232 0 0.21336353465090491 -0.24693864317134839 0 0.2080714594183444 -0.2424179483002232 0 0.21336353465090491 -0.24693864317134839 0 0.21456577207223029 -0.24270171036535029 0 0.2194561222393229 -0.23682627783696539 0 0.2080714594183444 -0.2424179483002232 0 0.21456577207223029 -0.24270171036535029 0 0.21722062693650279 -0.2226466586169516 0 0.20244123733496699 -0.2260211367091485 0 0.19848523837712481 -0.2136299623964425 0 0.2080714594183444 -0.2424179483002232 0 0.21722062693650279 -0.2226466586169516 0 0.2194561222393229 -0.23682627783696539 0 0.2080714594183444 -0.2424179483002232 0 0.21722062693650279 -0.2226466586169516 0 0.2080714594183444 -0.2424179483002232 0 0.21722062693650279 -0.2226466586169516 0 0.20244123733496699 -0.2260211367091485 0 0.2080714594183444 -0.2424179483002232 0 0.18716213711817259 -0.22455639835484539 0 0.2080714594183444 -0.2424179483002232 0 0.20244123733496699 -0.2260211367091485 0 0.18716213711817259 -0.22455639835484539 0 0.20244123733496699 -0.2260211367091485 0 0.19848523837712481 -0.2136299623964425 0 0.18716213711817259 -0.22455639835484539 0 0.2080714594183444 -0.2424179483002232 0 0.19254414318066221 -0.24961624770678509 0 0.1866817818972302 -0.23981118877977231 0 0.2080714594183444 -0.2424179483002232 0 0.1866817818972302 -0.23981118877977231 0 0.18716213711817259 -0.22455639835484539 0 0.19254414318066221 -0.24961624770678509 0 0.18399505531774341 -0.24981832115951039 0 0.1866817818972302 -0.23981118877977231 0 0.21237941264848451 -0.18810475376770611 0 0.20793523744788639 -0.20366419955677639 0 0.19447652973028121 -0.19759128756789451 0 0.22308479462261119 -0.20217133576560289 0 0.21237941264848451 -0.18810475376770611 0 0.20793523744788639 -0.20366419955677639 0 0.22308479462261119 -0.20217133576560289 0 0.21722062693650279 -0.2226466586169516 0 0.20793523744788639 -0.20366419955677639 0 0.21722062693650279 -0.2226466586169516 0 0.20793523744788639 -0.20366419955677639 0 0.19848523837712481 -0.2136299623964425 0 0.19848523837712481 -0.2136299623964425 0 0.19447652973028121 -0.19759128756789451 0 0.1831457957419608 -0.2071674304332729 0 0.20793523744788639 -0.20366419955677639 0 0.19848523837712481 -0.2136299623964425 0 0.19447652973028121 -0.19759128756789451 0 0.19848523837712481 -0.2136299623964425 0 0.1831457957419608 -0.2071674304332729 0 0.18716213711817259 -0.22455639835484539 0 0.19629081049063871 -0.1815365299480412 0 0.19447652973028121 -0.19759128756789451 0 0.1840061663436266 -0.1900566622106199 0 0.19629081049063871 -0.1815365299480412 0 0.21237941264848451 -0.18810475376770611 0 0.19447652973028121 -0.19759128756789451 0 0.19447652973028121 -0.19759128756789451 0 0.1840061663436266 -0.1900566622106199 0 0.1831457957419608 -0.2071674304332729 0 0.1840061663436266 -0.1900566622106199 0 0.1831457957419608 -0.2071674304332729 0 0.16486725365112659 -0.18785963188663279 0 0.1831457957419608 -0.2071674304332729 0 0.16486725365112659 -0.18785963188663279 0 0.1831457957419608 -0.2071674304332729 0 0.16625281481800089 -0.2066948484094672 0 0.18716213711817259 -0.22455639835484539 0 0.16625281481800089 -0.2066948484094672 0 0.18716213711817259 -0.22455639835484539 0 0.16625281481800089 -0.2066948484094672 0 0.18716213711817259 -0.22455639835484539 0 0.16937657335138201 -0.22198425569814831 0 0.16625281481800089 -0.2066948484094672 0 0.15661990237239229 -0.21733625041789439 0 0.14909823278687431 -0.20687378182447139 0 0.16625281481800089 -0.2066948484094672 0 0.15661990237239229 -0.21733625041789439 0 0.16937657335138201 -0.22198425569814831 0 0.1831457957419608 -0.2071674304332729 0 0.16625281481800089 -0.2066948484094672 0 0.16486725365112659 -0.18785963188663279 0 0.16625281481800089 -0.2066948484094672 0 0.16486725365112659 -0.18785963188663279 0 0.14534349251782941 -0.188833298464089 0 0.17619278994504239 -0.24587918172992959 0 0.18399505531774341 -0.24981832115951039 0 0.1866817818972302 -0.23981118877977231 0 0.17619278994504239 -0.24587918172992959 0 0.17450151464944069 -0.23276490516368609 0 0.16609645978724119 -0.24143951784646769 0 0.17619278994504239 -0.24587918172992959 0 0.1866817818972302 -0.23981118877977231 0 0.17450151464944069 -0.23276490516368609 0 0.17450151464944069 -0.23276490516368609 0 0.18716213711817259 -0.22455639835484539 0 0.16937657335138201 -0.22198425569814831 0 0.1866817818972302 -0.23981118877977231 0 0.17450151464944069 -0.23276490516368609 0 0.18716213711817259 -0.22455639835484539 0 0.15661990237239229 -0.21733625041789439 0 0.1623464977989032 -0.22856887614484861 0 0.15090654410468329 -0.22688320449844629 0 0.15661990237239229 -0.21733625041789439 0 0.16937657335138201 -0.22198425569814831 0 0.1623464977989032 -0.22856887614484861 0 0.17450151464944069 -0.23276490516368609 0 0.1623464977989032 -0.22856887614484861 0 0.16609645978724119 -0.24143951784646769 0 0.17450151464944069 -0.23276490516368609 0 0.16937657335138201 -0.22198425569814831 0 0.1623464977989032 -0.22856887614484861 0 0.1623464977989032 -0.22856887614484861 0 0.16609645978724119 -0.24143951784646769 0 0.1528270009437688 -0.23836283418195289 0 0.16001236861667459 -0.2513654190734112 0 0.16609645978724119 -0.24143951784646769 0 0.1528270009437688 -0.23836283418195289 0 0.16978669848249819 -0.25098739912941831 0 0.17619278994504239 -0.24587918172992959 0 0.16609645978724119 -0.24143951784646769 0 0.16001236861667459 -0.2513654190734112 0 0.16978669848249819 -0.25098739912941831 0 0.16609645978724119 -0.24143951784646769 0 0.1429630926125974 -0.2502577086919005 0 0.16001236861667459 -0.2513654190734112 0 0.1528270009437688 -0.23836283418195289 0 0.1429630926125974 -0.2502577086919005 0 0.1528270009437688 -0.23836283418195289 0 0.13988621804673579 -0.23152362256679451 0 0.1528270009437688 -0.23836283418195289 0 0.15090654410468329 -0.22688320449844629 0 0.13988621804673579 -0.23152362256679451 0 0.1623464977989032 -0.22856887614484861 0 0.1528270009437688 -0.23836283418195289 0 0.15090654410468329 -0.22688320449844629 0 0.15661990237239229 -0.21733625041789439 0 0.15090654410468329 -0.22688320449844629 0 0.1428531013616163 -0.21862443918074129 0 0.15090654410468329 -0.22688320449844629 0 0.13988621804673579 -0.23152362256679451 0 0.1428531013616163 -0.21862443918074129 0 0.12018370186474731 -0.23305432747703519 0 0.12895394136930069 -0.22163642029703709 0 0.13988621804673579 -0.23152362256679451 0 0.12895394136930069 -0.22163642029703709 0 0.13988621804673579 -0.23152362256679451 0 0.1428531013616163 -0.21862443918074129 0 0.1429630926125974 -0.2502577086919005 0 0.12018370186474731 -0.23305432747703519 0 0.1429630926125974 -0.2502577086919005 0 0.12018370186474731 -0.23305432747703519 0 0.13988621804673579 -0.23152362256679451 0 0.13217397618885759 -0.25462043987800831 0 0.1429630926125974 -0.2502577086919005 0 0.12018370186474731 -0.23305432747703519 0 0.16625281481800089 -0.2066948484094672 0 0.14534349251782941 -0.188833298464089 0 0.16625281481800089 -0.2066948484094672 0 0.14534349251782941 -0.188833298464089 0 0.14909823278687431 -0.20687378182447139 0 0.14534349251782941 -0.188833298464089 0 0.14909823278687431 -0.20687378182447139 0 0.1346280568372662 -0.20359450925845249 0 0.15661990237239229 -0.21733625041789439 0 0.14909823278687431 -0.20687378182447139 0 0.1428531013616163 -0.21862443918074129 0 0.14909823278687431 -0.20687378182447139 0 0.1428531013616163 -0.21862443918074129 0 0.1346280568372662 -0.20359450925845249 0 0.1178461100078927 -0.20838697738218431 0 0.12895394136930069 -0.22163642029703709 0 0.1346280568372662 -0.20359450925845249 0 0.12895394136930069 -0.22163642029703709 0 0.1428531013616163 -0.21862443918074129 0 0.1346280568372662 -0.20359450925845249 0 0.14534349251782941 -0.188833298464089 0 0.1346280568372662 -0.20359450925845249 0 0.13128332926409281 -0.18787359724935929 0 0.1237689835273371 -0.19605207676116951 0 0.1178461100078927 -0.20838697738218431 0 0.1346280568372662 -0.20359450925845249 0 0.1237689835273371 -0.19605207676116951 0 0.1346280568372662 -0.20359450925845249 0 0.13128332926409281 -0.18787359724935929 0 0.1237689835273371 -0.19605207676116951 0 0.1232013989280239 -0.1819146573535104 0 0.13128332926409281 -0.18787359724935929 0 0.12443417021765769 -0.1709717485187108 0 0.14534349251782941 -0.188833298464089 0 0.12443417021765769 -0.1709717485187108 0 0.1232013989280239 -0.1819146573535104 0 0.13128332926409281 -0.18787359724935929 0 0.12443417021765769 -0.1709717485187108 0 0.14534349251782941 -0.188833298464089 0 0.13128332926409281 -0.18787359724935929 0 0.12443417021765769 -0.1709717485187108 0 0.14534349251782941 -0.188833298464089 0 0.13540865390058859 -0.1688207667960602 0 0.14534349251782941 -0.188833298464089 0 0.14658871156029241 -0.16855183333999291 0 0.13540865390058859 -0.1688207667960602 0 0.16486725365112659 -0.18785963188663279 0 0.14658871156029241 -0.16855183333999291 0 0.16486725365112659 -0.18785963188663279 0 0.14534349251782941 -0.188833298464089 0 0.14658871156029241 -0.16855183333999291 0 0.14658871156029241 -0.16855183333999291 0 0.13391177650968769 -0.15242347890466901 0 0.14971917460686079 -0.1530450482394467 0 0.14658871156029241 -0.16855183333999291 0 0.14971917460686079 -0.1530450482394467 0 0.16192904395431579 -0.15800089119817939 0 0.14658871156029241 -0.16855183333999291 0 0.13391177650968769 -0.15242347890466901 0 0.12831016946945831 -0.1492440347933528 0 0.14658871156029241 -0.16855183333999291 0 0.12831016946945831 -0.1492440347933528 0 0.14658871156029241 -0.16855183333999291 0 0.13540865390058859 -0.1688207667960602 0 0.1290045142054978 -0.1612372837293575 0 0.14658871156029241 -0.16855183333999291 0 0.1290045142054978 -0.1612372837293575 0 0.12831016946945831 -0.1492440347933528 0 0.13540865390058859 -0.1688207667960602 0 0.12715697753007521 -0.16591248018761531 0 0.1290045142054978 -0.1612372837293575 0 0.12443417021765769 -0.1709717485187108 0 0.13540865390058859 -0.1688207667960602 0 0.12715697753007521 -0.16591248018761531 0 0.12098675462827781 -0.16200852072179159 0 0.12715697753007521 -0.16591248018761531 0 0.1290045142054978 -0.1612372837293575 0 0.12324902196630889 -0.15465793599018671 0 0.1227471198665283 -0.15880086614903269 0 0.1290045142054978 -0.1612372837293575 0 0.13391177650968769 -0.15242347890466901 0 0.12831016946945831 -0.1492440347933528 0 0.12532898621889721 -0.13663811256420449 0 0.12324902196630889 -0.15465793599018671 0 0.1290045142054978 -0.1612372837293575 0 0.12831016946945831 -0.1492440347933528 0 0.1217036921304827 -0.1482443959076799 0 0.12831016946945831 -0.1492440347933528 0 0.12532898621889721 -0.13663811256420449 0 0.13391177650968769 -0.15242347890466901 0 0.13188977167139071 -0.12546883223523481 0 0.13391177650968769 -0.15242347890466901 0 0.13188977167139071 -0.12546883223523481 0 0.1446303542042412 -0.1380662602394005 0 0.13391177650968769 -0.15242347890466901 0 0.13188977167139071 -0.12546883223523481 0 0.12532898621889721 -0.13663811256420449 0 0.11997683785091839 -0.1276371159963853 0 0.13188977167139071 -0.12546883223523481 0 0.12532898621889721 -0.13663811256420449 0 0.1446303542042412 -0.1380662602394005 0 0.15557261582888751 -0.13003178131142151 0 0.1621281360659286 -0.14191921566573409 0 0.14724036225017881 -0.1245170930860646 0 0.13188977167139071 -0.12546883223523481 0 0.1446303542042412 -0.1380662602394005 0 0.14724036225017881 -0.1245170930860646 0 0.1446303542042412 -0.1380662602394005 0 0.15557261582888751 -0.13003178131142151 0 0.13391177650968769 -0.15242347890466901 0 0.1446303542042412 -0.1380662602394005 0 0.14971917460686079 -0.1530450482394467 0 0.1446303542042412 -0.1380662602394005 0 0.14971917460686079 -0.1530450482394467 0 0.1621281360659286 -0.14191921566573409 0 0.1621281360659286 -0.14191921566573409 0 0.17324983187337631 -0.13165498831909611 0 0.17651024624945799 -0.1485415537171802 0 0.14971917460686079 -0.1530450482394467 0 0.1621281360659286 -0.14191921566573409 0 0.16192904395431579 -0.15800089119817939 0 0.1621281360659286 -0.14191921566573409 0 0.17651024624945799 -0.1485415537171802 0 0.16192904395431579 -0.15800089119817939 0 0.16471491079178111 -0.1205264202314431 0 0.15557261582888751 -0.13003178131142151 0 0.1639163736399934 -0.1310331013819237 0 0.15557261582888751 -0.13003178131142151 0 0.1621281360659286 -0.14191921566573409 0 0.1639163736399934 -0.1310331013819237 0 0.1621281360659286 -0.14191921566573409 0 0.1639163736399934 -0.1310331013819237 0 0.17324983187337631 -0.13165498831909611 0 0.16471491079178111 -0.1205264202314431 0 0.1639163736399934 -0.1310331013819237 0 0.17324983187337631 -0.13165498831909611 0 0.1862357176231304 -0.1238823921021804 0 0.1919305776748628 -0.1461990482496055 0 0.17324983187337631 -0.13165498831909611 0 0.1919305776748628 -0.1461990482496055 0 0.17324983187337631 -0.13165498831909611 0 0.17651024624945799 -0.1485415537171802 0 0.1919305776748628 -0.1461990482496055 0 0.19225769977326759 -0.16432491474026781 0 0.17651024624945799 -0.1485415537171802 0 0.19225769977326759 -0.16432491474026781 0 0.17526083145963689 -0.16308053239281189 0 0.17982600751226671 -0.1762593337595659 0 0.19225769977326759 -0.16432491474026781 0 0.17651024624945799 -0.1485415537171802 0 0.17526083145963689 -0.16308053239281189 0 0.17526083145963689 -0.16308053239281189 0 0.17982600751226671 -0.1762593337595659 0 0.16627328335530381 -0.17069773137902189 0 0.1840061663436266 -0.1900566622106199 0 0.16486725365112659 -0.18785963188663279 0 0.17982600751226671 -0.1762593337595659 0 0.19629081049063871 -0.1815365299480412 0 0.1840061663436266 -0.1900566622106199 0 0.17982600751226671 -0.1762593337595659 0 0.16486725365112659 -0.18785963188663279 0 0.14658871156029241 -0.16855183333999291 0 0.16627328335530381 -0.17069773137902189 0 0.16486725365112659 -0.18785963188663279 0 0.17982600751226671 -0.1762593337595659 0 0.16627328335530381 -0.17069773137902189 0 0.14658871156029241 -0.16855183333999291 0 0.16192904395431579 -0.15800089119817939 0 0.16627328335530381 -0.17069773137902189 0 0.17526083145963689 -0.16308053239281189 0 0.16192904395431579 -0.15800089119817939 0 0.16627328335530381 -0.17069773137902189 0 0.17651024624945799 -0.1485415537171802 0 0.17526083145963689 -0.16308053239281189 0 0.16192904395431579 -0.15800089119817939 0 
</DataArray>
</Points>
<Cells>
<DataArray type="UInt32" Name="connectivity" format="ascii">
0 1 2 3 4 5 6 7 8 9 10 11 12 13 14 15 16 17 18 19 20 21 22 23 24 25 26 27 28 29 30 31 32 33 34 35 36 37 38 39 40 41 42 43 44 45 46 47 48 49 50 51 52 53 54 55 56 57 58 59 60 61 62 63 64 65 66 67 68 69 70 71 72 73 74 75 76 77 78 79 80 81 82 83 84 85 86 87 88 89 90 91 92 93 94 95 96 97 98 99 100 101 102 103 104 105 106 107 108 109 110 111 112 113 114 115 116 117 118 119 120 121 122 123 124 125 126 127 128 129 130 131 132 133 134 135 136 137 138 139 140 141 142 143 144 145 146 147 148 149 150 151 152 153 154 155 156 157 158 159 160 161 162 163 164 165 166 167 168 169 170 171 172 173 174 175 176 177 178 179 180 181 182 183 184 185 186 187 188 189 190 191 192 193 194 195 196 197 198 199 200 201 202 203 204 205 206 207 208 209 210 211 212 213 214 215 216 217 218 219 220 221 222 223 224 225 226 227 228 229 230 231 232 233 234 235 236 237 238 239 240 241 242 243 244 245 246 247 248 249 250 251 252 253 254 255 256 257 258 259 260 261 262 263 264 265 266 267 268 269 270 271 272 273 274 275 276 277 278 279 280 281 282 283 284 285 286 287 288 289 290 291 292 293 294 295 296 297 298 299 300 301 302 303 304 305 306 307 308 309 310 311 312 313 314 315 316 317 318 319 320 321 322 323 324 325 326 327 328 329 330 331 332 333 334 335 336 337 338 339 340 341 342 343 344 345 346 347 348 349 350 351 352 353 354 355 356 357 358 359 360 361 362 363 364 365 366 367 368 369 370 371 372 373 374 375 376 377 378 379 380 381 382 383 384 385 386 387 388 389 390 391 392 393 394 395 396 397 398 399 400 401 402 403 404 405 406 407 408 409 410 411 412 413 414 415 416 417 418 419 420 421 422 423 424 425 426 427 428 429 430 431 432 433 434 435 436 437 438 439 440 441 442 443 444 445 446 447 448 449 450 451 452 453 454 455 456 457 458 459 460 461 462 463 464 465 466 467 468 469 470 471 472 473 474 475 476 477 478 479 480 481 482 483 484 485 486 487 488 489 490 491 492 493 494 495 496 497 498 499 500 501 502 503 504 505 506 507 508 509 510 511 512 513 514 515 516 517 518 519 520 521 522 523 524 525 526 527 528 529 530 531 532 533 534 535 536 537 538 539 540 541 542 543 544 545 546 547 548 549 550 551 552 553 554 555 556 557 558 559 560 561 562 563 564 565 566 567 568 569 570 571 572 573 574 575 576 577 578 579 580 581 582 583 584 585 586 587 588 589 590 591 592 593 594 595 596 597 598 599 600 601 602 603 604 605 606 607 608 609 610 611 612 613 614 615 616 617 618 619 620 621 622 623 624 625 626 627 628 629 630 631 632 633 634 635 636 637 638 639 640 641 642 643 644 645 646 647 648 649 650 651 652 653 654 655 656 657 658 659 660 661 662 663 664 665 666 667 668 669 670 671 672 673 674 675 676 677 678 679 680 681 682 683 684 685 686 687 688 689 690 691 692 693 694 695 696 697 698 699 700 701 702 703 704 705 706 707 708 709 710 711 712 713 714 715 716 717 718 719 720 721 722 723 724 725 726 727 728 729 730 731 732 733 734 735 736 737 738 739 740 741 742 743 744 745 746 747 748 749 750 751 752 753 754 755 756 757 758 759 760 761 762 763 764 765 766 767 768 769 770 771 772 773 774 775 776 777 778 779 780 781 782 783 784 785 786 787 788 789 790 791 792 793 794 795 796 797 798 799 800 801 802 803 804 805 806 807 808 809 810 811 812 813 814 815 816 817 818 819 820 821 822 823 824 825 826 827 828 829 830 831 832 833 834 835 836 837 838 839 840 841 842 843 844 845 846 847 848 849 850 851 852 853 854 855 856 857 858 859 860 861 862 863 864 865 866 867 868 869 870 871 872 873 874 875 876 877 878 879 880 881 882 883 884 885 886 887 888 889 890 891 892 893 894 895 896 897 898 899 900 901 902 903 904 905 906 907 908 909 910 911 912 913 914 915 916 917 918 919 920 921 922 923 924 925 926 927 928 929 930 931 932 933 934 935 936 937 938 939 940 941 942 943 944 945 946 947 948 949 950 951 952 953 954 955 956 957 958 959 960 961 962 963 964 965 966 967 968 969 970 971 972 973 974 975 976 977 978 979 980 981 982 983 984 985 986 987 988 989 990 991 992 993 994 995 996 997 998 999 1000 1001 1002 1003 1004 1005 1006 1007 1008 1009 1010 1011 1012 1013 1014 1015 1016 1017 1018 1019 1020 1021 1022 1023 1024 1025 1026 1027 1028 1029 1030 1031 1032 1033 1034 1035 1036 1037 1038 1039 1040 1041 1042 1043 1044 1045 1046 1047 1048 1049 1050 1051 1052 1053 1054 1055 1056 1057 1058 1059 1060 1061 1062 1063 1064 1065 1066 1067 1068 1069 1070 1071 1072 1073 1074 1075 1076 1077 1078 1079 1080 1081 1082 1083 1084 1085 1086 1087 1088 1089 1090 1091 1092 1093 1094 1095 1096 1097 1098 1099 1100 1101 1102 1103 1104 1105 1106 1107 1108 1109 1110 1111 1112 1113 1114 1115 1116 1117 1118 1119 1120 1121 1122 1123 1124 1125 1126 1127 1128 1129 1130 1131 1132 1133 1134 1135 1136 1137 1138 1139 1140 1141 1142 1143 1144 1145 1146 1147 1148 1149 1150 1151 1152 1153 1154 1155 1156 1157 1158 1159 1160 1161 1162 1163 1164 1165 1166 1167 1168 1169 1170 1171 1172 1173 1174 1175 1176 1177 1178 1179 1180 1181 1182 1183 1184 1185 1186 1187 1188 1189 1190 1191 1192 1193 1194 1195 1196 1197 1198 1199 1200 1201 1202 1203 1204 1205 1206 1207 1208 1209 1210 1211 1212 1213 1214 1215 1216 1217 1218 1219 1220 1221 1222 1223 1224 1225 1226 1227 1228 1229 1230 1231 1232 1233 1234 1235 1236 1237 1238 1239 1240 1241 1242 1243 1244 1245 1246 1247 1248 1249 1250 1251 1252 1253 1254 1255 1256 1257 1258 1259 1260 1261 1262 1263 1264 1265 1266 1267 1268 1269 1270 1271 1272 1273 1274 1275 1276 1277 1278 1279 1280 1281 1282 1283 1284 1285 1286 1287 1288 1289 1290 1291 1292 1293 1294 1295 1296 1297 1298 1299 1300 1301 1302 1303 1304 1305 1306 1307 1308 1309 1310 1311 1312 1313 1314 1315 1316 1317 1318 1319 1320 1321 1322 1323 1324 1325 1326 1327 1328 1329 1330 1331 1332 1333 1334 1335 1336 1337 1338 1339 1340 1341 1342 1343 1344 1345 1346 1347 1348 1349 1350 1351 1352 1353 1354 1355 1356 1357 1358 1359 1360 1361 1362 1363 1364 1365 1366 1367 1368 1369 1370 1371 1372 1373 1374 1375 1376 1377 1378 1379 1380 1381 1382 1383 1384 1385 1386 1387 1388 1389 1390 1391 1392 1393 1394 1395 1396 1397 1398 1399 1400 1401 1402 1403 1404 1405 1406 1407 1408 1409 1410 1411 1412 1413 1414 1415 1416 1417 1418 1419 1420 1421 1422 1423 1424 1425 1426 1427 1428 1429 1430 1431 1432 1433 1434 1435 1436 1437 1438 1439 1440 1441 1442 1443 1444 1445 1446 1447 1448 1449 1450 1451 1452 1453 1454 1455 1456 1457 1458 1459 1460 1461 1462 1463 1464 1465 1466 1467 1468 1469 1470 1471 1472 1473 1474 1475 1476 1477 1478 1479 1480 1481 1482 1483 1484 1485 1486 1487 1488 1489 1490 1491 1492 1493 1494 1495 1496 1497 1498 1499 1500 1501 1502 1503 1504 1505 1506 1507 1508 1509 1510 1511 1512 1513 1514 1515 1516 1517 1518 1519 1520 1521 1522 1523 1524 1525 1526 1527 1528 1529 1530 1531 1532 1533 1534 1535 1536 1537 1538 1539 1540 1541 1542 1543 1544 1545 1546 1547 1548 1549 1550 1551 1552 1553 1554 1555 1556 1557 1558 1559 1560 1561 1562 1563 1564 1565 1566 1567 1568 1569 1570 1571 1572 1573 1574 1575 1576 1577 1578 1579 1580 1581 1582 1583 1584 1585 1586 1587 1588 1589 1590 1591 1592 1593 1594 1595 1596 1597 1598 1599 1600 1601 1602 1603 1604 1605 1606 1607 1608 1609 1610 1611 1612 1613 1614 1615 1616 1617 1618 1619 1620 1621 1622 1623 1624 1625 1626 1627 1628 1629 1630 1631 1632 1633 1634 1635 1636 1637 1638 1639 1640 1641 1642 1643 1644 1645 1646 1647 1648 1649 1650 1651 1652 1653 1654 1655 1656 1657 1658 1659 1660 1661 1662 1663 1664 1665 1666 1667 1668 1669 1670 1671 1672 1673 1674 1675 1676 1677 1678 1679 1680 1681 1682 1683 1684 1685 1686 1687 1688 1689 1690 1691 1692 1693 1694 1695 1696 1697 1698 1699 1700 1701 1702 1703 1704 1705 1706 1707 1708 1709 1710 1711 1712 1713 1714 1715 1716 1717 1718 1719 1720 1721 1722 1723 1724 1725 1726 1727 1728 1729 1730 1731 1732 1733 1734 1735 1736 1737 1738 1739 1740 1741 1742 1743 1744 1745 1746 1747 1748 1749 1750 1751 1752 1753 1754 1755 1756 1757 1758 1759 1760 1761 1762 1763 1764 1765 1766 1767 1768 1769 1770 1771 1772 1773 1774 1775 1776 1777 1778 1779 1780 1781 1782 1783 1784 1785 1786 1787 1788 1789 1790 1791 1792 1793 1794 1795 1796 1797 1798 1799 1800 1801 1802 1803 1804 1805 1806 1807 1808 1809 1810 1811 1812 1813 1814 1815 1816 1817 1818 1819 1820 1821 1822 1823 1824 1825 1826 1827 1828 1829 1830 1831 1832 1833 1834 1835 1836 1837 1838 1839 1840 1841 1842 1843 1844 1845 1846 1847 1848 1849 1850 1851 1852 1853 1854 1855 1856 1857 1858 1859 1860 1861 1862 1863 1864 1865 1866 1867 1868 1869 1870 1871 1872 1873 1874 1875 1876 1877 1878 1879 1880 1881 1882 1883 1884 1885 1886 1887 1888 1889 1890 1891 1892 1893 1894 1895 1896 1897 1898 1899 1900 1901 1902 1903 1904 1905 1906 1907 1908 1909 1910 1911 1912 1913 1914 1915 1916 1917 1918 1919 1920 1921 1922 1923 1924 1925 1926 1927 1928 1929 1930 1931 1932 1933 1934 1935 1936 1937 1938 1939 1940 1941 1942 1943 1944 1945 1946 1947 1948 1949 1950 1951 1952 1953 1954 1955 1956 1957 1958 1959 1960 1961 1962 1963 1964 1965 1966 1967 1968 1969 1970 1971 1972 1973 1974 1975 1976 1977 1978 1979 1980 1981 1982 1983 1984 1985 1986 1987 1988 1989 1990 1991 1992 1993 1994 1995 1996 1997 1998 1999 2000 2001 2002 2003 2004 2005 2006 2007 2008 2009 2010 2011 2012 2013 2014 2015 2016 2017 2018 2019 2020 2021 2022 2023 2024 2025 2026 2027 2028 2029 2030 2031 2032 2033 2034 2035 2036 2037 2038 2039 2040 2041 2042 2043 2044 2045 2046 2047 2048 2049 2050 2051 2052 2053 2054 2055 2056 2057 2058 2059 2060 2061 2062 2063 2064 2065 2066 2067 2068 2069 2070 2071 2072 2073 2074 2075 2076 2077 2078 2079 2080 2081 2082 2083 2084 2085 2086 2087 2088 2089 2090 2091 2092 2093 2094 2095 2096 2097 2098 2099 2100 2101 2102 2103 2104 2105 2106 2107 2108 2109 2110 2111 2112 2113 2114 2115 2116 2117 2118 2119 2120 2121 2122 2123 2124 2125 2126 2127 2128 2129 2130 2131 2132 2133 2134 2135 2136 2137 2138 2139 2140 2141 2142 2143 2144 2145 2146 2147 2148 2149 2150 2151 2152 2153 2154 2155 2156 2157 2158 2159 2160 2161 2162 2163 2164 2165 2166 2167 2168 2169 2170 2171 2172 2173 2174 2175 2176 2177 2178 2179 2180 2181 2182 2183 2184 2185 2186 2187 2188 2189 2190 2191 2192 2193 2194 2195 2196 2197 2198 2199 2200 2201 2202 2203 2204 2205 2206 2207 2208 2209 2210 2211 2212 2213 2214 2215 2216 2217 2218 2219 2220 2221 2222 2223 2224 2225 2226 2227 2228 2229 2230 2231 2232 2233 2234 2235 2236 2237 2238 2239 2240 2241 2242 2243 2244 2245 2246 2247 2248 2249 2250 2251 2252 2253 2254 2255 2256 2257 2258 2259 2260 2261 2262 2263 2264 2265 2266 2267 2268 2269 2270 2271 2272 2273 2274 2275 2276 2277 2278 2279 2280 2281 2282 2283 2284 2285 2286 2287 2288 2289 2290 2291 2292 2293 2294 2295 2296 2297 2298 2299 2300 2301 2302 2303 2304 2305 2306 2307 2308 2309 2310 2311 2312 2313 2314 2315 2316 2317 2318 2319 2320 2321 2322 2323 2324 2325 2326 2327 2328 2329 2330 2331 2332 2333 2334 2335 2336 2337 2338 2339 2340 2341 2342 2343 2344 2345 2346 2347 2348 2349 2350 2351 2352 2353 2354 2355 2356 2357 2358 2359 2360 2361 2362 2363 2364 2365 2366 2367 2368 2369 2370 2371 2372 2373 2374 2375 2376 2377 2378 2379 2380 2381 2382 2383 2384 2385 2386 2387 2388 2389 2390 2391 2392 2393 2394 2395 2396 2397 2398 2399 2400 2401 2402 2403 2404 2405 2406 2407 2408 2409 2410 2411 2412 2413 2414 2415 2416 2417 2418 2419 2420 2421 2422 2423 2424 2425 2426 2427 2428 2429 2430 2431 2432 2433 2434 2435 2436 2437 2438 2439 2440 2441 2442 2443 2444 2445 2446 2447 2448 2449 2450 2451 2452 2453 2454 2455 2456 2457 2458 2459 2460 2461 2462 2463 2464 2465 2466 2467 2468 2469 2470 2471 2472 2473 2474 2475 2476 2477 2478 2479 2480 2481 2482 2483 2484 2485 2486 2487 2488 2489 2490 2491 2492 2493 2494 2495 2496 2497 2498 2499 2500 2501 2502 2503 2504 2505 2506 2507 2508 2509 2510 2511 2512 2513 2514 2515 2516 2517 2518 2519 2520 2521 2522 2523 2524 2525 2526 2527 2528 2529 2530 2531 2532 2533 2534 2535 2536 2537 2538 2539 2540 2541 2542 2543 2544 2545 2546 2547 2548 2549 2550 2551 2552 2553 2554 2555 2556 2557 2558 2559 2560 2561 2562 2563 2564 2565 2566 2567 2568 2569 2570 2571 2572 2573 2574 2575 2576 2577 2578 2579 2580 2581 2582 2583 2584 2585 2586 2587 2588 2589 2590 2591 2592 2593 2594 2595 2596 2597 2598 2599 2600 2601 2602 2603 2604 2605 2606 2607 2608 2609 2610 2611 2612 2613 2614 2615 2616 2617 2618 2619 2620 2621 2622 2623 2624 2625 2626 2627 2628 2629 2630 2631 2632 2633 2634 2635 2636 2637 2638 2639 2640 2641 2642 2643 2644 2645 2646 2647 2648 2649 2650 2651 2652 2653 2654 2655 2656 2657 2658 2659 2660 2661 2662 2663 2664 2665 2666 2667 2668 2669 2670 2671 2672 2673 2674 2675 2676 2677 2678 2679 2680 2681 2682 2683 2684 2685 2686 2687 2688 2689 2690 2691 2692 2693 2694 2695 2696 2697 2698 2699 2700 2701 2702 2703 2704 2705 2706 2707 2708 2709 2710 2711 2712 2713 2714 2715 2716 2717 2718 2719 2720 2721 2722 2723 2724 2725 2726 2727 2728 2729 2730 2731 2732 2733 2734 2735 2736 2737 2738 2739 2740 2741 2742 2743 2744 2745 2746 2747 2748 2749 2750 2751 2752 2753 2754 2755 2756 2757 2758 2759 2760 2761 2762 2763 2764 2765 2766 2767 2768 2769 2770 2771 2772 2773 2774 2775 2776 2777 2778 2779 2780 2781 2782 2783 2784 2785 2786 2787 2788 2789 2790 2791 2792 2793 2794 2795 2796 2797 2798 2799 2800 2801 2802 2803 2804 2805 2806 2807 2808 2809 2810 2811 2812 2813 2814 2815 2816 2817 2818 2819 2820 2821 2822 2823 2824 2825 2826 2827 2828 2829 2830 2831 2832 2833 2834 2835 2836 2837 2838 2839 2840 2841 2842 2843 2844 2845 2846 2847 2848 2849 2850 2851 2852 2853 2854 2855 2856 2857 2858 2859 2860 2861 2862 2863 2864 2865 2866 2867 2868 2869 2870 2871 2872 2873 2874 2875 2876 2877 2878 2879 2880 2881 2882 2883 2884 2885 2886 2887 2888 2889 2890 2891 2892 2893 2894 2895 2896 2897 2898 2899 2900 2901 2902 2903 2904 2905 2906 2907 2908 2909 2910 2911 2912 2913 2914 2915 2916 2917 2918 2919 2920 2921 2922 2923 2924 2925 2926 2927 2928 2929 2930 2931 2932 2933 2934 2935 2936 2937 2938 2939 2940 2941 2942 2943 2944 2945 2946 2947 2948 2949 2950 2951 2952 2953 2954 2955 2956 2957 2958 2959 2960 2961 2962 2963 2964 2965 2966 2967 2968 2969 2970 2971 2972 2973 2974 2975 2976 2977 2978 2979 2980 2981 2982 2983 2984 2985 2986 2987 2988 2989 2990 2991 2992 2993 2994 2995 2996 2997 2998 2999 3000 3001 3002 3003 3004 3005 3006 3007 3008 3009 3010 3011 3012 3013 3014 3015 3016 3017 3018 3019 3020 3021 3022 3023 3024 3025 3026 3027 3028 3029 3030 3031 3032 3033 3034 3035 3036 3037 3038 3039 3040 3041 3042 3043 3044 3045 3046 3047 3048 3049 3050 3051 3052 3053 3054 3055 3056 3057 3058 3059 3060 3061 3062 3063 3064 3065 3066 3067 3068 3069 3070 3071 3072 3073 3074 3075 3076 3077 3078 3079 3080 3081 3082 3083 3084 3085 3086 3087 3088 3089 3090 3091 3092 3093 3094 3095 3096 3097 3098 3099 3100 3101 3102 3103 3104 3105 3106 3107 3108 3109 3110 3111 3112 3113 3114 3115 3116 3117 3118 3119 3120 3121 3122 3123 3124 3125 3126 3127 3128 3129 3130 3131 3132 3133 3134 3135 3136 3137 3138 3139 3140 3141 3142 3143 3144 3145 3146 3147 3148 3149 3150 3151 3152 3153 3154 3155 3156 3157 3158 3159 3160 3161 3162 3163 3164 3165 3166 3167 3168 3169 3170 3171 3172 3173 3174 3175 3176 3177 3178 3179 3180 3181 3182 3183 3184 3185 3186 3187 3188 3189 3190 3191 3192 3193 3194 3195 3196 3197 3198 3199 3200 3201 3202 3203 3204 3205 3206 3207 3208 3209 3210 3211 3212 3213 3214 3215 3216 3217 3218 3219 3220 3221 3222 3223 3224 3225 3226 3227 3228 3229 3230 3231 3232 3233 3234 3235 3236 3237 3238 3239 3240 3241 3242 3243 3244 3245 3246 3247 3248 3249 3250 3251 3252 3253 3254 3255 3256 3257 3258 3259 3260 3261 3262 3263 3264 3265 3266 3267 3268 3269 3270 3271 3272 3273 3274 3275 3276 3277 3278 3279 3280 3281 3282 3283 3284 3285 3286 3287 3288 3289 3290 3291 3292 3293 3294 3295 3296 3297 3298 3299 3300 3301 3302 3303 3304 3305 3306 3307 3308 3309 3310 3311 3312 3313 3314 3315 3316 3317 3318 3319 3320 3321 3322 3323 3324 3325 3326 3327 3328 3329 3330 3331 3332 3333 3334 3335 3336 3337 3338 3339 3340 3341 3342 3343 3344 3345 3346 3347 3348 3349 3350 3351 3352 3353 3354 3355 3356 3357 3358 3359 3360 3361 3362 3363 3364 3365 3366 3367 3368 3369 3370 3371 3372 3373 3374 3375 3376 3377 3378 3379 3380 3381 3382 3383 3384 3385 3386 3387 3388 3389 3390 3391 3392 3393 3394 3395 3396 3397 3398 3399 3400 3401 3402 3403 3404 3405 3406 3407 3408 3409 3410 3411 3412 3413 3414 3415 3416 3417 3418 3419 3420 3421 3422 3423 3424 3425 3426 3427 3428 3429 3430 3431 3432 3433 3434 3435 3436 3437 3438 3439 3440 3441 3442 3443 3444 3445 3446 3447 3448 3449 3450 3451 3452 3453 3454 3455 3456 3457 3458 3459 3460 3461 3462 3463 3464 3465 3466 3467 3468 3469 3470 3471 3472 3473 3474 3475 3476 3477 3478 3479 3480 3481 3482 3483 3484 3485 3486 3487 3488 3489 3490 3491 3492 3493 3494 3495 3496 3497 3498 3499 3500 3501 3502 3503 3504 3505 3506 3507 3508 3509 3510 3511 3512 3513 3514 3515 3516 3517 3518 3519 3520 3521 3522 3523 3524 3525 3526 3527 3528 3529 3530 3531 3532 3533 3534 3535 3536 3537 3538 3539 3540 3541 3542 3543 3544 3545 3546 3547 3548 3549 3550 3551 3552 3553 3554 3555 3556 3557 3558 3559 3560 3561 3562 3563 3564 3565 3566 3567 3568 3569 3570 3571 3572 3573 3574 3575 3576 3577 3578 3579 3580 3581 3582 3583 3584 3585 3586 3587 3588 3589 3590 3591 3592 3593 3594 3595 3596 3597 3598 3599 3600 3601 3602 3603 3604 3605 3606 3607 3608 3609 3610 3611 3612 3613 3614 3615 3616 3617 3618 3619 3620 3621 3622 3623 3624 3625 3626 3627 3628 3629 3630 3631 3632 3633 3634 3635 3636 3637 3638 3639 3640 3641 3642 3643 3644 3645 3646 3647 3648 3649 3650 3651 3652 3653 3654 3655 3656 3657 3658 3659 3660 3661 3662 3663 3664 3665 3666 3667 3668 3669 3670 3671 3672 3673 3674 3675 3676 3677 3678 3679 3680 3681 3682 3683 3684 3685 3686 3687 3688 3689 3690 3691 3692 3693 3694 3695 3696 3697 3698 3699 3700 3701 3702 3703 3704 3705 3706 3707 3708 3709 3710 3711 3712 3713 3714 3715 3716 3717 3718 3719 3720 3721 3722 3723 3724 3725 3726 3727 3728 3729 3730 3731 3732 3733 3734 3735 3736 3737 3738 3739 3740 3741 3742 3743 3744 3745 3746 3747 3748 3749 3750 3751 3752 3753 3754 3755 3756 3757 3758 3759 3760 3761 3762 3763 3764 3765 3766 3767 3768 3769 3770 3771 3772 3773 3774 3775 3776 3777 3778 3779 3780 3781 3782 3783 3784 3785 3786 3787 3788 3789 3790 3791 3792 3793 3794 3795 3796 3797 3798 3799 3800 3801 3802 3803 3804 3805 3806 3807 3808 3809 3810 3811 3812 3813 3814 3815 3816 3817 3818 3819 3820 3821 3822 3823 3824 3825 3826 3827 3828 3829 3830 3831 3832 3833 3834 3835 3836 3837 3838 3839 3840 3841 3842 3843 3844 3845 3846 3847 3848 3849 3850 3851 3852 3853 3854 3855 3856 3857 3858 3859 3860 3861 3862 3863 3864 3865 3866 3867 3868 3869 3870 3871 3872 3873 3874 3875 3876 3877 3878 3879 3880 3881 3882 3883 3884 3885 3886 3887 3888 3889 3890 3891 3892 3893 3894 3895 3896 3897 3898 3899 3900 3901 3902 3903 3904 3905 3906 3907 3908 3909 3910 3911 3912 3913 3914 3915 3916 3917 3918 3919 3920 3921 3922 3923 3924 3925 3926 3927 3928 3929 3930 3931 3932 3933 3934 3935 3936 3937 3938 3939 3940 3941 3942 3943 3944 3945 3946 3947 3948 3949 3950 3951 3952 3953 3954 3955 3956 3957 3958 3959 3960 3961 3962 3963 3964 3965 3966 3967 3968 3969 3970 3971 3972 3973 3974 3975 3976 3977 3978 3979 3980 3981 3982 3983 3984 3985 3986 3987 3988 3989 3990 3991 3992 3993 3994 3995 3996 3997 3998 3999 4000 4001 4002 4003 4004 4005 4006 4007 4008 4009 4010 4011 4012 4013 4014 4015 4016 4017 4018 4019 4020 4021 4022 4023 4024 4025 4026 4027 4028 4029 4030 4031 4032 4033 4034 4035 4036 4037 4038 4039 4040 4041 4042 4043 4044 4045 4046 4047 4048 4049 4050 4051 4052 4053 4054 4055 4056 4057 4058 4059 4060 4061 4062 4063 4064 4065 4066 4067 4068 4069 4070 4071 4072 4073 4074 4075 4076 4077 4078 4079 4080 4081 4082 4083 4084 4085 4086 4087 4088 4089 4090 4091 4092 4093 4094 4095 4096 4097 4098 4099 4100 4101 4102 4103 4104 4105 4106 4107 4108 4109 4110 4111 4112 4113 4114 4115 4116 4117 4118 4119 4120 4121 4122 4123 4124 4125 4126 4127 4128 4129 4130 4131 4132 4133 4134 4135 4136 4137 4138 4139 4140 4141 4142 4143 4144 4145 4146 4147 4148 4149 4150 4151 4152 4153 4154 4155 4156 4157 4158 4159 4160 4161 4162 4163 4164 4165 4166 4167 4168 4169 4170 4171 4172 4173 4174 4175 4176 4177 4178 4179 4180 4181 4182 4183 4184 4185 4186 4187 4188 4189 4190 4191 4192 4193 4194 4195 4196 4197 4198 4199 4200 4201 4202 4203 4204 4205 4206 4207 4208 4209 4210 4211 4212 4213 4214 4215 4216 4217 4218 4219 4220 4221 4222 4223 4224 4225 4226 4227 4228 4229 4230 4231 4232 4233 4234 4235 4236 4237 4238 4239 4240 4241 4242 4243 4244 4245 4246 4247 4248 4249 4250 4251 4252 4253 4254 4255 4256 4257 4258 4259 4260 4261 4262 4263 4264 4265 4266 4267 4268 4269 4270 4271 4272 4273 4274 4275 4276 4277 4278 4279 4280 4281 4282 4283 4284 4285 4286 4287 4288 4289 4290 4291 4292 4293 4294 4295 4296 4297 4298 4299 4300 4301 4302 4303 4304 4305 4306 4307 4308 4309 4310 4311 4312 4313 4314 4315 4316 4317 4318 4319 4320 4321 4322 4323 4324 4325 4326 4327 4328 4329 4330 4331 4332 4333 4334 4335 4336 4337 4338 4339 4340 4341 4342 4343 4344 4345 4346 4347 4348 4349 4350 4351 4352 4353 4354 4355 4356 4357 4358 4359 4360 4361 4362 4363 4364 4365 4366 4367 4368 4369 4370 4371 4372 4373 4374 4375 4376 4377 4378 4379 4380 4381 4382 4383 4384 4385 4386 4387 4388 4389 4390 4391 4392 4393 4394 4395 4396 4397 4398 4399 4400 4401 4402 4403 4404 4405 4406 4407 4408 4409 4410 4411 4412 4413 4414 4415 4416 4417 4418 4419 4420 4421 4422 4423 4424 4425 4426 4427 4428 4429 4430 4431 4432 4433 4434 4435 4436 4437 4438 4439 4440 4441 4442 4443 4444 4445 4446 4447 4448 4449 4450 4451 4452 4453 4454 4455 4456 4457 4458 4459 4460 4461 4462 4463 4464 4465 4466 4467 4468 4469 4470 4471 4472 4473 4474 4475 4476 4477 4478 4479 4480 4481 4482 4483 4484 4485 4486 4487 4488 4489 4490 4491 4492 4493 4494 4495 4496 4497 4498 4499 4500 4501 4502 4503 4504 4505 4506 4507 4508 4509 4510 4511 4512 4513 4514 4515 4516 4517 4518 4519 4520 4521 4522 4523 4524 4525 4526 4527 4528 4529 4530 4531 4532 4533 4534 4535 4536 4537 4538 4539 4540 4541 4542 4543 4544 4545 4546 4547 4548 4549 4550 4551 4552 4553 4554 4555 4556 4557 4558 4559 4560 4561 4562 4563 4564 4565 4566 4567 4568 4569 4570 4571 4572 4573 4574 4575 4576 4577 4578 4579 4580 4581 4582 4583 4584 4585 4586 4587 4588 4589 4590 4591 4592 4593 4594 4595 4596 4597 4598 4599 4600 4601 4602 4603 4604 4605 4606 4607 4608 4609 4610 4611 4612 4613 4614 4615 4616 4617 4618 4619 4620 4621 4622 4623 4624 4625 4626 4627 4628 4629 4630 4631 4632 4633 4634 4635 4636 4637 4638 4639 4640 4641 4642 4643 4644 4645 4646 4647 4648 4649 4650 4651 4652 4653 4654 4655 4656 4657 4658 4659 4660 4661 4662 4663 4664 4665 4666 4667 4668 4669 4670 4671 4672 4673 4674 4675 4676 4677 4678 4679 4680 4681 4682 4683 4684 4685 4686 4687 4688 4689 4690 4691 4692 4693 4694 4695 4696 4697 4698 4699 4700 4701 4702 4703 4704 4705 4706 4707 4708 4709 4710 4711 4712 4713 4714 4715 4716 4717 4718 4719 4720 4721 4722 4723 4724 4725 4726 4727 4728 4729 4730 4731 4732 4733 4734 4735 4736 4737 4738 4739 4740 4741 4742 4743 4744 4745 4746 4747 4748 4749 4750 4751 4752 4753 4754 4755 4756 4757 4758 4759 4760 4761 4762 4763 4764 4765 4766 4767 4768 4769 4770 4771 4772 4773 4774 4775 4776 4777 4778 4779 4780 4781 4782 4783 4784 4785 4786 4787 4788 4789 4790 4791 4792 4793 4794 4795 4796 4797 4798 4799 4800 4801 4802 4803 4804 4805 4806 4807 4808 4809 4810 4811 4812 4813 4814 4815 4816 4817 4818 4819 4820 4821 4822 4823 4824 4825 4826 4827 4828 4829 4830 4831 4832 4833 4834 4835 4836 4837 4838 4839 4840 4841 4842 4843 4844 4845 4846 4847 4848 4849 4850 4851 4852 4853 4854 4855 4856 4857 4858 4859 4860 4861 4862 4863 4864 4865 4866 4867 4868 4869 4870 4871 4872 4873 4874 4875 4876 4877 4878 4879 4880 4881 4882 4883 4884 4885 4886 4887 4888 4889 4890 4891 4892 4893 4894 4895 4896 4897 4898 4899 4900 4901 4902 4903 4904 4905 4906 4907 4908 4909 4910 4911 4912 4913 4914 4915 4916 4917 4918 4919 4920 4921 4922 4923 4924 4925 4926 4927 4928 4929 4930 4931 4932 4933 4934 4935 4936 4937 4938 4939 4940 4941 4942 4943 4944 4945 4946 4947 4948 4949 4950 4951 4952 4953 4954 4955 4956 4957 4958 4959 4960 4961 4962 4963 4964 4965 4966 4967 4968 4969 4970 4971 4972 4973 4974 4975 4976 4977 4978 4979 4980 4981 4982 4983 4984 4985 4986 4987 4988 4989 4990 4991 4992 4993 4994 4995 4996 4997 4998 4999 5000 5001 5002 5003 5004 5005 5006 5007 5008 5009 5010 5011 5012 5013 5014 5015 5016 5017 5018 5019 5020 5021 5022 5023 5024 5025 5026 5027 5028 5029 5030 5031 5032 5033 5034 5035 5036 5037 5038 5039 5040 5041 5042 5043 5044 5045 5046 5047 5048 5049 5050 5051 5052 5053 5054 5055 5056 5057 5058 5059 5060 5061 5062 5063 5064 5065 5066 5067 5068 5069 5070 5071 5072 5073 5074 5075 5076 5077 5078 5079 5080 5081 5082 5083 5084 5085 5086 5087 5088 5089 5090 5091 5092 5093 5094 5095 5096 5097 5098 5099 5100 5101 5102 5103 5104 5105 5106 5107 5108 5109 5110 5111 5112 5113 5114 5115 5116 5117 5118 5119 5120 5121 5122 5123 5124 5125 5126 5127 5128 5129 5130 5131 5132 5133 5134 5135 5136 5137 5138 5139 5140 5141 5142 5143 5144 5145 5146 5147 5148 5149 5150 5151 5152 5153 5154 5155 5156 5157 5158 5159 5160 5161 5162 5163 5164 5165 5166 5167 5168 5169 5170 5171 5172 5173 5174 5175 5176 5177 5178 5179 5180 5181 5182 5183 5184 5185 5186 5187 5188 5189 5190 5191 5192 5193 5194 5195 5196 5197 5198 5199 5200 5201 5202 5203 5204 5205 5206 5207 5208 5209 5210 5211 5212 5213 5214 5215 5216 5217 5218 5219 5220 5221 5222 5223 5224 5225 5226 5227 5228 5229 5230 5231 5232 5233 5234 5235 5236 5237 5238 5239 5240 5241 5242 5243 5244 5245 5246 5247 5248 5249 5250 5251 5252 5253 5254 5255 5256 5257 5258 5259 5260 5261 5262 5263 5264 5265 5266 5267 5268 5269 5270 5271 5272 5273 5274 5275 5276 5277 5278 5279 5280 5281 5282 5283 5284 5285 5286 5287 5288 5289 5290 5291 5292 5293 5294 5295 5296 5297 5298 5299 5300 5301 5302 5303 5304 5305 5306 5307 5308 5309 5310 5311 5312 5313 5314 5315 5316 5317 5318 5319 5320 5321 5322 5323 5324 5325 5326 5327 5328 5329 5330 5331 5332 5333 5334 5335 5336 5337 5338 5339 5340 5341 5342 5343 5344 5345 5346 5347 5348 5349 5350 5351 5352 5353 5354 5355 5356 5357 5358 5359 5360 5361 5362 5363 5364 5365 5366 5367 5368 5369 5370 5371 5372 5373 5374 5375 5376 5377 5378 5379 5380 5381 5382 5383 5384 5385 5386 5387 5388 5389 5390 5391 5392 5393 5394 5395 5396 5397 5398 5399 5400 5401 5402 5403 5404 5405 5406 5407 5408 5409 5410 5411 5412 5413 5414 5415 5416 5417 5418 5419 5420 5421 5422 5423 5424 5425 5426 5427 5428 5429 5430 5431 5432 5433 5434 5435 5436 5437 5438 5439 5440 5441 5442 5443 5444 5445 5446 5447 5448 5449 5450 5451 5452 5453 5454 5455 5456 5457 5458 5459 5460 5461 5462 5463 5464 5465 5466 5467 5468 5469 5470 5471 5472 5473 5474 5475 5476 5477 5478 5479 5480 5481 5482 5483 5484 5485 5486 5487 5488 5489 5490 5491 5492 5493 5494 5495 5496 5497 5498 5499 5500 5501 5502 5503 5504 5505 5506 5507 5508 5509 5510 5511 5512 5513 5514 5515 5516 5517 5518 5519 5520 5521 5522 5523 5524 5525 5526 5527 5528 5529 5530 5531 5532 5533 5534 5535 5536 5537 5538 5539 5540 5541 5542 5543 5544 5545 5546 5547 5548 5549 5550 5551 5552 5553 5554 5555 5556 5557 5558 5559 5560 5561 5562 5563 5564 5565 5566 5567 5568 5569 5570 5571 5572 5573 5574 5575 5576 5577 5578 5579 5580 5581 5582 5583 5584 5585 5586 5587 5588 5589 5590 5591 5592 5593 5594 5595 5596 5597 5598 5599 5600 5601 5602 5603 5604 5605 5606 5607 5608 5609 5610 5611 5612 5613 5614 5615 5616 5617 5618 5619 5620 5621 5622 5623 5624 5625 5626 5627 5628 5629 5630 5631 5632 5633 5634 5635 5636 5637 5638 5639 5640 5641 5642 5643 5644 5645 5646 5647 5648 5649 5650 5651 5652 5653 5654 5655 5656 5657 5658 5659 5660 5661 5662 5663 5664 5665 5666 5667 5668 5669 5670 5671 5672 5673 5674 5675 5676 5677 5678 5679 5680 5681 5682 5683 5684 5685 5686 5687 5688 5689 5690 5691 5692 5693 5694 5695 5696 5697 5698 5699 5700 5701 5702 5703 5704 5705 5706 5707 5708 5709 5710 5711 5712 5713 5714 5715 5716 5717 5718 5719 5720 5721 5722 5723 5724 5725 5726 5727 5728 5729 5730 5731 5732 5733 5734 5735 5736 5737 5738 5739 5740 5741 5742 5743 5744 5745 5746 5747 5748 5749 5750 5751 5752 5753 5754 5755 5756 5757 5758 5759 5760 5761 5762 5763 5764 5765 5766 5767 5768 5769 5770 5771 5772 5773 5774 5775 5776 5777 5778 5779 5780 5781 5782 5783 5784 5785 5786 5787 5788 5789 5790 5791 5792 5793 5794 5795 5796 5797 5798 5799 5800 5801 5802 5803 5804 5805 5806 5807 5808 5809 5810 5811 5812 5813 5814 5815 5816 5817 5818 5819 5820 5821 5822 5823 5824 5825 5826 5827 5828 5829 5830 5831 5832 5833 5834 5835 5836 5837 5838 5839 5840 5841 5842 5843 5844 5845 5846 5847 5848 5849 5850 5851 5852 5853 5854 5855 5856 5857 5858 5859 5860 5861 5862 5863 5864 5865 5866 5867 5868 5869 5870 5871 5872 5873 5874 5875 5876 5877 5878 5879 5880 5881 5882 5883 5884 5885 5886 5887 5888 5889 5890 5891 5892 5893 5894 5895 5896 5897 5898 5899 5900 5901 5902 5903 5904 5905 5906 5907 5908 5909 5910 5911 5912 5913 5914 5915 5916 5917 5918 5919 5920 5921 5922 5923 5924 5925 5926 5927 5928 5929 5930 5931 5932 5933 5934 5935 5936 5937 5938 5939 5940 5941 5942 5943 5944 5945 5946 5947 5948 5949 5950 5951 5952 5953 5954 5955 5956 5957 5958 5959 5960 5961 5962 5963 5964 5965 5966 5967 5968 5969 5970 5971 5972 5973 5974 5975 5976 5977 5978 5979 5980 5981 5982 5983 5984 5985 5986 5987 5988 5989 5990 5991 5992 5993 5994 5995 5996 5997 5998 5999 6000 6001 6002 6003 6004 6005 6006 6007 6008 6009 6010 6011 6012 6013 6014 6015 6016 6017 6018 6019 6020 6021 6022 6023 6024 6025 6026 6027 6028 6029 6030 6031 6032 6033 6034 6035 6036 6037 6038 6039 6040 6041 6042 6043 6044 6045 6046 6047 6048 6049 6050 6051 6052 6053 6054 6055 6056 6057 6058 6059 6060 6061 6062 6063 6064 6065 6066 6067 6068 6069 6070 6071 6072 6073 6074 6075 6076 6077 6078 6079 6080 6081 6082 6083 6084 6085 6086 6087 6088 6089 6090 6091 6092 6093 6094 6095 6096 6097 6098 6099 6100 6101 6102 6103 6104 6105 6106 6107 6108 6109 6110 6111 6112 6113 6114 6115 6116 6117 6118 6119 6120 6121 6122 6123 6124 6125 6126 6127 6128 6129 6130 6131 6132 6133 6134 6135 6136 6137 6138 6139 6140 6141 6142 6143 6144 6145 6146 6147 6148 6149 6150 6151 6152 6153 6154 6155 6156 6157 6158 6159 6160 6161 6162 6163 6164 6165 6166 6167 6168 6169 6170 6171 6172 6173 6174 6175 6176 6177 6178 6179 6180 6181 6182 6183 6184 6185 6186 6187 6188 6189 6190 6191 6192 6193 6194 6195 6196 6197 6198 6199 6200 6201 6202 6203 6204 6205 6206 6207 6208 6209 6210 6211 6212 6213 6214 6215 6216 6217 6218 6219 6220 6221 6222 6223 6224 6225 6226 6227 6228 6229 6230 6231 6232 6233 6234 6235 6236 6237 6238 6239 6240 6241 6242 6243 6244 6245 6246 6247 6248 6249 6250 6251 6252 6253 6254 6255 6256 6257 6258 6259 6260 6261 6262 6263 6264 6265 6266 6267 6268 6269 6270 6271 6272 6273 6274 6275 6276 6277 6278 6279 6280 6281 6282 6283 6284 6285 6286 6287 6288 6289 6290 6291 6292 6293 6294 6295 6296 6297 6298 6299 6300 6301 6302 6303 6304 6305 6306 6307 6308 6309 6310 6311 6312 6313 6314 6315 6316 6317 6318 6319 6320 6321 6322 6323 6324 6325 6326 6327 6328 6329 6330 6331 6332 6333 6334 6335 6336 6337 6338 6339 6340 6341 6342 6343 6344 6345 6346 6347 6348 6349 6350 6351 6352 6353 6354 6355 6356 6357 6358 6359 6360 6361 6362 6363 6364 6365 6366 6367 6368 6369 6370 6371 6372 6373 6374 6375 6376 6377 6378 6379 6380 6381 6382 6383 6384 6385 6386 6387 6388 6389 6390 6391 6392 6393 6394 6395 6396 6397 6398 6399 6400 6401 6402 6403 6404 6405 6406 6407 6408 6409 6410 6411 6412 6413 6414 6415 6416 6417 6418 6419 6420 6421 6422 6423 6424 6425 6426 6427 6428 6429 6430 6431 6432 6433 6434 6435 6436 6437 6438 6439 6440 6441 6442 6443 6444 6445 6446 6447 6448 6449 6450 6451 6452 6453 6454 6455 6456 6457 6458 6459 6460 6461 6462 6463 6464 6465 6466 6467 6468 6469 6470 6471 6472 6473 6474 6475 6476 6477 6478 6479 6480 6481 6482 6483 6484 6485 6486 6487 6488 6489 6490 6491 6492 6493 6494 6495 6496 6497 6498 6499 6500 6501 6502 6503 6504 6505 6506 6507 6508 6509 6510 6511 6512 6513 6514 6515 6516 6517 6518 6519 6520 6521 6522 6523 6524 6525 6526 6527 6528 6529 6530 6531 6532 6533 6534 6535 6536 6537 6538 6539 6540 6541 6542 6543 6544 6545 6546 6547 6548 6549 6550 6551 6552 6553 6554 6555 6556 6557 6558 6559 6560 6561 6562 6563 6564 6565 6566 6567 6568 6569 6570 6571 6572 6573 6574 6575 6576 6577 6578 6579 6580 6581 6582 6583 6584 6585 6586 6587 6588 6589 6590 6591 6592 6593 6594 6595 6596 6597 6598 6599 6600 6601 6602 6603 6604 6605 6606 6607 6608 6609 6610 6611 6612 6613 6614 6615 6616 6617 6618 6619 6620 6621 6622 6623 6624 6625 6626 6627 6628 6629 6630 6631 6632 6633 6634 6635 6636 6637 6638 6639 6640 6641 6642 6643 6644 6645 6646 6647 6648 6649 6650 6651 6652 6653 6654 6655 6656 6657 6658 6659 6660 6661 6662 6663 6664 6665 6666 6667 6668 6669 6670 6671 6672 6673 6674 6675 6676 6677 6678 6679 6680 6681 6682 6683 6684 6685 6686 6687 6688 6689 6690 6691 6692 6693 6694 6695 6696 6697 6698 6699 6700 6701 6702 6703 6704 6705 6706 6707 6708 6709 6710 6711 6712 6713 6714 6715 6716 6717 6718 6719 6720 6721 6722 6723 6724 6725 6726 6727 6728 6729 6730 6731 6732 6733 6734 6735 6736 6737 6738 6739 6740 6741 6742 6743 6744 6745 6746 6747 6748 6749 6750 6751 6752 6753 6754 6755 6756 6757 6758 6759 6760 6761 6762 6763 6764 6765 6766 6767 6768 6769 6770 6771 6772 6773 6774 6775 6776 6777 6778 6779 6780 6781 6782 6783 6784 6785 6786 6787 6788 6789 6790 6791 6792 6793 6794 6795 6796 6797 6798 6799 6800 6801 6802 6803 6804 6805 6806 6807 6808 6809 6810 6811 6812 6813 6814 6815 6816 6817 6818 6819 6820 6821 6822 6823 6824 6825 6826 6827 6828 6829 6830 6831 6832 6833 6834 6835 6836 6837 6838 6839 6840 6841 6842 6843 6844 6845 6846 6847 6848 6849 6850 6851 6852 6853 6854 6855 6856 6857 6858 6859 6860 6861 6862 6863 6864 6865 6866 6867 6868 6869 6870 6871 6872 6873 6874 6875 6876 6877 6878 6879 6880 6881 6882 6883 6884 6885 6886 6887 6888 6889 6890 6891 6892 6893 6894 6895 6896 6897 6898 6899 6900 6901 6902 6903 6904 6905 6906 6907 6908 6909 6910 6911 6912 6913 6914 6915 6916 6917 6918 6919 6920 6921 6922 6923 6924 6925 6926 6927 6928 6929 6930 6931 6932 6933 6934 6935 6936 6937 6938 6939 6940 6941 6942 6943 6944 6945 6946 6947 6948 6949 6950 6951 6952 6953 6954 6955 6956 6957 6958 6959 6960 6961 6962 6963 6964 6965 6966 6967 6968 6969 6970 6971 6972 6973 6974 6975 6976 6977 6978 6979 6980 6981 6982 6983 6984 6985 6986 6987 6988 6989 6990 6991 6992 6993 6994 6995 6996 6997 6998 6999 7000 7001 7002 7003 7004 7005 7006 7007 7008 7009 7010 7011 7012 7013 7014 7015 7016 7017 7018 7019 7020 7021 7022 7023 7024 7025 7026 7027 7028 7029 7030 7031 7032 7033 7034 7035 7036 7037 7038 7039 7040 7041 7042 7043 7044 7045 7046 7047 7048 7049 7050 7051 7052 7053 7054 7055 7056 7057 7058 7059 7060 7061 7062 7063 7064 7065 7066 7067 7068 7069 7070 7071 7072 7073 7074 7075 7076 7077 7078 7079 7080 7081 7082 7083 7084 7085 7086 7087 7088 7089 7090 7091 7092 7093 7094 7095 7096 7097 7098 7099 7100 7101 7102 7103 7104 7105 7106 7107 7108 7109 7110 7111 7112 7113 7114 7115 7116 7117 7118 7119 7120 7121 7122 7123 7124 7125 7126 7127 7128 7129 7130 7131 7132 7133 7134 7135 7136 7137 7138 7139 7140 7141 7142 7143 7144 7145 7146 7147 7148 7149 7150 7151 7152 7153 7154 7155 7156 7157 7158 7159 7160 7161 7162 7163 7164 7165 7166 7167 7168 7169 7170 7171 7172 7173 7174 7175 7176 7177 7178 7179 7180 7181 7182 7183 7184 7185 7186 7187 7188 7189 7190 7191 7192 7193 7194 7195 7196 7197 7198 7199 7200 7201 7202 7203 7204 7205 7206 7207 7208 7209 7210 7211 7212 7213 7214 7215 7216 7217 7218 7219 7220 7221 7222 7223 7224 7225 7226 7227 7228 7229 7230 7231 7232 7233 7234 7235 7236 7237 7238 7239 7240 7241 7242 7243 7244 7245 7246 7247 7248 7249 7250 7251 7252 7253 7254 7255 7256 7257 7258 7259 7260 7261 7262 7263 7264 7265 7266 7267 7268 7269 7270 7271 7272 7273 7274 7275 7276 7277 7278 7279 7280 7281 7282 7283 7284 7285 7286 7287 7288 7289 7290 7291 7292 7293 7294 7295 7296 7297 7298 7299 7300 7301 7302 7303 7304 7305 7306 7307 7308 7309 7310 7311 7312 7313 7314 7315 7316 7317 7318 7319 7320 7321 7322 7323 7324 7325 7326 7327 7328 7329 7330 7331 7332 7333 7334 7335 7336 7337 7338 7339 7340 7341 7342 7343 7344 7345 7346 7347 7348 7349 7350 7351 7352 7353 7354 7355 7356 7357 7358 7359 7360 7361 7362 7363 7364 7365 7366 7367 7368 7369 7370 7371 7372 7373 7374 7375 7376 7377 7378 7379 7380 7381 7382 7383 7384 7385 7386 7387 7388 7389 7390 7391 7392 7393 7394 7395 7396 7397 7398 7399 7400 7401 7402 7403 7404 7405 7406 7407 7408 7409 7410 7411 7412 7413 7414 7415 7416 7417 7418 7419 7420 7421 7422 7423 7424 7425 7426 7427 7428 7429 7430 7431 7432 7433 7434 7435 7436 7437 7438 7439 7440 7441 7442 7443 7444 7445 7446 7447 7448 7449 7450 7451 7452 7453 7454 7455 7456 7457 7458 7459 7460 7461 7462 7463 7464 7465 7466 7467 7468 7469 7470 7471 7472 7473 7474 7475 7476 7477 7478 7479 7480 7481 7482 7483 7484 7485 7486 7487 7488 7489 7490 7491 7492 7493 7494 7495 7496 7497 7498 7499 7500 7501 7502 7503 7504 7505 7506 7507 7508 7509 7510 7511 7512 7513 7514 7515 7516 7517 7518 7519 7520 7521 7522 7523 7524 7525 7526 7527 7528 7529 7530 7531 7532 7533 7534 7535 7536 7537 7538 7539 7540 7541 7542 7543 7544 7545 7546 7547 7548 7549 7550 7551 7552 7553 7554 7555 7556 7557 7558 7559 7560 7561 7562 7563 7564 7565 7566 7567 7568 7569 7570 7571 7572 7573 7574 7575 7576 7577 7578 7579 7580 7581 7582 7583 7584 7585 7586 7587 7588 7589 7590 7591 7592 7593 7594 7595 7596 7597 7598 7599 7600 7601 7602 7603 7604 7605 7606 7607 7608 7609 7610 7611 7612 7613 7614 7615 7616 7617 7618 7619 7620 7621 7622 7623 7624 7625 7626 7627 7628 7629 7630 7631 7632 7633 7634 7635 7636 7637 7638 7639 7640 7641 7642 7643 7644 7645 7646 7647 7648 7649 7650 7651 7652 7653 7654 7655 7656 7657 7658 7659 7660 7661 7662 7663 7664 7665 7666 7667 7668 7669 7670 7671 7672 7673 7674 7675 7676 7677 7678 7679 7680 7681 7682 7683 7684 7685 7686 7687 7688 7689 7690 7691 7692 7693 7694 7695 7696 7697 7698 7699 7700 7701 7702 7703 7704 7705 7706 7707 7708 7709 7710 7711 7712 7713 7714 7715 7716 7717 7718 7719 7720 7721 7722 7723 7724 7725 7726 7727 7728 7729 7730 7731 7732 7733 7734 7735 7736 7737 7738 7739 7740 7741 7742 7743 7744 7745 7746 7747 7748 7749 7750 7751 7752 7753 7754 7755 7756 7757 7758 7759 7760 7761 7762 7763 7764 7765 7766 7767 7768 7769 7770 7771 7772 7773 7774 7775 7776 7777 7778 7779 7780 7781 7782 7783 7784 7785 7786 7787 7788 7789 7790 7791 7792 7793 7794 7795 7796 7797 7798 7799 7800 7801 7802 7803 7804 7805 7806 7807 7808 7809 7810 7811 7812 7813 7814 7815 7816 7817 7818 7819 7820 7821 7822 7823 7824 7825 7826 7827 7828 7829 7830 7831 7832 7833 7834 7835 7836 7837 7838 7839 7840 7841 7842 7843 7844 7845 7846 7847 7848 7849 7850 7851 7852 7853 7854 7855 7856 7857 7858 7859 7860 7861 7862 7863 7864 7865 7866 7867 7868 7869 7870 7871 7872 7873 7874 7875 7876 7877 7878 7879 7880 7881 7882 7883 7884 7885 7886 7887 7888 7889 7890 7891 7892 7893 7894 7895 7896 7897 7898 7899 7900 7901 7902 7903 7904 7905 7906 7907 7908 7909 7910 7911 7912 7913 7914 7915 7916 7917 7918 7919 7920 7921 7922 7923 7924 7925 7926 7927 7928 7929 7930 7931 7932 7933 7934 7935 7936 7937 7938 7939 7940 7941 7942 7943 7944 7945 7946 7947 7948 7949 7950 7951 7952 7953 7954 7955 7956 7957 7958 7959 7960 7961 7962 7963 7964 7965 7966 7967 7968 7969 7970 7971 7972 7973 7974 7975 7976 7977 7978 7979 7980 7981 7982 7983 7984 7985 7986 7987 7988 7989 7990 7991 7992 7993 7994 7995 7996 7997 7998 7999 8000 8001 8002 8003 8004 8005 8006 8007 8008 8009 8010 8011 8012 8013 8014 8015 8016 8017 8018 8019 8020 8021 8022 8023 8024 8025 8026 8027 8028 8029 8030 8031 8032 8033 8034 8035 8036 8037 8038 8039 8040 8041 8042 8043 8044 8045 8046 8047 8048 8049 8050 8051 8052 8053 8054 8055 8056 8057 8058 8059 8060 8061 8062 8063 8064 8065 8066 8067 8068 8069 8070 8071 8072 8073 8074 8075 8076 8077 8078 8079 8080 8081 8082 8083 8084 8085 8086 8087 8088 8089 8090 8091 8092 8093 8094 8095 8096 8097 8098 8099 8100 8101 8102 8103 8104 8105 8106 8107 8108 8109 8110 8111 8112 8113 8114 8115 8116 8117 8118 8119 8120 8121 8122 8123 8124 8125 8126 8127 8128 8129 8130 8131 8132 8133 8134 8135 8136 8137 8138 8139 8140 8141 8142 8143 8144 8145 8146 8147 8148 8149 8150 8151 8152 8153 8154 8155 8156 8157 8158 8159 8160 8161 8162 8163 8164 8165 8166 8167 8168 8169 8170 8171 8172 8173 8174 8175 8176 8177 8178 8179 8180 8181 8182 8183 8184 8185 8186 8187 8188 8189 8190 8191 8192 8193 8194 8195 8196 8197 8198 8199 8200 8201 8202 8203 8204 8205 8206 8207 8208 8209 8210 8211 8212 8213 8214 8215 8216 8217 8218 8219 8220 8221 8222 8223 8224 8225 8226 8227 8228 8229 8230 8231 8232 8233 8234 8235 8236 8237 8238 8239 8240 8241 8242 8243 8244 8245 8246 8247 8248 8249 8250 8251 8252 8253 8254 8255 8256 8257 8258 8259 8260 8261 8262 8263 8264 8265 8266 8267 8268 8269 8270 8271 8272 8273 8274 8275 8276 8277 8278 8279 8280 8281 8282 8283 8284 8285 8286 8287 8288 8289 8290 8291 8292 8293 8294 8295 8296 8297 8298 8299 8300 8301 8302 8303 8304 8305 8306 8307 8308 8309 8310 8311 8312 8313 8314 8315 8316 8317 8318 8319 8320 8321 8322 8323 8324 8325 8326 8327 8328 8329 8330 8331 8332 8333 8334 8335 8336 8337 8338 8339 8340 8341 8342 8343 8344 8345 8346 8347 8348 8349 8350 8351 8352 8353 8354 8355 8356 8357 8358 8359 8360 8361 8362 8363 8364 8365 8366 8367 8368 8369 8370 8371 8372 8373 8374 8375 8376 8377 8378 8379 8380 8381 8382 8383 8384 8385 8386 8387 8388 8389 8390 8391 8392 8393 8394 8395 8396 8397 8398 8399 8400 8401 8402 8403 8404 8405 8406 8407 8408 8409 8410 8411 8412 8413 8414 8415 8416 8417 8418 8419 8420 8421 8422 8423 8424 8425 8426 8427 8428 8429 8430 8431 8432 8433 8434 8435 8436 8437 8438 8439 8440 8441 8442 8443 8444 8445 8446 8447 8448 8449 8450 8451 8452 8453 8454 8455 8456 8457 8458 8459 8460 8461 8462 8463 8464 8465 8466 8467 8468 8469 8470 8471 8472 8473 8474 8475 8476 8477 8478 8479 8480 8481 8482 8483 8484 8485 8486 8487 8488 8489 8490 8491 8492 8493 8494 8495 8496 8497 8498 8499 8500 8501 8502 8503 8504 8505 8506 8507 8508 8509 8510 8511 8512 8513 8514 8515 8516 8517 8518 8519 8520 8521 8522 8523 8524 8525 8526 8527 8528 8529 8530 8531 8532 8533 8534 8535 8536 8537 8538 8539 8540 8541 8542 8543 8544 8545 8546 8547 8548 8549 8550 8551 8552 8553 8554 8555 8556 8557 8558 8559 8560 8561 8562 8563 8564 8565 8566 8567 8568 8569 8570 8571 8572 8573 8574 8575 8576 8577 8578 8579 8580 8581 8582 8583 8584 8585 8586 8587 8588 8589 8590 8591 8592 8593 8594 8595 8596 8597 8598 8599 8600 8601 8602 8603 8604 8605 8606 8607 8608 8609 8610 8611 8612 8613 8614 8615 8616 8617 8618 8619 8620 8621 8622 8623 8624 8625 8626 8627 8628 8629 8630 8631 8632 8633 8634 8635 8636 8637 8638 8639 8640 8641 8642 8643 8644 8645 8646 8647 8648 8649 8650 8651 8652 8653 8654 8655 8656 8657 8658 8659 8660 8661 8662 8663 8664 8665 8666 8667 8668 8669 8670 8671 8672 8673 8674 8675 8676 8677 8678 8679 8680 8681 8682 8683 8684 8685 8686 8687 8688 8689 8690 8691 8692 8693 8694 8695 8696 8697 8698 8699 8700 8701 8702 8703 8704 8705 8706 8707 8708 8709 8710 8711 8712 8713 8714 8715 8716 8717 8718 8719 8720 8721 8722 8723 8724 8725 8726 8727 8728 8729 8730 8731 8732 8733 8734 8735 8736 8737 8738 8739 8740 8741 8742 8743 8744 8745 8746 8747 8748 8749 8750 8751 8752 8753 8754 8755 8756 8757 8758 8759 8760 8761 8762 8763 8764 8765 8766 8767 8768 8769 8770 8771 8772 8773 8774 8775 8776 8777 8778 8779 8780 8781 8782 8783 8784 8785 8786 8787 8788 8789 8790 8791 8792 8793 8794 8795 8796 8797 8798 8799 8800 8801 8802 8803 8804 8805 8806 8807 8808 8809 8810 8811 8812 8813 8814 8815 8816 8817 8818 8819 8820 8821 8822 8823 8824 8825 8826 8827 8828 8829 8830 8831 8832 8833 8834 8835 8836 8837 8838 8839 8840 8841 8842 8843 8844 8845 8846 8847 8848 8849 8850 8851 8852 8853 8854 8855 8856 8857 8858 8859 8860 8861 8862 8863 8864 8865 8866 8867 8868 8869 8870 8871 8872 8873 8874 8875 8876 8877 8878 8879 8880 8881 8882 8883 8884 8885 8886 8887 8888 8889 8890 8891 8892 8893 8894 8895 8896 8897 8898 8899 8900 8901 8902 8903 8904 8905 8906 8907 8908 8909 8910 8911 8912 8913 8914 8915 8916 8917 8918 8919 8920 8921 8922 8923 8924 8925 8926 8927 8928 8929 8930 8931 8932 8933 8934 8935 8936 8937 8938 8939 8940 8941 8942 8943 8944 8945 8946 8947 8948 8949 8950 8951 8952 8953 8954 8955 8956 8957 8958 8959 8960 8961 8962 8963 8964 8965 8966 8967 8968 8969 8970 8971 8972 8973 8974 8975 8976 8977 8978 8979 8980 8981 8982 8983 8984 8985 8986 8987 8988 8989 8990 8991 8992 8993 8994 8995 8996 8997 8998 8999 9000 9001 9002 9003 9004 9005 9006 9007 9008 9009 9010 9011 9012 9013 9014 9015 9016 9017 9018 9019 9020 9021 9022 9023 9024 9025 9026 9027 9028 9029 9030 9031 9032 9033 9034 9035 9036 9037 9038 9039 9040 9041 9042 9043 9044 9045 9046 9047 9048 9049 9050 9051 9052 9053 9054 9055 9056 9057 9058 9059 9060 9061 9062 9063 9064 9065 9066 9067 9068 9069 9070 9071 9072 9073 9074 9075 9076 9077 9078 9079 9080 9081 9082 9083 9084 9085 9086 9087 9088 9089 9090 9091 9092 9093 9094 9095 9096 9097 9098 9099 9100 9101 9102 9103 9104 9105 9106 9107 9108 9109 9110 9111 9112 9113 9114 9115 9116 9117 9118 9119 9120 9121 9122 9123 9124 9125 9126 9127 9128 9129 9130 9131 9132 9133 9134 9135 9136 9137 9138 9139 9140 9141 9142 9143 9144 9145 9146 9147 9148 9149 9150 9151 9152 9153 9154 9155 9156 9157 9158 9159 9160 9161 9162 9163 9164 9165 9166 9167 9168 9169 9170 9171 9172 9173 9174 9175 9176 9177 9178 9179 9180 9181 9182 9183 9184 9185 9186 9187 9188 9189 9190 9191 9192 9193 9194 9195 9196 9197 9198 9199 9200 9201 9202 9203 9204 9205 9206 9207 9208 9209 9210 9211 9212 9213 9214 9215 9216 9217 9218 9219 9220 9221 9222 9223 9224 9225 9226 9227 9228 9229 9230 9231 9232 9233 9234 9235 9236 9237 9238 9239 9240 9241 9242 9243 9244 9245 9246 9247 9248 9249 9250 9251 9252 9253 9254 9255 9256 9257 9258 9259 9260 9261 9262 9263 9264 9265 9266 9267 9268 9269 9270 9271 9272 9273 9274 9275 9276 9277 9278 9279 9280 9281 9282 9283 9284 9285 9286 9287 9288 9289 9290 9291 9292 9293 9294 9295 9296 9297 9298 9299 9300 9301 9302 9303 9304 9305 9306 9307 9308 9309 9310 9311 9312 9313 9314 9315 9316 9317 9318 9319 9320 9321 9322 9323 9324 9325 9326 9327 9328 9329 9330 9331 9332 9333 9334 9335 9336 9337 9338 9339 9340 9341 9342 9343 9344 9345 9346 9347 9348 9349 9350 9351 9352 9353 9354 9355 9356 9357 9358 9359 9360 9361 9362 9363 9364 9365 9366 9367 9368 9369 9370 9371 9372 9373 9374 9375 9376 9377 9378 9379 9380 9381 9382 9383 9384 9385 9386 9387 9388 9389 9390 9391 9392 9393 9394 9395 9396 9397 9398 9399 9400 9401 9402 9403 9404 9405 9406 9407 9408 9409 9410 9411 9412 9413 9414 9415 9416 9417 9418 9419 9420 9421 9422 9423 9424 9425 9426 9427 9428 9429 9430 9431 9432 9433 9434 9435 9436 9437 9438 9439 9440 9441 9442 9443 9444 9445 9446 9447 9448 9449 9450 9451 9452 9453 9454 9455 9456 9457 9458 9459 9460 9461 9462 9463 9464 9465 9466 9467 9468 9469 9470 9471 9472 9473 9474 9475 9476 9477 9478 9479 9480 9481 9482 9483 9484 9485 9486 9487 9488 9489 9490 9491 9492 9493 9494 9495 9496 9497 9498 9499 9500 9501 9502 9503 9504 9505 9506 9507 9508 9509 9510 9511 9512 9513 9514 9515 9516 9517 9518 9519 9520 9521 9522 9523 9524 9525 9526 9527 9528 9529 9530 9531 9532 9533 9534 9535 9536 9537 9538 9539 9540 9541 9542 9543 9544 9545 9546 9547 9548 9549 9550 9551 9552 9553 9554 9555 9556 9557 9558 9559 9560 9561 9562 9563 9564 9565 9566 9567 9568 9569 9570 9571 9572 9573 9574 9575 9576 9577 9578 9579 9580 9581 9582 9583 9584 9585 9586 9587 9588 9589 9590 9591 9592 9593 9594 9595 9596 9597 9598 9599 9600 9601 9602 9603 9604 9605 9606 9607 9608 9609 9610 9611 9612 9613 9614 9615 9616 9617 9618 9619 9620 9621 9622 9623 9624 9625 9626 9627 9628 9629 9630 9631 9632 9633 9634 9635 9636 9637 9638 9639 9640 9641 9642 9643 9644 9645 9646 9647 9648 9649 9650 9651 9652 9653 9654 9655 9656 9657 9658 9659 9660 9661 9662 9663 9664 9665 9666 9667 9668 9669 9670 9671 9672 9673 9674 9675 9676 9677 9678 9679 9680 9681 9682 9683 9684 9685 9686 9687 9688 9689 9690 9691 9692 9693 9694 9695 9696 9697 9698 9699 9700 9701 9702 9703 9704 9705 9706 9707 9708 9709 9710 9711 9712 9713 9714 9715 9716 9717 9718 9719 9720 9721 9722 9723 9724 9725 9726 9727 9728 9729 9730 9731 9732 9733 9734 9735 9736 9737 9738 9739 9740 9741 9742 9743 9744 9745 9746 9747 9748 9749 9750 9751 9752 9753 9754 9755 9756 9757 9758 9759 9760 9761 9762 9763 9764 9765 9766 9767 9768 9769 9770 9771 9772 9773 9774 9775 9776 9777 9778 9779 9780 9781 9782 9783 9784 9785 9786 9787 9788 9789 9790 9791 9792 9793 9794 9795 9796 9797 9798 9799 9800 9801 9802 9803 9804 9805 9806 9807 9808 9809 9810 9811 9812 9813 9814 9815 9816 9817 9818 9819 9820 9821 9822 9823 9824 9825 9826 9827 9828 9829 9830 9831 9832 9833 9834 9835 9836 9837 9838 9839 9840 9841 9842 9843 9844 9845 9846 9847 9848 9849 9850 9851 9852 9853 9854 9855 9856 9857 9858 9859 9860 9861 9862 9863 9864 9865 9866 9867 9868 9869 9870 9871 9872 9873 9874 9875 9876 9877 9878 9879 9880 9881 9882 9883 9884 9885 9886 9887 9888 9889 9890 9891 9892 9893 9894 9895 9896 9897 9898 9899 9900 9901 9902 9903 9904 9905 9906 9907 9908 9909 9910 9911 9912 9913 9914 9915 9916 9917 9918 9919 9920 9921 9922 9923 9924 9925 9926 9927 9928 9929 9930 9931 9932 9933 9934 9935 9936 9937 9938 9939 9940 9941 9942 9943 9944 9945 9946 9947 9948 9949 9950 9951 9952 9953 9954 9955 9956 9957 9958 9959 9960 9961 9962 9963 9964 9965 9966 9967 9968 9969 9970 9971 9972 9973 9974 9975 9976 9977 9978 9979 9980 9981 9982 9983 9984 9985 9986 9987 9988 9989 9990 9991 9992 9993 9994 9995 9996 9997 9998 9999 10000 10001 10002 10003 10004 10005 10006 10007 10008 10009 10010 10011 10012 10013 10014 10015 10016 10017 10018 10019 10020 10021 10022 10023 10024 10025 10026 10027 10028 10029 10030 10031 10032 10033 10034 10035 10036 10037 10038 10039 10040 10041 10042 10043 10044 10045 10046 10047 10048 10049 10050 10051 10052 10053 10054 10055 10056 10057 10058 10059 10060 10061 10062 10063 10064 10065 10066 10067 10068 10069 10070 10071 10072 10073 10074 10075 10076 10077 10078 10079 10080 10081 10082 10083 10084 10085 10086 10087 10088 10089 10090 10091 10092 10093 10094 10095 10096 10097 10098 10099 10100 10101 10102 10103 10104 10105 10106 10107 10108 10109 10110 10111 10112 10113 10114 10115 10116 10117 10118 10119 10120 10121 10122 10123 10124 10125 10126 10127 10128 10129 10130 10131 10132 10133 10134 10135 10136 10137 10138 10139 10140 10141 10142 10143 10144 10145 10146 10147 10148 10149 10150 10151 10152 10153 10154 10155 10156 10157 10158 10159 10160 10161 10162 10163 10164 10165 10166 10167 10168 10169 10170 10171 10172 10173 10174 10175 10176 10177 10178 10179 10180 10181 10182 10183 10184 10185 10186 10187 10188 10189 10190 10191 10192 10193 10194 10195 10196 10197 10198 10199 10200 10201 10202 10203 10204 10205 10206 10207 10208 10209 10210 10211 10212 10213 10214 10215 10216 10217 10218 10219 10220 10221 10222 10223 10224 10225 10226 10227 10228 10229 10230 10231 10232 10233 10234 10235 10236 10237 10238 10239 10240 10241 10242 10243 10244 10245 10246 10247 10248 10249 10250 10251 10252 10253 10254 10255 10256 10257 10258 10259 10260 10261 10262 10263 10264 10265 10266 10267 10268 10269 10270 10271 10272 10273 10274 10275 10276 10277 10278 10279 10280 10281 10282 10283 10284 10285 10286 10287 10288 10289 10290 10291 10292 10293 10294 10295 10296 10297 10298 10299 10300 10301 10302 10303 10304 10305 10306 10307 10308 10309 10310 10311 10312 10313 10314 10315 10316 10317 10318 10319 10320 10321 10322 10323 10324 10325 10326 10327 10328 10329 10330 10331 10332 10333 10334 10335 10336 10337 10338 10339 10340 10341 10342 10343 10344 10345 10346 10347 10348 10349 10350 10351 10352 10353 10354 10355 10356 10357 10358 10359 10360 10361 10362 10363 10364 10365 10366 10367 10368 10369 10370 10371 10372 10373 10374 10375 10376 10377 10378 10379 10380 10381 10382 10383 10384 10385 10386 10387 10388 10389 10390 10391 10392 10393 10394 10395 10396 10397 10398 10399 10400 10401 10402 10403 10404 10405 10406 10407 10408 10409 10410 10411 10412 10413 10414 10415 10416 10417 10418 10419 10420 10421 10422 10423 10424 10425 10426 10427 10428 10429 10430 10431 10432 10433 10434 10435 10436 10437 10438 10439 10440 10441 10442 10443 10444 10445 10446 10447 10448 10449 10450 10451 10452 10453 10454 10455 10456 10457 10458 10459 10460 10461 10462 10463 10464 10465 10466 10467 10468 10469 10470 10471 10472 10473 10474 10475 10476 10477 10478 10479 10480 10481 10482 10483 10484 10485 10486 10487 10488 10489 10490 10491 10492 10493 10494 10495 10496 10497 10498 10499 10500 10501 10502 10503 10504 10505 10506 10507 10508 10509 10510 10511 10512 10513 10514 10515 10516 10517 10518 10519 10520 10521 10522 10523 10524 10525 10526 10527 10528 10529 10530 10531 10532 10533 10534 10535 10536 10537 10538 10539 10540 10541 10542 10543 10544 10545 10546 10547 10548 10549 10550 10551 10552 10553 10554 10555 10556 10557 10558 10559 10560 10561 10562 10563 10564 10565 10566 10567 10568 10569 10570 10571 10572 10573 10574 10575 10576 10577 10578 10579 10580 10581 10582 10583 10584 10585 10586 10587 10588 10589 10590 10591 10592 10593 10594 10595 10596 10597 10598 10599 10600 10601 10602 10603 10604 10605 10606 10607 10608 10609 10610 10611 10612 10613 10614 10615 10616 10617 10618 10619 10620 10621 10622 10623 10624 10625 10626 10627 10628 10629 10630 10631 10632 10633 10634 10635 10636 10637 10638 10639 10640 10641 10642 10643 10644 10645 10646 10647 10648 10649 10650 10651 10652 10653 10654 10655 10656 10657 10658 10659 10660 10661 10662 10663 10664 10665 10666 10667 10668 10669 10670 10671 10672 10673 10674 10675 10676 10677 10678 10679 10680 10681 10682 10683 10684 10685 10686 10687 10688 10689 10690 10691 10692 10693 10694 10695 10696 10697 10698 10699 10700 10701 10702 10703 10704 10705 10706 10707 10708 10709 10710 10711 10712 10713 10714 10715 10716 10717 10718 10719 10720 10721 10722 10723 10724 10725 10726 10727 10728 10729 10730 10731 10732 10733 10734 10735 10736 10737 10738 10739 10740 10741 10742 10743 10744 10745 10746 10747 10748 10749 10750 10751 10752 10753 10754 10755 10756 10757 10758 10759 10760 10761 10762 10763 10764 10765 10766 10767 10768 10769 10770 10771 10772 10773 10774 10775 10776 10777 10778 10779 10780 10781 10782 10783 10784 10785 10786 10787 10788 10789 10790 10791 10792 10793 10794 10795 10796 10797 10798 10799 10800 10801 10802 10803 10804 10805 10806 10807 10808 10809 10810 10811 10812 10813 10814 10815 10816 10817 10818 10819 10820 10821 10822 10823 10824 10825 10826 10827 10828 10829 10830 10831 10832 10833 10834 10835 10836 10837 10838 10839 10840 10841 10842 10843 10844 10845 10846 10847 10848 10849 10850 10851 10852 10853 10854 10855 10856 10857 10858 10859 10860 10861 10862 10863 10864 10865 10866 10867 10868 10869 10870 10871 10872 10873 10874 10875 10876 10877 10878 10879 10880 10881 10882 10883 10884 10885 10886 10887 10888 10889 10890 10891 10892 10893 10894 10895 10896 10897 10898 10899 10900 10901 10902 10903 10904 10905 10906 10907 10908 10909 10910 10911 10912 10913 10914 10915 10916 10917 10918 10919 10920 10921 10922 10923 10924 10925 10926 10927 10928 10929 10930 10931 10932 10933 10934 10935 10936 10937 10938 10939 10940 10941 10942 10943 10944 10945 10946 10947 10948 10949 10950 10951 10952 10953 10954 10955 10956 10957 10958 10959 10960 10961 10962 10963 10964 10965 10966 10967 10968 10969 10970 10971 10972 10973 10974 10975 10976 10977 10978 10979 10980 10981 10982 10983 10984 10985 10986 10987 10988 10989 10990 10991 10992 10993 10994 10995 10996 10997 10998 10999 11000 11001 11002 11003 11004 11005 11006 11007 11008 11009 11010 11011 11012 11013 11014 11015 11016 11017 11018 11019 11020 11021 11022 11023 11024 11025 11026 11027 11028 11029 11030 11031 11032 11033 11034 11035 11036 11037 11038 11039 11040 11041 11042 11043 11044 11045 11046 11047 11048 11049 11050 11051 11052 11053 11054 11055 11056 11057 11058 11059 11060 11061 11062 11063 11064 11065 11066 11067 11068 11069 11070 11071 11072 11073 11074 11075 11076 11077 11078 11079 11080 11081 11082 11083 11084 11085 11086 11087 11088 11089 11090 11091 11092 11093 11094 11095 11096 11097 11098 11099 11100 11101 11102 11103 11104 11105 11106 11107 11108 11109 11110 11111 11112 11113 11114 11115 11116 11117 11118 11119 11120 11121 11122 11123 11124 11125 11126 11127 11128 11129 11130 11131 11132 11133 11134 11135 11136 11137 11138 11139 11140 11141 11142 11143 11144 11145 11146 11147 11148 11149 11150 11151 11152 11153 11154 11155 11156 11157 11158 11159 11160 11161 11162 11163 11164 11165 11166 11167 11168 11169 11170 11171 11172 11173 11174 11175 11176 11177 11178 11179 11180 11181 11182 11183 11184 11185 11186 11187 11188 11189 11190 11191 11192 11193 11194 11195 11196 11197 11198 11199 11200 11201 11202 11203 11204 11205 11206 11207 11208 11209 11210 11211 11212 11213 11214 11215 11216 11217 11218 11219 11220 11221 11222 11223 11224 11225 11226 11227 11228 11229 11230 11231 11232 11233 11234 11235 11236 11237 11238 11239 11240 11241 11242 11243 11244 11245 11246 11247 11248 11249 11250 11251 11252 11253 11254 11255 11256 11257 11258 11259 11260 11261 11262 11263 11264 11265 11266 11267 11268 11269 11270 11271 11272 11273 11274 11275 11276 11277 11278 11279 11280 11281 11282 11283 11284 11285 11286 11287 11288 11289 11290 11291 11292 11293 11294 11295 11296 11297 11298 11299 11300 11301 11302 11303 11304 11305 11306 11307 11308 11309 11310 11311 11312 11313 11314 11315 11316 11317 11318 11319 11320 11321 11322 11323 11324 11325 11326 11327 11328 11329 11330 11331 11332 11333 11334 11335 11336 11337 11338 11339 11340 11341 11342 11343 11344 11345 11346 11347 11348 11349 11350 11351 11352 11353 11354 11355 11356 11357 11358 11359 11360 11361 11362 11363 11364 11365 11366 11367 11368 11369 11370 11371 11372 11373 11374 11375 11376 11377 11378 11379 11380 11381 11382 11383 11384 11385 11386 11387 11388 11389 11390 11391 11392 11393 11394 11395 11396 11397 11398 11399 11400 11401 11402 11403 11404 11405 11406 11407 11408 11409 11410 11411 11412 11413 11414 11415 11416 11417 11418 11419 11420 11421 11422 11423 11424 11425 11426 11427 11428 11429 11430 11431 11432 11433 11434 11435 11436 11437 11438 11439 11440 11441 11442 11443 11444 11445 11446 11447 11448 11449 11450 11451 11452 11453 11454 11455 11456 11457 11458 11459 11460 11461 11462 11463 11464 11465 11466 11467 11468 11469 11470 11471 11472 11473 11474 11475 11476 11477 11478 11479 11480 11481 11482 11483 11484 11485 11486 11487 11488 11489 11490 11491 11492 11493 11494 11495 11496 11497 11498 11499 11500 11501 11502 11503 11504 11505 11506 11507 11508 11509 11510 11511 11512 11513 11514 11515 11516 11517 11518 11519 11520 11521 11522 11523 11524 11525 11526 11527 11528 11529 11530 11531 11532 11533 11534 11535 11536 11537 11538 11539 11540 11541 11542 11543 11544 11545 11546 11547 11548 11549 11550 11551 11552 11553 11554 11555 11556 11557 11558 11559 11560 11561 11562 11563 11564 11565 11566 11567 11568 11569 11570 11571 11572 11573 11574 11575 11576 11577 11578 11579 11580 11581 11582 11583 11584 11585 11586 11587 11588 11589 11590 11591 11592 11593 11594 11595 11596 11597 11598 11599 11600 11601 11602 11603 11604 11605 11606 11607 11608 11609 11610 11611 11612 11613 11614 11615 11616 11617 11618 11619 11620 11621 11622 11623 11624 11625 11626 11627 11628 11629 11630 11631 11632 11633 11634 11635 11636 11637 11638 11639 11640 11641 11642 11643 11644 11645 11646 11647 11648 11649 11650 11651 11652 11653 11654 11655 11656 11657 11658 11659 11660 11661 11662 11663 11664 11665 11666 11667 11668 11669 11670 11671 11672 11673 11674 11675 11676 11677 11678 11679 11680 11681 11682 11683 11684 11685 11686 11687 11688 11689 11690 11691 11692 11693 11694 11695 11696 11697 11698 11699 11700 11701 11702 11703 11704 11705 11706 11707 11708 11709 11710 11711 11712 11713 11714 11715 11716 11717 11718 11719 11720 11721 11722 11723 11724 11725 11726 11727 11728 11729 11730 11731 11732 11733 11734 11735 11736 11737 11738 11739 11740 11741 11742 11743 11744 11745 11746 11747 11748 11749 11750 11751 11752 11753 11754 11755 11756 11757 11758 11759 11760 11761 11762 11763 11764 11765 11766 11767 11768 11769 11770 11771 11772 11773 11774 11775 11776 11777 11778 11779 11780 11781 11782 11783 11784 11785 11786 11787 11788 11789 11790 11791 11792 11793 11794 11795 11796 11797 11798 11799 11800 11801 11802 11803 11804 11805 11806 11807 11808 11809 11810 11811 11812 11813 11814 11815 11816 11817 11818 11819 11820 11821 11822 11823 11824 11825 11826 11827 11828 11829 11830 11831 11832 11833 11834 11835 11836 11837 11838 11839 11840 11841 11842 11843 11844 11845 11846 11847 11848 11849 11850 11851 11852 11853 11854 11855 11856 11857 11858 11859 11860 11861 11862 11863 11864 11865 11866 11867 11868 11869 11870 11871 11872 11873 11874 11875 11876 11877 11878 11879 11880 11881 11882 11883 11884 11885 11886 11887 11888 11889 11890 11891 11892 11893 11894 11895 11896 11897 11898 11899 11900 11901 11902 11903 11904 11905 11906 11907 11908 11909 11910 11911 11912 11913 11914 11915 11916 11917 11918 11919 11920 11921 11922 11923 11924 11925 11926 11927 11928 11929 11930 11931 11932 11933 11934 11935 11936 11937 11938 11939 11940 11941 11942 11943 11944 11945 11946 11947 11948 11949 11950 11951 11952 11953 11954 11955 11956 11957 11958 11959 11960 11961 11962 11963 11964 11965 11966 11967 11968 11969 11970 11971 11972 11973 11974 11975 11976 11977 11978 11979 11980 11981 11982 11983 11984 11985 11986 11987 11988 11989 11990 11991 11992 11993 11994 11995 11996 11997 11998 11999 12000 12001 12002 12003 12004 12005 12006 12007 12008 12009 12010 12011 12012 12013 12014 12015 12016 12017 12018 12019 12020 12021 12022 12023 12024 12025 12026 12027 12028 12029 12030 12031 12032 12033 12034 12035 12036 12037 12038 12039 12040 12041 12042 12043 12044 12045 12046 12047 12048 12049 12050 12051 12052 12053 12054 12055 12056 12057 12058 12059 12060 12061 12062 12063 12064 12065 12066 12067 12068 12069 12070 12071 12072 12073 12074 12075 12076 12077 12078 12079 12080 12081 12082 12083 12084 12085 12086 12087 12088 12089 12090 12091 12092 12093 12094 12095 12096 12097 12098 12099 12100 12101 12102 12103 12104 12105 12106 12107 12108 12109 12110 12111 12112 12113 12114 12115 12116 12117 12118 12119 12120 12121 12122 12123 12124 12125 12126 12127 12128 12129 12130 12131 12132 12133 12134 12135 12136 12137 12138 12139 12140 12141 12142 12143 12144 12145 12146 12147 12148 12149 12150 12151 12152 12153 12154 12155 12156 12157 12158 12159 12160 12161 12162 12163 12164 12165 12166 12167 12168 12169 12170 12171 12172 12173 12174 12175 12176 12177 12178 12179 12180 12181 12182 12183 12184 12185 12186 12187 12188 12189 12190 12191 12192 12193 12194 12195 12196 12197 12198 12199 12200 12201 12202 12203 12204 12205 12206 12207 12208 12209 12210 12211 12212 12213 12214 12215 12216 12217 12218 12219 12220 12221 12222 12223 12224 12225 12226 12227 12228 12229 12230 12231 12232 12233 12234 12235 12236 12237 12238 12239 12240 12241 12242 12243 12244 12245 12246 12247 12248 12249 12250 12251 12252 12253 12254 12255 12256 12257 12258 12259 12260 12261 12262 12263 12264 12265 12266 12267 12268 12269 12270 12271 12272 12273 12274 12275 12276 12277 12278 12279 12280 12281 12282 12283 12284 12285 12286 12287 12288 12289 12290 12291 12292 12293 12294 12295 12296 12297 12298 12299 12300 12301 12302 12303 12304 12305 12306 12307 12308 12309 12310 12311 12312 12313 12314 12315 12316 12317 12318 12319 12320 12321 12322 12323 12324 12325 12326 12327 12328 12329 12330 12331 12332 12333 12334 12335 12336 12337 12338 12339 12340 12341 12342 12343 12344 12345 12346 12347 12348 12349 12350 12351 12352 12353 12354 12355 12356 12357 12358 12359 12360 12361 12362 12363 12364 12365 12366 12367 12368 12369 12370 12371 12372 12373 12374 12375 12376 12377 12378 12379 12380 12381 12382 12383 12384 12385 12386 12387 12388 12389 12390 12391 12392 12393 12394 12395 12396 12397 12398 12399 12400 12401 12402 12403 12404 12405 12406 12407 12408 12409 12410 12411 12412 12413 12414 12415 12416 12417 12418 12419 12420 12421 12422 12423 12424 12425 12426 12427 12428 12429 12430 12431 12432 12433 12434 12435 12436 12437 12438 12439 12440 12441 12442 12443 12444 12445 12446 12447 12448 12449 12450 12451 12452 12453 12454 12455 12456 12457 12458 12459 12460 12461 12462 12463 12464 12465 12466 12467 12468 12469 12470 12471 12472 12473 12474 12475 12476 12477 12478 12479 12480 12481 12482 12483 12484 12485 12486 12487 12488 12489 12490 12491 12492 12493 12494 12495 12496 12497 12498 12499 12500 12501 12502 12503 12504 12505 12506 12507 12508 12509 12510 12511 12512 12513 12514 12515 12516 12517 12518 12519 12520 12521 12522 12523 12524 12525 12526 12527 12528 12529 12530 12531 12532 12533 12534 12535 12536 12537 12538 12539 12540 12541 12542 12543 12544 12545 12546 12547 12548 12549 12550 12551 12552 12553 12554 12555 12556 12557 12558 12559 12560 12561 12562 12563 12564 12565 12566 12567 12568 12569 12570 12571 12572 12573 12574 12575 12576 12577 12578 12579 12580 12581 12582 12583 12584 12585 12586 12587 12588 12589 12590 12591 12592 12593 12594 12595 12596 12597 12598 12599 12600 12601 12602 12603 12604 12605 12606 12607 12608 12609 12610 12611 12612 12613 12614 12615 12616 12617 12618 12619 12620 12621 12622 12623 12624 12625 12626 12627 12628 12629 12630 12631 12632 12633 12634 12635 12636 12637 12638 12639 12640 12641 12642 12643 12644 12645 12646 12647 12648 12649 12650 12651 12652 12653 12654 12655 12656 12657 12658 12659 12660 12661 12662 12663 12664 12665 12666 12667 12668 12669 12670 12671 12672 12673 12674 12675 12676 12677 12678 12679 12680 12681 12682 12683 12684 12685 12686 12687 12688 12689 12690 12691 12692 12693 12694 12695 12696 12697 12698 12699 12700 12701 12702 12703 12704 12705 12706 12707 12708 12709 12710 12711 12712 12713 12714 12715 12716 12717 12718 12719 12720 12721 12722 12723 12724 12725 12726 12727 12728 12729 12730 12731 12732 12733 12734 12735 12736 12737 12738 12739 12740 12741 12742 12743 12744 12745 12746 12747 12748 12749 12750 12751 12752 12753 12754 12755 12756 12757 12758 12759 12760 12761 12762 12763 12764 12765 12766 12767 12768 12769 12770 12771 12772 12773 12774 12775 12776 12777 12778 12779 12780 12781 12782 12783 12784 12785 12786 12787 12788 12789 12790 12791 12792 12793 12794 12795 12796 12797 12798 12799 12800 12801 12802 12803 12804 12805 12806 12807 12808 12809 12810 12811 12812 12813 12814 12815 12816 12817 12818 12819 12820 12821 12822 12823 12824 12825 12826 12827 12828 12829 12830 12831 12832 12833 12834 12835 12836 12837 12838 12839 12840 12841 12842 12843 12844 12845 12846 12847 12848 12849 12850 12851 12852 12853 12854 12855 12856 12857 12858 12859 12860 12861 12862 12863 12864 12865 12866 12867 12868 12869 12870 12871 12872 12873 12874 12875 12876 12877 12878 12879 12880 12881 12882 12883 12884 12885 12886 12887 12888 12889 12890 12891 12892 12893 12894 12895 12896 12897 12898 12899 12900 12901 12902 12903 12904 12905 12906 12907 12908 12909 12910 12911 12912 12913 12914 12915 12916 12917 12918 12919 12920 12921 12922 12923 12924 12925 12926 12927 12928 12929 12930 12931 12932 12933 12934 12935 12936 12937 12938 12939 12940 12941 12942 12943 12944 12945 12946 12947 12948 12949 12950 12951 12952 12953 12954 12955 12956 12957 12958 12959 12960 12961 12962 12963 12964 12965 12966 12967 12968 12969 12970 12971 12972 12973 12974 12975 12976 12977 12978 12979 12980 12981 12982 12983 12984 12985 12986 12987 12988 12989 12990 12991 12992 12993 12994 12995 12996 12997 12998 12999 13000 13001 13002 13003 13004 13005 13006 13007 13008 13009 13010 13011 13012 13013 13014 13015 13016 13017 13018 13019 13020 13021 13022 13023 13024 13025 13026 13027 13028 13029 13030 13031 13032 13033 13034 13035 13036 13037 13038 13039 13040 13041 13042 13043 13044 13045 13046 13047 13048 13049 13050 13051 13052 13053 13054 13055 13056 13057 13058 13059 13060 13061 13062 13063 13064 13065 13066 13067 13068 13069 13070 13071 13072 13073 13074 13075 13076 13077 13078 13079 13080 13081 13082 13083 13084 13085 13086 13087 13088 13089 13090 13091 13092 13093 13094 13095 13096 13097 13098 13099 13100 13101 13102 13103 13104 13105 13106 13107 13108 13109 13110 13111 13112 13113 13114 13115 13116 13117 13118 13119 13120 13121 13122 13123 13124 13125 13126 13127 13128 13129 13130 13131 13132 13133 13134 13135 13136 13137 13138 13139 13140 13141 13142 13143 13144 13145 13146 13147 13148 13149 13150 13151 13152 13153 13154 13155 13156 13157 13158 13159 13160 13161 13162 13163 13164 13165 13166 13167 13168 13169 13170 13171 13172 13173 13174 13175 13176 13177 13178 13179 13180 13181 13182 13183 13184 13185 13186 13187 13188 13189 13190 13191 13192 13193 13194 13195 13196 13197 13198 13199 13200 13201 13202 13203 13204 13205 13206 13207 13208 13209 13210 13211 13212 13213 13214 13215 13216 13217 13218 13219 13220 13221 13222 13223 13224 13225 13226 13227 13228 13229 13230 13231 13232 13233 13234 13235 13236 13237 13238 13239 13240 13241 13242 13243 13244 13245 13246 13247 13248 13249 13250 13251 13252 13253 13254 13255 13256 13257 13258 13259 13260 13261 13262 13263 13264 13265 13266 13267 13268 13269 13270 13271 13272 13273 13274 13275 13276 13277 13278 13279 13280 13281 13282 13283 13284 13285 13286 13287 13288 13289 13290 13291 13292 13293 13294 13295 13296 13297 13298 13299 13300 13301 13302 13303 13304 13305 13306 13307 13308 13309 13310 13311 13312 13313 13314 13315 13316 13317 13318 13319 13320 13321 13322 13323 13324 13325 13326 13327 13328 13329 13330 13331 13332 13333 13334 13335 13336 13337 13338 13339 13340 13341 13342 13343 13344 13345 13346 13347 13348 13349 13350 13351 13352 13353 13354 13355 13356 13357 13358 13359 13360 13361 13362 13363 13364 13365 13366 13367 13368 13369 13370 13371 13372 13373 13374 13375 13376 13377 13378 13379 13380 13381 13382 13383 13384 13385 13386 13387 13388 13389 13390 13391 13392 13393 13394 13395 13396 13397 13398 13399 13400 13401 13402 13403 13404 13405 13406 13407 13408 13409 13410 13411 13412 13413 13414 13415 13416 13417 13418 13419 13420 13421 13422 13423 13424 13425 13426 13427 13428 13429 13430 13431 13432 13433 13434 13435 13436 13437 13438 13439 13440 13441 13442 13443 13444 13445 13446 13447 13448 13449 13450 13451 13452 13453 13454 13455 13456 13457 13458 13459 13460 13461 13462 13463 13464 13465 13466 13467 13468 13469 13470 13471 13472 13473 13474 13475 13476 13477 13478 13479 13480 13481 13482 13483 13484 13485 13486 13487 13488 13489 13490 13491 13492 13493 13494 13495 13496 13497 13498 13499 13500 13501 13502 13503 13504 13505 13506 13507 13508 13509 13510 13511 13512 13513 13514 13515 13516 13517 13518 13519 13520 13521 13522 13523 13524 13525 13526 13527 13528 13529 13530 13531 13532 13533 13534 13535 13536 13537 13538 13539 13540 13541 13542 13543 13544 13545 13546 13547 13548 13549 13550 13551 13552 13553 13554 13555 13556 13557 13558 13559 13560 13561 13562 13563 13564 13565 13566 13567 13568 13569 13570 13571 13572 13573 13574 13575 13576 13577 13578 13579 13580 13581 13582 13583 13584 13585 13586 13587 13588 13589 13590 13591 13592 13593 13594 13595 13596 13597 13598 13599 13600 13601 13602 13603 13604 13605 13606 13607 13608 13609 13610 13611 13612 13613 13614 13615 13616 13617 13618 13619 13620 13621 13622 13623 13624 13625 13626 13627 13628 13629 13630 13631 13632 13633 13634 13635 13636 13637 13638 13639 13640 13641 13642 13643 13644 13645 13646 13647 13648 13649 13650 13651 13652 13653 13654 13655 13656 13657 13658 13659 13660 13661 13662 13663 13664 13665 13666 13667 13668 13669 13670 13671 13672 13673 13674 13675 13676 13677 13678 13679 13680 13681 13682 13683 13684 13685 13686 13687 13688 13689 13690 13691 13692 13693 13694 13695 13696 13697 13698 13699 13700 13701 13702 13703 13704 13705 13706 13707 13708 13709 13710 13711 13712 13713 13714 13715 13716 13717 13718 13719 13720 13721 13722 13723 13724 13725 13726 13727 13728 13729 13730 13731 13732 13733 13734 13735 13736 13737 13738 13739 13740 13741 13742 13743 13744 13745 13746 13747 13748 13749 13750 13751 13752 13753 13754 13755 13756 13757 13758 13759 13760 13761 13762 13763 13764 13765 13766 13767 13768 13769 13770 13771 13772 13773 13774 13775 13776 13777 13778 13779 13780 13781 13782 13783 13784 13785 13786 13787 13788 13789 13790 13791 13792 13793 13794 13795 13796 13797 13798 13799 13800 13801 13802 13803 13804 13805 13806 13807 13808 13809 13810 13811 13812 13813 13814 13815 13816 13817 13818 13819 13820 13821 13822 13823 13824 13825 13826 13827 13828 13829 13830 13831 13832 13833 13834 13835 13836 13837 13838 13839 13840 13841 13842 13843 13844 13845 13846 13847 13848 13849 13850 13851 13852 13853 13854 13855 13856 13857 13858 13859 13860 13861 13862 13863 13864 13865 13866 13867 13868 13869 13870 13871 13872 13873 13874 13875 13876 13877 13878 13879 13880 13881 13882 13883 13884 13885 13886 13887 13888 13889 13890 13891 13892 13893 13894 13895 13896 13897 13898 13899 13900 13901 13902 13903 13904 13905 13906 13907 13908 13909 13910 13911 13912 13913 13914 13915 13916 13917 13918 13919 13920 13921 13922 13923 13924 13925 13926 13927 13928 13929 13930 13931 13932 13933 13934 13935 13936 13937 13938 13939 13940 13941 13942 13943 13944 13945 13946 13947 13948 13949 13950 13951 13952 13953 13954 13955 13956 13957 13958 13959 13960 13961 13962 13963 13964 13965 13966 13967 13968 13969 13970 13971 13972 13973 13974 13975 13976 13977 13978 13979 13980 13981 13982 13983 13984 13985 13986 13987 13988 13989 13990 13991 13992 13993 13994 13995 13996 13997 13998 13999 14000 14001 14002 14003 14004 14005 14006 14007 14008 14009 14010 14011 14012 14013 14014 14015 14016 14017 14018 14019 14020 14021 14022 14023 14024 14025 14026 14027 14028 14029 14030 14031 14032 14033 14034 14035 14036 14037 14038 14039 14040 14041 14042 14043 14044 14045 14046 14047 14048 14049 14050 14051 14052 14053 14054 14055 14056 14057 14058 14059 14060 14061 14062 14063 14064 14065 14066 14067 14068 14069 14070 14071 14072 14073 14074 14075 14076 14077 14078 14079 14080 14081 14082 14083 14084 14085 14086 14087 14088 14089 14090 14091 14092 14093 14094 14095 14096 14097 14098 14099 14100 14101 14102 14103 14104 14105 14106 14107 14108 14109 14110 14111 14112 14113 14114 14115 14116 14117 14118 14119 14120 14121 14122 14123 14124 14125 14126 14127 14128 14129 14130 14131 14132 14133 14134 14135 14136 14137 14138 14139 14140 14141 14142 14143 14144 14145 14146 14147 14148 14149 14150 14151 14152 14153 14154 14155 14156 14157 14158 14159 14160 14161 14162 14163 14164 14165 14166 14167 14168 14169 14170 14171 14172 14173 14174 14175 14176 14177 14178 14179 14180 14181 14182 14183 14184 14185 14186 14187 14188 14189 14190 14191 14192 14193 14194 14195 14196 14197 14198 14199 14200 14201 14202 14203 14204 14205 14206 14207 14208 14209 14210 14211 14212 14213 14214 14215 14216 14217 14218 14219 14220 14221 14222 14223 14224 14225 14226 14227 14228 14229 14230 14231 14232 14233 14234 14235 14236 14237 14238 14239 14240 14241 14242 14243 14244 14245 14246 14247 14248 14249 14250 14251 14252 14253 14254 14255 14256 14257 14258 14259 14260 14261 14262 14263 14264 14265 14266 14267 14268 14269 14270 14271 14272 14273 14274 14275 14276 14277 14278 14279 14280 14281 14282 14283 14284 14285 14286 14287 14288 14289 14290 14291 14292 14293 14294 14295 14296 14297 14298 14299 14300 14301 14302 14303 14304 14305 14306 14307 14308 14309 14310 14311 14312 14313 14314 14315 14316 14317 14318 14319 14320 14321 14322 14323 14324 14325 14326 14327 14328 14329 14330 14331 14332 14333 14334 14335 14336 14337 14338 14339 14340 14341 14342 14343 14344 14345 14346 14347 14348 14349 14350 14351 14352 14353 14354 14355 14356 14357 14358 14359 14360 14361 14362 14363 14364 14365 14366 14367 14368 14369 14370 14371 14372 14373 14374 14375 14376 14377 14378 14379 14380 14381 14382 14383 14384 14385 14386 14387 14388 14389 14390 14391 14392 14393 14394 14395 14396 14397 14398 14399 14400 14401 14402 14403 14404 14405 14406 14407 14408 14409 14410 14411 14412 14413 14414 14415 14416 14417 14418 14419 14420 14421 14422 14423 14424 14425 14426 14427 14428 14429 14430 14431 14432 14433 14434 14435 14436 14437 14438 14439 14440 14441 14442 14443 14444 14445 14446 14447 14448 14449 14450 14451 14452 14453 14454 14455 14456 14457 14458 14459 14460 14461 14462 14463 14464 14465 14466 14467 14468 14469 14470 14471 14472 14473 14474 14475 14476 14477 14478 14479 14480 14481 14482 14483 14484 14485 14486 14487 14488 14489 14490 14491 14492 14493 14494 14495 14496 14497 14498 14499 14500 14501 14502 14503 14504 14505 14506 14507 14508 14509 14510 14511 14512 14513 14514 14515 14516 14517 14518 14519 14520 14521 14522 14523 14524 14525 14526 14527 14528 14529 14530 14531 14532 14533 14534 14535 14536 14537 14538 14539 14540 14541 14542 14543 14544 14545 14546 14547 14548 14549 14550 14551 14552 14553 14554 14555 14556 14557 14558 14559 14560 14561 14562 14563 14564 14565 14566 14567 14568 14569 14570 14571 14572 14573 14574 14575 14576 14577 14578 14579 14580 14581 14582 14583 14584 14585 14586 14587 14588 14589 14590 14591 14592 14593 14594 14595 14596 14597 14598 14599 14600 14601 14602 14603 14604 14605 14606 14607 14608 14609 14610 14611 14612 14613 14614 14615 14616 14617 14618 14619 14620 14621 14622 14623 14624 14625 14626 14627 14628 14629 14630 14631 14632 14633 14634 14635 14636 14637 14638 14639 14640 14641 14642 14643 14644 14645 14646 14647 14648 14649 14650 14651 14652 14653 14654 14655 14656 14657 14658 14659 14660 14661 14662 14663 14664 14665 14666 14667 14668 14669 14670 14671 14672 14673 14674 14675 14676 14677 14678 14679 14680 14681 14682 14683 14684 14685 14686 14687 14688 14689 14690 14691 14692 14693 14694 14695 14696 14697 14698 14699 14700 14701 14702 14703 14704 14705 14706 14707 14708 14709 14710 14711 14712 14713 14714 14715 14716 14717 14718 14719 14720 14721 14722 14723 14724 14725 14726 14727 14728 14729 14730 14731 14732 14733 14734 14735 14736 14737 14738 14739 14740 14741 14742 14743 14744 14745 14746 14747 14748 14749 14750 14751 14752 14753 14754 14755 14756 14757 14758 14759 14760 14761 14762 14763 14764 14765 14766 14767 14768 14769 14770 14771 14772 14773 14774 14775 14776 14777 14778 14779 14780 14781 14782 14783 14784 14785 14786 14787 14788 14789 14790 14791 14792 14793 14794 14795 14796 14797 14798 14799 14800 14801 14802 14803 14804 14805 14806 14807 14808 14809 14810 14811 14812 14813 14814 14815 14816 14817 14818 14819 14820 14821 14822 14823 14824 14825 14826 14827 14828 14829 14830 14831 14832 14833 14834 14835 14836 14837 14838 14839 14840 14841 14842 14843 14844 14845 14846 14847 14848 14849 14850 14851 14852 14853 14854 14855 14856 14857 14858 14859 14860 14861 14862 14863 14864 14865 14866 14867 14868 14869 14870 14871 14872 14873 14874 14875 14876 14877 14878 14879 14880 14881 14882 14883 14884 14885 14886 14887 14888 14889 14890 14891 14892 14893 14894 14895 14896 14897 14898 14899 14900 14901 14902 14903 14904 14905 14906 14907 14908 14909 14910 14911 14912 14913 14914 14915 14916 14917 14918 14919 14920 14921 14922 14923 14924 14925 14926 14927 14928 14929 14930 14931 14932 14933 14934 14935 14936 14937 14938 14939 14940 14941 14942 14943 14944 14945 14946 14947 14948 14949 14950 14951 14952 14953 14954 14955 14956 14957 14958 14959 14960 14961 14962 14963 14964 14965 14966 14967 14968 14969 14970 14971 14972 14973 14974 14975 14976 14977 14978 14979 14980 14981 14982 14983 14984 14985 14986 14987 14988 14989 14990 14991 14992 14993 14994 14995 14996 14997 14998 14999 15000 15001 15002 15003 15004 15005 15006 15007 15008 15009 15010 15011 15012 15013 15014 15015 15016 15017 15018 15019 15020 15021 15022 15023 15024 15025 15026 15027 15028 15029 15030 15031 15032 15033 15034 15035 15036 15037 15038 15039 15040 15041 15042 15043 15044 15045 15046 15047 15048 15049 15050 15051 15052 15053 15054 15055 15056 15057 15058 15059 15060 15061 15062 15063 15064 15065 15066 15067 15068 15069 15070 15071 15072 15073 15074 15075 15076 15077 15078 15079 15080 15081 15082 15083 15084 15085 15086 15087 15088 15089 15090 15091 15092 15093 15094 15095 15096 15097 15098 15099 15100 15101 15102 15103 15104 15105 15106 15107 15108 15109 15110 15111 15112 15113 15114 15115 15116 15117 15118 15119 15120 15121 15122 15123 15124 15125 15126 15127 15128 15129 15130 15131 15132 15133 15134 15135 15136 15137 15138 15139 15140 15141 15142 15143 15144 15145 15146 15147 15148 15149 15150 15151 15152 15153 15154 15155 15156 15157 15158 15159 15160 15161 15162 15163 15164 15165 15166 15167 15168 15169 15170 15171 15172 15173 15174 15175 15176 15177 15178 15179 15180 15181 15182 15183 15184 15185 15186 15187 15188 15189 15190 15191 15192 15193 15194 15195 15196 15197 15198 15199 15200 15201 15202 15203 15204 15205 15206 15207 15208 15209 15210 15211 15212 15213 15214 15215 15216 15217 15218 15219 15220 15221 15222 15223 15224 15225 15226 15227 15228 15229 15230 15231 15232 15233 15234 15235 15236 15237 15238 15239 15240 15241 15242 15243 15244 15245 15246 15247 15248 15249 15250 15251 15252 15253 15254 15255 15256 15257 15258 15259 15260 15261 15262 15263 15264 15265 15266 15267 15268 15269 15270 15271 15272 15273 15274 15275 15276 15277 15278 15279 15280 15281 15282 15283 15284 15285 15286 15287 15288 15289 15290 15291 15292 15293 15294 15295 15296 15297 15298 15299 15300 15301 15302 15303 15304 15305 15306 15307 15308 15309 15310 15311 15312 15313 15314 15315 15316 15317 15318 15319 15320 15321 15322 15323 15324 15325 15326 15327 15328 15329 15330 15331 15332 15333 15334 15335 15336 15337 15338 15339 15340 15341 15342 15343 15344 15345 15346 15347 15348 15349 15350 15351 15352 15353 15354 15355 15356 15357 15358 15359 15360 15361 15362 15363 15364 15365 15366 15367 15368 15369 15370 15371 15372 15373 15374 15375 15376 15377 15378 15379 15380 15381 15382 15383 15384 15385 15386 15387 15388 15389 15390 15391 15392 15393 15394 15395 15396 15397 15398 15399 15400 15401 15402 15403 15404 15405 15406 15407 15408 15409 15410 15411 15412 15413 15414 15415 15416 15417 15418 15419 15420 15421 15422 15423 15424 15425 15426 15427 15428 15429 15430 15431 15432 15433 15434 15435 15436 15437 15438 15439 15440 15441 15442 15443 15444 15445 15446 15447 15448 15449 15450 15451 15452 15453 15454 15455 15456 15457 15458 15459 15460 15461 15462 15463 15464 15465 15466 15467 15468 15469 15470 15471 15472 15473 15474 15475 15476 15477 15478 15479 15480 15481 15482 15483 15484 15485 15486 15487 15488 15489 15490 15491 15492 15493 15494 15495 15496 15497 15498 15499 15500 15501 15502 15503 15504 15505 15506 15507 15508 15509 15510 15511 15512 15513 15514 15515 15516 15517 15518 15519 15520 15521 15522 15523 15524 15525 15526 15527 15528 15529 15530 15531 15532 15533 15534 15535 15536 15537 15538 15539 15540 15541 15542 15543 15544 15545 15546 15547 15548 15549 15550 15551 15552 15553 15554 15555 15556 15557 15558 15559 15560 15561 15562 15563 15564 15565 15566 15567 15568 15569 15570 15571 15572 15573 15574 15575 15576 15577 15578 15579 15580 15581 15582 15583 15584 15585 15586 15587 15588 15589 15590 15591 15592 15593 15594 15595 15596 15597 15598 15599 15600 15601 15602 15603 15604 15605 15606 15607 15608 15609 15610 15611 15612 15613 15614 15615 15616 15617 15618 15619 15620 15621 15622 15623 15624 15625 15626 15627 15628 15629 15630 15631 15632 15633 15634 15635 15636 15637 15638 15639 15640 15641 15642 15643 15644 15645 15646 15647 15648 15649 15650 15651 15652 15653 15654 15655 15656 15657 15658 15659 15660 15661 15662 15663 15664 15665 15666 15667 15668 15669 15670 15671 15672 15673 15674 15675 15676 15677 15678 15679 15680 15681 15682 15683 15684 15685 15686 15687 15688 15689 15690 15691 15692 15693 15694 15695 15696 15697 15698 15699 15700 15701 15702 15703 15704 15705 15706 15707 15708 15709 15710 15711 15712 15713 15714 15715 15716 15717 15718 15719 15720 15721 15722 15723 15724 15725 15726 15727 15728 15729 15730 15731 15732 15733 15734 15735 15736 15737 15738 15739 15740 15741 15742 15743 15744 15745 15746 15747 15748 15749 15750 15751 15752 15753 15754 15755 15756 15757 15758 15759 15760 15761 15762 15763 15764 15765 15766 15767 15768 15769 15770 15771 15772 15773 15774 15775 15776 15777 15778 15779 15780 15781 15782 15783 15784 15785 15786 15787 15788 15789 15790 15791 15792 15793 15794 15795 15796 15797 15798 15799 15800 15801 15802 15803 15804 15805 15806 15807 15808 15809 15810 15811 15812 15813 15814 15815 15816 15817 15818 15819 15820 15821 15822 15823 15824 15825 15826 15827 15828 15829 15830 15831 15832 15833 15834 15835 15836 15837 15838 15839 15840 15841 15842 15843 15844 15845 15846 15847 15848 15849 15850 15851 15852 15853 15854 15855 15856 15857 15858 15859 15860 15861 15862 15863 15864 15865 15866 15867 15868 15869 15870 15871 15872 15873 15874 15875 15876 15877 15878 15879 15880 15881 15882 15883 15884 15885 15886 15887 15888 15889 15890 15891 15892 15893 15894 15895 15896 15897 15898 15899 15900 15901 15902 15903 15904 15905 15906 15907 15908 15909 15910 15911 15912 15913 15914 15915 15916 15917 15918 15919 15920 15921 15922 15923 15924 15925 15926 15927 15928 15929 15930 15931 15932 15933 15934 15935 15936 15937 15938 15939 15940 15941 15942 15943 15944 15945 15946 15947 15948 15949 15950 15951 15952 15953 15954 15955 15956 15957 15958 15959 15960 15961 15962 15963 15964 15965 15966 15967 15968 15969 15970 15971 15972 15973 15974 15975 15976 15977 15978 15979 15980 15981 15982 15983 15984 15985 15986 15987 15988 15989 15990 15991 15992 15993 15994 15995 15996 15997 15998 15999 16000 16001 16002 16003 16004 16005 16006 16007 16008 16009 16010 16011 16012 16013 16014 16015 16016 16017 16018 16019 16020 16021 16022 16023 16024 16025 16026 16027 16028 16029 16030 16031 16032 16033 16034 16035 16036 16037 16038 16039 16040 16041 16042 16043 16044 16045 16046 16047 16048 16049 16050 16051 16052 16053 16054 16055 16056 16057 16058 16059 16060 16061 16062 16063 16064 16065 16066 16067 16068 16069 16070 16071 16072 16073 16074 16075 16076 16077 16078 16079 16080 16081 16082 16083 16084 16085 16086 16087 16088 16089 16090 16091 16092 16093 16094 16095 16096 16097 16098 16099 16100 16101 16102 16103 16104 16105 16106 16107 16108 16109 16110 16111 16112 16113 16114 16115 16116 16117 16118 16119 16120 16121 16122 16123 16124 16125 16126 16127 16128 16129 16130 16131 16132 16133 16134 16135 16136 16137 16138 16139 16140 16141 16142 16143 16144 16145 16146 16147 16148 16149 16150 16151 16152 16153 16154 16155 16156 16157 16158 16159 16160 16161 16162 16163 16164 16165 16166 16167 16168 16169 16170 16171 16172 16173 16174 16175 16176 16177 16178 16179 16180 16181 16182 16183 16184 16185 16186 16187 16188 16189 16190 16191 16192 16193 16194 16195 16196 16197 16198 16199 16200 16201 16202 16203 16204 16205 16206 16207 16208 16209 16210 16211 16212 16213 16214 16215 16216 16217 16218 16219 16220 16221 16222 16223 16224 16225 16226 16227 16228 16229 16230 16231 16232 16233 16234 16235 16236 16237 16238 16239 16240 16241 16242 16243 16244 16245 16246 16247 16248 16249 16250 16251 16252 16253 16254 16255 16256 16257 16258 16259 16260 16261 16262 16263 16264 16265 16266 16267 16268 16269 16270 16271 16272 16273 16274 16275 16276 16277 16278 16279 16280 16281 16282 16283 16284 16285 16286 16287 16288 16289 16290 16291 16292 16293 16294 16295 16296 16297 16298 16299 16300 16301 16302 16303 16304 16305 16306 16307 16308 16309 16310 16311 16312 16313 16314 16315 16316 16317 16318 16319 16320 16321 16322 16323 16324 16325 16326 16327 16328 16329 16330 16331 16332 16333 16334 16335 16336 16337 16338 16339 16340 16341 16342 16343 16344 16345 16346 16347 16348 16349 16350 16351 16352 16353 16354 16355 16356 16357 16358 16359 16360 16361 16362 16363 16364 16365 16366 16367 16368 16369 16370 16371 16372 16373 16374 16375 16376 16377 16378 16379 16380 16381 16382 16383 16384 16385 16386 16387 16388 16389 16390 16391 16392 16393 16394 16395 16396 16397 16398 16399 16400 16401 16402 16403 16404 16405 16406 16407 16408 16409 16410 16411 16412 16413 16414 16415 16416 16417 16418 16419 16420 16421 16422 16423 16424 16425 16426 16427 16428 16429 16430 16431 16432 16433 16434 16435 16436 16437 16438 16439 16440 16441 16442 16443 16444 16445 16446 16447 16448 16449 16450 16451 16452 16453 16454 16455 16456 16457 16458 16459 16460 16461 16462 16463 16464 16465 16466 16467 16468 16469 16470 16471 16472 16473 16474 16475 16476 16477 16478 16479 16480 16481 16482 16483 16484 16485 16486 16487 16488 16489 16490 16491 16492 16493 16494 16495 16496 16497 16498 16499 16500 16501 16502 16503 16504 16505 16506 16507 16508 16509 16510 16511 16512 16513 16514 16515 16516 16517 16518 16519 16520 16521 16522 16523 16524 16525 16526 16527 16528 16529 16530 16531 16532 16533 16534 16535 16536 16537 16538 16539 16540 16541 16542 16543 16544 16545 16546 16547 16548 16549 16550 16551 16552 16553 16554 16555 16556 16557 16558 16559 16560 16561 16562 16563 16564 16565 16566 16567 16568 16569 16570 16571 16572 16573 16574 16575 16576 16577 16578 16579 16580 16581 16582 16583 16584 16585 16586 16587 16588 16589 16590 16591 16592 16593 16594 16595 16596 16597 16598 16599 16600 16601 16602 16603 16604 16605 16606 16607 16608 16609 16610 16611 16612 16613 16614 16615 16616 16617 16618 16619 16620 16621 16622 16623 16624 16625 16626 16627 16628 16629 16630 16631 16632 16633 16634 16635 16636 16637 16638 16639 16640 16641 16642 16643 16644 16645 16646 16647 16648 16649 16650 16651 16652 16653 16654 16655 16656 16657 16658 16659 16660 16661 16662 16663 16664 16665 16666 16667 16668 16669 16670 16671 16672 16673 16674 16675 16676 16677 16678 16679 16680 16681 16682 16683 16684 16685 16686 16687 16688 16689 16690 16691 16692 16693 16694 16695 16696 16697 16698 16699 16700 16701 16702 16703 16704 16705 16706 16707 16708 16709 16710 16711 16712 16713 16714 16715 16716 16717 16718 16719 16720 16721 16722 16723 16724 16725 16726 16727 16728 16729 16730 16731 16732 16733 16734 16735 16736 16737 16738 16739 16740 16741 16742 16743 16744 16745 16746 16747 16748 16749 16750 16751 16752 16753 16754 16755 16756 16757 16758 16759 16760 16761 16762 16763 16764 16765 16766 16767 16768 16769 16770 16771 16772 16773 16774 16775 16776 16777 16778 16779 16780 16781 16782 16783 16784 16785 16786 16787 16788 16789 16790 16791 16792 16793 16794 16795 16796 16797 16798 16799 16800 16801 16802 16803 16804 16805 16806 16807 16808 16809 16810 16811 16812 16813 16814 16815 16816 16817 16818 16819 16820 16821 16822 16823 16824 16825 16826 16827 16828 16829 16830 16831 16832 16833 16834 16835 16836 16837 16838 16839 16840 16841 16842 16843 16844 16845 16846 16847 16848 16849 16850 16851 16852 16853 16854 16855 16856 16857 16858 16859 16860 16861 16862 16863 16864 16865 16866 16867 16868 16869 16870 16871 16872 16873 16874 16875 16876 16877 16878 16879 16880 16881 16882 16883 16884 16885 16886 16887 16888 16889 16890 16891 16892 16893 16894 16895 16896 16897 16898 16899 16900 16901 16902 16903 16904 16905 16906 16907 16908 16909 16910 16911 16912 16913 16914 16915 16916 16917 16918 16919 16920 16921 16922 16923 16924 16925 16926 16927 16928 16929 16930 16931 16932 16933 16934 16935 16936 16937 16938 16939 16940 16941 16942 16943 16944 16945 16946 16947 16948 16949 16950 16951 16952 16953 16954 16955 16956 16957 16958 16959 16960 16961 16962 16963 16964 16965 16966 16967 16968 16969 16970 16971 16972 16973 16974 16975 16976 16977 16978 16979 16980 16981 16982 16983 16984 16985 16986 16987 16988 16989 16990 16991 16992 16993 16994 16995 16996 16997 16998 16999 17000 17001 17002 17003 17004 17005 17006 17007 17008 17009 17010 17011 17012 17013 17014 17015 17016 17017 17018 17019 17020 17021 17022 17023 17024 17025 17026 17027 17028 17029 17030 17031 17032 17033 17034 17035 17036 17037 17038 17039 17040 17041 17042 17043 17044 17045 17046 17047 17048 17049 17050 17051 17052 17053 17054 17055 17056 17057 17058 17059 17060 17061 17062 17063 17064 17065 17066 17067 17068 17069 17070 17071 17072 17073 17074 17075 17076 17077 17078 17079 17080 17081 17082 17083 17084 17085 17086 17087 17088 17089 17090 17091 17092 17093 17094 17095 17096 17097 17098 17099 17100 17101 17102 17103 17104 17105 17106 17107 17108 17109 17110 17111 17112 17113 17114 17115 17116 17117 17118 17119 17120 17121 17122 17123 17124 17125 17126 17127 17128 17129 17130 17131 17132 17133 17134 17135 17136 17137 17138 17139 17140 17141 17142 17143 17144 17145 17146 17147 17148 17149 17150 17151 17152 17153 17154 17155 17156 17157 17158 17159 17160 17161 17162 17163 17164 17165 17166 17167 17168 17169 17170 17171 17172 17173 17174 17175 17176 17177 17178 17179 17180 17181 17182 17183 17184 17185 17186 17187 17188 17189 17190 17191 17192 17193 17194 17195 17196 17197 17198 17199 17200 17201 17202 17203 17204 17205 17206 17207 17208 17209 17210 17211 17212 17213 17214 17215 17216 17217 17218 17219 17220 17221 17222 17223 17224 17225 17226 17227 17228 17229 17230 17231 17232 17233 17234 17235 17236 17237 17238 17239 17240 17241 17242 17243 17244 17245 17246 17247 17248 17249 17250 17251 17252 17253 17254 17255 17256 17257 17258 17259 17260 17261 17262 17263 17264 17265 17266 17267 17268 17269 17270 17271 17272 17273 17274 17275 17276 17277 17278 17279 17280 17281 17282 17283 17284 17285 17286 17287 17288 17289 17290 17291 17292 17293 17294 17295 17296 17297 17298 17299 17300 17301 17302 17303 17304 17305 17306 17307 17308 17309 17310 17311 17312 17313 17314 17315 17316 17317 17318 17319 17320 17321 17322 17323 17324 17325 17326 17327 17328 17329 17330 17331 17332 17333 17334 17335 17336 17337 17338 17339 17340 17341 17342 17343 17344 17345 17346 17347 17348 17349 17350 17351 17352 17353 17354 17355 17356 17357 17358 17359 17360 17361 17362 17363 17364 17365 17366 17367 17368 17369 17370 17371 17372 17373 17374 17375 17376 17377 17378 17379 17380 17381 17382 17383 17384 17385 17386 17387 17388 17389 17390 17391 17392 17393 17394 17395 17396 17397 17398 17399 17400 17401 17402 17403 17404 17405 17406 17407 17408 17409 17410 17411 17412 17413 17414 17415 17416 17417 17418 17419 17420 17421 17422 17423 17424 17425 17426 17427 17428 17429 17430 17431 17432 17433 17434 17435 17436 17437 17438 17439 17440 17441 17442 17443 17444 17445 17446 17447 17448 17449 17450 17451 17452 17453 17454 17455 17456 17457 17458 17459 17460 17461 17462 17463 17464 17465 17466 17467 17468 17469 17470 17471 17472 17473 17474 17475 17476 17477 17478 17479 17480 17481 17482 17483 17484 17485 17486 17487 17488 17489 17490 17491 17492 17493 17494 17495 17496 17497 17498 17499 17500 17501 17502 17503 17504 17505 17506 17507 17508 17509 17510 17511 17512 17513 17514 17515 17516 17517 17518 17519 17520 17521 17522 17523 17524 17525 17526 17527 17528 17529 17530 17531 17532 17533 17534 17535 17536 17537 17538 17539 17540 17541 17542 17543 17544 17545 17546 17547 17548 17549 17550 17551 17552 17553 17554 17555 17556 17557 17558 17559 17560 17561 17562 17563 17564 17565 17566 17567 17568 17569 17570 17571 17572 17573 17574 17575 17576 17577 17578 17579 17580 17581 17582 17583 17584 17585 17586 17587 17588 17589 17590 17591 17592 17593 17594 17595 17596 17597 17598 17599 17600 17601 17602 17603 17604 17605 17606 17607 17608 17609 17610 17611 17612 17613 17614 17615 17616 17617 17618 17619 17620 17621 17622 17623 17624 17625 17626 17627 17628 17629 17630 17631 17632 17633 17634 17635 17636 17637 17638 17639 17640 17641 17642 17643 17644 17645 17646 17647 17648 17649 17650 17651 17652 17653 17654 17655 17656 17657 17658 17659 17660 17661 17662 17663 17664 17665 17666 17667 17668 17669 17670 17671 17672 17673 17674 17675 17676 17677 17678 17679 17680 17681 17682 17683 17684 17685 17686 17687 17688 17689 17690 17691 17692 17693 17694 17695 17696 17697 17698 17699 17700 17701 17702 17703 17704 17705 17706 17707 17708 17709 17710 17711 17712 17713 17714 17715 17716 17717 17718 17719 17720 17721 17722 17723 17724 17725 17726 17727 17728 17729 17730 17731 17732 17733 17734 17735 17736 17737 17738 17739 17740 17741 17742 17743 17744 17745 17746 17747 17748 17749 17750 17751 17752 17753 17754 17755 17756 17757 17758 17759 17760 17761 17762 17763 17764 17765 17766 17767 17768 17769 17770 17771 17772 17773 17774 17775 17776 17777 17778 17779 17780 17781 17782 17783 17784 17785 17786 17787 17788 17789 17790 17791 17792 17793 17794 17795 17796 17797 17798 17799 17800 17801 17802 17803 17804 17805 17806 17807 17808 17809 17810 17811 17812 17813 17814 17815 17816 17817 17818 17819 17820 17821 17822 17823 17824 17825 17826 17827 17828 17829 17830 17831 17832 17833 17834 17835 17836 17837 17838 17839 17840 17841 17842 17843 17844 17845 17846 17847 17848 17849 17850 17851 17852 17853 17854 17855 17856 17857 17858 17859 17860 17861 17862 17863 17864 17865 17866 17867 17868 17869 17870 17871 17872 17873 17874 17875 17876 17877 17878 17879 17880 17881 17882 17883 17884 17885 17886 17887 17888 17889 17890 17891 17892 17893 17894 17895 17896 17897 17898 17899 17900 17901 17902 17903 17904 17905 17906 17907 17908 17909 17910 17911 17912 17913 17914 17915 17916 17917 17918 17919 17920 17921 17922 17923 17924 17925 17926 17927 17928 17929 17930 17931 17932 17933 17934 17935 17936 17937 17938 17939 17940 17941 17942 17943 17944 17945 17946 17947 17948 17949 17950 17951 17952 17953 17954 17955 17956 17957 17958 17959 17960 17961 17962 17963 17964 17965 17966 17967 17968 17969 17970 17971 17972 17973 17974 17975 17976 17977 17978 17979 17980 17981 17982 17983 17984 17985 17986 17987 17988 17989 17990 17991 17992 17993 17994 17995 17996 17997 17998 17999 18000 18001 18002 18003 18004 18005 18006 18007 18008 18009 18010 18011 18012 18013 18014 18015 18016 18017 18018 18019 18020 18021 18022 18023 18024 18025 18026 18027 18028 18029 18030 18031 18032 18033 18034 18035 18036 18037 18038 18039 18040 18041 18042 18043 18044 18045 18046 18047 18048 18049 18050 18051 18052 18053 18054 18055 18056 18057 18058 18059 18060 18061 18062 18063 18064 18065 18066 18067 18068 18069 18070 18071 18072 18073 18074 18075 18076 18077 18078 18079 18080 18081 18082 18083 18084 18085 18086 18087 18088 18089 18090 18091 18092 18093 18094 18095 18096 18097 18098 18099 18100 18101 18102 18103 18104 18105 18106 18107 18108 18109 18110 18111 18112 18113 18114 18115 18116 18117 18118 18119 18120 18121 18122 18123 18124 18125 18126 18127 18128 18129 18130 18131 18132 18133 18134 18135 18136 18137 18138 18139 18140 18141 18142 18143 18144 18145 18146 18147 18148 18149 18150 18151 18152 18153 18154 18155 18156 18157 18158 18159 18160 18161 18162 18163 18164 18165 18166 18167 18168 18169 18170 18171 18172 18173 18174 18175 18176 18177 18178 18179 18180 18181 18182 18183 18184 18185 18186 18187 18188 18189 18190 18191 18192 18193 18194 18195 18196 18197 18198 18199 18200 18201 18202 18203 18204 18205 18206 18207 18208 18209 18210 18211 18212 18213 18214 18215 18216 18217 18218 18219 18220 18221 18222 18223 18224 18225 18226 18227 18228 18229 18230 18231 18232 18233 18234 18235 18236 18237 18238 18239 18240 18241 18242 18243 18244 18245 18246 18247 18248 18249 18250 18251 18252 18253 18254 18255 18256 18257 18258 18259 18260 18261 18262 18263 18264 18265 18266 18267 18268 18269 18270 18271 18272 18273 18274 18275 18276 18277 18278 18279 18280 18281 18282 18283 18284 18285 18286 18287 18288 18289 18290 18291 18292 18293 18294 18295 18296 18297 18298 18299 18300 18301 18302 18303 18304 18305 18306 18307 18308 18309 18310 18311 18312 18313 18314 18315 18316 18317 18318 18319 18320 18321 18322 18323 18324 18325 18326 18327 18328 18329 18330 18331 18332 18333 18334 18335 18336 18337 18338 18339 18340 18341 18342 18343 18344 18345 18346 18347 18348 18349 18350 18351 18352 18353 18354 18355 18356 18357 18358 18359 18360 18361 18362 18363 18364 18365 18366 18367 18368 18369 18370 18371 18372 18373 18374 18375 18376 18377 18378 18379 18380 18381 18382 18383 18384 18385 18386 18387 18388 18389 18390 18391 18392 18393 18394 18395 18396 18397 18398 18399 18400 18401 18402 18403 18404 18405 18406 18407 18408 18409 18410 18411 18412 18413 18414 18415 18416 18417 18418 18419 18420 18421 18422 18423 18424 18425 18426 18427 18428 18429 18430 18431 18432 18433 18434 18435 18436 18437 18438 18439 18440 18441 18442 18443 18444 18445 18446 18447 18448 18449 18450 18451 18452 18453 18454 18455 18456 18457 18458 18459 18460 18461 18462 18463 18464 18465 18466 18467 18468 18469 18470 18471 18472 18473 18474 18475 18476 18477 18478 18479 18480 18481 18482 18483 18484 18485 18486 18487 18488 18489 18490 18491 18492 18493 18494 18495 18496 18497 18498 18499 18500 18501 18502 18503 18504 18505 18506 18507 18508 18509 18510 18511 18512 18513 18514 18515 18516 18517 18518 18519 18520 18521 18522 18523 18524 18525 18526 18527 18528 18529 18530 18531 18532 18533 18534 18535 18536 18537 18538 18539 18540 18541 18542 18543 18544 18545 18546 18547 18548 18549 18550 18551 18552 18553 18554 18555 18556 18557 18558 18559 18560 18561 18562 18563 18564 18565 18566 18567 18568 18569 18570 18571 18572 18573 18574 18575 18576 18577 18578 18579 18580 18581 18582 18583 18584 18585 18586 18587 18588 18589 18590 18591 18592 18593 18594 18595 18596 18597 18598 18599 18600 18601 18602 18603 18604 18605 18606 18607 18608 18609 18610 18611 18612 18613 18614 18615 18616 18617 18618 18619 18620 18621 18622 18623 18624 18625 18626 18627 18628 18629 18630 18631 18632 18633 18634 18635 18636 18637 18638 18639 18640 18641 18642 18643 18644 18645 18646 18647 18648 18649 18650 18651 18652 18653 18654 18655 18656 18657 18658 18659 18660 18661 18662 18663 18664 18665 18666 18667 18668 18669 18670 18671 18672 18673 18674 18675 18676 18677 18678 18679 18680 18681 18682 18683 18684 18685 18686 18687 18688 18689 18690 18691 18692 18693 18694 18695 18696 18697 18698 18699 18700 18701 18702 18703 18704 18705 18706 18707 18708 18709 18710 18711 18712 18713 18714 18715 18716 18717 18718 18719 18720 18721 18722 18723 18724 18725 18726 18727 18728 18729 18730 18731 18732 18733 18734 18735 18736 18737 18738 18739 18740 18741 18742 18743 18744 18745 18746 18747 18748 18749 18750 18751 18752 18753 18754 18755 18756 18757 18758 18759 18760 18761 18762 18763 18764 18765 18766 18767 18768 18769 18770 18771 18772 18773 18774 18775 18776 18777 18778 18779 18780 18781 18782 18783 18784 18785 18786 18787 18788 18789 18790 18791 18792 18793 18794 18795 18796 18797 18798 18799 18800 18801 18802 18803 18804 18805 18806 18807 18808 18809 18810 18811 18812 18813 18814 18815 18816 18817 18818 18819 18820 18821 18822 18823 18824 18825 18826 18827 18828 18829 18830 18831 18832 18833 18834 18835 18836 18837 18838 18839 18840 18841 18842 18843 18844 18845 18846 18847 18848 18849 18850 18851 18852 18853 18854 18855 18856 18857 18858 18859 18860 18861 18862 18863 18864 18865 18866 18867 18868 18869 18870 18871 18872 18873 18874 18875 18876 18877 18878 18879 18880 18881 18882 18883 18884 18885 18886 18887 18888 18889 18890 18891 18892 18893 18894 18895 18896 18897 18898 18899 18900 18901 18902 18903 18904 18905 18906 18907 18908 18909 18910 18911 18912 18913 18914 18915 18916 18917 18918 18919 18920 18921 18922 18923 18924 18925 18926 18927 18928 18929 18930 18931 18932 18933 18934 18935 18936 18937 18938 18939 18940 18941 18942 18943 18944 18945 18946 18947 18948 18949 18950 18951 18952 18953 18954 18955 18956 18957 18958 18959 18960 18961 18962 18963 18964 18965 18966 18967 18968 18969 18970 18971 18972 18973 18974 18975 18976 18977 18978 18979 18980 18981 18982 18983 18984 18985 18986 18987 18988 18989 18990 18991 18992 18993 18994 18995 18996 18997 18998 18999 19000 19001 19002 19003 19004 19005 19006 19007 19008 19009 19010 19011 19012 19013 19014 19015 19016 19017 19018 19019 19020 19021 19022 19023 19024 19025 19026 19027 19028 19029 19030 19031 19032 19033 19034 19035 19036 19037 19038 19039 19040 19041 19042 19043 19044 19045 19046 19047 19048 19049 19050 19051 19052 19053 19054 19055 19056 19057 19058 19059 19060 19061 19062 19063 19064 19065 19066 19067 19068 19069 19070 19071 19072 19073 19074 19075 19076 19077 19078 19079 19080 19081 19082 19083 19084 19085 19086 19087 19088 19089 19090 19091 19092 19093 19094 19095 19096 19097 19098 19099 19100 19101 19102 19103 19104 19105 19106 19107 19108 19109 19110 19111 19112 19113 19114 19115 19116 19117 19118 19119 19120 19121 19122 19123 19124 19125 19126 19127 19128 19129 19130 19131 19132 19133 19134 19135 19136 19137 19138 19139 19140 19141 19142 19143 19144 19145 19146 19147 19148 19149 19150 19151 19152 19153 19154 19155 19156 19157 19158 19159 19160 19161 19162 19163 19164 19165 19166 19167 19168 19169 19170 19171 19172 19173 19174 19175 19176 19177 19178 19179 19180 19181 19182 19183 19184 19185 19186 19187 19188 19189 19190 19191 19192 19193 19194 19195 19196 19197 19198 19199 19200 19201 19202 19203 19204 19205 19206 19207 19208 19209 19210 19211 19212 19213 19214 19215 19216 19217 19218 19219 19220 19221 19222 19223 19224 19225 19226 19227 19228 19229 19230 19231 19232 19233 19234 19235 19236 19237 19238 19239 19240 19241 19242 19243 19244 19245 19246 19247 19248 19249 19250 19251 19252 19253 19254 19255 19256 19257 19258 19259 19260 19261 19262 19263 19264 19265 19266 19267 19268 19269 19270 19271 19272 19273 19274 19275 19276 19277 19278 19279 19280 19281 19282 19283 19284 19285 19286 19287 19288 19289 19290 19291 19292 19293 19294 19295 19296 19297 19298 19299 19300 19301 19302 19303 19304 19305 19306 19307 19308 19309 19310 19311 19312 19313 19314 19315 19316 19317 19318 19319 19320 19321 19322 19323 19324 19325 19326 19327 19328 19329 19330 19331 19332 19333 19334 19335 19336 19337 19338 19339 19340 19341 19342 19343 19344 19345 19346 19347 19348 19349 19350 19351 19352 19353 19354 19355 19356 19357 19358 19359 19360 19361 19362 19363 19364 19365 19366 19367 19368 19369 19370 19371 19372 19373 19374 19375 19376 19377 19378 19379 19380 19381 19382 19383 19384 19385 19386 19387 19388 19389 19390 19391 19392 19393 19394 19395 19396 19397 19398 19399 19400 19401 19402 19403 19404 19405 19406 19407 19408 19409 19410 19411 19412 19413 19414 19415 19416 19417 19418 19419 19420 19421 19422 19423 19424 19425 19426 19427 19428 19429 19430 19431 19432 19433 19434 19435 19436 19437 19438 19439 19440 19441 19442 19443 19444 19445 19446 19447 19448 19449 19450 19451 19452 19453 19454 19455 19456 19457 19458 19459 19460 19461 19462 19463 19464 19465 19466 19467 19468 19469 19470 19471 19472 19473 19474 19475 19476 19477 19478 19479 19480 19481 19482 19483 19484 19485 19486 19487 19488 19489 19490 19491 19492 19493 19494 19495 19496 19497 19498 19499 19500 19501 19502 19503 19504 19505 19506 19507 19508 19509 19510 19511 19512 19513 19514 19515 19516 19517 19518 19519 19520 19521 19522 19523 19524 19525 19526 19527 19528 19529 19530 19531 19532 19533 19534 19535 19536 19537 19538 19539 19540 19541 19542 19543 19544 19545 19546 19547 19548 19549 19550 19551 19552 19553 19554 19555 19556 19557 19558 19559 19560 19561 19562 19563 19564 19565 19566 19567 19568 19569 19570 19571 19572 19573 19574 19575 19576 19577 19578 19579 19580 19581 19582 19583 19584 19585 19586 19587 19588 19589 19590 19591 19592 19593 19594 19595 19596 19597 19598 19599 19600 19601 19602 19603 19604 19605 19606 19607 19608 19609 19610 19611 19612 19613 19614 19615 19616 19617 19618 19619 19620 19621 19622 19623 19624 19625 19626 19627 19628 19629 19630 19631 19632 19633 19634 19635 19636 19637 19638 19639 19640 19641 19642 19643 19644 19645 19646 19647 19648 19649 19650 19651 19652 19653 19654 19655 19656 19657 19658 19659 19660 19661 19662 19663 19664 19665 19666 19667 19668 19669 19670 19671 19672 19673 19674 19675 19676 19677 19678 19679 19680 19681 19682 19683 19684 19685 19686 19687 19688 19689 19690 19691 19692 19693 19694 19695 19696 19697 19698 19699 19700 19701 19702 19703 19704 19705 19706 19707 19708 19709 19710 19711 19712 19713 19714 19715 19716 19717 19718 19719 19720 19721 19722 19723 19724 19725 19726 19727 19728 19729 19730 19731 19732 19733 19734 19735 19736 19737 19738 19739 19740 19741 19742 19743 19744 19745 19746 19747 19748 19749 19750 19751 19752 19753 19754 19755 19756 19757 19758 19759 19760 19761 19762 19763 19764 19765 19766 19767 19768 19769 19770 19771 19772 19773 19774 19775 19776 19777 19778 19779 19780 19781 19782 19783 19784 19785 19786 19787 19788 19789 19790 19791 19792 19793 19794 19795 19796 19797 19798 19799 19800 19801 19802 19803 19804 19805 19806 19807 19808 19809 19810 19811 19812 19813 19814 19815 19816 19817 19818 19819 19820 19821 19822 19823 19824 19825 19826 19827 19828 19829 19830 19831 19832 19833 19834 19835 19836 19837 19838 19839 19840 19841 19842 19843 19844 19845 19846 19847 19848 19849 19850 19851 19852 19853 19854 19855 19856 19857 19858 19859 19860 19861 19862 19863 19864 19865 19866 19867 19868 19869 19870 19871 19872 19873 19874 19875 19876 19877 19878 19879 19880 19881 19882 19883 19884 19885 19886 19887 19888 19889 19890 19891 19892 19893 19894 19895 19896 19897 19898 19899 19900 19901 19902 19903 19904 19905 19906 19907 19908 19909 19910 19911 19912 19913 19914 19915 19916 19917 19918 19919 19920 19921 19922 19923 19924 19925 19926 19927 19928 19929 19930 19931 19932 19933 19934 19935 19936 19937 19938 19939 19940 19941 19942 19943 19944 19945 19946 19947 19948 19949 19950 19951 19952 19953 19954 19955 19956 19957 19958 19959 19960 19961 19962 19963 19964 19965 19966 19967 19968 19969 19970 19971 19972 19973 19974 19975 19976 19977 19978 19979 19980 19981 19982 19983 19984 19985 19986 19987 19988 19989 19990 19991 19992 19993 19994 19995 19996 19997 19998 19999 20000 20001 20002 20003 20004 20005 20006 20007 20008 20009 20010 20011 20012 20013 20014 20015 20016 20017 20018 20019 20020 20021 20022 20023 20024 20025 20026 20027 20028 20029 20030 20031 20032 20033 20034 20035 20036 20037 20038 20039 20040 20041 20042 20043 20044 20045 20046 20047 20048 20049 20050 20051 20052 20053 20054 20055 20056 20057 20058 20059 20060 20061 20062 20063 20064 20065 20066 20067 20068 20069 20070 20071 20072 20073 20074 20075 20076 20077 20078 20079 20080 20081 20082 20083 20084 20085 20086 20087 20088 20089 20090 20091 20092 20093 20094 20095 20096 20097 20098 20099 20100 20101 20102 20103 20104 20105 20106 20107 20108 20109 20110 20111 20112 20113 20114 20115 20116 20117 20118 20119 20120 20121 20122 20123 20124 20125 20126 20127 20128 20129 20130 20131 20132 20133 20134 20135 20136 20137 20138 20139 20140 20141 20142 20143 20144 20145 20146 20147 20148 20149 20150 20151 20152 20153 20154 20155 20156 20157 20158 20159 20160 20161 20162 20163 20164 20165 20166 20167 20168 20169 20170 20171 20172 20173 20174 20175 20176 20177 20178 20179 20180 20181 20182 20183 20184 20185 20186 20187 20188 20189 20190 20191 20192 20193 20194 20195 20196 20197 20198 20199 20200 20201 20202 20203 20204 20205 20206 20207 20208 20209 20210 20211 20212 20213 20214 20215 20216 20217 20218 20219 20220 20221 20222 20223 20224 20225 20226 20227 20228 20229 20230 20231 20232 20233 20234 20235 20236 20237 20238 20239 20240 20241 20242 20243 20244 20245 20246 20247 20248 20249 20250 20251 20252 20253 20254 20255 20256 20257 20258 20259 20260 20261 20262 20263 20264 20265 20266 20267 20268 20269 20270 20271 20272 20273 20274 20275 20276 20277 20278 20279 20280 20281 20282 20283 20284 20285 20286 20287 20288 20289 20290 20291 20292 20293 20294 20295 20296 20297 20298 20299 20300 20301 20302 20303 20304 20305 20306 20307 20308 20309 20310 20311 20312 20313 20314 20315 20316 20317 20318 20319 20320 20321 20322 20323 20324 20325 20326 20327 20328 20329 20330 20331 20332 20333 20334 20335 20336 20337 20338 20339 20340 20341 20342 20343 20344 20345 20346 20347 20348 20349 20350 20351 20352 20353 20354 20355 20356 20357 20358 20359 20360 20361 20362 20363 20364 20365 20366 20367 20368 20369 20370 20371 20372 20373 20374 20375 20376 20377 20378 20379 20380 20381 20382 20383 20384 20385 20386 20387 20388 20389 20390 20391 20392 20393 20394 20395 20396 20397 20398 20399 20400 20401 20402 20403 20404 20405 20406 20407 20408 20409 20410 20411 20412 20413 20414 20415 20416 20417 20418 20419 20420 20421 20422 20423 20424 20425 20426 20427 20428 20429 20430 20431 20432 20433 20434 20435 20436 20437 20438 20439 20440 20441 20442 20443 20444 20445 20446 20447 20448 20449 20450 20451 20452 20453 20454 20455 20456 20457 20458 20459 20460 20461 20462 20463 20464 20465 20466 20467 20468 20469 20470 20471 20472 20473 20474 20475 20476 20477 20478 20479 20480 20481 20482 20483 20484 20485 20486 20487 20488 20489 20490 20491 20492 20493 20494 20495 20496 20497 20498 20499 20500 20501 20502 20503 20504 20505 20506 20507 20508 20509 20510 20511 20512 20513 20514 20515 20516 20517 20518 20519 20520 20521 20522 20523 20524 20525 20526 20527 20528 20529 20530 20531 20532 20533 20534 20535 20536 20537 20538 20539 20540 20541 20542 20543 20544 20545 20546 20547 20548 20549 20550 20551 20552 20553 20554 20555 20556 20557 20558 20559 20560 20561 20562 20563 20564 20565 20566 20567 20568 20569 20570 20571 20572 20573 20574 20575 20576 20577 20578 20579 20580 20581 20582 20583 20584 20585 20586 20587 20588 20589 20590 20591 20592 20593 20594 20595 20596 20597 20598 20599 20600 20601 20602 20603 20604 20605 20606 20607 20608 20609 20610 20611 20612 20613 20614 20615 20616 20617 20618 20619 20620 20621 20622 20623 20624 20625 20626 20627 20628 20629 20630 20631 20632 20633 20634 20635 20636 20637 20638 20639 20640 20641 20642 20643 20644 20645 20646 20647 20648 20649 20650 20651 20652 20653 20654 20655 20656 20657 20658 20659 20660 20661 20662 20663 20664 20665 20666 20667 20668 20669 20670 20671 20672 20673 20674 20675 20676 20677 20678 20679 20680 20681 20682 20683 20684 20685 20686 20687 20688 20689 20690 20691 20692 20693 20694 20695 20696 20697 20698 20699 20700 20701 20702 20703 20704 20705 20706 20707 20708 20709 20710 20711 20712 20713 20714 20715 20716 20717 20718 20719 20720 20721 20722 20723 20724 20725 20726 20727 20728 20729 20730 20731 20732 20733 20734 20735 20736 20737 20738 20739 20740 20741 20742 20743 20744 20745 20746 20747 20748 20749 20750 20751 20752 20753 20754 20755 20756 20757 20758 20759 20760 20761 20762 20763 20764 20765 20766 20767 20768 20769 20770 20771 20772 20773 20774 20775 20776 20777 20778 20779 20780 20781 20782 20783 20784 20785 20786 20787 20788 20789 20790 20791 20792 20793 20794 20795 20796 20797 20798 20799 20800 20801 20802 20803 20804 20805 20806 20807 20808 20809 20810 20811 20812 20813 20814 20815 20816 20817 20818 20819 20820 20821 20822 20823 20824 20825 20826 20827 20828 20829 20830 20831 20832 20833 20834 20835 20836 20837 20838 20839 20840 20841 20842 20843 20844 20845 20846 20847 20848 20849 20850 20851 20852 20853 20854 20855 20856 20857 20858 20859 20860 20861 20862 20863 20864 20865 20866 20867 20868 20869 20870 20871 20872 20873 20874 20875 20876 20877 20878 20879 20880 20881 20882 20883 20884 20885 20886 20887 20888 20889 20890 20891 20892 20893 20894 20895 20896 20897 20898 20899 20900 20901 20902 20903 20904 20905 20906 20907 20908 20909 20910 20911 20912 20913 20914 20915 20916 20917 20918 20919 20920 20921 20922 20923 20924 20925 20926 20927 20928 20929 20930 20931 20932 20933 20934 20935 20936 20937 20938 20939 20940 20941 20942 20943 20944 20945 20946 20947 20948 20949 20950 20951 20952 20953 20954 20955 20956 20957 20958 20959 20960 20961 20962 20963 20964 20965 20966 20967 20968 20969 20970 20971 20972 20973 20974 20975 20976 20977 20978 20979 20980 20981 20982 20983 20984 20985 20986 20987 20988 20989 20990 20991 20992 20993 20994 20995 20996 20997 20998 20999 21000 21001 21002 21003 21004 21005 21006 21007 21008 21009 21010 21011 21012 21013 21014 21015 21016 21017 21018 21019 21020 21021 21022 21023 21024 21025 21026 21027 21028 21029 21030 21031 21032 21033 21034 21035 21036 21037 21038 21039 21040 21041 21042 21043 21044 21045 21046 21047 21048 21049 21050 21051 21052 21053 21054 21055 21056 21057 21058 21059 21060 21061 21062 21063 21064 21065 21066 21067 21068 21069 21070 21071 21072 21073 21074 21075 21076 21077 21078 21079 21080 21081 21082 21083 21084 21085 21086 21087 21088 21089 21090 21091 21092 21093 21094 21095 21096 21097 21098 21099 21100 21101 21102 21103 21104 21105 21106 21107 21108 21109 21110 21111 21112 21113 21114 21115 21116 21117 21118 21119 21120 21121 21122 21123 21124 21125 21126 21127 21128 21129 21130 21131 21132 21133 21134 21135 21136 21137 21138 21139 21140 21141 21142 21143 21144 21145 21146 21147 21148 21149 21150 21151 21152 21153 21154 21155 21156 21157 21158 21159 21160 21161 21162 21163 21164 21165 21166 21167 21168 21169 21170 21171 21172 21173 21174 21175 21176 21177 21178 21179 21180 21181 21182 21183 21184 21185 21186 21187 21188 21189 21190 21191 21192 21193 21194 21195 21196 21197 21198 21199 21200 21201 21202 21203 21204 21205 21206 21207 21208 21209 21210 21211 21212 21213 21214 21215 21216 21217 21218 21219 21220 21221 21222 21223 21224 21225 21226 21227 21228 21229 21230 21231 21232 21233 21234 21235 21236 21237 21238 21239 21240 21241 21242 21243 21244 21245 21246 21247 21248 21249 21250 21251 21252 21253 21254 21255 21256 21257 21258 21259 21260 21261 21262 21263 21264 21265 21266 21267 21268 21269 21270 21271 21272 21273 21274 21275 21276 21277 21278 21279 21280 21281 21282 21283 21284 21285 21286 21287 21288 21289 21290 21291 21292 21293 21294 21295 21296 21297 21298 21299 21300 21301 21302 21303 21304 21305 21306 21307 21308 21309 21310 21311 21312 21313 21314 21315 21316 21317 21318 21319 21320 21321 21322 21323 21324 21325 21326 21327 21328 21329 21330 21331 21332 21333 21334 21335 21336 21337 21338 21339 21340 21341 21342 21343 21344 21345 21346 21347 21348 21349 21350 21351 21352 21353 21354 21355 21356 21357 21358 21359 21360 21361 21362 21363 21364 21365 21366 21367 21368 21369 21370 21371 21372 21373 21374 21375 21376 21377 21378 21379 21380 21381 21382 21383 21384 21385 21386 21387 21388 21389 21390 21391 21392 21393 21394 21395 21396 21397 21398 21399 21400 21401 21402 21403 21404 21405 21406 21407 21408 21409 21410 21411 21412 21413 21414 21415 21416 21417 21418 21419 21420 21421 21422 21423 21424 21425 21426 21427 21428 21429 21430 21431 21432 21433 21434 21435 21436 21437 21438 21439 21440 21441 21442 21443 21444 21445 21446 21447 21448 21449 21450 21451 21452 21453 21454 21455 21456 21457 21458 21459 21460 21461 21462 21463 21464 21465 21466 21467 21468 21469 21470 21471 21472 21473 21474 21475 21476 21477 21478 21479 21480 21481 21482 21483 21484 21485 21486 21487 21488 21489 21490 21491 21492 21493 21494 21495 21496 21497 21498 21499 21500 21501 21502 21503 21504 21505 21506 21507 21508 21509 21510 21511 21512 21513 21514 21515 21516 21517 21518 21519 21520 21521 21522 21523 21524 21525 21526 21527 21528 21529 21530 21531 21532 21533 21534 21535 21536 21537 21538 21539 21540 21541 21542 21543 21544 21545 21546 21547 21548 21549 21550 21551 21552 21553 21554 21555 21556 21557 21558 21559 21560 21561 21562 21563 21564 21565 21566 21567 21568 21569 21570 21571 21572 21573 21574 21575 21576 21577 21578 21579 21580 21581 21582 21583 21584 21585 21586 21587 21588 21589 21590 21591 21592 21593 21594 21595 21596 21597 21598 21599 21600 21601 21602 21603 21604 21605 21606 21607 21608 21609 21610 21611 21612 21613 21614 21615 21616 21617 21618 21619 21620 21621 21622 21623 21624 21625 21626 21627 21628 21629 21630 21631 21632 21633 21634 21635 21636 21637 21638 21639 21640 21641 21642 21643 21644 21645 21646 21647 21648 21649 21650 21651 21652 21653 21654 21655 21656 21657 21658 21659 21660 21661 21662 21663 21664 21665 21666 21667 21668 21669 21670 21671 21672 21673 21674 21675 21676 21677 21678 21679 21680 21681 21682 21683 21684 21685 21686 21687 21688 21689 21690 21691 21692 21693 21694 21695 21696 21697 21698 21699 21700 21701 21702 21703 21704 21705 21706 21707 21708 21709 21710 21711 21712 21713 21714 21715 21716 21717 21718 21719 21720 21721 21722 21723 21724 21725 21726 21727 21728 21729 21730 21731 21732 21733 21734 21735 21736 21737 21738 21739 21740 21741 21742 21743 21744 21745 21746 21747 21748 21749 21750 21751 21752 21753 21754 21755 21756 21757 21758 21759 21760 21761 21762 21763 21764 21765 21766 21767 21768 21769 21770 21771 21772 21773 21774 21775 21776 21777 21778 21779 21780 21781 21782 21783 21784 21785 21786 21787 21788 21789 21790 21791 21792 21793 21794 21795 21796 21797 21798 21799 21800 21801 21802 21803 21804 21805 21806 21807 21808 21809 21810 21811 21812 21813 21814 21815 21816 21817 21818 21819 21820 21821 21822 21823 21824 21825 21826 21827 21828 21829 21830 21831 21832 21833 21834 21835 21836 21837 21838 21839 21840 21841 21842 21843 21844 21845 21846 21847 21848 21849 21850 21851 21852 21853 21854 21855 21856 21857 21858 21859 21860 21861 21862 21863 21864 21865 21866 21867 21868 21869 21870 21871 21872 21873 21874 21875 21876 21877 21878 21879 21880 21881 21882 21883 21884 21885 21886 21887 21888 21889 21890 21891 21892 21893 21894 21895 21896 21897 21898 21899 21900 21901 21902 21903 21904 21905 21906 21907 21908 21909 21910 21911 21912 21913 21914 21915 21916 21917 21918 21919 21920 21921 21922 21923 21924 21925 21926 21927 21928 21929 21930 21931 21932 21933 21934 21935 21936 21937 21938 21939 21940 21941 21942 21943 21944 21945 21946 21947 21948 21949 21950 21951 21952 21953 21954 21955 21956 21957 21958 21959 21960 21961 21962 21963 21964 21965 21966 21967 21968 21969 21970 21971 21972 21973 21974 21975 21976 21977 21978 21979 21980 21981 21982 21983 21984 21985 21986 21987 21988 21989 21990 21991 21992 21993 21994 21995 21996 21997 21998 21999 22000 22001 22002 22003 22004 22005 22006 22007 22008 22009 22010 22011 22012 22013 22014 22015 22016 22017 22018 22019 22020 22021 22022 22023 22024 22025 22026 22027 22028 22029 22030 22031 22032 22033 22034 22035 22036 22037 22038 22039 22040 22041 22042 22043 22044 22045 22046 22047 22048 22049 22050 22051 22052 22053 22054 22055 22056 22057 22058 22059 22060 22061 22062 22063 22064 22065 22066 22067 22068 22069 22070 22071 22072 22073 22074 22075 22076 22077 22078 22079 22080 22081 22082 22083 22084 22085 22086 22087 22088 22089 22090 22091 22092 22093 22094 22095 22096 22097 22098 22099 22100 22101 22102 22103 22104 22105 22106 22107 22108 22109 22110 22111 22112 22113 22114 22115 22116 22117 22118 22119 22120 22121 22122 22123 22124 22125 22126 22127 22128 22129 22130 22131 22132 22133 22134 22135 22136 22137 22138 22139 22140 22141 22142 22143 22144 22145 22146 22147 22148 22149 22150 22151 22152 22153 22154 22155 22156 22157 22158 22159 22160 22161 22162 22163 22164 22165 22166 22167 22168 22169 22170 22171 22172 22173 22174 22175 22176 22177 22178 22179 22180 22181 22182 22183 22184 22185 22186 22187 22188 22189 22190 22191 22192 22193 22194 22195 22196 22197 22198 22199 22200 22201 22202 22203 22204 22205 22206 22207 22208 22209 22210 22211 22212 22213 22214 22215 22216 22217 22218 22219 22220 22221 22222 22223 22224 22225 22226 22227 22228 22229 22230 22231 22232 22233 22234 22235 22236 22237 22238 22239 22240 22241 22242 22243 22244 22245 22246 22247 22248 22249 22250 22251 22252 22253 22254 22255 22256 22257 22258 22259 22260 22261 22262 22263 22264 22265 22266 22267 22268 22269 22270 22271 22272 22273 22274 22275 22276 22277 22278 22279 22280 22281 22282 22283 22284 22285 22286 22287 22288 22289 22290 22291 22292 22293 22294 22295 22296 22297 22298 22299 22300 22301 22302 22303 22304 22305 22306 22307 22308 22309 22310 22311 22312 22313 22314 22315 22316 22317 22318 22319 22320 22321 22322 22323 22324 22325 22326 22327 22328 22329 22330 22331 22332 22333 22334 22335 22336 22337 22338 22339 22340 22341 22342 22343 22344 22345 22346 22347 22348 22349 22350 22351 22352 22353 22354 22355 22356 22357 22358 22359 22360 22361 22362 22363 22364 22365 22366 22367 22368 22369 22370 22371 22372 22373 22374 22375 22376 22377 22378 22379 22380 22381 22382 22383 22384 22385 22386 22387 22388 22389 22390 22391 22392 22393 22394 22395 22396 22397 22398 22399 22400 22401 22402 22403 22404 22405 22406 22407 22408 22409 22410 22411 22412 22413 22414 22415 22416 22417 22418 22419 22420 22421 22422 22423 22424 22425 22426 22427 22428 22429 22430 22431 22432 22433 22434 22435 22436 22437 22438 22439 22440 22441 22442 22443 22444 22445 22446 22447 22448 22449 22450 22451 22452 22453 22454 22455 22456 22457 22458 22459 22460 22461 22462 22463 22464 22465 22466 22467 22468 22469 22470 22471 22472 22473 22474 22475 22476 22477 22478 22479 22480 22481 22482 22483 22484 22485 22486 22487 22488 22489 22490 22491 22492 22493 22494 22495 22496 22497 22498 22499 22500 22501 22502 22503 22504 22505 22506 22507 22508 22509 22510 22511 22512 22513 22514 22515 22516 22517 22518 22519 22520 22521 22522 22523 22524 22525 22526 22527 22528 22529 22530 22531 22532 22533 22534 22535 22536 22537 22538 22539 22540 22541 22542 22543 22544 22545 22546 22547 22548 22549 22550 22551 22552 22553 22554 22555 22556 22557 22558 22559 22560 22561 22562 22563 22564 22565 22566 22567 22568 22569 22570 22571 22572 22573 22574 22575 22576 22577 22578 22579 22580 22581 22582 22583 22584 22585 22586 22587 22588 22589 22590 22591 22592 22593 22594 22595 22596 22597 22598 22599 22600 22601 22602 22603 22604 22605 22606 22607 22608 22609 22610 22611 22612 22613 22614 22615 22616 22617 22618 22619 22620 22621 22622 22623 22624 22625 22626 22627 22628 22629 22630 22631 22632 22633 22634 22635 22636 22637 22638 22639 22640 22641 22642 22643 22644 22645 22646 22647 22648 22649 22650 22651 22652 22653 22654 22655 22656 22657 22658 22659 22660 22661 22662 22663 22664 22665 22666 22667 22668 22669 22670 22671 22672 22673 22674 22675 22676 22677 22678 22679 22680 22681 22682 22683 22684 22685 22686 22687 22688 22689 22690 22691 22692 22693 22694 22695 22696 22697 22698 22699 22700 22701 22702 22703 22704 22705 22706 22707 22708 22709 22710 22711 22712 22713 22714 22715 22716 22717 22718 22719 22720 22721 22722 22723 22724 22725 22726 22727 22728 22729 22730 22731 22732 22733 22734 22735 22736 22737 22738 22739 22740 22741 22742 22743 22744 22745 22746 22747 22748 22749 22750 22751 22752 22753 22754 22755 22756 22757 22758 22759 22760 22761 22762 22763 22764 22765 22766 22767 22768 22769 22770 22771 22772 22773 22774 22775 22776 22777 22778 22779 22780 22781 22782 22783 22784 22785 22786 22787 22788 22789 22790 22791 22792 22793 22794 22795 22796 22797 22798 22799 22800 22801 22802 22803 22804 22805 22806 22807 22808 22809 22810 22811 22812 22813 22814 22815 22816 22817 22818 22819 22820 22821 22822 22823 22824 22825 22826 22827 22828 22829 22830 22831 22832 22833 22834 22835 22836 22837 22838 22839 22840 22841 22842 22843 22844 22845 22846 22847 22848 22849 22850 22851 22852 22853 22854 22855 22856 22857 22858 22859 22860 22861 22862 22863 22864 22865 22866 22867 22868 22869 22870 22871 22872 22873 22874 22875 22876 22877 22878 22879 22880 22881 22882 22883 22884 22885 22886 22887 22888 22889 22890 22891 22892 22893 22894 22895 22896 22897 22898 22899 22900 22901 22902 22903 22904 22905 22906 22907 22908 22909 22910 22911 22912 22913 22914 22915 22916 22917 22918 22919 22920 22921 22922 22923 22924 22925 22926 22927 22928 22929 22930 22931 22932 22933 22934 22935 22936 22937 22938 22939 22940 22941 22942 22943 22944 22945 22946 22947 22948 22949 22950 22951 22952 22953 22954 22955 22956 22957 22958 22959 22960 22961 22962 22963 22964 22965 22966 22967 22968 22969 22970 22971 22972 22973 22974 22975 22976 22977 22978 22979 22980 22981 22982 22983 22984 22985 22986 22987 22988 22989 22990 22991 22992 22993 22994 22995 22996 22997 22998 22999 23000 23001 23002 23003 23004 23005 23006 23007 23008 23009 23010 23011 23012 23013 23014 23015 23016 23017 23018 23019 23020 23021 23022 23023 23024 23025 23026 23027 23028 23029 23030 23031 23032 23033 23034 23035 23036 23037 23038 23039 23040 23041 23042 23043 23044 23045 23046 23047 23048 23049 23050 23051 23052 23053 23054 23055 23056 23057 23058 23059 23060 23061 23062 23063 23064 23065 23066 23067 23068 23069 23070 23071 23072 23073 23074 23075 23076 23077 23078 23079 23080 23081 23082 23083 23084 23085 23086 23087 23088 23089 23090 23091 23092 23093 23094 23095 23096 23097 23098 23099 23100 23101 23102 23103 23104 23105 23106 23107 23108 23109 23110 23111 23112 23113 23114 23115 23116 23117 23118 23119 23120 23121 23122 23123 23124 23125 23126 23127 23128 23129 23130 23131 23132 23133 23134 23135 23136 23137 23138 23139 23140 23141 23142 23143 23144 23145 23146 23147 23148 23149 23150 23151 23152 23153 23154 23155 23156 23157 23158 23159 23160 23161 23162 23163 23164 23165 23166 23167 23168 23169 23170 23171 23172 23173 23174 23175 23176 23177 23178 23179 23180 23181 23182 23183 23184 23185 23186 23187 23188 23189 23190 23191 23192 23193 23194 23195 23196 23197 23198 23199 23200 23201 23202 23203 23204 23205 23206 23207 23208 23209 23210 23211 23212 23213 23214 23215 23216 23217 23218 23219 23220 23221 23222 23223 23224 23225 23226 23227 23228 23229 23230 23231 23232 23233 23234 23235 23236 23237 23238 23239 23240 23241 23242 23243 23244 23245 23246 23247 23248 23249 23250 23251 23252 23253 23254 23255 23256 23257 23258 23259 23260 23261 23262 23263 23264 23265 23266 23267 23268 23269 23270 23271 23272 23273 23274 23275 23276 23277 23278 23279 23280 23281 23282 23283 23284 23285 23286 23287 23288 23289 23290 23291 23292 23293 23294 23295 23296 23297 23298 23299 23300 23301 23302 23303 23304 23305 23306 23307 23308 23309 23310 23311 23312 23313 23314 23315 23316 23317 23318 23319 23320 23321 23322 23323 23324 23325 23326 23327 23328 23329 23330 23331 23332 23333 23334 23335 23336 23337 23338 23339 23340 23341 23342 23343 23344 23345 23346 23347 23348 23349 23350 23351 23352 23353 23354 23355 23356 23357 23358 23359 23360 23361 23362 23363 23364 23365 23366 23367 23368 23369 23370 23371 23372 23373 23374 23375 23376 23377 23378 23379 23380 23381 23382 23383 23384 23385 23386 23387 23388 23389 23390 23391 23392 23393 23394 23395 23396 23397 23398 23399 23400 23401 23402 23403 23404 23405 23406 23407 23408 23409 23410 23411 23412 23413 23414 23415 23416 23417 23418 23419 23420 23421 23422 23423 23424 23425 23426 23427 23428 23429 23430 23431 23432 23433 23434 23435 23436 23437 23438 23439 23440 23441 23442 23443 23444 23445 23446 23447 23448 23449 23450 23451 23452 23453 23454 23455 23456 23457 23458 23459 23460 23461 23462 23463 23464 23465 23466 23467 23468 23469 23470 23471 23472 23473 23474 23475 23476 23477 23478 23479 23480 23481 23482 23483 23484 23485 23486 23487 23488 23489 23490 23491 23492 23493 23494 23495 23496 23497 23498 23499 23500 23501 23502 23503 23504 23505 23506 23507 23508 23509 23510 23511 23512 23513 23514 23515 23516 23517 23518 23519 23520 23521 23522 23523 23524 23525 23526 23527 23528 23529 23530 23531 23532 23533 23534 23535 23536 23537 23538 23539 23540 23541 23542 23543 23544 23545 23546 23547 23548 23549 23550 23551 23552 23553 23554 23555 23556 23557 23558 23559 23560 23561 23562 23563 23564 23565 23566 23567 23568 23569 23570 23571 23572 23573 23574 23575 23576 23577 23578 23579 23580 23581 23582 23583 23584 23585 23586 23587 23588 23589 23590 23591 23592 23593 23594 23595 23596 23597 23598 23599 23600 23601 23602 23603 23604 23605 23606 23607 23608 23609 23610 23611 23612 23613 23614 23615 23616 23617 23618 23619 23620 23621 23622 23623 23624 23625 23626 23627 23628 23629 23630 23631 23632 23633 23634 23635 23636 23637 23638 23639 23640 23641 23642 23643 23644 23645 23646 23647 23648 23649 23650 23651 23652 23653 23654 23655 23656 23657 23658 23659 23660 23661 23662 23663 23664 23665 23666 23667 23668 23669 23670 23671 23672 23673 23674 23675 23676 23677 23678 23679 23680 23681 23682 23683 23684 23685 23686 23687 23688 23689 23690 23691 23692 23693 23694 23695 23696 23697 23698 23699 23700 23701 23702 23703 23704 23705 23706 23707 23708 23709 23710 23711 23712 23713 23714 23715 23716 23717 23718 23719 23720 23721 23722 23723 23724 23725 23726 23727 23728 23729 23730 23731 23732 23733 23734 23735 23736 23737 23738 23739 23740 23741 23742 23743 23744 23745 23746 23747 23748 23749 23750 23751 23752 23753 23754 23755 23756 23757 23758 23759 23760 23761 23762 23763 23764 23765 23766 23767 23768 23769 23770 23771 23772 23773 23774 23775 23776 23777 23778 23779 23780 23781 23782 23783 23784 23785 23786 23787 23788 23789 23790 23791 23792 23793 23794 23795 23796 23797 23798 23799 23800 23801 23802 23803 23804 23805 23806 23807 23808 23809 23810 23811 23812 23813 23814 23815 23816 23817 23818 23819 23820 23821 23822 23823 23824 23825 23826 23827 23828 23829 23830 23831 23832 23833 23834 23835 23836 23837 23838 23839 23840 23841 23842 23843 23844 23845 23846 23847 23848 23849 23850 23851 23852 23853 23854 23855 23856 23857 23858 23859 23860 23861 23862 23863 23864 23865 23866 23867 23868 23869 23870 23871 23872 23873 23874 23875 23876 23877 23878 23879 23880 23881 23882 23883 23884 23885 23886 23887 23888 23889 23890 23891 23892 23893 23894 23895 23896 23897 23898 23899 23900 23901 23902 23903 23904 23905 23906 23907 23908 23909 23910 23911 23912 23913 23914 23915 23916 23917 23918 23919 23920 23921 23922 23923 23924 23925 23926 23927 23928 23929 23930 23931 23932 23933 23934 23935 23936 23937 23938 23939 23940 23941 23942 23943 23944 23945 23946 23947 23948 23949 23950 23951 23952 23953 23954 23955 23956 23957 23958 23959 23960 23961 23962 23963 23964 23965 23966 23967 23968 23969 23970 23971 23972 23973 23974 23975 23976 23977 23978 23979 23980 23981 23982 23983 23984 23985 23986 23987 23988 23989 23990 23991 23992 23993 23994 23995 23996 23997 23998 23999 24000 24001 24002 24003 24004 24005 24006 24007 24008 24009 24010 24011 24012 24013 24014 24015 24016 24017 24018 24019 24020 24021 24022 24023 24024 24025 24026 24027 24028 24029 24030 24031 24032 24033 24034 24035 24036 24037 24038 24039 24040 24041 24042 24043 24044 24045 24046 24047 24048 24049 24050 24051 24052 24053 24054 24055 24056 24057 24058 24059 24060 24061 24062 24063 24064 24065 24066 24067 24068 24069 24070 24071 24072 24073 24074 24075 24076 24077 24078 24079 24080 24081 24082 24083 24084 24085 24086 24087 24088 24089 24090 24091 24092 24093 24094 24095 24096 24097 24098 24099 24100 24101 24102 24103 24104 24105 24106 24107 24108 24109 24110 24111 24112 24113 24114 24115 24116 24117 24118 24119 24120 24121 24122 24123 24124 24125 24126 24127 24128 24129 24130 24131 24132 24133 24134 24135 24136 24137 24138 24139 24140 24141 24142 24143 24144 24145 24146 24147 24148 24149 24150 24151 24152 24153 24154 24155 24156 24157 24158 24159 24160 24161 24162 24163 24164 24165 24166 24167 24168 24169 24170 24171 24172 24173 24174 24175 24176 24177 24178 24179 24180 24181 24182 24183 24184 24185 24186 24187 24188 24189 24190 24191 24192 24193 24194 24195 24196 24197 24198 24199 24200 24201 24202 24203 24204 24205 24206 24207 24208 24209 24210 24211 24212 24213 24214 24215 24216 24217 24218 24219 24220 24221 24222 24223 24224 24225 24226 24227 24228 24229 24230 24231 24232 24233 24234 24235 24236 24237 24238 24239 24240 24241 24242 24243 24244 24245 24246 24247 24248 24249 24250 24251 24252 24253 24254 24255 24256 24257 24258 24259 24260 24261 24262 24263 24264 24265 24266 24267 24268 24269 24270 24271 24272 24273 24274 24275 24276 24277 24278 24279 24280 24281 24282 24283 24284 24285 24286 24287 24288 24289 24290 24291 24292 24293 24294 24295 24296 24297 24298 24299 24300 24301 24302 24303 24304 24305 24306 24307 24308 24309 24310 24311 24312 24313 24314 24315 24316 24317 24318 24319 24320 24321 24322 24323 24324 24325 24326 24327 24328 24329 24330 24331 24332 24333 24334 24335 24336 24337 24338 24339 24340 24341 24342 24343 24344 24345 24346 24347 24348 24349 24350 24351 24352 24353 24354 24355 24356 24357 24358 24359 24360 24361 24362 24363 24364 24365 24366 24367 24368 24369 24370 24371 24372 24373 24374 24375 24376 24377 24378 24379 24380 24381 24382 24383 24384 24385 24386 24387 24388 24389 24390 24391 24392 24393 24394 24395 24396 24397 24398 24399 24400 24401 24402 24403 24404 24405 24406 24407 24408 24409 24410 24411 24412 24413 24414 24415 24416 24417 24418 24419 24420 24421 24422 24423 24424 24425 24426 24427 24428 24429 24430 24431 24432 24433 24434 24435 24436 24437 24438 24439 24440 24441 24442 24443 24444 24445 24446 24447 24448 24449 24450 24451 24452 24453 24454 24455 24456 24457 24458 24459 24460 24461 24462 24463 24464 24465 24466 24467 24468 24469 24470 24471 24472 24473 24474 24475 24476 24477 24478 24479 24480 24481 24482 24483 24484 24485 24486 24487 24488 24489 24490 24491 24492 24493 24494 24495 24496 24497 24498 24499 24500 24501 24502 24503 24504 24505 24506 24507 24508 24509 24510 24511 24512 24513 24514 24515 24516 24517 24518 24519 24520 24521 24522 24523 24524 24525 24526 24527 24528 24529 24530 24531 24532 24533 24534 24535 24536 24537 24538 24539 24540 24541 24542 24543 24544 24545 24546 24547 24548 24549 24550 24551 24552 24553 24554 24555 24556 24557 24558 24559 24560 24561 24562 24563 24564 24565 24566 24567 24568 24569 24570 24571 24572 24573 24574 24575 24576 24577 24578 24579 24580 24581 24582 24583 24584 24585 24586 24587 24588 24589 24590 24591 24592 24593 24594 24595 24596 24597 24598 24599 24600 24601 24602 24603 24604 24605 24606 24607 24608 24609 24610 24611 24612 24613 24614 24615 24616 24617 24618 24619 24620 24621 24622 24623 24624 24625 24626 24627 24628 24629 24630 24631 24632 24633 24634 24635 24636 24637 24638 24639 24640 24641 24642 24643 24644 24645 24646 24647 24648 24649 24650 24651 24652 24653 24654 24655 24656 24657 24658 24659 24660 24661 24662 24663 24664 24665 24666 24667 24668 24669 24670 24671 24672 24673 24674 24675 24676 24677 24678 24679 24680 24681 24682 24683 24684 24685 24686 24687 24688 24689 24690 24691 24692 24693 24694 24695 24696 24697 24698 24699 24700 24701 24702 24703 24704 24705 24706 24707 24708 24709 24710 24711 24712 24713 24714 24715 24716 24717 24718 24719 24720 24721 24722 24723 24724 24725 24726 24727 24728 24729 24730 24731 24732 24733 24734 24735 24736 24737 24738 24739 24740 24741 24742 24743 24744 24745 24746 24747 24748 24749 24750 24751 24752 24753 24754 24755 24756 24757 24758 24759 24760 24761 24762 24763 24764 24765 24766 24767 24768 24769 24770 24771 24772 24773 24774 24775 24776 24777 24778 24779 24780 24781 24782 24783 24784 24785 24786 24787 24788 24789 24790 24791 24792 24793 24794 24795 24796 24797 24798 24799 24800 24801 24802 24803 24804 24805 24806 24807 24808 24809 24810 24811 24812 24813 24814 24815 24816 24817 24818 24819 24820 24821 24822 24823 24824 24825 24826 24827 24828 24829 24830 24831 24832 24833 24834 24835 24836 24837 24838 24839 24840 24841 24842 24843 24844 24845 24846 24847 24848 24849 24850 24851 24852 24853 24854 24855 24856 24857 24858 24859 24860 24861 24862 24863 24864 24865 24866 24867 24868 24869 24870 24871 24872 24873 24874 24875 24876 24877 24878 24879 24880 24881 24882 24883 24884 24885 24886 24887 24888 24889 24890 24891 24892 24893 24894 24895 24896 24897 24898 24899 24900 24901 24902 24903 24904 24905 24906 24907 24908 24909 24910 24911 24912 24913 24914 24915 24916 24917 24918 24919 24920 24921 24922 24923 24924 24925 24926 24927 24928 24929 24930 24931 24932 24933 24934 24935 24936 24937 24938 24939 24940 24941 24942 24943 24944 24945 24946 24947 24948 24949 24950 24951 24952 24953 24954 24955 24956 24957 24958 24959 24960 24961 24962 24963 24964 24965 24966 24967 24968 24969 24970 24971 24972 24973 24974 24975 24976 24977 24978 24979 24980 24981 24982 24983 24984 24985 24986 24987 24988 24989 24990 24991 24992 24993 24994 24995 24996 24997 24998 24999 25000 25001 25002 25003 25004 25005 25006 25007 25008 25009 25010 25011 25012 25013 25014 25015 25016 25017 25018 25019 25020 25021 25022 25023 25024 25025 25026 25027 25028 25029 25030 25031 25032 25033 25034 25035 25036 25037 25038 25039 25040 25041 25042 25043 25044 25045 25046 25047 25048 25049 25050 25051 25052 25053 25054 25055 25056 25057 25058 25059 25060 25061 25062 25063 25064 25065 25066 25067 25068 25069 25070 25071 25072 25073 25074 25075 25076 25077 25078 25079 25080 25081 25082 25083 25084 25085 25086 25087 25088 25089 25090 25091 25092 25093 25094 25095 25096 25097 25098 25099 25100 25101 25102 25103 25104 25105 25106 25107 25108 25109 25110 25111 25112 25113 25114 25115 25116 25117 25118 25119 25120 25121 25122 25123 25124 25125 25126 25127 25128 25129 25130 25131 25132 25133 25134 25135 25136 25137 25138 25139 25140 25141 25142 25143 25144 25145 25146 25147 25148 25149 25150 25151 25152 25153 25154 25155 25156 25157 25158 25159 25160 25161 25162 25163 25164 25165 25166 25167 25168 25169 25170 25171 25172 25173 25174 25175 25176 25177 25178 25179 25180 25181 25182 25183 25184 25185 25186 25187 25188 25189 25190 25191 25192 25193 25194 25195 25196 25197 25198 25199 25200 25201 25202 25203 25204 25205 25206 25207 25208 25209 25210 25211 25212 25213 25214 25215 25216 25217 25218 25219 25220 25221 25222 25223 25224 25225 25226 25227 25228 25229 25230 25231 25232 25233 25234 25235 25236 25237 25238 25239 25240 25241 25242 25243 25244 25245 25246 25247 25248 25249 25250 25251 25252 25253 25254 25255 25256 25257 25258 25259 25260 25261 25262 25263 25264 25265 25266 25267 25268 25269 25270 25271 25272 25273 25274 25275 25276 25277 25278 25279 25280 25281 25282 25283 25284 25285 25286 25287 25288 25289 25290 25291 25292 25293 25294 25295 25296 25297 25298 25299 25300 25301 25302 25303 25304 25305 25306 25307 25308 25309 25310 25311 25312 25313 25314 25315 25316 25317 25318 25319 25320 25321 25322 25323 25324 25325 25326 25327 25328 25329 25330 25331 25332 25333 25334 25335 25336 25337 25338 25339 25340 25341 25342 25343 25344 25345 25346 25347 25348 25349 25350 25351 25352 25353 25354 25355 25356 25357 25358 25359 25360 25361 25362 25363 25364 25365 25366 25367 25368 25369 25370 25371 25372 25373 25374 25375 25376 25377 25378 25379 25380 25381 25382 25383 25384 25385 25386 25387 25388 25389 25390 25391 25392 25393 25394 25395 25396 25397 25398 25399 25400 25401 25402 25403 25404 25405 25406 25407 25408 25409 25410 25411 25412 25413 25414 25415 25416 25417 25418 25419 25420 25421 25422 25423 25424 25425 25426 25427 25428 25429 25430 25431 25432 25433 25434 25435 25436 25437 25438 25439 25440 25441 25442 25443 25444 25445 25446 25447 25448 25449 25450 25451 25452 25453 25454 25455 25456 25457 25458 25459 25460 25461 25462 25463 25464 25465 25466 25467 25468 25469 25470 25471 25472 25473 25474 25475 25476 25477 25478 25479 25480 25481 25482 25483 25484 25485 25486 25487 25488 25489 25490 25491 25492 25493 25494 25495 25496 25497 25498 25499 25500 25501 25502 25503 25504 25505 25506 25507 25508 25509 25510 25511 25512 25513 25514 25515 25516 25517 25518 25519 25520 25521 25522 25523 25524 25525 25526 25527 25528 25529 25530 25531 25532 25533 25534 25535 25536 25537 25538 25539 25540 25541 25542 25543 25544 25545 25546 25547 25548 25549 25550 25551 25552 25553 25554 25555 25556 25557 25558 25559 25560 25561 25562 25563 25564 25565 25566 25567 25568 25569 25570 25571 25572 25573 25574 25575 25576 25577 25578 25579 25580 25581 25582 25583 25584 25585 25586 25587 25588 25589 25590 25591 25592 25593 25594 25595 25596 25597 25598 25599 25600 25601 25602 25603 25604 25605 25606 25607 25608 25609 25610 25611 25612 25613 25614 25615 25616 25617 25618 25619 25620 25621 25622 25623 25624 25625 25626 25627 25628 25629 25630 25631 25632 25633 25634 25635 25636 25637 25638 25639 25640 25641 25642 25643 25644 25645 25646 25647 25648 25649 25650 25651 25652 25653 25654 25655 25656 25657 25658 25659 25660 25661 25662 25663 25664 25665 25666 25667 25668 25669 25670 25671 25672 25673 25674 25675 25676 25677 25678 25679 25680 25681 25682 25683 25684 25685 25686 25687 25688 25689 25690 25691 25692 25693 25694 25695 25696 25697 25698 25699 25700 25701 25702 25703 25704 25705 25706 25707 25708 25709 25710 25711 25712 25713 25714 25715 25716 25717 25718 25719 25720 25721 25722 25723 25724 25725 25726 25727 25728 25729 25730 25731 25732 25733 25734 25735 25736 25737 25738 25739 25740 25741 25742 25743 25744 25745 25746 25747 25748 25749 25750 25751 25752 25753 25754 25755 25756 25757 25758 25759 25760 25761 25762 25763 25764 25765 25766 25767 25768 25769 25770 25771 25772 25773 25774 25775 25776 25777 25778 25779 25780 25781 25782 25783 25784 25785 25786 25787 25788 25789 25790 25791 25792 25793 25794 25795 25796 25797 25798 25799 25800 25801 25802 25803 25804 25805 25806 25807 25808 25809 25810 25811 25812 25813 25814 25815 25816 25817 25818 25819 25820 25821 25822 25823 25824 25825 25826 25827 25828 25829 25830 25831 25832 25833 25834 25835 25836 25837 25838 25839 25840 25841 25842 25843 25844 25845 25846 25847 25848 25849 25850 25851 25852 25853 25854 25855 25856 25857 25858 25859 25860 25861 25862 25863 25864 25865 25866 25867 25868 25869 25870 25871 25872 25873 25874 25875 25876 25877 25878 25879 25880 25881 25882 25883 25884 25885 25886 25887 25888 25889 25890 25891 25892 25893 25894 25895 25896 25897 25898 25899 25900 25901 25902 25903 25904 25905 25906 25907 25908 25909 25910 25911 25912 25913 25914 25915 25916 25917 25918 25919 25920 25921 25922 25923 25924 25925 25926 25927 25928 25929 25930 25931 25932 25933 25934 25935 25936 25937 25938 25939 25940 25941 25942 25943 25944 25945 25946 25947 25948 25949 25950 25951 25952 25953 25954 25955 25956 25957 25958 25959 25960 25961 25962 25963 25964 25965 25966 25967 25968 25969 25970 25971 25972 25973 25974 25975 25976 25977 25978 25979 25980 25981 25982 25983 25984 25985 25986 25987 25988 25989 25990 25991 25992 25993 25994 25995 25996 25997 25998 25999 26000 26001 26002 26003 26004 26005 26006 26007 26008 26009 26010 26011 26012 26013 26014 26015 26016 26017 26018 26019 26020 26021 26022 26023 26024 26025 26026 26027 26028 26029 26030 26031 26032 26033 26034 26035 26036 26037 26038 26039 26040 26041 26042 26043 26044 26045 26046 26047 26048 26049 26050 26051 26052 26053 26054 26055 26056 26057 26058 26059 26060 26061 26062 26063 26064 26065 26066 26067 26068 26069 26070 26071 26072 26073 26074 26075 26076 26077 26078 26079 26080 26081 26082 26083 26084 26085 26086 26087 26088 26089 26090 26091 26092 26093 26094 26095 26096 26097 26098 26099 26100 26101 26102 26103 26104 26105 26106 26107 26108 26109 26110 26111 26112 26113 26114 26115 26116 26117 26118 26119 26120 26121 26122 26123 26124 26125 26126 26127 26128 26129 26130 26131 26132 26133 26134 26135 26136 26137 26138 26139 26140 26141 26142 26143 26144 26145 26146 26147 26148 26149 26150 26151 26152 26153 26154 26155 26156 26157 26158 26159 26160 26161 26162 26163 26164 26165 26166 26167 26168 26169 26170 26171 26172 26173 26174 26175 26176 26177 26178 26179 26180 26181 26182 26183 26184 26185 26186 26187 26188 26189 26190 26191 26192 26193 26194 26195 26196 26197 26198 26199 26200 26201 26202 26203 26204 26205 26206 26207 26208 26209 26210 26211 26212 26213 26214 26215 26216 26217 26218 26219 26220 26221 26222 26223 26224 26225 26226 26227 26228 26229 26230 26231 26232 26233 26234 26235 26236 26237 26238 26239 26240 26241 26242 26243 26244 26245 26246 26247 26248 26249 26250 26251 26252 26253 26254 26255 26256 26257 26258 26259 26260 26261 26262 26263 26264 26265 26266 26267 26268 26269 26270 26271 26272 26273 26274 26275 26276 26277 26278 26279 26280 26281 26282 26283 26284 26285 26286 26287 26288 26289 26290 26291 26292 26293 26294 26295 26296 26297 26298 26299 26300 26301 26302 26303 26304 26305 26306 26307 26308 26309 26310 26311 26312 26313 26314 26315 26316 26317 26318 26319 26320 26321 26322 26323 26324 26325 26326 26327 26328 26329 26330 26331 26332 26333 26334 26335 26336 26337 26338 26339 26340 26341 26342 26343 26344 26345 26346 26347 26348 26349 26350 26351 26352 26353 26354 26355 26356 26357 26358 26359 26360 26361 26362 26363 26364 26365 26366 26367 26368 26369 26370 26371 26372 26373 26374 26375 26376 26377 26378 26379 26380 26381 26382 26383 26384 26385 26386 26387 26388 26389 26390 26391 26392 26393 26394 26395 26396 26397 26398 26399 26400 26401 26402 26403 26404 26405 26406 26407 26408 26409 26410 26411 26412 26413 26414 26415 26416 26417 26418 26419 26420 26421 26422 26423 26424 26425 26426 26427 26428 26429 26430 26431 26432 26433 26434 26435 26436 26437 26438 26439 26440 26441 26442 26443 26444 26445 26446 26447 26448 26449 26450 26451 26452 26453 26454 26455 26456 26457 26458 26459 26460 26461 26462 26463 26464 26465 26466 26467 26468 26469 26470 26471 26472 26473 26474 26475 26476 26477 26478 26479 26480 26481 26482 26483 26484 26485 26486 26487 26488 26489 26490 26491 26492 26493 26494 26495 26496 26497 26498 26499 26500 26501 26502 26503 26504 26505 26506 26507 26508 26509 26510 26511 26512 26513 26514 26515 26516 26517 26518 26519 26520 26521 26522 26523 26524 26525 26526 26527 26528 26529 26530 26531 26532 26533 26534 26535 26536 26537 26538 26539 26540 26541 26542 26543 26544 26545 26546 26547 26548 26549 26550 26551 26552 26553 26554 26555 26556 26557 26558 26559 26560 26561 26562 26563 26564 26565 26566 26567 26568 26569 26570 26571 26572 26573 26574 26575 26576 26577 26578 26579 26580 26581 26582 26583 26584 26585 26586 26587 26588 26589 26590 26591 26592 26593 26594 26595 26596 26597 26598 26599 26600 26601 26602 26603 26604 26605 26606 26607 26608 26609 26610 26611 26612 26613 26614 26615 26616 26617 26618 26619 26620 26621 26622 26623 26624 26625 26626 26627 26628 26629 26630 26631 26632 26633 26634 26635 26636 26637 26638 26639 26640 26641 26642 26643 26644 26645 26646 26647 26648 26649 26650 26651 26652 26653 26654 26655 26656 26657 26658 26659 26660 26661 26662 26663 26664 26665 26666 26667 26668 26669 26670 26671 26672 26673 26674 26675 26676 26677 26678 26679 26680 26681 26682 26683 26684 26685 26686 26687 26688 26689 26690 26691 26692 26693 26694 26695 26696 26697 26698 26699 26700 26701 26702 26703 26704 26705 26706 26707 26708 26709 26710 26711 26712 26713 26714 26715 26716 26717 26718 26719 26720 26721 26722 26723 26724 26725 26726 26727 26728 26729 26730 26731 26732 26733 26734 26735 26736 26737 26738 26739 26740 26741 26742 26743 26744 26745 26746 26747 26748 26749 26750 26751 26752 26753 26754 26755 26756 26757 26758 26759 26760 26761 26762 26763 26764 26765 26766 26767 26768 26769 26770 26771 26772 26773 26774 26775 26776 26777 26778 26779 26780 26781 26782 26783 26784 26785 26786 26787 26788 26789 26790 26791 26792 26793 26794 26795 26796 26797 26798 26799 26800 26801 26802 26803 26804 26805 26806 26807 26808 26809 26810 26811 26812 26813 26814 26815 26816 26817 26818 26819 26820 26821 26822 26823 26824 26825 26826 26827 26828 26829 26830 26831 26832 26833 26834 26835 26836 26837 26838 26839 26840 26841 26842 26843 26844 26845 26846 26847 26848 26849 26850 26851 26852 26853 26854 26855 26856 26857 26858 26859 26860 26861 26862 26863 26864 26865 26866 26867 26868 26869 26870 26871 26872 26873 26874 26875 26876 26877 26878 26879 26880 26881 26882 26883 26884 26885 26886 26887 26888 26889 26890 26891 26892 26893 26894 26895 26896 26897 26898 26899 26900 26901 26902 26903 26904 26905 26906 26907 26908 26909 26910 26911 26912 26913 26914 26915 26916 26917 26918 26919 26920 26921 26922 26923 26924 26925 26926 26927 26928 26929 26930 26931 26932 26933 26934 26935 26936 26937 26938 26939 26940 26941 26942 26943 26944 26945 26946 26947 26948 26949 26950 26951 26952 26953 26954 26955 26956 26957 26958 26959 26960 26961 26962 26963 26964 26965 26966 26967 26968 26969 26970 26971 26972 26973 26974 26975 26976 26977 26978 26979 26980 26981 26982 26983 26984 26985 26986 26987 26988 26989 26990 26991 26992 26993 26994 26995 26996 26997 26998 26999 27000 27001 27002 27003 27004 27005 27006 27007 27008 27009 27010 27011 27012 27013 27014 27015 27016 27017 27018 27019 27020 27021 27022 27023 27024 27025 27026 27027 27028 27029 27030 27031 27032 27033 27034 27035 27036 27037 27038 27039 27040 27041 27042 27043 27044 27045 27046 27047 27048 27049 27050 27051 27052 27053 27054 27055 27056 27057 27058 27059 27060 27061 27062 27063 27064 27065 27066 27067 27068 27069 27070 27071 27072 27073 27074 27075 27076 27077 27078 27079 27080 27081 27082 27083 27084 27085 27086 27087 27088 27089 27090 27091 27092 27093 27094 27095 27096 27097 27098 27099 27100 27101 27102 27103 27104 27105 27106 27107 27108 27109 27110 27111 27112 27113 27114 27115 27116 27117 27118 27119 27120 27121 27122 27123 27124 27125 27126 27127 27128 27129 27130 27131 27132 27133 27134 27135 27136 27137 27138 27139 27140 27141 27142 27143 27144 27145 27146 27147 27148 27149 27150 27151 27152 27153 27154 27155 27156 27157 27158 27159 27160 27161 27162 27163 27164 27165 27166 27167 27168 27169 27170 27171 27172 27173 27174 27175 27176 27177 27178 27179 27180 27181 27182 27183 27184 27185 27186 27187 27188 27189 27190 27191 27192 27193 27194 27195 27196 27197 27198 27199 27200 27201 27202 27203 27204 27205 27206 27207 27208 27209 27210 27211 27212 27213 27214 27215 27216 27217 27218 27219 27220 27221 27222 27223 27224 27225 27226 27227 27228 27229 27230 27231 27232 27233 27234 27235 27236 27237 27238 27239 27240 27241 27242 27243 27244 27245 27246 27247 27248 27249 27250 27251 27252 27253 27254 27255 27256 27257 27258 27259 27260 27261 27262 27263 27264 27265 27266 27267 27268 27269 27270 27271 27272 27273 27274 27275 27276 27277 27278 27279 27280 27281 27282 27283 27284 27285 27286 27287 27288 27289 27290 27291 27292 27293 27294 27295 27296 27297 27298 27299 27300 27301 27302 27303 27304 27305 27306 27307 27308 27309 27310 27311 27312 27313 27314 27315 27316 27317 27318 27319 27320 27321 27322 27323 27324 27325 27326 27327 27328 27329 27330 27331 27332 27333 27334 27335 27336 27337 27338 27339 27340 27341 27342 27343 27344 27345 27346 27347 27348 27349 27350 27351 27352 27353 27354 27355 27356 27357 27358 27359 27360 27361 27362 27363 27364 27365 27366 27367 27368 27369 27370 27371 27372 27373 27374 27375 27376 27377 27378 27379 27380 27381 27382 27383 27384 27385 27386 27387 27388 27389 27390 27391 27392 27393 27394 27395 27396 27397 27398 27399 27400 27401 27402 27403 27404 27405 27406 27407 27408 27409 27410 27411 27412 27413 27414 27415 27416 27417 27418 27419 27420 27421 27422 27423 27424 27425 27426 27427 27428 27429 27430 27431 27432 27433 27434 27435 27436 27437 27438 27439 27440 27441 27442 27443 27444 27445 27446 27447 27448 27449 27450 27451 27452 27453 27454 27455 27456 27457 27458 27459 27460 27461 27462 27463 27464 27465 27466 27467 27468 27469 27470 27471 27472 27473 27474 27475 27476 27477 27478 27479 27480 27481 27482 27483 27484 27485 27486 27487 27488 27489 27490 27491 27492 27493 27494 27495 27496 27497 27498 27499 27500 27501 27502 27503 27504 27505 27506 27507 27508 27509 27510 27511 27512 27513 27514 27515 27516 27517 27518 27519 27520 27521 27522 27523 27524 27525 27526 27527 27528 27529 27530 27531 27532 27533 27534 27535 27536 27537 27538 27539 27540 27541 27542 27543 27544 27545 27546 27547 27548 27549 27550 27551 27552 27553 27554 27555 27556 27557 27558 27559 27560 27561 27562 27563 27564 27565 27566 27567 27568 27569 27570 27571 27572 27573 27574 27575 27576 27577 27578 27579 27580 27581 27582 27583 27584 27585 27586 27587 27588 27589 27590 27591 27592 27593 27594 27595 27596 27597 27598 27599 27600 27601 27602 27603 27604 27605 27606 27607 27608 27609 27610 27611 27612 27613 27614 27615 27616 27617 27618 27619 27620 27621 27622 27623 27624 27625 27626 27627 27628 27629 27630 27631 27632 27633 27634 27635 27636 27637 27638 27639 27640 27641 27642 27643 27644 27645 27646 27647 27648 27649 27650 27651 27652 27653 27654 27655 27656 27657 27658 27659 27660 27661 27662 27663 27664 27665 27666 27667 27668 27669 27670 27671 27672 27673 27674 27675 27676 27677 27678 27679 27680 27681 27682 27683 27684 27685 27686 27687 27688 27689 27690 27691 27692 27693 27694 27695 27696 27697 27698 27699 27700 27701 27702 27703 27704 27705 27706 27707 27708 27709 27710 27711 27712 27713 27714 27715 27716 27717 27718 27719 27720 27721 27722 27723 27724 27725 27726 27727 27728 27729 27730 27731 27732 27733 27734 27735 27736 27737 27738 27739 27740 27741 27742 27743 27744 27745 27746 27747 27748 27749 27750 27751 27752 27753 27754 27755 27756 27757 27758 27759 27760 27761 27762 27763 27764 27765 27766 27767 27768 27769 27770 27771 27772 27773 27774 27775 27776 27777 27778 27779 27780 27781 27782 27783 27784 27785 27786 27787 27788 27789 27790 27791 27792 27793 27794 27795 27796 27797 27798 27799 27800 27801 27802 27803 27804 27805 27806 27807 27808 27809 27810 27811 27812 27813 27814 27815 27816 27817 27818 27819 27820 27821 27822 27823 27824 27825 27826 27827 27828 27829 27830 27831 27832 27833 27834 27835 27836 27837 27838 27839 27840 27841 27842 27843 27844 27845 27846 27847 27848 27849 27850 27851 27852 27853 27854 27855 27856 27857 27858 27859 27860 27861 27862 27863 27864 27865 27866 27867 27868 27869 27870 27871 27872 27873 27874 27875 27876 27877 27878 27879 27880 27881 27882 27883 27884 27885 27886 27887 27888 27889 27890 27891 27892 27893 27894 27895 27896 27897 27898 27899 27900 27901 27902 27903 27904 27905 27906 27907 27908 27909 27910 27911 27912 27913 27914 27915 27916 27917 27918 27919 27920 27921 27922 27923 27924 27925 27926 27927 27928 27929 27930 27931 27932 27933 27934 27935 27936 27937 27938 27939 27940 27941 27942 27943 27944 27945 27946 27947 27948 27949 27950 27951 27952 27953 27954 27955 27956 27957 27958 27959 27960 27961 27962 27963 27964 27965 27966 27967 27968 27969 27970 27971 27972 27973 27974 27975 27976 27977 27978 27979 27980 27981 27982 27983 27984 27985 27986 27987 27988 27989 27990 27991 27992 27993 27994 27995 27996 27997 27998 27999 28000 28001 28002 28003 28004 28005 28006 28007 28008 28009 28010 28011 28012 28013 28014 28015 28016 28017 28018 28019 28020 28021 28022 28023 28024 28025 28026 28027 28028 28029 28030 28031 28032 28033 28034 28035 28036 28037 28038 28039 28040 28041 28042 28043 28044 28045 28046 28047 28048 28049 28050 28051 28052 28053 28054 28055 28056 28057 28058 28059 28060 28061 28062 28063 28064 28065 28066 28067 28068 28069 28070 28071 28072 28073 28074 28075 28076 28077 28078 28079 28080 28081 28082 28083 28084 28085 28086 28087 28088 28089 28090 28091 28092 28093 28094 28095 28096 28097 28098 28099 28100 28101 28102 28103 28104 28105 28106 28107 28108 28109 28110 28111 28112 28113 28114 28115 28116 28117 28118 28119 28120 28121 28122 28123 28124 28125 28126 28127 28128 28129 28130 28131 28132 28133 28134 28135 28136 28137 28138 28139 28140 28141 28142 28143 28144 28145 28146 28147 28148 28149 28150 28151 28152 28153 28154 28155 28156 28157 28158 28159 28160 28161 28162 28163 28164 28165 28166 28167 28168 28169 28170 28171 28172 28173 28174 28175 28176 28177 28178 28179 28180 28181 28182 28183 28184 28185 28186 28187 28188 28189 28190 28191 28192 28193 28194 28195 28196 28197 28198 28199 28200 28201 28202 28203 28204 28205 28206 28207 28208 28209 28210 28211 28212 28213 28214 28215 28216 28217 28218 28219 28220 28221 28222 28223 28224 28225 28226 28227 28228 28229 28230 28231 28232 28233 28234 28235 28236 28237 28238 28239 28240 28241 28242 28243 28244 28245 28246 28247 28248 28249 28250 28251 28252 28253 28254 28255 28256 28257 28258 28259 28260 28261 28262 28263 28264 28265 28266 28267 28268 28269 28270 28271 28272 28273 28274 28275 28276 28277 28278 28279 28280 28281 28282 28283 28284 28285 28286 28287 28288 28289 28290 28291 28292 28293 28294 28295 28296 28297 28298 28299 28300 28301 28302 28303 28304 28305 28306 28307 28308 28309 28310 28311 28312 28313 28314 28315 28316 28317 28318 28319 28320 28321 28322 28323 28324 28325 28326 28327 28328 28329 28330 28331 28332 28333 28334 28335 28336 28337 28338 28339 28340 28341 28342 28343 28344 28345 28346 28347 28348 28349 28350 28351 28352 28353 28354 28355 28356 28357 28358 28359 28360 28361 28362 28363 28364 28365 28366 28367 28368 28369 28370 28371 28372 28373 28374 28375 28376 28377 28378 28379 28380 28381 28382 28383 28384 28385 28386 28387 28388 28389 28390 28391 28392 28393 28394 28395 28396 28397 28398 28399 28400 28401 28402 28403 28404 28405 28406 28407 28408 28409 28410 28411 28412 28413 28414 28415 28416 28417 28418 28419 28420 28421 28422 28423 28424 28425 28426 28427 28428 28429 28430 28431 28432 28433 28434 28435 28436 28437 28438 28439 28440 28441 28442 28443 28444 28445 28446 28447 28448 28449 28450 28451 28452 28453 28454 28455 28456 28457 28458 28459 28460 28461 28462 28463 28464 28465 28466 28467 28468 28469 28470 28471 28472 28473 28474 28475 28476 28477 28478 28479 28480 28481 28482 28483 28484 28485 28486 28487 28488 28489 28490 28491 28492 28493 28494 28495 28496 28497 28498 28499 28500 28501 28502 28503 28504 28505 28506 28507 28508 28509 28510 28511 28512 28513 28514 28515 28516 28517 28518 28519 28520 28521 28522 28523 28524 28525 28526 28527 28528 28529 28530 28531 28532 28533 28534 28535 28536 28537 28538 28539 28540 28541 28542 28543 28544 28545 28546 28547 28548 28549 28550 28551 28552 28553 28554 28555 28556 28557 28558 28559 28560 28561 28562 28563 28564 28565 28566 28567 28568 28569 28570 28571 28572 28573 28574 28575 28576 28577 28578 28579 28580 28581 28582 28583 28584 28585 28586 28587 28588 28589 28590 28591 28592 28593 28594 28595 28596 28597 28598 28599 28600 28601 28602 28603 28604 28605 28606 28607 28608 28609 28610 28611 28612 28613 28614 28615 28616 28617 28618 28619 28620 28621 28622 28623 28624 28625 28626 28627 28628 28629 28630 28631 28632 28633 28634 28635 28636 28637 28638 28639 28640 28641 28642 28643 28644 28645 28646 28647 28648 28649 28650 28651 28652 28653 28654 28655 28656 28657 28658 28659 28660 28661 28662 28663 28664 28665 28666 28667 28668 28669 28670 28671 28672 28673 28674 28675 28676 28677 28678 28679 28680 28681 28682 28683 28684 28685 28686 28687 28688 28689 28690 28691 28692 28693 28694 28695 28696 28697 28698 28699 28700 28701 28702 28703 28704 28705 28706 28707 28708 28709 28710 28711 28712 28713 28714 28715 28716 28717 28718 28719 28720 28721 28722 28723 28724 28725 28726 28727 28728 28729 28730 28731 28732 28733 28734 28735 28736 28737 28738 28739 28740 28741 28742 28743 28744 28745 28746 28747 28748 28749 28750 28751 28752 28753 28754 28755 28756 28757 28758 28759 28760 28761 28762 28763 28764 28765 28766 28767 28768 28769 28770 28771 28772 28773 28774 28775 28776 28777 28778 28779 28780 28781 28782 28783 28784 28785 28786 28787 28788 28789 28790 28791 28792 28793 28794 28795 28796 28797 28798 28799 28800 28801 28802 28803 28804 28805 28806 28807 28808 28809 28810 28811 28812 28813 28814 28815 28816 28817 28818 28819 28820 28821 28822 28823 28824 28825 28826 28827 28828 28829 28830 28831 28832 28833 28834 28835 28836 28837 28838 28839 28840 28841 28842 28843 28844 28845 28846 28847 28848 28849 28850 28851 28852 28853 28854 28855 28856 28857 28858 28859 28860 28861 28862 28863 28864 28865 28866 28867 28868 28869 28870 28871 28872 28873 28874 28875 28876 28877 28878 28879 28880 28881 28882 28883 28884 28885 28886 28887 28888 28889 28890 28891 28892 28893 28894 28895 28896 28897 28898 28899 28900 28901 28902 28903 28904 28905 28906 28907 28908 28909 28910 28911 28912 28913 28914 28915 28916 28917 28918 28919 28920 28921 28922 28923 28924 28925 28926 28927 28928 28929 28930 28931 28932 28933 28934 28935 28936 28937 28938 28939 28940 28941 28942 28943 28944 28945 28946 28947 28948 28949 28950 28951 28952 28953 28954 28955 28956 28957 28958 28959 28960 28961 28962 28963 28964 28965 28966 28967 28968 28969 28970 28971 28972 28973 28974 28975 28976 28977 28978 28979 28980 28981 28982 28983 28984 28985 28986 28987 28988 28989 28990 28991 28992 28993 28994 28995 28996 28997 28998 28999 29000 29001 29002 29003 29004 29005 29006 29007 29008 29009 29010 29011 29012 29013 29014 29015 29016 29017 29018 29019 29020 29021 29022 29023 29024 29025 29026 29027 29028 29029 29030 29031 29032 29033 29034 29035 29036 29037 29038 29039 29040 29041 29042 29043 29044 29045 29046 29047 29048 29049 29050 29051 29052 29053 29054 29055 29056 29057 29058 29059 29060 29061 29062 29063 29064 29065 29066 29067 29068 29069 29070 29071 29072 29073 29074 29075 29076 29077 29078 29079 29080 29081 29082 29083 29084 29085 29086 29087 29088 29089 29090 29091 29092 29093 29094 29095 29096 29097 29098 29099 29100 29101 29102 29103 29104 29105 29106 29107 29108 29109 29110 29111 29112 29113 29114 29115 29116 29117 29118 29119 29120 29121 29122 29123 29124 29125 29126 29127 29128 29129 29130 29131 29132 29133 29134 29135 29136 29137 29138 29139 29140 29141 29142 29143 29144 29145 29146 29147 29148 29149 29150 29151 29152 29153 29154 29155 29156 29157 29158 29159 29160 29161 29162 29163 29164 29165 29166 29167 29168 29169 29170 29171 29172 29173 29174 29175 29176 29177 29178 29179 29180 29181 29182 29183 29184 29185 29186 29187 29188 29189 29190 29191 29192 29193 29194 29195 29196 29197 29198 29199 29200 29201 29202 29203 29204 29205 29206 29207 29208 29209 29210 29211 29212 29213 29214 29215 29216 29217 29218 29219 29220 29221 29222 29223 29224 29225 29226 29227 29228 29229 29230 29231 29232 29233 29234 29235 29236 29237 29238 29239 29240 29241 29242 29243 29244 29245 29246 29247 29248 29249 29250 29251 29252 29253 29254 29255 29256 29257 29258 29259 29260 29261 29262 29263 29264 29265 29266 29267 29268 29269 29270 29271 29272 29273 29274 29275 29276 29277 29278 29279 29280 29281 29282 29283 29284 29285 29286 29287 29288 29289 29290 29291 29292 29293 29294 29295 29296 29297 29298 29299 29300 29301 29302 29303 29304 29305 29306 29307 29308 29309 29310 29311 29312 29313 29314 29315 29316 29317 29318 29319 29320 29321 29322 29323 29324 29325 29326 29327 29328 29329 29330 29331 29332 29333 29334 29335 29336 29337 29338 29339 29340 29341 29342 29343 29344 29345 29346 29347 29348 29349 29350 29351 29352 29353 29354 29355 29356 29357 29358 29359 29360 29361 29362 29363 29364 29365 29366 29367 29368 29369 29370 29371 29372 29373 29374 29375 29376 29377 29378 29379 29380 29381 29382 29383 29384 29385 29386 29387 29388 29389 29390 29391 29392 29393 29394 29395 29396 29397 29398 29399 29400 29401 29402 29403 29404 29405 29406 29407 29408 29409 29410 29411 29412 29413 29414 29415 29416 29417 29418 29419 29420 29421 29422 29423 29424 29425 29426 29427 29428 29429 29430 29431 29432 29433 29434 29435 29436 29437 29438 29439 29440 29441 29442 29443 29444 29445 29446 29447 29448 29449 29450 29451 29452 29453 29454 29455 29456 29457 29458 29459 29460 29461 29462 29463 29464 29465 29466 29467 29468 29469 29470 29471 29472 29473 29474 29475 29476 29477 29478 29479 29480 29481 29482 29483 29484 29485 29486 29487 29488 29489 29490 29491 29492 29493 29494 29495 29496 29497 29498 29499 29500 29501 29502 29503 29504 29505 29506 29507 29508 29509 29510 29511 29512 29513 29514 29515 29516 29517 29518 29519 29520 29521 29522 29523 29524 29525 29526 29527 29528 29529 29530 29531 29532 29533 29534 29535 29536 29537 29538 29539 29540 29541 29542 29543 29544 29545 29546 29547 29548 29549 29550 29551 29552 29553 29554 29555 29556 29557 29558 29559 29560 29561 29562 29563 29564 29565 29566 29567 29568 29569 29570 29571 29572 29573 29574 29575 29576 29577 29578 29579 29580 29581 29582 29583 29584 29585 29586 29587 29588 29589 29590 29591 29592 29593 29594 29595 29596 29597 29598 29599 29600 29601 29602 29603 29604 29605 29606 29607 29608 29609 29610 29611 29612 29613 29614 29615 29616 29617 29618 29619 29620 29621 29622 29623 29624 29625 29626 29627 29628 29629 29630 29631 29632 29633 29634 29635 29636 29637 29638 29639 29640 29641 29642 29643 29644 29645 29646 29647 29648 29649 29650 29651 29652 29653 29654 29655 29656 29657 29658 29659 29660 29661 29662 29663 29664 29665 29666 29667 29668 29669 29670 29671 29672 29673 29674 29675 29676 29677 29678 29679 29680 29681 29682 29683 29684 29685 29686 29687 29688 29689 29690 29691 29692 29693 29694 29695 29696 29697 29698 29699 29700 29701 29702 29703 29704 29705 29706 29707 29708 29709 29710 29711 29712 29713 29714 29715 29716 29717 29718 29719 29720 29721 29722 29723 29724 29725 29726 29727 29728 29729 29730 29731 29732 29733 29734 29735 29736 29737 29738 29739 29740 29741 29742 29743 29744 29745 29746 29747 29748 29749 29750 29751 29752 29753 29754 29755 29756 29757 29758 29759 29760 29761 29762 29763 29764 29765 29766 29767 29768 29769 29770 29771 29772 29773 29774 29775 29776 29777 29778 29779 29780 29781 29782 29783 29784 29785 29786 29787 29788 29789 29790 29791 29792 29793 29794 29795 29796 29797 29798 29799 29800 29801 29802 29803 29804 29805 29806 29807 29808 29809 29810 29811 29812 29813 29814 29815 29816 29817 29818 29819 29820 29821 29822 29823 29824 29825 29826 29827 29828 29829 29830 29831 29832 29833 29834 29835 29836 29837 29838 29839 29840 29841 29842 29843 29844 29845 29846 29847 29848 29849 29850 29851 29852 29853 29854 29855 29856 29857 29858 29859 29860 29861 29862 29863 29864 29865 29866 29867 29868 29869 29870 29871 29872 29873 29874 29875 29876 29877 29878 29879 29880 29881 29882 29883 29884 29885 29886 29887 29888 29889 29890 29891 29892 29893 29894 29895 29896 29897 29898 29899 29900 29901 29902 29903 29904 29905 29906 29907 29908 29909 29910 29911 29912 29913 29914 29915 29916 29917 29918 29919 29920 29921 29922 29923 29924 29925 29926 29927 29928 29929 29930 29931 29932 29933 29934 29935 29936 29937 29938 29939 29940 29941 29942 29943 29944 29945 29946 29947 29948 29949 29950 29951 29952 29953 29954 29955 29956 29957 29958 29959 29960 29961 29962 29963 29964 29965 29966 29967 29968 29969 29970 29971 29972 29973 29974 29975 29976 29977 29978 29979 29980 29981 29982 29983 29984 29985 29986 29987 29988 29989 29990 29991 29992 29993 29994 29995 29996 29997 29998 29999 30000 30001 30002 30003 30004 30005 30006 30007 30008 30009 30010 30011 30012 30013 30014 30015 30016 30017 30018 30019 30020 30021 30022 30023 30024 30025 30026 30027 30028 30029 30030 30031 30032 30033 30034 30035 30036 30037 30038 30039 30040 30041 30042 30043 30044 30045 30046 30047 30048 30049 30050 30051 30052 30053 30054 30055 30056 30057 30058 30059 30060 30061 30062 30063 30064 30065 30066 30067 30068 30069 30070 30071 30072 30073 30074 30075 30076 30077 30078 30079 30080 30081 30082 30083 30084 30085 30086 30087 30088 30089 30090 30091 30092 30093 30094 30095 30096 30097 30098 30099 30100 30101 30102 30103 30104 30105 30106 30107 30108 30109 30110 30111 30112 30113 30114 30115 30116 30117 30118 30119 30120 30121 30122 30123 30124 30125 30126 30127 30128 30129 30130 30131 30132 30133 30134 30135 30136 30137 30138 30139 30140 30141 30142 30143 30144 30145 30146 30147 30148 30149 30150 30151 30152 30153 30154 30155 30156 30157 30158 30159 30160 30161 30162 30163 30164 30165 30166 30167 30168 30169 30170 30171 30172 30173 30174 30175 30176 30177 30178 30179 30180 30181 30182 30183 30184 30185 30186 30187 30188 30189 30190 30191 30192 30193 30194 30195 30196 30197 30198 30199 30200 30201 30202 30203 30204 30205 30206 30207 30208 30209 30210 30211 30212 30213 30214 30215 30216 30217 30218 30219 30220 30221 30222 30223 30224 30225 30226 30227 30228 30229 30230 30231 30232 30233 30234 30235 30236 30237 30238 30239 30240 30241 30242 30243 30244 30245 30246 30247 30248 30249 30250 30251 30252 30253 30254 30255 30256 30257 30258 30259 30260 30261 30262 30263 30264 30265 30266 30267 30268 30269 30270 30271 30272 30273 30274 30275 30276 30277 30278 30279 30280 30281 30282 30283 30284 30285 30286 30287 30288 30289 30290 30291 30292 30293 30294 30295 30296 30297 30298 30299 30300 30301 30302 30303 30304 30305 30306 30307 30308 30309 30310 30311 30312 30313 30314 30315 30316 30317 30318 30319 30320 30321 30322 30323 30324 30325 30326 30327 30328 30329 30330 30331 30332 30333 30334 30335 30336 30337 30338 30339 30340 30341 30342 30343 30344 30345 30346 30347 30348 30349 30350 30351 30352 30353 30354 30355 30356 30357 30358 30359 30360 30361 30362 30363 30364 30365 30366 30367 30368 30369 30370 30371 30372 30373 30374 30375 30376 30377 30378 30379 30380 30381 30382 30383 30384 30385 30386 30387 30388 30389 30390 30391 30392 30393 30394 30395 30396 30397 30398 30399 30400 30401 30402 30403 30404 30405 30406 30407 30408 30409 30410 30411 30412 30413 30414 30415 30416 30417 30418 30419 30420 30421 30422 30423 30424 30425 30426 30427 30428 30429 30430 30431 30432 30433 30434 30435 30436 30437 30438 30439 30440 30441 30442 30443 30444 30445 30446 30447 30448 30449 30450 30451 30452 30453 30454 30455 30456 30457 30458 30459 30460 30461 30462 30463 30464 30465 30466 30467 30468 30469 30470 30471 30472 30473 30474 30475 30476 30477 30478 30479 30480 30481 30482 30483 30484 30485 30486 30487 30488 30489 30490 30491 30492 30493 30494 30495 30496 30497 30498 30499 30500 30501 30502 30503 30504 30505 30506 30507 30508 30509 30510 30511 30512 30513 30514 30515 30516 30517 30518 30519 30520 30521 30522 30523 30524 30525 30526 30527 30528 30529 30530 30531 30532 30533 30534 30535 30536 30537 30538 30539 30540 30541 30542 30543 30544 30545 30546 30547 30548 30549 30550 30551 30552 30553 30554 30555 30556 30557 30558 30559 30560 30561 30562 30563 30564 30565 30566 30567 30568 30569 30570 30571 30572 30573 30574 30575 30576 30577 30578 30579 30580 30581 30582 30583 30584 30585 30586 30587 30588 30589 30590 30591 30592 30593 30594 30595 30596 30597 30598 30599 30600 30601 30602 30603 30604 30605 30606 30607 30608 30609 30610 30611 30612 30613 30614 30615 30616 30617 30618 30619 30620 30621 30622 30623 30624 30625 30626 30627 30628 30629 30630 30631 30632 30633 30634 30635 30636 30637 30638 30639 30640 30641 30642 30643 30644 30645 30646 30647 30648 30649 30650 30651 30652 30653 30654 30655 30656 30657 30658 30659 30660 30661 30662 30663 30664 30665 30666 30667 30668 30669 30670 30671 30672 30673 30674 30675 30676 30677 30678 30679 30680 30681 30682 30683 30684 30685 30686 30687 30688 30689 30690 30691 30692 30693 30694 30695 30696 30697 30698 30699 30700 30701 30702 30703 30704 30705 30706 30707 30708 30709 30710 30711 30712 30713 30714 30715 30716 30717 30718 30719 30720 30721 30722 30723 30724 30725 30726 30727 30728 30729 30730 30731 30732 30733 30734 30735 30736 30737 30738 30739 30740 30741 30742 30743 30744 30745 30746 30747 30748 30749 30750 30751 30752 30753 30754 30755 30756 30757 30758 30759 30760 30761 30762 30763 30764 30765 30766 30767 30768 30769 30770 30771 30772 30773 30774 30775 30776 30777 30778 30779 30780 30781 30782 30783 30784 30785 30786 30787 30788 30789 30790 30791 30792 30793 30794 30795 30796 30797 30798 30799 30800 30801 30802 30803 30804 30805 30806 30807 30808 30809 30810 30811 30812 30813 30814 30815 30816 30817 30818 30819 30820 30821 30822 30823 30824 30825 30826 30827 30828 30829 30830 30831 30832 30833 30834 30835 30836 30837 30838 30839 30840 30841 30842 30843 30844 30845 30846 30847 30848 30849 30850 30851 30852 30853 30854 30855 30856 30857 30858 30859 30860 30861 30862 30863 30864 30865 30866 30867 30868 30869 30870 30871 30872 30873 30874 30875 30876 30877 30878 30879 30880 30881 30882 30883 30884 30885 30886 30887 30888 30889 30890 30891 30892 30893 30894 30895 30896 30897 30898 30899 30900 30901 30902 30903 30904 30905 30906 30907 30908 30909 30910 30911 30912 30913 30914 30915 30916 30917 30918 30919 30920 30921 30922 30923 30924 30925 30926 30927 30928 30929 30930 30931 30932 30933 30934 30935 30936 30937 30938 30939 30940 30941 30942 30943 30944 30945 30946 30947 30948 30949 30950 30951 30952 30953 30954 30955 30956 30957 30958 30959 30960 30961 30962 30963 30964 30965 30966 30967 30968 30969 30970 30971 30972 30973 30974 30975 30976 30977 30978 30979 30980 30981 30982 30983 30984 30985 30986 30987 30988 30989 30990 30991 30992 30993 30994 30995 30996 30997 30998 30999 31000 31001 31002 31003 31004 31005 31006 31007 31008 31009 31010 31011 31012 31013 31014 31015 31016 31017 31018 31019 31020 31021 31022 31023 31024 31025 31026 31027 31028 31029 31030 31031 31032 31033 31034 31035 31036 31037 31038 31039 31040 31041 31042 31043 31044 31045 31046 31047 31048 31049 31050 31051 31052 31053 31054 31055 31056 31057 31058 31059 31060 31061 31062 31063 31064 31065 31066 31067 31068 31069 31070 31071 31072 31073 31074 31075 31076 31077 31078 31079 31080 31081 31082 31083 31084 31085 31086 31087 31088 31089 31090 31091 31092 31093 31094 31095 31096 31097 31098 31099 31100 31101 31102 31103 31104 31105 31106 31107 31108 31109 31110 31111 31112 31113 31114 31115 31116 31117 31118 31119 31120 31121 31122 31123 31124 31125 31126 31127 31128 31129 31130 31131 31132 31133 31134 31135 31136 31137 31138 31139 31140 31141 31142 31143 31144 31145 31146 31147 31148 31149 31150 31151 31152 31153 31154 31155 31156 31157 31158 31159 31160 31161 31162 31163 31164 31165 31166 31167 31168 31169 31170 31171 31172 31173 31174 31175 31176 31177 31178 31179 31180 31181 31182 31183 31184 31185 31186 31187 31188 31189 31190 31191 31192 31193 31194 31195 31196 31197 31198 31199 31200 31201 31202 31203 31204 31205 31206 31207 31208 31209 31210 31211 31212 31213 31214 31215 31216 31217 31218 31219 31220 31221 31222 31223 31224 31225 31226 31227 31228 31229 31230 31231 31232 31233 31234 31235 31236 31237 31238 31239 31240 31241 31242 31243 31244 31245 31246 31247 31248 31249 31250 31251 31252 31253 31254 31255 31256 31257 31258 31259 31260 31261 31262 31263 31264 31265 31266 31267 31268 31269 31270 31271 31272 31273 31274 31275 31276 31277 31278 31279 31280 31281 31282 31283 31284 31285 31286 31287 31288 31289 31290 31291 31292 31293 31294 31295 31296 31297 31298 31299 31300 31301 31302 31303 31304 31305 31306 31307 31308 31309 31310 31311 31312 31313 31314 31315 31316 31317 31318 31319 31320 31321 31322 31323 31324 31325 31326 31327 31328 31329 31330 31331 31332 31333 31334 31335 31336 31337 31338 31339 31340 31341 31342 31343 31344 31345 31346 31347 31348 31349 31350 31351 31352 31353 31354 31355 31356 31357 31358 31359 31360 31361 31362 31363 31364 31365 31366 31367 31368 31369 31370 31371 31372 31373 31374 31375 31376 31377 31378 31379 31380 31381 31382 31383 31384 31385 31386 31387 31388 31389 31390 31391 31392 31393 31394 31395 31396 31397 31398 31399 31400 31401 31402 31403 31404 31405 31406 31407 31408 31409 31410 31411 31412 31413 31414 31415 31416 31417 31418 31419 31420 31421 31422 31423 31424 31425 31426 31427 31428 31429 31430 31431 31432 31433 31434 31435 31436 31437 31438 31439 31440 31441 31442 31443 31444 31445 31446 31447 31448 31449 31450 31451 31452 31453 31454 31455 31456 31457 31458 31459 31460 31461 31462 31463 31464 31465 31466 31467 31468 31469 31470 31471 31472 31473 31474 31475 31476 31477 31478 31479 31480 31481 31482 31483 31484 31485 31486 31487 31488 31489 31490 31491 31492 31493 31494 31495 31496 31497 31498 31499 31500 31501 31502 31503 31504 31505 31506 31507 31508 31509 31510 31511 31512 31513 31514 31515 31516 31517 31518 31519 31520 31521 31522 31523 31524 31525 31526 31527 31528 31529 31530 31531 31532 31533 31534 31535 31536 31537 31538 31539 31540 31541 31542 31543 31544 31545 31546 31547 31548 31549 31550 31551 31552 31553 31554 31555 31556 31557 31558 31559 31560 31561 31562 31563 31564 31565 31566 31567 31568 31569 31570 31571 31572 31573 31574 31575 31576 31577 31578 31579 31580 31581 31582 31583 31584 31585 31586 31587 31588 31589 31590 31591 31592 31593 31594 31595 31596 31597 31598 31599 31600 31601 31602 31603 31604 31605 31606 31607 31608 31609 31610 31611 31612 31613 31614 31615 31616 31617 31618 31619 31620 31621 31622 31623 31624 31625 31626 31627 31628 31629 31630 31631 31632 31633 31634 31635 31636 31637 31638 31639 31640 31641 31642 31643 31644 31645 31646 31647 31648 31649 31650 31651 31652 31653 31654 31655 31656 31657 31658 31659 31660 31661 31662 31663 31664 31665 31666 31667 31668 31669 31670 31671 31672 31673 31674 31675 31676 31677 31678 31679 31680 31681 31682 31683 31684 31685 31686 31687 31688 31689 31690 31691 31692 31693 31694 31695 31696 31697 31698 31699 31700 31701 31702 31703 31704 31705 31706 31707 31708 31709 31710 31711 31712 31713 31714 31715 31716 31717 31718 31719 31720 31721 31722 31723 31724 31725 31726 31727 31728 31729 31730 31731 31732 31733 31734 31735 31736 31737 31738 31739 31740 31741 31742 31743 31744 31745 31746 31747 31748 31749 31750 31751 31752 31753 31754 31755 31756 31757 31758 31759 31760 31761 31762 31763 31764 31765 31766 31767 31768 31769 31770 31771 31772 31773 31774 31775 31776 31777 31778 31779 31780 31781 31782 31783 31784 31785 31786 31787 31788 31789 31790 31791 31792 31793 31794 31795 31796 31797 31798 31799 31800 31801 31802 31803 31804 31805 31806 31807 31808 31809 31810 31811 31812 31813 31814 31815 31816 31817 31818 31819 31820 31821 31822 31823 31824 31825 31826 31827 31828 31829 31830 31831 31832 31833 31834 31835 31836 31837 31838 31839 31840 31841 31842 31843 31844 31845 31846 31847 31848 31849 31850 31851 31852 31853 31854 31855 31856 31857 31858 31859 31860 31861 31862 31863 31864 31865 31866 31867 31868 31869 31870 31871 31872 31873 31874 31875 31876 31877 31878 31879 31880 31881 31882 31883 31884 31885 31886 31887 31888 31889 31890 31891 31892 31893 31894 31895 31896 31897 
</DataArray>
<DataArray type="UInt32" Name="offsets" format="ascii">
3 6 9 12 15 17 20 23 26 29 32 35 38 40 43 46 49 52 54 57 60 62 65 68 71 74 76 79 82 85 88 90 93 96 99 102 105 108 111 114 117 120 123 126 129 131 134 137 139 142 145 148 151 154 156 159 162 165 168 171 174 177 179 182 185 188 191 193 196 199 202 205 208 211 214 217 220 222 225 228 230 233 236 238 241 244 247 250 252 255 258 261 264 267 270 273 275 277 279 282 285 287 290 293 296 299 302 304 307 310 313 316 319 322 325 328 331 334 337 340 343 345 348 351 354 356 359 362 365 368 371 374 376 379 382 385 388 391 394 397 400 403 406 409 412 415 418 421 424 427 430 433 436 439 442 445 448 451 453 456 459 462 464 467 470 472 475 478 481 484 487 490 493 496 499 502 505 507 510 513 516 519 522 525 528 531 533 536 539 542 545 548 551 554 557 559 562 565 568 571 574 577 580 583 586 588 591 594 597 600 603 606 609 612 615 618 621 624 627 630 633 636 639 642 645 648 651 654 657 659 662 665 668 670 673 675 678 680 683 686 688 691 694 697 699 702 704 707 709 712 714 716 719 721 724 727 729 732 734 737 740 743 745 748 750 752 755 758 760 763 766 769 771 774 776 778 780 783 785 788 791 794 796 799 801 803 805 808 811 813 815 818 821 824 827 829 832 834 837 840 842 845 848 851 853 856 858 860 862 865 868 871 873 876 878 880 882 884 887 890 893 895 897 900 903 905 907 909 912 914 917 920 923 926 928 931 934 937 940 943 946 949 951 954 957 960 963 966 969 971 973 976 979 982 984 987 990 993 995 998 1000 1003 1005 1007 1010 1013 1016 1019 1021 1024 1027 1029 1032 1035 1038 1041 1043 1046 1048 1051 1054 1057 1060 1063 1065 1067 1070 1073 1076 1079 1082 1085 1088 1091 1093 1096 1099 1102 1104 1107 1110 1112 1115 1117 1120 1123 1126 1129 1132 1135 1138 1141 1144 1147 1150 1152 1155 1157 1160 1162 1165 1168 1171 1173 1176 1178 1181 1183 1186 1189 1192 1195 1198 1201 1203 1206 1208 1211 1214 1217 1219 1222 1225 1228 1230 1233 1235 1237 1240 1243 1246 1249 1251 1254 1257 1260 1263 1265 1267 1270 1273 1275 1278 1280 1283 1285 1287 1290 1293 1296 1298 1301 1304 1307 1310 1312 1315 1318 1321 1324 1327 1330 1333 1336 1339 1342 1345 1347 1350 1353 1356 1359 1361 1364 1367 1370 1372 1375 1377 1379 1381 1384 1387 1390 1392 1394 1397 1399 1402 1405 1407 1410 1413 1416 1419 1421 1424 1427 1430 1433 1436 1439 1442 1445 1448 1451 1454 1456 1458 1461 1464 1466 1469 1472 1475 1477 1480 1483 1486 1489 1492 1495 1497 1500 1503 1506 1508 1511 1514 1517 1519 1522 1525 1528 1531 1534 1537 1540 1543 1546 1549 1552 1554 1557 1560 1563 1565 1568 1571 1574 1577 1580 1583 1586 1588 1591 1594 1597 1600 1603 1605 1608 1611 1614 1617 1620 1623 1626 1629 1632 1635 1638 1641 1644 1647 1650 1653 1656 1659 1662 1664 1667 1670 1673 1676 1678 1681 1684 1686 1689 1692 1695 1698 1701 1704 1707 1709 1712 1715 1718 1721 1724 1727 1730 1733 1735 1738 1740 1743 1746 1748 1751 1754 1757 1759 1762 1765 1767 1770 1773 1776 1778 1781 1783 1786 1789 1791 1794 1796 1799 1802 1805 1808 1811 1814 1817 1820 1823 1826 1829 1832 1835 1838 1841 1844 1847 1850 1853 1856 1859 1862 1864 1867 1869 1872 1874 1877 1880 1883 1886 1889 1892 1895 1898 1901 1904 1907 1910 1913 1916 1919 1921 1924 1927 1930 1933 1936 1939 1942 1945 1948 1950 1953 1956 1959 1962 1965 1968 1971 1974 1977 1980 1983 1986 1989 1992 1995 1998 2001 2004 2007 2010 2013 2016 2019 2022 2025 2028 2031 2034 2037 2039 2042 2045 2047 2050 2053 2056 2058 2060 2063 2065 2068 2071 2074 2077 2080 2082 2085 2088 2091 2094 2097 2099 2102 2105 2108 2111 2114 2117 2120 2123 2126 2129 2132 2135 2138 2141 2144 2147 2150 2153 2156 2159 2162 2165 2168 2171 2174 2177 2180 2183 2186 2189 2192 2195 2198 2201 2204 2207 2210 2213 2216 2219 2222 2225 2228 2231 2234 2237 2240 2243 2246 2248 2251 2254 2257 2260 2263 2266 2269 2272 2275 2278 2281 2284 2287 2290 2293 2295 2298 2301 2304 2307 2309 2312 2315 2318 2321 2324 2327 2330 2333 2336 2339 2342 2345 2348 2351 2354 2357 2360 2363 2366 2369 2372 2375 2378 2381 2384 2387 2390 2392 2395 2398 2400 2403 2405 2407 2409 2411 2414 2417 2419 2422 2425 2428 2431 2434 2437 2440 2443 2446 2449 2452 2455 2458 2461 2464 2467 2470 2472 2475 2478 2480 2483 2485 2488 2491 2494 2497 2499 2502 2504 2507 2510 2513 2516 2518 2521 2524 2527 2529 2532 2535 2538 2541 2544 2546 2549 2551 2554 2557 2559 2561 2564 2566 2569 2572 2575 2578 2581 2584 2587 2590 2593 2596 2599 2601 2604 2607 2610 2612 2615 2618 2621 2623 2626 2629 2631 2633 2635 2638 2641 2644 2647 2650 2653 2656 2659 2662 2665 2668 2670 2673 2676 2679 2682 2685 2688 2691 2694 2696 2698 2700 2703 2706 2709 2712 2715 2718 2721 2724 2726 2728 2731 2734 2737 2739 2742 2745 2747 2750 2753 2756 2759 2762 2765 2768 2771 2774 2777 2780 2782 2785 2788 2791 2794 2797 2800 2803 2806 2808 2811 2814 2817 2820 2823 2826 2829 2832 2835 2838 2840 2843 2845 2847 2849 2852 2855 2858 2861 2864 2867 2870 2872 2874 2877 2879 2882 2885 2888 2891 2894 2896 2899 2901 2903 2906 2909 2912 2914 2917 2919 2922 2925 2928 2931 2933 2936 2939 2942 2945 2948 2951 2954 2957 2960 2963 2966 2969 2972 2975 2978 2981 2984 2986 2989 2992 2995 2997 3000 3003 3006 3009 3012 3014 3017 3020 3023 3026 3029 3032 3034 3037 3039 3042 3045 3048 3051 3054 3057 3060 3063 3065 3068 3071 3074 3076 3079 3082 3085 3088 3091 3094 3097 3100 3103 3106 3109 3112 3115 3118 3121 3124 3127 3130 3133 3136 3139 3142 3145 3148 3151 3153 3155 3157 3160 3163 3166 3169 3171 3174 3177 3180 3183 3185 3188 3191 3194 3197 3200 3203 3206 3208 3211 3214 3217 3220 3223 3226 3229 3232 3234 3237 3240 3243 3246 3249 3252 3255 3258 3261 3264 3267 3270 3272 3275 3278 3281 3284 3287 3290 3292 3295 3298 3301 3304 3307 3310 3313 3316 3318 3321 3324 3327 3329 3332 3335 3338 3341 3344 3347 3350 3353 3356 3359 3362 3365 3367 3370 3373 3376 3379 3382 3385 3388 3391 3394 3397 3400 3403 3406 3409 3412 3415 3418 3421 3424 3427 3430 3433 3436 3439 3442 3445 3448 3451 3454 3457 3460 3463 3466 3469 3472 3475 3478 3481 3484 3487 3490 3493 3496 3499 3502 3505 3508 3510 3513 3516 3519 3522 3525 3528 3531 3534 3537 3540 3543 3546 3549 3552 3555 3558 3561 3564 3567 3570 3573 3576 3579 3582 3584 3587 3590 3593 3596 3599 3602 3605 3608 3611 3614 3616 3619 3622 3624 3627 3630 3633 3636 3639 3642 3645 3648 3651 3653 3656 3658 3661 3664 3667 3670 3672 3675 3678 3680 3683 3685 3688 3691 3694 3697 3700 3702 3705 3708 3711 3714 3717 3720 3723 3726 3728 3731 3734 3737 3740 3743 3746 3749 3752 3755 3758 3761 3764 3767 3770 3772 3775 3777 3779 3782 3785 3788 3791 3794 3796 3799 3802 3805 3808 3811 3814 3817 3820 3823 3826 3829 3832 3835 3838 3841 3843 3846 3849 3852 3855 3858 3861 3864 3867 3870 3873 3876 3879 3882 3885 3888 3891 3893 3896 3899 3902 3905 3908 3910 3912 3915 3918 3920 3923 3926 3929 3932 3935 3938 3941 3944 3947 3950 3952 3955 3958 3961 3964 3967 3970 3973 3976 3979 3981 3984 3986 3989 3992 3995 3998 4001 4003 4006 4009 4012 4015 4017 4020 4023 4026 4028 4031 4034 4037 4039 4042 4045 4047 4050 4053 4056 4059 4062 4065 4068 4071 4074 4077 4080 4083 4086 4089 4092 4095 4097 4100 4103 4106 4109 4112 4115 4118 4120 4123 4126 4129 4132 4135 4138 4141 4144 4147 4150 4153 4156 4159 4162 4165 4168 4171 4174 4177 4180 4183 4186 4189 4192 4195 4198 4201 4203 4206 4209 4212 4215 4217 4220 4223 4226 4228 4231 4234 4237 4240 4243 4246 4249 4252 4255 4257 4260 4262 4265 4268 4271 4274 4277 4280 4283 4286 4289 4292 4295 4298 4301 4304 4307 4310 4313 4316 4318 4320 4323 4326 4329 4331 4334 4337 4339 4342 4345 4347 4350 4353 4356 4358 4361 4364 4366 4369 4372 4375 4378 4381 4384 4387 4390 4393 4396 4399 4402 4405 4408 4411 4414 4417 4420 4423 4426 4428 4431 4433 4436 4439 4442 4445 4448 4451 4454 4457 4460 4463 4466 4468 4471 4473 4476 4479 4482 4484 4487 4490 4493 4496 4499 4501 4504 4507 4510 4513 4516 4519 4521 4524 4527 4530 4533 4536 4539 4542 4545 4548 4551 4554 4556 4559 4562 4565 4568 4571 4574 4577 4580 4582 4585 4588 4591 4593 4596 4599 4601 4604 4607 4610 4613 4616 4618 4621 4624 4627 4630 4633 4636 4639 4642 4645 4647 4650 4653 4655 4658 4660 4663 4665 4667 4669 4672 4674 4677 4680 4683 4686 4689 4692 4694 4697 4700 4703 4706 4709 4712 4714 4717 4720 4723 4726 4729 4732 4735 4737 4740 4743 4746 4749 4751 4754 4757 4760 4763 4766 4768 4771 4773 4776 4779 4782 4785 4788 4791 4794 4797 4800 4803 4805 4808 4811 4814 4817 4820 4823 4826 4828 4831 4834 4837 4840 4843 4846 4849 4851 4854 4856 4859 4862 4865 4868 4871 4874 4877 4880 4882 4885 4888 4891 4893 4895 4898 4901 4904 4907 4910 4912 4914 4917 4919 4922 4925 4927 4930 4933 4935 4938 4941 4944 4947 4950 4953 4956 4959 4961 4964 4967 4970 4973 4976 4978 4981 4984 4987 4990 4992 4995 4998 5000 5003 5006 5009 5012 5015 5018 5021 5024 5027 5030 5033 5036 5039 5042 5045 5048 5051 5054 5057 5060 5063 5066 5069 5072 5075 5078 5081 5084 5087 5090 5093 5096 5099 5102 5105 5108 5111 5114 5117 5120 5123 5125 5128 5131 5133 5136 5139 5142 5145 5148 5150 5153 5156 5159 5162 5164 5167 5170 5173 5176 5179 5182 5185 5188 5191 5194 5197 5200 5203 5206 5209 5212 5215 5218 5221 5224 5227 5230 5233 5236 5238 5241 5244 5247 5249 5252 5255 5258 5261 5264 5267 5269 5272 5275 5278 5281 5284 5287 5290 5293 5296 5299 5302 5304 5307 5309 5311 5314 5317 5319 5322 5325 5328 5331 5334 5337 5340 5343 5346 5349 5352 5354 5357 5360 5362 5365 5368 5371 5374 5377 5380 5383 5386 5389 5392 5395 5398 5401 5404 5407 5409 5412 5415 5418 5421 5424 5427 5430 5432 5435 5437 5440 5443 5446 5449 5451 5454 5456 5459 5462 5465 5468 5471 5474 5477 5480 5483 5485 5488 5491 5494 5497 5500 5503 5506 5509 5512 5515 5518 5521 5524 5527 5530 5533 5536 5538 5541 5544 5547 5550 5553 5556 5559 5562 5565 5568 5571 5574 5577 5580 5583 5586 5589 5592 5595 5598 5601 5604 5607 5610 5613 5615 5617 5620 5623 5626 5629 5632 5635 5638 5641 5644 5647 5650 5652 5655 5658 5661 5664 5666 5669 5672 5675 5678 5680 5683 5686 5689 5692 5695 5698 5701 5704 5706 5709 5712 5715 5718 5721 5724 5727 5730 5733 5735 5738 5741 5744 5747 5750 5753 5756 5759 5762 5765 5768 5771 5774 5777 5780 5783 5786 5789 5792 5795 5797 5800 5803 5806 5809 5812 5815 5818 5821 5824 5827 5830 5833 5836 5839 5841 5844 5846 5849 5852 5855 5858 5861 5864 5867 5870 5872 5875 5878 5880 5883 5886 5889 5892 5895 5898 5901 5904 5907 5910 5913 5916 5919 5922 5925 5928 5931 5934 5937 5940 5943 5946 5949 5952 5955 5958 5961 5964 5967 5970 5973 5976 5979 5982 5985 5988 5990 5993 5996 5998 6001 6004 6007 6010 6012 6015 6017 6020 6023 6025 6028 6030 6033 6036 6039 6042 6045 6047 6050 6053 6056 6059 6062 6065 6068 6071 6074 6077 6080 6083 6085 6088 6091 6094 6096 6099 6102 6105 6108 6111 6114 6117 6120 6123 6125 6128 6131 6134 6137 6139 6141 6144 6147 6150 6153 6156 6159 6162 6165 6167 6170 6173 6176 6179 6182 6184 6187 6190 6193 6195 6198 6201 6204 6206 6209 6212 6215 6218 6220 6223 6226 6229 6232 6235 6238 6241 6244 6247 6250 6253 6256 6259 6262 6264 6267 6270 6273 6276 6279 6282 6284 6287 6289 6291 6294 6296 6299 6301 6304 6307 6310 6313 6315 6318 6321 6324 6327 6329 6332 6335 6338 6341 6344 6347 6350 6353 6356 6358 6361 6364 6367 6370 6373 6376 6379 6382 6385 6388 6391 6394 6397 6400 6402 6405 6408 6411 6413 6416 6419 6422 6424 6427 6429 6432 6435 6438 6441 6444 6447 6450 6453 6456 6459 6462 6465 6468 6471 6474 6477 6479 6482 6485 6488 6491 6494 6497 6499 6502 6505 6508 6511 6514 6517 6520 6523 6526 6529 6532 6535 6538 6541 6544 6547 6550 6553 6555 6558 6561 6564 6567 6570 6573 6576 6579 6582 6585 6588 6591 6594 6597 6600 6603 6606 6609 6612 6615 6618 6621 6624 6627 6630 6633 6636 6639 6642 6645 6648 6651 6654 6657 6659 6662 6665 6668 6671 6673 6676 6679 6682 6685 6688 6691 6694 6696 6699 6702 6705 6708 6711 6714 6717 6720 6723 6725 6728 6731 6733 6736 6739 6742 6745 6748 6750 6753 6756 6759 6761 6764 6767 6769 6772 6775 6778 6781 6784 6787 6790 6793 6796 6799 6802 6805 6808 6811 6814 6817 6820 6823 6826 6829 6831 6834 6837 6840 6843 6846 6849 6852 6855 6858 6861 6863 6865 6868 6870 6873 6876 6879 6882 6885 6887 6890 6893 6896 6899 6901 6904 6907 6910 6913 6916 6918 6921 6923 6926 6929 6931 6934 6937 6940 6943 6946 6949 6952 6955 6957 6960 6963 6966 6969 6972 6975 6977 6980 6983 6986 6989 6992 6995 6997 7000 7003 7006 7009 7011 7014 7017 7019 7022 7024 7027 7030 7032 7035 7038 7041 7044 7047 7050 7052 7055 7058 7061 7064 7066 7069 7072 7075 7078 7081 7084 7087 7090 7092 7094 7097 7100 7103 7106 7109 7112 7115 7118 7120 7123 7126 7129 7132 7135 7138 7140 7143 7146 7149 7152 7155 7158 7161 7163 7166 7169 7172 7174 7177 7180 7183 7186 7189 7192 7195 7198 7201 7204 7207 7210 7212 7215 7218 7221 7224 7226 7229 7232 7234 7237 7240 7243 7246 7248 7251 7254 7257 7259 7261 7264 7267 7270 7272 7275 7278 7281 7283 7286 7289 7292 7295 7298 7301 7304 7307 7310 7312 7315 7318 7321 7323 7326 7329 7332 7335 7338 7341 7344 7347 7350 7353 7356 7359 7361 7364 7366 7369 7372 7374 7377 7380 7382 7385 7388 7391 7394 7397 7400 7403 7405 7408 7411 7414 7417 7420 7422 7425 7427 7430 7433 7436 7438 7440 7443 7445 7447 7450 7452 7455 7458 7461 7464 7467 7470 7472 7475 7477 7480 7483 7486 7489 7492 7495 7498 7501 7504 7507 7510 7513 7516 7518 7521 7524 7526 7529 7531 7534 7537 7539 7542 7545 7548 7550 7552 7555 7558 7560 7563 7566 7569 7572 7575 7578 7581 7584 7587 7590 7593 7596 7599 7602 7605 7608 7611 7614 7617 7620 7623 7626 7629 7631 7633 7636 7638 7641 7643 7646 7649 7651 7653 7656 7659 7661 7664 7667 7669 7672 7675 7677 7680 7682 7685 7688 7691 7694 7696 7699 7702 7705 7708 7710 7713 7715 7717 7720 7722 7725 7728 7730 7732 7735 7738 7741 7743 7746 7749 7752 7755 7757 7759 7762 7765 7768 7771 7774 7776 7779 7782 7785 7788 7791 7794 7797 7800 7803 7806 7809 7811 7814 7816 7819 7821 7824 7827 7829 7832 7834 7837 7840 7843 7846 7849 7852 7855 7858 7860 7863 7866 7868 7871 7874 7877 7880 7882 7885 7888 7891 7894 7897 7900 7903 7906 7909 7912 7915 7918 7920 7923 7926 7929 7932 7935 7938 7941 7944 7947 7950 7953 7955 7958 7961 7964 7967 7970 7973 7975 7978 7980 7983 7986 7988 7991 7994 7997 8000 8003 8006 8009 8012 8015 8018 8021 8024 8027 8030 8033 8036 8039 8041 8043 8046 8049 8052 8054 8057 8060 8062 8065 8068 8071 8074 8077 8080 8083 8086 8089 8092 8095 8098 8101 8104 8107 8110 8113 8116 8119 8122 8125 8128 8131 8134 8137 8139 8141 8144 8147 8150 8153 8156 8159 8162 8165 8168 8171 8174 8176 8179 8182 8185 8188 8191 8194 8197 8200 8203 8206 8209 8212 8215 8218 8221 8224 8227 8230 8233 8236 8239 8242 8245 8248 8251 8254 8257 8260 8263 8266 8269 8272 8275 8277 8280 8283 8286 8289 8292 8294 8297 8300 8302 8305 8308 8310 8312 8315 8318 8321 8324 8327 8330 8333 8336 8339 8342 8345 8348 8351 8353 8356 8359 8361 8364 8367 8370 8373 8376 8379 8381 8384 8387 8389 8392 8395 8398 8401 8404 8407 8410 8413 8416 8419 8422 8425 8428 8430 8433 8436 8439 8442 8445 8448 8451 8453 8456 8459 8462 8465 8468 8471 8474 8477 8480 8483 8486 8489 8491 8494 8497 8499 8502 8505 8508 8511 8514 8517 8520 8523 8526 8529 8532 8535 8538 8541 8544 8547 8550 8553 8556 8559 8561 8564 8567 8569 8572 8574 8577 8580 8583 8585 8588 8591 8593 8596 8598 8601 8604 8607 8609 8612 8615 8618 8621 8623 8626 8629 8632 8635 8638 8641 8644 8646 8649 8652 8655 8657 8660 8663 8666 8669 8672 8675 8678 8681 8684 8687 8690 8693 8695 8698 8701 8704 8707 8710 8713 8716 8719 8721 8724 8727 8730 8733 8736 8739 8742 8745 8748 8751 8754 8756 8759 8762 8765 8768 8771 8774 8777 8780 8783 8786 8789 8792 8795 8798 8801 8804 8807 8810 8813 8815 8817 8820 8823 8826 8828 8831 8834 8837 8840 8843 8846 8849 8852 8855 8858 8861 8864 8866 8869 8872 8875 8878 8881 8884 8887 8890 8893 8895 8898 8901 8904 8907 8910 8913 8916 8919 8922 8925 8928 8931 8934 8937 8940 8943 8945 8948 8950 8953 8956 8959 8962 8965 8967 8970 8973 8976 8979 8981 8984 8987 8990 8992 8995 8998 9001 9003 9006 9009 9012 9015 9018 9021 9024 9027 9030 9032 9035 9038 9041 9043 9046 9049 9051 9054 9057 9060 9063 9066 9069 9071 9074 9077 9080 9083 9086 9089 9092 9095 9097 9100 9103 9106 9108 9111 9114 9117 9120 9123 9126 9129 9132 9135 9138 9141 9144 9147 9150 9153 9156 9159 9162 9165 9168 9171 9174 9177 9180 9183 9186 9189 9191 9194 9197 9200 9203 9206 9209 9212 9214 9217 9220 9223 9226 9229 9232 9235 9238 9241 9244 9247 9250 9253 9256 9259 9262 9265 9268 9271 9274 9277 9280 9283 9286 9289 9291 9294 9296 9299 9302 9305 9308 9311 9314 9316 9319 9322 9325 9327 9330 9333 9335 9338 9341 9344 9347 9350 9353 9356 9359 9362 9365 9368 9371 9373 9376 9379 9382 9385 9388 9390 9393 9396 9399 9402 9405 9408 9411 9414 9417 9420 9423 9426 9429 9431 9434 9437 9440 9442 9445 9448 9451 9454 9457 9460 9463 9466 9469 9472 9475 9478 9480 9482 9485 9488 9491 9494 9496 9499 9502 9505 9508 9511 9514 9517 9520 9523 9525 9527 9530 9533 9536 9539 9542 9544 9547 9550 9553 9556 9559 9561 9564 9567 9570 9573 9576 9578 9581 9583 9586 9589 9592 9595 9597 9600 9602 9605 9607 9609 9612 9615 9618 9621 9624 9627 9630 9632 9634 9637 9640 9643 9646 9649 9652 9654 9656 9658 9661 9663 9665 9668 9671 9674 9676 9679 9682 9685 9688 9691 9693 9695 9697 9700 9702 9705 9708 9711 9713 9716 9718 9720 9723 9726 9729 9732 9735 9738 9741 9743 9745 9748 9751 9753 9755 9757 9760 9763 9766 9769 9772 9775 9778 9781 9784 9787 9790 9793 9796 9799 9802 9805 9808 9811 9814 9817 9820 9823 9826 9829 9832 9835 9838 9841 9844 9847 9850 9853 9856 9859 9862 9865 9868 9871 9874 9877 9879 9882 9885 9888 9891 9894 9897 9900 9903 9906 9909 9911 9914 9917 9920 9923 9926 9929 9931 9934 9937 9939 9942 9945 9948 9951 9954 9957 9960 9963 9966 9969 9972 9975 9978 9980 9983 9985 9988 9991 9994 9997 9999 10002 10005 10008 10010 10013 10016 10018 10021 10024 10027 10029 10032 10035 10037 10040 10043 10046 10049 10052 10054 10057 10060 10063 10066 10069 10072 10075 10077 10080 10083 10086 10089 10092 10095 10098 10100 10103 10106 10108 10111 10114 10117 10120 10122 10125 10127 10130 10133 10136 10139 10142 10144 10147 10150 10153 10156 10158 10161 10164 10167 10170 10173 10176 10178 10180 10183 10186 10189 10192 10195 10197 10200 10203 10205 10208 10211 10214 10217 10220 10223 10226 10229 10232 10235 10237 10240 10243 10246 10249 10252 10255 10258 10261 10264 10267 10270 10273 10276 10279 10282 10285 10288 10291 10293 10296 10299 10302 10305 10308 10311 10313 10316 10319 10322 10325 10328 10331 10334 10336 10338 10341 10344 10347 10350 10352 10355 10358 10361 10364 10367 10370 10373 10375 10378 10381 10383 10386 10388 10390 10392 10395 10398 10401 10404 10407 10410 10412 10415 10418 10421 10424 10427 10429 10432 10435 10438 10441 10443 10446 10449 10452 10454 10457 10460 10463 10465 10468 10471 10474 10477 10480 10483 10486 10489 10492 10495 10498 10501 10504 10507 10510 10513 10516 10519 10522 10525 10528 10531 10534 10537 10540 10542 10545 10548 10551 10554 10557 10560 10563 10565 10568 10570 10573 10576 10579 10582 10585 10588 10590 10593 10596 10598 10601 10604 10607 10609 10612 10615 10617 10620 10623 10626 10629 10632 10634 10637 10640 10643 10645 10647 10650 10653 10656 10659 10662 10665 10668 10671 10674 10677 10680 10683 10685 10688 10691 10694 10697 10700 10703 10706 10709 10712 10714 10717 10720 10723 10726 10729 10731 10733 10736 10739 10742 10745 10748 10751 10754 10757 10760 10762 10765 10768 10771 10774 10777 10780 10783 10786 10788 10791 10794 10797 10800 10803 10806 10809 10812 10815 10818 10821 10824 10827 10830 10833 10836 10839 10842 10844 10847 10850 10853 10856 10858 10861 10863 10866 10868 10871 10874 10877 10880 10883 10886 10889 10892 10895 10898 10901 10904 10907 10910 10913 10916 10919 10921 10924 10927 10930 10933 10936 10938 10941 10944 10947 10949 10951 10954 10957 10960 10963 10966 10968 10971 10974 10977 10980 10982 10985 10988 10991 10994 10997 11000 11003 11006 11008 11011 11014 11017 11020 11023 11026 11029 11031 11034 11037 11040 11043 11046 11049 11052 11055 11058 11060 11063 11066 11069 11072 11075 11078 11081 11084 11087 11090 11093 11096 11099 11102 11105 11108 11111 11114 11116 11119 11122 11125 11128 11131 11134 11137 11140 11143 11146 11149 11152 11155 11157 11160 11163 11166 11169 11172 11175 11177 11180 11183 11185 11188 11191 11193 11196 11199 11202 11205 11208 11211 11214 11217 11220 11223 11226 11229 11232 11235 11238 11241 11244 11247 11250 11253 11256 11259 11262 11265 11268 11271 11273 11276 11278 11281 11283 11285 11288 11291 11294 11296 11299 11302 11305 11308 11311 11314 11317 11320 11323 11325 11327 11330 11332 11335 11338 11341 11344 11347 11350 11353 11356 11359 11362 11365 11368 11371 11374 11376 11379 11381 11383 11386 11388 11391 11394 11397 11400 11403 11406 11409 11412 11415 11417 11419 11422 11425 11428 11431 11434 11437 11440 11443 11446 11449 11452 11455 11458 11461 11464 11467 11470 11473 11476 11479 11482 11485 11487 11490 11493 11496 11499 11502 11504 11507 11510 11513 11516 11519 11521 11524 11527 11530 11532 11535 11538 11541 11544 11547 11550 11553 11556 11559 11561 11564 11567 11570 11573 11575 11578 11581 11584 11587 11590 11593 11595 11598 11601 11604 11607 11610 11613 11616 11618 11621 11624 11627 11630 11632 11635 11638 11641 11644 11647 11650 11653 11656 11659 11662 11664 11667 11670 11673 11676 11678 11681 11684 11687 11689 11692 11695 11698 11701 11704 11706 11709 11712 11715 11718 11721 11724 11727 11730 11733 11736 11739 11742 11745 11748 11750 11752 11755 11758 11760 11763 11766 11769 11772 11775 11778 11781 11783 11786 11789 11792 11795 11798 11801 11803 11806 11809 11812 11815 11818 11821 11824 11827 11830 11833 11836 11839 11842 11845 11848 11851 11854 11857 11860 11863 11866 11869 11872 11874 11877 11880 11883 11886 11889 11892 11895 11898 11900 11903 11906 11909 11912 11914 11917 11920 11923 11926 11929 11931 11934 11936 11939 11941 11944 11947 11950 11953 11956 11959 11962 11964 11967 11970 11973 11975 11978 11981 11984 11987 11990 11992 11995 11998 12001 12004 12007 12009 12012 12014 12017 12020 12022 12025 12027 12030 12033 12036 12039 12042 12044 12047 12050 12053 12055 12058 12061 12064 12067 12070 12073 12076 12079 12082 12085 12087 12090 12093 12096 12099 12102 12105 12108 12111 12114 12117 12120 12123 12126 12129 12132 12135 12138 12141 12144 12147 12150 12153 12155 12158 12161 12164 12167 12170 12173 12176 12179 12182 12185 12188 12191 12194 12197 12200 12203 12206 12209 12211 12214 12217 12220 12222 12225 12228 12231 12234 12237 12240 12242 12245 12248 12251 12253 12255 12258 12260 12263 12265 12267 12270 12272 12275 12278 12280 12283 12286 12288 12290 12293 12296 12299 12302 12305 12308 12311 12314 12316 12319 12321 12324 12327 12330 12333 12336 12339 12342 12345 12348 12351 12354 12357 12360 12363 12366 12369 12372 12375 12378 12381 12384 12387 12389 12392 12395 12398 12401 12404 12407 12410 12413 12415 12418 12421 12423 12426 12429 12431 12433 12436 12439 12441 12444 12447 12450 12453 12456 12459 12462 12465 12468 12471 12474 12477 12480 12483 12486 12489 12492 12495 12498 12501 12504 12507 12510 12513 12516 12519 12522 12525 12528 12531 12534 12537 12540 12543 12546 12549 12552 12555 12558 12560 12563 12565 12568 12571 12574 12577 12580 12583 12586 12589 12592 12595 12598 12601 12604 12607 12610 12613 12616 12619 12622 12625 12628 12631 12634 12637 12640 12643 12646 12649 12652 12655 12658 12661 12664 12667 12670 12673 12676 12679 12682 12685 12687 12690 12693 12695 12698 12701 12704 12707 12710 12712 12715 12717 12720 12723 12725 12728 12731 12734 12737 12740 12743 12745 12748 12751 12754 12757 12760 12763 12766 12769 12772 12775 12778 12780 12783 12786 12788 12790 12793 12795 12798 12801 12803 12806 12809 12812 12815 12817 12820 12823 12826 12829 12832 12835 12838 12841 12844 12846 12849 12851 12854 12857 12860 12863 12866 12869 12872 12874 12877 12879 12882 12885 12888 12891 12894 12897 12900 12903 12906 12908 12911 12913 12916 12919 12922 12925 12928 12931 12934 12937 12940 12943 12945 12948 12951 12954 12956 12959 12962 12964 12967 12970 12972 12975 12978 12981 12984 12986 12989 12992 12995 12997 13000 13003 13006 13009 13012 13015 13018 13021 13024 13027 13030 13033 13036 13039 13041 13044 13047 13050 13053 13056 13059 13061 13064 13066 13069 13071 13074 13077 13080 13082 13085 13088 13091 13094 13097 13100 13103 13106 13108 13111 13114 13117 13120 13123 13125 13128 13131 13133 13136 13139 13142 13145 13148 13151 13154 13157 13160 13162 13165 13168 13171 13173 13176 13179 13182 13185 13188 13191 13193 13196 13199 13202 13205 13208 13211 13214 13217 13220 13223 13226 13229 13232 13235 13238 13241 13244 13247 13250 13253 13256 13259 13262 13265 13268 13271 13274 13277 13280 13283 13286 13288 13291 13294 13297 13300 13303 13305 13308 13311 13313 13315 13318 13321 13324 13327 13329 13332 13335 13338 13341 13344 13346 13349 13352 13355 13358 13361 13364 13367 13370 13373 13376 13379 13382 13385 13388 13391 13394 13396 13399 13402 13405 13408 13411 13414 13417 13420 13422 13424 13427 13430 13433 13436 13439 13442 13444 13447 13450 13453 13456 13458 13461 13464 13467 13470 13473 13476 13479 13482 13485 13488 13491 13494 13497 13500 13503 13506 13509 13512 13515 13518 13521 13524 13527 13530 13532 13535 13538 13540 13543 13546 13549 13552 13555 13558 13561 13564 13567 13570 13573 13576 13579 13582 13585 13588 13591 13594 13597 13600 13603 13606 13609 13612 13615 13618 13621 13623 13626 13628 13631 13634 13637 13640 13643 13645 13648 13651 13654 13657 13660 13663 13666 13669 13672 13675 13678 13681 13684 13687 13690 13693 13696 13699 13702 13705 13707 13709 13712 13714 13717 13720 13723 13726 13729 13732 13735 13738 13741 13744 13747 13750 13753 13756 13759 13762 13764 13767 13770 13773 13775 13778 13781 13784 13787 13790 13793 13796 13799 13802 13805 13808 13811 13814 13816 13819 13822 13825 13828 13831 13834 13837 13840 13843 13846 13849 13852 13855 13858 13861 13864 13867 13870 13873 13876 13879 13882 13884 13887 13890 13893 13896 13899 13902 13905 13908 13911 13914 13917 13920 13923 13925 13928 13930 13933 13936 13938 13940 13943 13946 13949 13952 13955 13958 13961 13964 13967 13970 13973 13976 13979 13982 13985 13988 13991 13994 13997 14000 14002 14005 14008 14010 14013 14016 14019 14021 14024 14027 14030 14033 14036 14039 14041 14044 14047 14050 14052 14055 14058 14061 14064 14067 14070 14073 14076 14078 14081 14084 14086 14089 14092 14094 14097 14099 14102 14105 14108 14111 14113 14115 14118 14121 14123 14125 14128 14131 14133 14136 14139 14142 14145 14147 14150 14153 14155 14157 14160 14162 14165 14168 14171 14174 14177 14180 14183 14186 14189 14192 14195 14198 14201 14204 14207 14210 14213 14216 14219 14222 14224 14227 14230 14233 14236 14238 14241 14244 14247 14250 14252 14254 14257 14260 14263 14266 14269 14272 14275 14278 14281 14284 14287 14290 14292 14295 14298 14301 14303 14306 14309 14312 14315 14318 14321 14324 14326 14329 14332 14335 14337 14340 14343 14345 14347 14350 14353 14356 14358 14361 14364 14367 14369 14372 14375 14378 14381 14384 14387 14390 14393 14396 14399 14402 14405 14408 14411 14414 14417 14420 14423 14425 14428 14431 14434 14437 14440 14443 14446 14449 14452 14455 14458 14461 14464 14467 14470 14473 14476 14479 14481 14483 14486 14489 14492 14495 14498 14500 14502 14505 14507 14510 14513 14516 14519 14522 14525 14528 14531 14534 14536 14539 14542 14545 14547 14550 14553 14556 14559 14562 14565 14568 14571 14574 14577 14580 14583 14586 14589 14591 14594 14597 14600 14603 14606 14609 14612 14614 14617 14620 14622 14625 14628 14631 14634 14637 14640 14642 14645 14648 14651 14654 14656 14659 14662 14665 14668 14671 14674 14676 14679 14682 14685 14688 14691 14694 14697 14700 14702 14704 14707 14710 14713 14715 14717 14720 14723 14726 14729 14732 14734 14737 14740 14743 14746 14749 14752 14754 14757 14760 14763 14766 14768 14771 14774 14777 14780 14783 14785 14788 14791 14794 14797 14799 14802 14805 14808 14811 14814 14817 14820 14823 14826 14829 14832 14835 14838 14841 14844 14847 14850 14853 14856 14859 14862 14865 14868 14871 14874 14876 14879 14882 14885 14888 14890 14893 14895 14898 14900 14903 14906 14908 14911 14914 14916 14919 14922 14924 14927 14930 14933 14936 14939 14942 14944 14947 14950 14952 14955 14957 14959 14961 14964 14967 14969 14972 14974 14976 14979 14982 14985 14987 14990 14992 14995 14998 15001 15004 15007 15010 15012 15015 15018 15021 15023 15026 15029 15032 15035 15038 15041 15044 15046 15049 15052 15055 15057 15060 15062 15064 15067 15070 15073 15076 15079 15082 15085 15087 15090 15093 15096 15099 15102 15105 15108 15111 15113 15115 15118 15121 15124 15127 15129 15132 15135 15137 15140 15143 15146 15148 15151 15154 15157 15159 15161 15164 15167 15170 15173 15175 15178 15181 15184 15187 15190 15192 15194 15197 15200 15203 15206 15209 15212 15215 15218 15221 15224 15227 15230 15233 15236 15239 15242 15245 15248 15251 15254 15257 15260 15263 15266 15269 15272 15275 15278 15281 15284 15287 15289 15292 15295 15298 15300 15303 15306 15309 15312 15315 15318 15321 15324 15327 15330 15333 15336 15339 15342 15345 15347 15350 15352 15354 15357 15360 15362 15365 15368 15371 15374 15377 15380 15383 15386 15389 15392 15395 15398 15401 15404 15407 15410 15413 15416 15419 15422 15425 15428 15431 15433 15436 15439 15441 15443 15446 15449 15452 15455 15458 15461 15464 15466 15469 15472 15475 15477 15480 15483 15486 15489 15491 15493 15496 15499 15502 15505 15508 15511 15514 15516 15519 15522 15525 15528 15530 15533 15536 15539 15542 15544 15547 15550 15553 15556 15559 15562 15565 15568 15571 15574 15577 15580 15583 15586 15589 15592 15595 15598 15601 15603 15606 15609 15612 15615 15618 15621 15624 15627 15630 15633 15636 15639 15642 15645 15648 15651 15653 15656 15659 15662 15664 15667 15670 15673 15676 15679 15682 15685 15688 15691 15693 15696 15699 15702 15705 15708 15711 15714 15717 15720 15723 15726 15729 15732 15735 15738 15741 15744 15747 15750 15753 15756 15758 15761 15764 15767 15770 15773 15776 15779 15782 15785 15788 15791 15794 15797 15800 15803 15806 15809 15811 15814 15817 15820 15823 15826 15828 15831 15834 15837 15840 15843 15846 15849 15852 15855 15858 15861 15864 15867 15870 15873 15876 15879 15882 15885 15888 15891 15894 15897 15900 15903 15906 15909 15911 15914 15917 15919 15922 15925 15928 15930 15933 15936 15939 15942 15945 15948 15951 15954 15957 15960 15963 15966 15969 15972 15975 15977 15980 15982 15985 15988 15991 15994 15997 16000 16003 16006 16009 16011 16014 16017 16020 16023 16026 16029 16032 16035 16038 16040 16042 16045 16048 16051 16054 16057 16060 16063 16066 16069 16072 16075 16078 16081 16084 16087 16090 16093 16096 16099 16102 16105 16108 16111 16114 16117 16120 16123 16126 16129 16132 16135 16138 16141 16144 16147 16150 16153 16156 16159 16162 16165 16168 16171 16174 16177 16180 16183 16186 16189 16192 16195 16198 16201 16204 16207 16210 16213 16216 16219 16222 16225 16228 16231 16234 16237 16240 16243 16246 16249 16252 16255 16257 16260 16263 16266 16269 16272 16275 16277 16280 16283 16286 16289 16292 16295 16298 16301 16304 16306 16309 16311 16314 16317 16320 16323 16326 16329 16332 16335 16338 16341 16344 16347 16350 16353 16356 16359 16362 16365 16368 16371 16374 16377 16380 16383 16386 16389 16392 16395 16398 16401 16404 16407 16410 16413 16415 16418 16421 16424 16426 16428 16431 16434 16437 16440 16443 16446 16449 16452 16455 16458 16461 16464 16467 16470 16473 16476 16479 16482 16485 16488 16491 16494 16496 16498 16501 16504 16507 16510 16513 16516 16519 16522 16524 16527 16530 16533 16536 16539 16542 16544 16547 16550 16553 16556 16559 16561 16564 16567 16570 16573 16575 16578 16581 16584 16586 16589 16592 16595 16597 16600 16603 16605 16608 16611 16614 16617 16620 16623 16626 16629 16632 16635 16638 16641 16644 16646 16649 16652 16655 16658 16661 16664 16667 16670 16672 16675 16678 16681 16684 16687 16690 16693 16696 16699 16702 16705 16707 16710 16713 16716 16718 16721 16724 16727 16730 16732 16735 16738 16741 16744 16747 16750 16753 16756 16758 16761 16763 16766 16769 16771 16774 16777 16780 16783 16786 16788 16791 16794 16797 16800 16803 16806 16809 16812 16815 16818 16821 16824 16826 16829 16832 16835 16838 16841 16844 16847 16850 16853 16855 16858 16861 16864 16867 16870 16873 16875 16878 16881 16884 16887 16890 16893 16896 16898 16901 16904 16907 16910 16913 16915 16918 16921 16924 16927 16930 16933 16936 16939 16942 16945 16948 16951 16954 16957 16960 16963 16966 16969 16972 16975 16978 16981 16984 16987 16990 16993 16996 16999 17002 17005 17008 17011 17014 17017 17020 17023 17026 17029 17032 17035 17038 17041 17044 17047 17050 17053 17056 17058 17061 17063 17066 17069 17072 17075 17078 17081 17084 17087 17090 17093 17096 17099 17102 17105 17107 17110 17113 17116 17119 17122 17125 17128 17131 17134 17137 17140 17143 17146 17149 17152 17154 17157 17160 17162 17165 17167 17170 17173 17176 17179 17182 17184 17187 17190 17193 17196 17199 17202 17205 17208 17211 17214 17217 17220 17223 17226 17229 17232 17235 17238 17241 17244 17246 17249 17252 17255 17258 17261 17264 17267 17270 17273 17276 17279 17281 17284 17286 17289 17292 17294 17297 17299 17302 17305 17308 17311 17314 17317 17320 17322 17325 17327 17330 17333 17336 17339 17341 17344 17347 17350 17353 17355 17357 17360 17363 17365 17368 17371 17374 17377 17380 17383 17386 17389 17392 17395 17398 17401 17404 17407 17410 17413 17415 17418 17421 17424 17427 17430 17433 17436 17439 17442 17445 17448 17451 17454 17457 17459 17462 17464 17467 17470 17473 17476 17479 17482 17485 17487 17490 17492 17495 17498 17501 17504 17507 17510 17513 17516 17519 17521 17523 17526 17529 17532 17534 17537 17540 17543 17546 17548 17551 17553 17556 17559 17561 17564 17566 17568 17570 17573 17576 17578 17581 17584 17587 17589 17591 17593 17596 17599 17602 17605 17608 17611 17614 17617 17620 17623 17626 17628 17631 17634 17637 17640 17643 17646 17648 17651 17654 17657 17659 17662 17665 17668 17671 17674 17677 17680 17683 17685 17688 17691 17694 17696 17699 17702 17705 17708 17711 17714 17717 17720 17723 17726 17729 17732 17735 17738 17741 17744 17747 17750 17753 17756 17759 17762 17765 17768 17771 17774 17777 17780 17783 17786 17789 17792 17795 17798 17801 17804 17807 17810 17813 17816 17819 17822 17825 17828 17831 17834 17837 17840 17843 17846 17849 17852 17855 17858 17861 17864 17867 17870 17873 17876 17878 17881 17884 17887 17890 17893 17895 17898 17901 17904 17907 17909 17912 17915 17918 17920 17923 17926 17929 17932 17935 17938 17941 17944 17947 17950 17953 17956 17959 17962 17965 17968 17971 17974 17977 17980 17983 17986 17989 17992 17995 17998 18001 18004 18007 18010 18013 18016 18019 18022 18025 18028 18031 18034 18037 18040 18042 18045 18048 18050 18053 18056 18059 18062 18065 18068 18071 18073 18076 18079 18082 18085 18088 18091 18094 18097 18100 18103 18106 18108 18111 18114 18116 18119 18121 18124 18127 18130 18132 18135 18138 18141 18144 18147 18150 18153 18156 18158 18161 18164 18167 18170 18172 18175 18178 18181 18184 18186 18189 18191 18194 18197 18200 18203 18206 18209 18212 18215 18218 18221 18224 18227 18229 18232 18234 18237 18240 18243 18246 18249 18252 18255 18258 18261 18264 18267 18270 18273 18275 18278 18281 18284 18287 18290 18293 18296 18299 18302 18304 18307 18310 18313 18315 18318 18321 18324 18327 18330 18333 18336 18339 18342 18345 18348 18351 18354 18357 18360 18363 18366 18369 18372 18375 18378 18381 18384 18387 18390 18393 18396 18399 18402 18405 18408 18411 18414 18417 18420 18422 18425 18428 18430 18433 18436 18439 18442 18444 18447 18450 18453 18456 18459 18462 18465 18468 18471 18474 18477 18480 18483 18486 18489 18491 18494 18497 18500 18503 18506 18509 18512 18515 18518 18520 18523 18525 18528 18531 18534 18537 18540 18543 18546 18548 18551 18554 18557 18560 18563 18566 18569 18572 18575 18578 18581 18584 18587 18590 18592 18595 18598 18601 18604 18607 18610 18613 18616 18619 18622 18625 18627 18630 18633 18636 18639 18642 18645 18648 18651 18654 18657 18660 18663 18666 18669 18672 18675 18678 18681 18684 18687 18690 18693 18696 18698 18701 18703 18706 18709 18712 18715 18718 18721 18723 18726 18728 18731 18734 18737 18739 18742 18745 18748 18750 18753 18756 18759 18761 18764 18767 18769 18772 18775 18778 18781 18784 18787 18790 18792 18795 18798 18801 18804 18807 18810 18813 18815 18818 18821 18824 18827 18830 18833 18836 18839 18842 18845 18848 18851 18854 18856 18859 18862 18865 18868 18871 18874 18877 18880 18882 18885 18888 18891 18894 18897 18900 18903 18906 18909 18912 18915 18918 18921 18924 18927 18930 18933 18936 18939 18942 18944 18947 18950 18953 18956 18959 18962 18965 18968 18971 18974 18977 18980 18983 18986 18989 18992 18995 18998 19001 19004 19007 19010 19013 19016 19019 19022 19025 19028 19031 19034 19037 19040 19043 19046 19049 19052 19055 19058 19061 19064 19067 19070 19073 19076 19079 19082 19085 19088 19091 19094 19096 19099 19101 19104 19107 19110 19112 19115 19118 19120 19122 19125 19127 19130 19133 19136 19139 19142 19145 19148 19151 19154 19157 19160 19163 19166 19169 19172 19175 19178 19181 19184 19187 19190 19193 19196 19199 19202 19205 19208 19211 19214 19217 19220 19223 19226 19229 19232 19234 19237 19240 19243 19246 19248 19251 19254 19256 19259 19262 19265 19267 19270 19273 19276 19279 19281 19284 19286 19288 19291 19294 19297 19300 19302 19305 19308 19311 19313 19316 19319 19322 19324 19327 19330 19333 19336 19339 19342 19344 19347 19350 19353 19356 19359 19362 19365 19368 19371 19374 19377 19380 19383 19386 19389 19392 19395 19398 19401 19404 19406 19409 19412 19415 19418 19421 19424 19427 19430 19433 19436 19439 19442 19445 19448 19451 19454 19457 19460 19462 19465 19468 19470 19473 19476 19478 19481 19484 19487 19490 19493 19496 19499 19502 19505 19508 19511 19513 19516 19519 19522 19525 19527 19530 19533 19536 19539 19541 19544 19547 19550 19552 19555 19558 19561 19564 19567 19570 19573 19576 19579 19582 19585 19588 19591 19594 19597 19600 19603 19606 19609 19612 19615 19618 19621 19624 19627 19629 19632 19635 19638 19641 19644 19647 19650 19653 19655 19658 19661 19664 19666 19669 19672 19675 19678 19681 19684 19687 19690 19693 19696 19699 19702 19705 19708 19711 19714 19717 19720 19723 19726 19729 19732 19735 19738 19740 19743 19746 19749 19751 19754 19757 19760 19763 19766 19769 19772 19775 19777 19780 19783 19785 19788 19791 19794 19797 19799 19802 19805 19808 19811 19814 19817 19820 19822 19825 19827 19830 19833 19835 19838 19841 19843 19845 19848 19851 19854 19857 19860 19863 19866 19869 19872 19875 19878 19881 19884 19887 19890 19893 19896 19899 19902 19905 19908 19910 19913 19916 19919 19922 19924 19927 19930 19933 19936 19939 19942 19945 19948 19951 19954 19957 19960 19963 19965 19968 19971 19973 19976 19979 19982 19985 19988 19991 19994 19997 20000 20003 20006 20009 20012 20015 20018 20021 20024 20027 20030 20033 20036 20039 20042 20045 20048 20051 20054 20057 20060 20063 20066 20069 20072 20075 20078 20081 20084 20087 20090 20093 20096 20099 20102 20105 20108 20111 20114 20117 20120 20123 20126 20129 20132 20135 20138 20141 20144 20147 20150 20153 20156 20159 20162 20165 20168 20171 20174 20177 20180 20183 20186 20189 20192 20195 20198 20201 20204 20207 20210 20213 20216 20219 20222 20225 20228 20231 20234 20237 20240 20243 20246 20249 20252 20255 20258 20261 20264 20267 20270 20273 20276 20279 20282 20285 20288 20291 20294 20297 20300 20303 20306 20309 20312 20315 20318 20321 20324 20327 20330 20333 20336 20339 20342 20345 20348 20351 20354 20357 20359 20362 20365 20368 20371 20374 20377 20380 20382 20385 20388 20391 20394 20397 20400 20403 20406 20409 20411 20414 20416 20419 20422 20425 20427 20430 20433 20435 20438 20441 20444 20447 20450 20453 20456 20459 20462 20465 20468 20471 20474 20477 20480 20483 20486 20489 20492 20495 20498 20501 20504 20507 20510 20513 20516 20519 20522 20525 20528 20531 20534 20537 20540 20543 20546 20548 20551 20554 20556 20558 20561 20564 20566 20569 20572 20574 20577 20580 20583 20585 20588 20591 20594 20597 20600 20603 20606 20609 20612 20614 20617 20620 20623 20626 20629 20632 20634 20637 20640 20643 20646 20649 20652 20655 20658 20661 20664 20667 20670 20673 20676 20679 20682 20685 20688 20691 20694 20697 20700 20703 20706 20709 20712 20715 20718 20721 20724 20727 20729 20732 20735 20738 20741 20744 20747 20750 20753 20756 20759 20762 20765 20768 20771 20774 20777 20780 20783 20786 20789 20792 20795 20798 20801 20804 20807 20810 20813 20816 20819 20822 20825 20828 20831 20834 20837 20840 20843 20846 20849 20852 20855 20858 20861 20864 20867 20869 20872 20874 20877 20880 20883 20886 20888 20891 20894 20897 20900 20902 20905 20908 20911 20914 20916 20919 20922 20925 20928 20931 20934 20937 20940 20942 20945 20948 20950 20953 20955 20958 20961 20964 20967 20969 20972 20975 20977 20979 20982 20985 20988 20991 20994 20997 20999 21002 21005 21008 21011 21014 21017 21020 21023 21026 21029 21031 21033 21036 21039 21042 21045 21048 21050 21053 21056 21058 21061 21064 21067 21070 21072 21075 21078 21080 21083 21086 21089 21092 21095 21098 21101 21104 21107 21110 21113 21116 21119 21122 21125 21128 21131 21134 21137 21140 21143 21146 21149 21152 21155 21158 21161 21164 21167 21169 21172 21174 21177 21180 21183 21186 21189 21192 21195 21198 21201 21204 21207 21210 21213 21215 21218 21221 21224 21227 21229 21231 21234 21237 21240 21243 21246 21249 21252 21255 21258 21261 21264 21267 21270 21273 21276 21279 21282 21285 21288 21291 21294 21297 21300 21303 21306 21309 21312 21315 21318 21321 21324 21327 21330 21333 21336 21339 21342 21345 21348 21351 21354 21357 21359 21362 21365 21368 21370 21373 21376 21379 21382 21385 21388 21391 21394 21397 21400 21403 21406 21409 21412 21415 21418 21421 21424 21427 21430 21432 21435 21438 21440 21443 21446 21449 21452 21455 21458 21461 21464 21467 21469 21472 21475 21478 21481 21484 21486 21489 21492 21495 21498 21501 21503 21506 21508 21511 21514 21517 21520 21523 21526 21529 21532 21535 21538 21541 21544 21547 21549 21552 21555 21558 21560 21562 21565 21568 21571 21574 21577 21580 21583 21586 21588 21591 21594 21596 21599 21602 21604 21606 21609 21612 21615 21618 21621 21623 21626 21629 21632 21635 21638 21641 21644 21646 21649 21652 21654 21656 21659 21662 21665 21668 21671 21674 21676 21678 21681 21684 21687 21689 21692 21695 21698 21701 21704 21707 21710 21712 21715 21718 21721 21724 21727 21730 21733 21736 21739 21742 21745 21748 21751 21754 21757 21760 21763 21766 21769 21772 21775 21778 21781 21784 21787 21790 21792 21795 21798 21801 21804 21807 21810 21813 21815 21818 21821 21824 21827 21830 21833 21836 21839 21842 21845 21848 21850 21853 21856 21859 21862 21865 21868 21871 21874 21876 21879 21882 21885 21888 21891 21894 21897 21900 21903 21906 21909 21912 21915 21918 21921 21924 21926 21929 21932 21935 21937 21940 21943 21946 21949 21952 21954 21957 21960 21963 21966 21969 21972 21975 21978 21981 21984 21987 21990 21993 21996 21998 22001 22004 22007 22010 22012 22015 22018 22020 22023 22026 22029 22032 22035 22037 22040 22043 22046 22049 22052 22055 22058 22061 22064 22067 22070 22073 22076 22079 22081 22084 22086 22089 22092 22095 22097 22100 22102 22105 22107 22110 22113 22116 22119 22122 22125 22127 22129 22132 22135 22138 22141 22144 22147 22149 22152 22154 22157 22160 22163 22166 22169 22172 22175 22178 22181 22184 22187 22190 22193 22196 22199 22202 22205 22207 22210 22213 22216 22218 22220 22223 22226 22229 22232 22235 22237 22240 22243 22245 22247 22250 22253 22256 22259 22262 22265 22268 22271 22274 22277 22280 22283 22286 22289 22292 22295 22298 22301 22304 22307 22310 22313 22316 22319 22322 22325 22328 22331 22334 22337 22340 22343 22346 22349 22352 22355 22358 22361 22364 22367 22370 22373 22376 22379 22381 22384 22387 22389 22391 22393 22396 22399 22402 22405 22408 22411 22413 22416 22419 22422 22425 22428 22431 22434 22437 22440 22442 22445 22448 22451 22453 22456 22459 22462 22465 22468 22471 22474 22477 22480 22483 22486 22489 22492 22495 22498 22501 22504 22507 22510 22513 22515 22518 22521 22524 22527 22529 22532 22535 22538 22541 22544 22547 22550 22553 22556 22559 22562 22565 22568 22571 22574 22577 22580 22583 22586 22589 22592 22595 22598 22601 22604 22607 22610 22613 22616 22619 22622 22625 22628 22631 22633 22636 22638 22641 22644 22647 22650 22653 22656 22659 22662 22664 22667 22670 22673 22675 22678 22680 22683 22686 22689 22692 22695 22698 22701 22704 22706 22709 22712 22715 22718 22720 22723 22726 22729 22732 22734 22737 22740 22743 22746 22749 22752 22755 22757 22760 22763 22766 22769 22771 22774 22777 22780 22783 22786 22789 22792 22795 22798 22801 22804 22807 22810 22813 22816 22819 22822 22825 22828 22831 22834 22837 22840 22843 22846 22849 22852 22855 22858 22861 22864 22867 22870 22873 22876 22879 22882 22885 22888 22891 22894 22897 22900 22903 22906 22909 22911 22914 22917 22920 22923 22925 22927 22930 22933 22935 22937 22940 22943 22946 22949 22952 22955 22958 22961 22964 22967 22970 22973 22976 22979 22982 22985 22988 22991 22994 22996 22999 23002 23005 23007 23009 23012 23015 23018 23021 23024 23027 23030 23033 23036 23039 23042 23045 23048 23051 23054 23057 23060 23063 23066 23069 23072 23075 23078 23081 23084 23087 23090 23092 23095 23098 23101 23104 23107 23110 23113 23115 23118 23121 23124 23127 23130 23133 23136 23139 23142 23145 23148 23151 23154 23157 23160 23162 23165 23168 23171 23174 23177 23180 23183 23186 23188 23191 23193 23195 23198 23201 23204 23207 23210 23213 23216 23219 23222 23225 23228 23231 23233 23236 23239 23242 23245 23248 23251 23254 23257 23260 23263 23266 23269 23272 23275 23278 23281 23284 23287 23289 23292 23295 23298 23300 23303 23306 23309 23312 23315 23318 23321 23324 23326 23329 23332 23335 23338 23341 23344 23347 23350 23353 23356 23359 23362 23365 23368 23371 23373 23376 23379 23382 23384 23387 23390 23393 23396 23399 23402 23405 23408 23411 23414 23417 23420 23423 23426 23429 23432 23435 23438 23441 23444 23447 23450 23453 23456 23459 23462 23465 23468 23471 23474 23477 23480 23483 23485 23488 23490 23493 23496 23499 23502 23505 23508 23511 23514 23516 23519 23522 23525 23528 23531 23534 23537 23540 23543 23545 23548 23551 23553 23556 23559 23562 23565 23568 23570 23573 23576 23579 23582 23584 23587 23590 23593 23596 23598 23601 23604 23607 23609 23612 23614 23617 23620 23622 23625 23628 23631 23634 23637 23640 23643 23646 23649 23652 23655 23658 23661 23664 23666 23669 23672 23674 23677 23679 23682 23685 23688 23690 23693 23696 23698 23701 23704 23707 23710 23712 23715 23717 23720 23723 23726 23729 23732 23735 23737 23740 23742 23745 23748 23751 23754 23757 23759 23762 23765 23768 23771 23773 23776 23779 23782 23785 23788 23791 23793 23796 23799 23802 23805 23808 23811 23814 23817 23820 23823 23826 23829 23832 23835 23838 23841 23844 23847 23850 23853 23856 23859 23862 23865 23868 23871 23874 23877 23880 23883 23886 23889 23892 23894 23896 23899 23902 23905 23908 23911 23914 23917 23920 23923 23926 23928 23931 23934 23936 23938 23941 23943 23946 23949 23952 23955 23958 23961 23964 23966 23969 23972 23975 23978 23981 23984 23987 23990 23993 23996 23999 24002 24004 24007 24010 24013 24016 24018 24021 24024 24027 24030 24033 24036 24039 24042 24045 24048 24051 24054 24056 24059 24062 24065 24068 24071 24074 24077 24080 24083 24086 24089 24092 24095 24098 24101 24104 24107 24109 24112 24115 24118 24121 24124 24126 24129 24132 24135 24137 24140 24143 24146 24149 24152 24155 24157 24160 24162 24165 24168 24171 24173 24176 24179 24182 24185 24188 24191 24194 24197 24200 24202 24205 24208 24210 24213 24216 24219 24222 24225 24228 24231 24233 24236 24239 24242 24245 24248 24251 24254 24257 24260 24263 24266 24269 24272 24274 24277 24280 24282 24285 24288 24291 24294 24297 24300 24302 24305 24308 24311 24314 24317 24320 24322 24325 24328 24331 24334 24337 24340 24343 24345 24348 24351 24354 24357 24360 24363 24366 24369 24372 24375 24378 24381 24384 24387 24390 24393 24396 24399 24402 24405 24408 24411 24413 24416 24419 24422 24425 24428 24431 24434 24437 24440 24443 24445 24448 24451 24454 24457 24459 24461 24464 24467 24470 24473 24475 24478 24481 24484 24487 24490 24493 24496 24499 24502 24504 24507 24510 24513 24516 24519 24522 24525 24528 24531 24534 24537 24539 24542 24545 24548 24550 24553 24556 24559 24561 24564 24567 24570 24573 24576 24579 24582 24585 24588 24591 24594 24597 24599 24602 24605 24608 24611 24614 24616 24619 24622 24624 24627 24630 24633 24636 24639 24642 24645 24648 24651 24654 24657 24660 24663 24666 24668 24671 24674 24677 24680 24683 24686 24689 24691 24694 24697 24700 24702 24705 24708 24711 24714 24717 24719 24722 24725 24728 24731 24734 24737 24740 24743 24746 24748 24751 24754 24757 24760 24763 24766 24769 24772 24774 24777 24780 24783 24786 24789 24791 24794 24797 24800 24803 24806 24809 24812 24814 24817 24820 24823 24826 24829 24832 24835 24838 24841 24844 24847 24850 24853 24856 24859 24862 24865 24868 24871 24874 24877 24880 24883 24886 24889 24892 24895 24898 24901 24904 24907 24910 24913 24916 24919 24922 24925 24928 24931 24934 24937 24940 24943 24946 24949 24952 24955 24958 24960 24963 24966 24969 24972 24975 24978 24981 24983 24986 24989 24992 24995 24998 25001 25004 25007 25010 25013 25016 25019 25022 25025 25028 25031 25034 25037 25040 25043 25046 25049 25051 25053 25056 25059 25061 25063 25066 25069 25072 25075 25078 25081 25084 25086 25089 25092 25095 25098 25101 25104 25107 25110 25113 25116 25119 25122 25125 25128 25130 25133 25136 25139 25142 25145 25148 25151 25154 25156 25159 25162 25164 25167 25170 25173 25175 25178 25181 25184 25187 25190 25193 25196 25199 25202 25205 25208 25211 25214 25217 25220 25223 25226 25229 25232 25235 25238 25241 25244 25247 25250 25253 25256 25259 25261 25264 25267 25270 25273 25276 25279 25282 25285 25287 25290 25293 25296 25299 25302 25305 25307 25309 25312 25315 25318 25321 25323 25326 25329 25331 25334 25337 25339 25342 25345 25348 25351 25354 25357 25359 25362 25365 25368 25371 25374 25377 25380 25383 25385 25388 25391 25394 25397 25400 25403 25406 25409 25412 25415 25418 25420 25423 25426 25428 25431 25434 25437 25440 25443 25446 25449 25451 25454 25457 25460 25462 25465 25467 25470 25472 25475 25478 25481 25484 25487 25490 25493 25496 25499 25502 25505 25508 25511 25514 25517 25520 25523 25525 25528 25530 25533 25536 25539 25542 25545 25548 25551 25554 25557 25560 25562 25565 25568 25571 25574 25577 25580 25583 25585 25588 25591 25594 25596 25599 25601 25603 25606 25609 25611 25614 25617 25620 25623 25625 25628 25631 25634 25636 25639 25642 25645 25647 25650 25652 25654 25657 25660 25663 25666 25669 25672 25674 25677 25680 25683 25686 25689 25692 25695 25698 25700 25702 25704 25707 25709 25712 25715 25717 25719 25722 25725 25727 25730 25733 25736 25739 25742 25745 25748 25751 25754 25757 25760 25762 25765 25768 25771 25774 25777 25780 25783 25786 25789 25792 25795 25798 25801 25803 25805 25808 25811 25814 25817 25819 25822 25825 25828 25830 25833 25836 25839 25842 25845 25847 25849 25852 25855 25858 25860 25863 25866 25869 25872 25875 25878 25881 25884 25887 25890 25893 25896 25899 25902 25905 25907 25910 25913 25916 25918 25921 25924 25927 25929 25932 25935 25938 25941 25944 25947 25949 25952 25955 25958 25961 25964 25966 25969 25972 25975 25978 25981 25984 25987 25990 25992 25995 25998 26001 26004 26007 26010 26013 26016 26019 26021 26024 26027 26030 26033 26035 26038 26040 26043 26046 26048 26051 26053 26056 26059 26062 26065 26068 26071 26073 26076 26078 26080 26083 26086 26089 26092 26095 26098 26101 26104 26106 26109 26111 26114 26116 26119 26121 26124 26127 26130 26133 26136 26139 26142 26145 26148 26151 26154 26156 26159 26162 26165 26167 26170 26173 26176 26179 26182 26185 26188 26191 26193 26196 26199 26202 26205 26208 26211 26214 26217 26220 26222 26225 26228 26231 26234 26236 26239 26242 26244 26247 26250 26253 26256 26259 26262 26265 26268 26271 26273 26276 26279 26282 26284 26287 26290 26293 26296 26299 26302 26305 26308 26311 26314 26317 26320 26323 26326 26329 26332 26335 26338 26341 26343 26346 26349 26352 26355 26358 26361 26364 26367 26370 26373 26375 26378 26381 26384 26387 26390 26393 26396 26399 26402 26405 26408 26411 26414 26417 26420 26423 26426 26429 26432 26435 26438 26441 26444 26447 26450 26453 26456 26459 26462 26465 26468 26471 26474 26477 26480 26483 26486 26489 26492 26495 26498 26501 26504 26507 26510 26512 26514 26517 26520 26523 26526 26529 26532 26535 26538 26541 26544 26547 26550 26553 26555 26557 26560 26563 26566 26568 26571 26574 26576 26579 26582 26585 26587 26590 26593 26596 26598 26601 26604 26607 26610 26613 26616 26619 26622 26624 26627 26630 26632 26635 26637 26639 26642 26645 26648 26651 26654 26657 26659 26662 26664 26666 26668 26671 26674 26676 26679 26682 26684 26686 26689 26692 26695 26698 26701 26704 26707 26710 26713 26716 26719 26722 26725 26728 26731 26734 26737 26740 26743 26746 26749 26751 26754 26757 26760 26763 26766 26769 26772 26775 26778 26780 26783 26786 26789 26792 26795 26798 26801 26803 26805 26808 26811 26814 26817 26820 26823 26826 26829 26832 26835 26838 26841 26844 26847 26850 26853 26856 26859 26862 26865 26868 26871 26874 26876 26879 26881 26884 26887 26890 26893 26896 26899 26902 26904 26907 26910 26913 26915 26917 26920 26923 26925 26928 26931 26934 26937 26939 26942 26945 26948 26950 26953 26956 26959 26961 26964 26967 26970 26973 26976 26979 26982 26985 26988 26990 26992 26995 26998 27001 27004 27007 27009 27012 27015 27017 27019 27021 27024 27027 27030 27033 27036 27038 27041 27044 27047 27050 27053 27056 27059 27062 27065 27067 27070 27072 27075 27078 27081 27084 27087 27090 27093 27096 27099 27102 27105 27108 27111 27114 27117 27120 27123 27126 27129 27132 27135 27138 27141 27144 27146 27149 27152 27155 27158 27160 27162 27165 27168 27171 27173 27176 27179 27182 27185 27188 27191 27194 27197 27200 27203 27206 27209 27212 27215 27218 27221 27223 27226 27229 27232 27234 27237 27240 27242 27245 27248 27251 27254 27257 27260 27263 27266 27269 27272 27275 27278 27281 27283 27286 27289 27291 27294 27297 27300 27302 27305 27307 27310 27312 27315 27317 27319 27321 27324 27327 27330 27333 27336 27339 27342 27345 27347 27350 27353 27356 27359 27362 27365 27368 27371 27373 27376 27379 27381 27384 27387 27390 27393 27396 27399 27402 27405 27408 27411 27414 27417 27420 27423 27426 27429 27432 27435 27438 27441 27444 27446 27449 27452 27455 27458 27461 27464 27467 27470 27473 27476 27478 27481 27483 27486 27489 27491 27494 27496 27499 27501 27504 27507 27509 27512 27514 27517 27520 27522 27525 27528 27531 27533 27536 27539 27542 27545 27548 27551 27554 27557 27560 27563 27566 27569 27572 27575 27578 27581 27584 27587 27590 27593 27596 27599 27602 27605 27608 27611 27614 27617 27620 27623 27626 27629 27632 27635 27638 27641 27644 27647 27650 27653 27656 27659 27662 27665 27668 27671 27674 27677 27680 27683 27686 27689 27692 27695 27698 27701 27704 27707 27710 27713 27716 27718 27721 27724 27726 27729 27732 27735 27738 27741 27744 27746 27748 27751 27754 27757 27760 27763 27766 27769 27772 27775 27778 27781 27784 27787 27790 27793 27796 27799 27802 27804 27807 27810 27813 27815 27818 27821 27824 27827 27830 27833 27836 27839 27842 27845 27848 27851 27854 27857 27860 27863 27865 27868 27871 27874 27877 27880 27883 27886 27888 27891 27894 27897 27900 27903 27906 27909 27912 27914 27917 27919 27922 27925 27928 27931 27934 27937 27940 27943 27946 27949 27952 27955 27958 27961 27964 27967 27969 27972 27975 27978 27981 27984 27987 27990 27992 27995 27998 28001 28004 28006 28009 28012 28015 28018 28021 28024 28027 28029 28032 28035 28037 28039 28042 28045 28047 28050 28053 28056 28059 28062 28065 28067 28070 28073 28076 28079 28082 28085 28088 28091 28094 28096 28099 28102 28104 28107 28110 28112 28115 28118 28120 28123 28126 28129 28132 28135 28137 28140 28143 28146 28149 28152 28155 28158 28161 28163 28166 28169 28172 28175 28178 28181 28184 28186 28189 28192 28195 28198 28201 28204 28207 28210 28213 28216 28219 28222 28224 28227 28230 28233 28236 28239 28242 28245 28247 28249 28252 28254 28257 28259 28262 28265 28268 28271 28274 28277 28280 28283 28286 28289 28292 28295 28298 28301 28304 28306 28309 28311 28314 28317 28320 28323 28326 28329 28332 28335 28337 28340 28342 28345 28347 28350 28352 28355 28357 28360 28363 28365 28368 28371 28374 28377 28380 28382 28385 28388 28391 28394 28397 28400 28403 28406 28408 28411 28414 28417 28420 28423 28425 28428 28431 28433 28436 28438 28440 28443 28446 28449 28452 28455 28458 28461 28464 28466 28469 28472 28475 28478 28481 28484 28487 28490 28493 28496 28499 28502 28505 28507 28510 28513 28516 28519 28522 28525 28528 28530 28533 28536 28539 28541 28544 28547 28550 28553 28556 28559 28562 28565 28568 28571 28574 28577 28580 28583 28586 28589 28592 28594 28597 28600 28603 28606 28609 28612 28615 28617 28620 28623 28625 28628 28631 28634 28637 28640 28643 28646 28649 28652 28655 28658 28661 28664 28667 28670 28672 28675 28678 28681 28684 28686 28689 28692 28695 28698 28701 28704 28707 28710 28713 28716 28719 28722 28725 28728 28731 28734 28737 28740 28743 28746 28749 28752 28755 28758 28761 28763 28766 28769 28772 28775 28778 28781 28783 28786 28789 28792 28795 28798 28801 28804 28807 28810 28812 28814 28817 28820 28823 28825 28828 28830 28833 28836 28839 28842 28845 28848 28851 28854 28857 28860 28863 28866 28869 28872 28875 28877 28880 28883 28886 28889 28892 28895 28898 28901 28904 28907 28910 28913 28915 28917 28920 28923 28926 28929 28932 28935 28938 28941 28943 28946 28949 28951 28954 28957 28959 28961 28964 28967 28970 28973 28976 28979 28982 28984 28987 28990 28993 28996 28999 29002 29005 29008 29011 29013 29016 29019 29022 29024 29027 29030 29033 29036 29039 29041 29044 29047 29050 29053 29056 29059 29062 29065 29068 29071 29074 29077 29079 29082 29085 29088 29090 29093 29096 29099 29101 29104 29107 29110 29113 29116 29119 29122 29125 29128 29131 29134 29137 29140 29143 29146 29149 29152 29155 29158 29161 29164 29167 29170 29173 29176 29179 29182 29185 29188 29191 29194 29197 29199 29202 29205 29208 29211 29214 29217 29220 29223 29226 29229 29232 29235 29238 29241 29244 29247 29250 29253 29256 29259 29262 29265 29268 29271 29273 29276 29278 29281 29284 29286 29289 29292 29295 29298 29301 29304 29307 29310 29313 29315 29318 29321 29324 29327 29330 29333 29336 29339 29342 29345 29348 29351 29354 29357 29359 29362 29365 29368 29371 29373 29376 29379 29382 29384 29387 29390 29393 29396 29399 29402 29405 29408 29411 29414 29417 29420 29423 29426 29429 29432 29435 29438 29441 29444 29447 29450 29453 29456 29459 29462 29465 29468 29471 29474 29477 29480 29483 29486 29489 29492 29495 29498 29501 29504 29507 29510 29513 29516 29519 29522 29525 29528 29531 29534 29537 29540 29543 29546 29549 29552 29555 29558 29561 29564 29567 29570 29573 29576 29579 29582 29585 29588 29591 29594 29597 29600 29603 29606 29609 29612 29615 29618 29621 29624 29627 29630 29633 29636 29639 29642 29645 29648 29651 29654 29657 29660 29663 29666 29669 29672 29675 29678 29681 29684 29687 29690 29693 29696 29699 29702 29705 29708 29711 29714 29717 29720 29723 29726 29729 29732 29735 29738 29741 29744 29747 29750 29753 29756 29759 29762 29765 29768 29771 29774 29777 29780 29783 29786 29789 29792 29795 29798 29801 29804 29807 29810 29813 29816 29819 29822 29825 29828 29831 29834 29837 29840 29843 29846 29849 29852 29855 29858 29861 29864 29867 29870 29873 29876 29879 29882 29885 29888 29891 29894 29897 29900 29903 29906 29909 29912 29915 29918 29921 29924 29927 29930 29933 29936 29939 29942 29945 29948 29951 29953 29956 29959 29962 29965 29968 29971 29974 29977 29980 29983 29986 29989 29992 29995 29998 30001 30003 30006 30009 30012 30015 30018 30021 30024 30027 30029 30032 30035 30038 30041 30043 30046 30049 30052 30055 30058 30061 30064 30067 30070 30073 30076 30079 30082 30085 30088 30091 30094 30097 30100 30103 30106 30109 30111 30114 30117 30120 30123 30126 30129 30132 30135 30138 30141 30144 30147 30150 30152 30154 30157 30160 30163 30166 30169 30171 30174 30176 30179 30182 30185 30188 30191 30194 30197 30200 30203 30206 30209 30211 30214 30217 30220 30223 30226 30229 30232 30234 30237 30240 30243 30246 30249 30252 30255 30258 30261 30264 30267 30270 30273 30276 30279 30281 30283 30286 30289 30292 30295 30298 30301 30304 30307 30310 30313 30316 30319 30321 30324 30327 30330 30333 30336 30339 30342 30345 30348 30351 30354 30357 30360 30363 30366 30369 30371 30374 30377 30380 30383 30386 30389 30392 30394 30397 30400 30403 30406 30409 30412 30415 30418 30421 30424 30426 30428 30431 30434 30437 30440 30443 30446 30449 30452 30455 30458 30461 30464 30467 30470 30473 30476 30479 30482 30485 30488 30491 30494 30497 30500 30503 30506 30509 30512 30515 30518 30520 30523 30526 30529 30532 30535 30537 30540 30543 30546 30549 30552 30555 30558 30561 30564 30567 30569 30572 30575 30578 30581 30583 30586 30589 30592 30595 30598 30601 30604 30607 30610 30613 30615 30618 30620 30623 30626 30629 30632 30635 30638 30641 30644 30647 30650 30653 30656 30659 30662 30665 30668 30671 30674 30677 30680 30683 30686 30689 30692 30695 30698 30701 30704 30707 30710 30713 30715 30718 30721 30724 30727 30730 30732 30735 30738 30741 30744 30747 30750 30753 30756 30759 30762 30765 30768 30771 30774 30777 30780 30783 30786 30788 30791 30794 30796 30799 30802 30805 30807 30810 30813 30816 30819 30822 30824 30827 30830 30833 30836 30839 30842 30845 30848 30851 30854 30856 30859 30862 30865 30868 30871 30874 30876 30879 30882 30885 30888 30891 30893 30895 30898 30901 30903 30906 30909 30911 30914 30917 30920 30923 30926 30929 30932 30935 30938 30941 30943 30946 30949 30951 30954 30957 30959 30962 30965 30967 30970 30973 30975 30978 30981 30983 30986 30989 30992 30995 30998 31001 31003 31006 31009 31012 31015 31018 31021 31024 31027 31030 31033 31036 31038 31041 31044 31047 31050 31053 31056 31059 31061 31064 31067 31070 31073 31075 31078 31081 31084 31086 31089 31092 31095 31098 31101 31104 31107 31110 31113 31116 31119 31121 31124 31127 31130 31133 31136 31139 31142 31145 31148 31151 31154 31157 31160 31163 31166 31169 31172 31175 31178 31181 31184 31187 31190 31193 31195 31198 31201 31204 31207 31210 31212 31215 31218 31221 31224 31227 31230 31233 31236 31239 31242 31245 31248 31251 31254 31256 31259 31262 31264 31267 31269 31272 31275 31278 31281 31283 31286 31288 31290 31293 31295 31298 31301 31304 31307 31310 31313 31316 31318 31321 31323 31326 31329 31332 31335 31338 31341 31343 31346 31349 31352 31355 31358 31361 31363 31366 31369 31372 31375 31377 31380 31383 31386 31389 31392 31394 31397 31400 31402 31405 31408 31411 31414 31416 31419 31422 31425 31428 31430 31433 31436 31439 31442 31445 31448 31450 31453 31456 31459 31462 31465 31468 31471 31474 31477 31479 31482 31485 31488 31491 31494 31497 31499 31502 31505 31508 31511 31513 31516 31519 31522 31525 31528 31531 31534 31537 31540 31543 31546 31549 31552 31555 31558 31561 31563 31566 31569 31572 31574 31577 31580 31582 31585 31588 31591 31594 31597 31600 31603 31606 31609 31612 31615 31618 31621 31624 31627 31630 31632 31635 31637 31640 31643 31646 31649 31652 31655 31658 31661 31664 31667 31670 31673 31676 31679 31682 31685 31688 31691 31694 31697 31700 31703 31706 31709 31712 31715 31717 31720 31723 31725 31728 31731 31734 31737 31740 31743 31746 31749 31752 31755 31757 31760 31763 31766 31769 31771 31774 31777 31780 31783 31785 31788 31791 31794 31797 31800 31803 31806 31809 31812 31814 31817 31820 31823 31826 31829 31832 31835 31838 31841 31844 31847 31850 31853 31856 31859 31862 31865 31868 31871 31874 31877 31880 31883 31886 31889 31892 31895 31898 
</DataArray>
<DataArray type="UInt32" Name="types" format="ascii">
5 5 5 5 5 3 5 5 5 5 5 5 5 3 5 5 5 5 3 5 5 3 5 5 5 5 3 5 5 5 5 3 5 5 5 5 5 5 5 5 5 5 5 5 5 3 5 5 3 5 5 5 5 5 3 5 5 5 5 5 5 5 3 5 5 5 5 3 5 5 5 5 5 5 5 5 5 3 5 5 3 5 5 3 5 5 5 5 3 5 5 5 5 5 5 5 3 3 3 5 5 3 5 5 5 5 5 3 5 5 5 5 5 5 5 5 5 5 5 5 5 3 5 5 5 3 5 5 5 5 5 5 3 5 5 5 5 5 5 5 5 5 5 5 5 5 5 5 5 5 5 5 5 5 5 5 5 5 3 5 5 5 3 5 5 3 5 5 5 5 5 5 5 5 5 5 5 3 5 5 5 5 5 5 5 5 3 5 5 5 5 5 5 5 5 3 5 5 5 5 5 5 5 5 5 3 5 5 5 5 5 5 5 5 5 5 5 5 5 5 5 5 5 5 5 5 5 5 5 3 5 5 5 3 5 3 5 3 5 5 3 5 5 5 3 5 3 5 3 5 3 3 5 3 5 5 3 5 3 5 5 5 3 5 3 3 5 5 3 5 5 5 3 5 3 3 3 5 3 5 5 5 3 5 3 3 3 5 5 3 3 5 5 5 5 3 5 3 5 5 3 5 5 5 3 5 3 3 3 5 5 5 3 5 3 3 3 3 5 5 5 3 3 5 5 3 3 3 5 3 5 5 5 5 3 5 5 5 5 5 5 5 3 5 5 5 5 5 5 3 3 5 5 5 3 5 5 5 3 5 3 5 3 3 5 5 5 5 3 5 5 3 5 5 5 5 3 5 3 5 5 5 5 5 3 3 5 5 5 5 5 5 5 5 3 5 5 5 3 5 5 3 5 3 5 5 5 5 5 5 5 5 5 5 5 3 5 3 5 3 5 5 5 3 5 3 5 3 5 5 5 5 5 5 3 5 3 5 5 5 3 5 5 5 3 5 3 3 5 5 5 5 3 5 5 5 5 3 3 5 5 3 5 3 5 3 3 5 5 5 3 5 5 5 5 3 5 5 5 5 5 5 5 5 5 5 5 3 5 5 5 5 3 5 5 5 3 5 3 3 3 5 5 5 3 3 5 3 5 5 3 5 5 5 5 3 5 5 5 5 5 5 5 5 5 5 5 3 3 5 5 3 5 5 5 3 5 5 5 5 5 5 3 5 5 5 3 5 5 5 3 5 5 5 5 5 5 5 5 5 5 5 3 5 5 5 3 5 5 5 5 5 5 5 3 5 5 5 5 5 3 5 5 5 5 5 5 5 5 5 5 5 5 5 5 5 5 5 5 5 3 5 5 5 5 3 5 5 3 5 5 5 5 5 5 5 3 5 5 5 5 5 5 5 5 3 5 3 5 5 3 5 5 5 3 5 5 3 5 5 5 3 5 3 5 5 3 5 3 5 5 5 5 5 5 5 5 5 5 5 5 5 5 5 5 5 5 5 5 5 5 3 5 3 5 3 5 5 5 5 5 5 5 5 5 5 5 5 5 5 5 3 5 5 5 5 5 5 5 5 5 3 5 5 5 5 5 5 5 5 5 5 5 5 5 5 5 5 5 5 5 5 5 5 5 5 5 5 5 5 5 3 5 5 3 5 5 5 3 3 5 3 5 5 5 5 5 3 5 5 5 5 5 3 5 5 5 5 5 5 5 5 5 5 5 5 5 5 5 5 5 5 5 5 5 5 5 5 5 5 5 5 5 5 5 5 5 5 5 5 5 5 5 5 5 5 5 5 5 5 5 5 5 3 5 5 5 5 5 5 5 5 5 5 5 5 5 5 5 3 5 5 5 5 3 5 5 5 5 5 5 5 5 5 5 5 5 5 5 5 5 5 5 5 5 5 5 5 5 5 5 5 3 5 5 3 5 3 3 3 3 5 5 3 5 5 5 5 5 5 5 5 5 5 5 5 5 5 5 5 5 3 5 5 3 5 3 5 5 5 5 3 5 3 5 5 5 5 3 5 5 5 3 5 5 5 5 5 3 5 3 5 5 3 3 5 3 5 5 5 5 5 5 5 5 5 5 5 3 5 5 5 3 5 5 5 3 5 5 3 3 3 5 5 5 5 5 5 5 5 5 5 5 3 5 5 5 5 5 5 5 5 3 3 3 5 5 5 5 5 5 5 5 3 3 5 5 5 3 5 5 3 5 5 5 5 5 5 5 5 5 5 5 3 5 5 5 5 5 5 5 5 3 5 5 5 5 5 5 5 5 5 5 3 5 3 3 3 5 5 5 5 5 5 5 3 3 5 3 5 5 5 5 5 3 5 3 3 5 5 5 3 5 3 5 5 5 5 3 5 5 5 5 5 5 5 5 5 5 5 5 5 5 5 5 5 3 5 5 5 3 5 5 5 5 5 3 5 5 5 5 5 5 3 5 3 5 5 5 5 5 5 5 5 3 5 5 5 3 5 5 5 5 5 5 5 5 5 5 5 5 5 5 5 5 5 5 5 5 5 5 5 5 5 3 3 3 5 5 5 5 3 5 5 5 5 3 5 5 5 5 5 5 5 3 5 5 5 5 5 5 5 5 3 5 5 5 5 5 5 5 5 5 5 5 5 3 5 5 5 5 5 5 3 5 5 5 5 5 5 5 5 3 5 5 5 3 5 5 5 5 5 5 5 5 5 5 5 5 3 5 5 5 5 5 5 5 5 5 5 5 5 5 5 5 5 5 5 5 5 5 5 5 5 5 5 5 5 5 5 5 5 5 5 5 5 5 5 5 5 5 5 5 5 5 5 5 3 5 5 5 5 5 5 5 5 5 5 5 5 5 5 5 5 5 5 5 5 5 5 5 5 3 5 5 5 5 5 5 5 5 5 5 3 5 5 3 5 5 5 5 5 5 5 5 5 3 5 3 5 5 5 5 3 5 5 3 5 3 5 5 5 5 5 3 5 5 5 5 5 5 5 5 3 5 5 5 5 5 5 5 5 5 5 5 5 5 5 3 5 3 3 5 5 5 5 5 3 5 5 5 5 5 5 5 5 5 5 5 5 5 5 5 3 5 5 5 5 5 5 5 5 5 5 5 5 5 5 5 5 3 5 5 5 5 5 3 3 5 5 3 5 5 5 5 5 5 5 5 5 5 3 5 5 5 5 5 5 5 5 5 3 5 3 5 5 5 5 5 3 5 5 5 5 3 5 5 5 3 5 5 5 3 5 5 3 5 5 5 5 5 5 5 5 5 5 5 5 5 5 5 5 3 5 5 5 5 5 5 5 3 5 5 5 5 5 5 5 5 5 5 5 5 5 5 5 5 5 5 5 5 5 5 5 5 5 5 5 3 5 5 5 5 3 5 5 5 3 5 5 5 5 5 5 5 5 5 3 5 3 5 5 5 5 5 5 5 5 5 5 5 5 5 5 5 5 5 5 3 3 5 5 5 3 5 5 3 5 5 3 5 5 5 3 5 5 3 5 5 5 5 5 5 5 5 5 5 5 5 5 5 5 5 5 5 5 5 3 5 3 5 5 5 5 5 5 5 5 5 5 5 3 5 3 5 5 5 3 5 5 5 5 5 3 5 5 5 5 5 5 3 5 5 5 5 5 5 5 5 5 5 5 3 5 5 5 5 5 5 5 5 3 5 5 5 3 5 5 3 5 5 5 5 5 3 5 5 5 5 5 5 5 5 5 3 5 5 3 5 3 5 3 3 3 5 3 5 5 5 5 5 5 3 5 5 5 5 5 5 3 5 5 5 5 5 5 5 3 5 5 5 5 3 5 5 5 5 5 3 5 3 5 5 5 5 5 5 5 5 5 5 3 5 5 5 5 5 5 5 3 5 5 5 5 5 5 5 3 5 3 5 5 5 5 5 5 5 5 3 5 5 5 3 3 5 5 5 5 5 3 3 5 3 5 5 3 5 5 3 5 5 5 5 5 5 5 5 3 5 5 5 5 5 3 5 5 5 5 3 5 5 3 5 5 5 5 5 5 5 5 5 5 5 5 5 5 5 5 5 5 5 5 5 5 5 5 5 5 5 5 5 5 5 5 5 5 5 5 5 5 5 5 5 3 5 5 3 5 5 5 5 5 3 5 5 5 5 3 5 5 5 5 5 5 5 5 5 5 5 5 5 5 5 5 5 5 5 5 5 5 5 5 3 5 5 5 3 5 5 5 5 5 5 3 5 5 5 5 5 5 5 5 5 5 5 3 5 3 3 5 5 3 5 5 5 5 5 5 5 5 5 5 5 3 5 5 3 5 5 5 5 5 5 5 5 5 5 5 5 5 5 5 3 5 5 5 5 5 5 5 3 5 3 5 5 5 5 3 5 3 5 5 5 5 5 5 5 5 5 3 5 5 5 5 5 5 5 5 5 5 5 5 5 5 5 5 5 3 5 5 5 5 5 5 5 5 5 5 5 5 5 5 5 5 5 5 5 5 5 5 5 5 5 3 3 5 5 5 5 5 5 5 5 5 5 5 3 5 5 5 5 3 5 5 5 5 3 5 5 5 5 5 5 5 5 3 5 5 5 5 5 5 5 5 5 3 5 5 5 5 5 5 5 5 5 5 5 5 5 5 5 5 5 5 5 5 3 5 5 5 5 5 5 5 5 5 5 5 5 5 5 3 5 3 5 5 5 5 5 5 5 5 3 5 5 3 5 5 5 5 5 5 5 5 5 5 5 5 5 5 5 5 5 5 5 5 5 5 5 5 5 5 5 5 5 5 5 5 5 5 5 5 3 5 5 3 5 5 5 5 3 5 3 5 5 3 5 3 5 5 5 5 5 3 5 5 5 5 5 5 5 5 5 5 5 5 3 5 5 5 3 5 5 5 5 5 5 5 5 5 3 5 5 5 5 3 3 5 5 5 5 5 5 5 5 3 5 5 5 5 5 3 5 5 5 3 5 5 5 3 5 5 5 5 3 5 5 5 5 5 5 5 5 5 5 5 5 5 5 3 5 5 5 5 5 5 3 5 3 3 5 3 5 3 5 5 5 5 3 5 5 5 5 3 5 5 5 5 5 5 5 5 5 3 5 5 5 5 5 5 5 5 5 5 5 5 5 5 3 5 5 5 3 5 5 5 3 5 3 5 5 5 5 5 5 5 5 5 5 5 5 5 5 5 5 3 5 5 5 5 5 5 3 5 5 5 5 5 5 5 5 5 5 5 5 5 5 5 5 5 5 3 5 5 5 5 5 5 5 5 5 5 5 5 5 5 5 5 5 5 5 5 5 5 5 5 5 5 5 5 5 5 5 5 5 5 3 5 5 5 5 3 5 5 5 5 5 5 5 3 5 5 5 5 5 5 5 5 5 3 5 5 3 5 5 5 5 5 3 5 5 5 3 5 5 3 5 5 5 5 5 5 5 5 5 5 5 5 5 5 5 5 5 5 5 5 3 5 5 5 5 5 5 5 5 5 5 3 3 5 3 5 5 5 5 5 3 5 5 5 5 3 5 5 5 5 5 3 5 3 5 5 3 5 5 5 5 5 5 5 5 3 5 5 5 5 5 5 3 5 5 5 5 5 5 3 5 5 5 5 3 5 5 3 5 3 5 5 3 5 5 5 5 5 5 3 5 5 5 5 3 5 5 5 5 5 5 5 5 3 3 5 5 5 5 5 5 5 5 3 5 5 5 5 5 5 3 5 5 5 5 5 5 5 3 5 5 5 3 5 5 5 5 5 5 5 5 5 5 5 5 3 5 5 5 5 3 5 5 3 5 5 5 5 3 5 5 5 3 3 5 5 5 3 5 5 5 3 5 5 5 5 5 5 5 5 5 3 5 5 5 3 5 5 5 5 5 5 5 5 5 5 5 5 3 5 3 5 5 3 5 5 3 5 5 5 5 5 5 5 3 5 5 5 5 5 3 5 3 5 5 5 3 3 5 3 3 5 3 5 5 5 5 5 5 3 5 3 5 5 5 5 5 5 5 5 5 5 5 5 5 3 5 5 3 5 3 5 5 3 5 5 5 3 3 5 5 3 5 5 5 5 5 5 5 5 5 5 5 5 5 5 5 5 5 5 5 5 5 5 5 3 3 5 3 5 3 5 5 3 3 5 5 3 5 5 3 5 5 3 5 3 5 5 5 5 3 5 5 5 5 3 5 3 3 5 3 5 5 3 3 5 5 5 3 5 5 5 5 3 3 5 5 5 5 5 3 5 5 5 5 5 5 5 5 5 5 5 3 5 3 5 3 5 5 3 5 3 5 5 5 5 5 5 5 5 3 5 5 3 5 5 5 5 3 5 5 5 5 5 5 5 5 5 5 5 5 3 5 5 5 5 5 5 5 5 5 5 5 3 5 5 5 5 5 5 3 5 3 5 5 3 5 5 5 5 5 5 5 5 5 5 5 5 5 5 5 5 5 3 3 5 5 5 3 5 5 3 5 5 5 5 5 5 5 5 5 5 5 5 5 5 5 5 5 5 5 5 5 5 5 5 5 3 3 5 5 5 5 5 5 5 5 5 5 5 3 5 5 5 5 5 5 5 5 5 5 5 5 5 5 5 5 5 5 5 5 5 5 5 5 5 5 5 5 5 5 5 5 5 3 5 5 5 5 5 3 5 5 3 5 5 3 3 5 5 5 5 5 5 5 5 5 5 5 5 5 3 5 5 3 5 5 5 5 5 5 3 5 5 3 5 5 5 5 5 5 5 5 5 5 5 5 5 3 5 5 5 5 5 5 5 3 5 5 5 5 5 5 5 5 5 5 5 5 3 5 5 3 5 5 5 5 5 5 5 5 5 5 5 5 5 5 5 5 5 5 5 5 3 5 5 3 5 3 5 5 5 3 5 5 3 5 3 5 5 5 3 5 5 5 5 3 5 5 5 5 5 5 5 3 5 5 5 3 5 5 5 5 5 5 5 5 5 5 5 5 3 5 5 5 5 5 5 5 5 3 5 5 5 5 5 5 5 5 5 5 5 3 5 5 5 5 5 5 5 5 5 5 5 5 5 5 5 5 5 5 5 3 3 5 5 5 3 5 5 5 5 5 5 5 5 5 5 5 5 3 5 5 5 5 5 5 5 5 5 3 5 5 5 5 5 5 5 5 5 5 5 5 5 5 5 5 3 5 3 5 5 5 5 5 3 5 5 5 5 3 5 5 5 3 5 5 5 3 5 5 5 5 5 5 5 5 5 3 5 5 5 3 5 5 3 5 5 5 5 5 5 3 5 5 5 5 5 5 5 5 3 5 5 5 3 5 5 5 5 5 5 5 5 5 5 5 5 5 5 5 5 5 5 5 5 5 5 5 5 5 5 5 3 5 5 5 5 5 5 5 3 5 5 5 5 5 5 5 5 5 5 5 5 5 5 5 5 5 5 5 5 5 5 5 5 5 3 5 3 5 5 5 5 5 5 3 5 5 5 3 5 5 3 5 5 5 5 5 5 5 5 5 5 5 5 3 5 5 5 5 5 3 5 5 5 5 5 5 5 5 5 5 5 5 5 3 5 5 5 3 5 5 5 5 5 5 5 5 5 5 5 5 3 3 5 5 5 5 3 5 5 5 5 5 5 5 5 5 3 3 5 5 5 5 5 3 5 5 5 5 5 3 5 5 5 5 5 3 5 3 5 5 5 5 3 5 3 5 3 3 5 5 5 5 5 5 5 3 3 5 5 5 5 5 5 3 3 3 5 3 3 5 5 5 3 5 5 5 5 5 3 3 3 5 3 5 5 5 3 5 3 3 5 5 5 5 5 5 5 3 3 5 5 3 3 3 5 5 5 5 5 5 5 5 5 5 5 5 5 5 5 5 5 5 5 5 5 5 5 5 5 5 5 5 5 5 5 5 5 5 5 5 5 5 5 5 3 5 5 5 5 5 5 5 5 5 5 3 5 5 5 5 5 5 3 5 5 3 5 5 5 5 5 5 5 5 5 5 5 5 5 3 5 3 5 5 5 5 3 5 5 5 3 5 5 3 5 5 5 3 5 5 3 5 5 5 5 5 3 5 5 5 5 5 5 5 3 5 5 5 5 5 5 5 3 5 5 3 5 5 5 5 3 5 3 5 5 5 5 5 3 5 5 5 5 3 5 5 5 5 5 5 3 3 5 5 5 5 5 3 5 5 3 5 5 5 5 5 5 5 5 5 5 3 5 5 5 5 5 5 5 5 5 5 5 5 5 5 5 5 5 5 3 5 5 5 5 5 5 3 5 5 5 5 5 5 5 3 3 5 5 5 5 3 5 5 5 5 5 5 5 3 5 5 3 5 3 3 3 5 5 5 5 5 5 3 5 5 5 5 5 3 5 5 5 5 3 5 5 5 3 5 5 5 3 5 5 5 5 5 5 5 5 5 5 5 5 5 5 5 5 5 5 5 5 5 5 5 5 5 3 5 5 5 5 5 5 5 3 5 3 5 5 5 5 5 5 3 5 5 3 5 5 5 3 5 5 3 5 5 5 5 5 3 5 5 5 3 3 5 5 5 5 5 5 5 5 5 5 5 5 3 5 5 5 5 5 5 5 5 5 3 5 5 5 5 5 3 3 5 5 5 5 5 5 5 5 5 3 5 5 5 5 5 5 5 5 3 5 5 5 5 5 5 5 5 5 5 5 5 5 5 5 5 5 5 3 5 5 5 5 3 5 3 5 3 5 5 5 5 5 5 5 5 5 5 5 5 5 5 5 5 5 3 5 5 5 5 5 3 5 5 5 3 3 5 5 5 5 5 3 5 5 5 5 3 5 5 5 5 5 5 5 5 3 5 5 5 5 5 5 5 3 5 5 5 5 5 5 5 5 5 3 5 5 5 5 5 5 5 5 5 5 5 5 5 5 5 5 5 5 3 5 5 5 5 5 5 5 5 5 5 5 5 5 3 5 5 5 5 5 5 3 5 5 3 5 5 3 5 5 5 5 5 5 5 5 5 5 5 5 5 5 5 5 5 5 5 5 5 5 5 5 5 5 3 5 3 5 3 3 5 5 5 3 5 5 5 5 5 5 5 5 5 3 3 5 3 5 5 5 5 5 5 5 5 5 5 5 5 5 5 3 5 3 3 5 3 5 5 5 5 5 5 5 5 5 3 3 5 5 5 5 5 5 5 5 5 5 5 5 5 5 5 5 5 5 5 5 5 5 3 5 5 5 5 5 3 5 5 5 5 5 3 5 5 5 3 5 5 5 5 5 5 5 5 5 3 5 5 5 5 3 5 5 5 5 5 5 3 5 5 5 5 5 5 5 3 5 5 5 5 3 5 5 5 5 5 5 5 5 5 5 3 5 5 5 5 3 5 5 5 3 5 5 5 5 5 3 5 5 5 5 5 5 5 5 5 5 5 5 5 5 3 3 5 5 3 5 5 5 5 5 5 5 3 5 5 5 5 5 5 3 5 5 5 5 5 5 5 5 5 5 5 5 5 5 5 5 5 5 5 5 5 5 5 3 5 5 5 5 5 5 5 5 3 5 5 5 5 3 5 5 5 5 5 3 5 3 5 3 5 5 5 5 5 5 5 3 5 5 5 3 5 5 5 5 5 3 5 5 5 5 5 3 5 3 5 5 3 5 3 5 5 5 5 5 3 5 5 5 3 5 5 5 5 5 5 5 5 5 5 3 5 5 5 5 5 5 5 5 5 5 5 5 5 5 5 5 5 5 5 5 5 5 3 5 5 5 5 5 5 5 5 5 5 5 5 5 5 5 5 5 5 3 5 5 5 3 5 5 5 5 5 5 3 5 5 5 3 3 5 3 5 3 3 5 3 5 5 3 5 5 3 3 5 5 5 5 5 5 5 5 3 5 3 5 5 5 5 5 5 5 5 5 5 5 5 5 5 5 5 5 5 5 5 5 5 3 5 5 5 5 5 5 5 5 3 5 5 3 5 5 3 3 5 5 3 5 5 5 5 5 5 5 5 5 5 5 5 5 5 5 5 5 5 5 5 5 5 5 5 5 5 5 5 5 5 5 5 5 5 5 5 5 5 5 3 5 3 5 5 5 5 5 5 5 5 5 5 5 5 5 5 5 5 5 5 5 5 5 5 5 5 5 5 5 5 5 5 5 5 5 5 5 5 5 5 5 5 3 5 5 3 5 5 5 5 5 3 5 3 5 5 3 5 5 5 5 5 5 3 5 5 5 5 5 5 5 5 5 5 5 3 5 5 3 3 5 3 5 5 3 5 5 5 5 3 5 5 5 5 5 5 5 5 5 3 5 3 5 5 5 5 5 5 5 3 5 3 5 5 5 5 5 5 5 5 5 3 5 3 5 5 5 5 5 5 5 5 5 5 3 5 5 5 3 5 5 3 5 5 3 5 5 5 5 3 5 5 5 3 5 5 5 5 5 5 5 5 5 5 5 5 5 5 3 5 5 5 5 5 5 3 5 3 5 3 5 5 5 3 5 5 5 5 5 5 5 5 3 5 5 5 5 5 3 5 5 3 5 5 5 5 5 5 5 5 5 3 5 5 5 3 5 5 5 5 5 5 3 5 5 5 5 5 5 5 5 5 5 5 5 5 5 5 5 5 5 5 5 5 5 5 5 5 5 5 5 5 5 5 3 5 5 5 5 5 3 5 5 3 3 5 5 5 5 3 5 5 5 5 5 3 5 5 5 5 5 5 5 5 5 5 5 5 5 5 5 5 3 5 5 5 5 5 5 5 5 3 3 5 5 5 5 5 5 3 5 5 5 5 3 5 5 5 5 5 5 5 5 5 5 5 5 5 5 5 5 5 5 5 5 5 5 5 5 3 5 5 3 5 5 5 5 5 5 5 5 5 5 5 5 5 5 5 5 5 5 5 5 5 5 5 5 5 5 5 3 5 3 5 5 5 5 5 3 5 5 5 5 5 5 5 5 5 5 5 5 5 5 5 5 5 5 5 5 3 3 5 3 5 5 5 5 5 5 5 5 5 5 5 5 5 5 5 5 3 5 5 5 3 5 5 5 5 5 5 5 5 5 5 5 5 5 3 5 5 5 5 5 5 5 5 5 5 5 5 5 5 5 5 5 5 5 5 5 5 3 5 5 5 5 5 5 5 5 5 5 5 5 5 3 5 3 5 5 3 3 5 5 5 5 5 5 5 5 5 5 5 5 5 5 5 5 5 5 5 5 3 5 5 3 5 5 5 3 5 5 5 5 5 5 3 5 5 5 3 5 5 5 5 5 5 5 5 3 5 5 3 5 5 3 5 3 5 5 5 5 3 3 5 5 3 3 5 5 3 5 5 5 5 3 5 5 3 3 5 3 5 5 5 5 5 5 5 5 5 5 5 5 5 5 5 5 5 5 5 5 3 5 5 5 5 3 5 5 5 5 3 3 5 5 5 5 5 5 5 5 5 5 5 5 3 5 5 5 3 5 5 5 5 5 5 5 3 5 5 5 3 5 5 3 3 5 5 5 3 5 5 5 3 5 5 5 5 5 5 5 5 5 5 5 5 5 5 5 5 5 5 3 5 5 5 5 5 5 5 5 5 5 5 5 5 5 5 5 5 5 3 3 5 5 5 5 5 3 3 5 3 5 5 5 5 5 5 5 5 5 3 5 5 5 3 5 5 5 5 5 5 5 5 5 5 5 5 5 5 3 5 5 5 5 5 5 5 3 5 5 3 5 5 5 5 5 5 3 5 5 5 5 3 5 5 5 5 5 5 3 5 5 5 5 5 5 5 5 3 3 5 5 5 3 3 5 5 5 5 5 3 5 5 5 5 5 5 3 5 5 5 5 3 5 5 5 5 5 3 5 5 5 5 3 5 5 5 5 5 5 5 5 5 5 5 5 5 5 5 5 5 5 5 5 5 5 5 5 5 3 5 5 5 5 3 5 3 5 3 5 5 3 5 5 3 5 5 3 5 5 5 5 5 5 3 5 5 3 5 3 3 3 5 5 3 5 3 3 5 5 5 3 5 3 5 5 5 5 5 5 3 5 5 5 3 5 5 5 5 5 5 5 3 5 5 5 3 5 3 3 5 5 5 5 5 5 5 3 5 5 5 5 5 5 5 5 3 3 5 5 5 5 3 5 5 3 5 5 5 3 5 5 5 3 3 5 5 5 5 3 5 5 5 5 5 3 3 5 5 5 5 5 5 5 5 5 5 5 5 5 5 5 5 5 5 5 5 5 5 5 5 5 5 5 5 5 5 5 3 5 5 5 3 5 5 5 5 5 5 5 5 5 5 5 5 5 5 5 3 5 3 3 5 5 3 5 5 5 5 5 5 5 5 5 5 5 5 5 5 5 5 5 5 5 5 5 5 5 3 5 5 3 3 5 5 5 5 5 5 5 3 5 5 5 3 5 5 5 5 3 3 5 5 5 5 5 5 5 3 5 5 5 5 3 5 5 5 5 3 5 5 5 5 5 5 5 5 5 5 5 5 5 5 5 5 5 5 5 3 5 5 5 5 5 5 5 5 5 5 5 5 5 5 5 5 3 5 5 5 3 5 5 5 5 5 5 5 5 5 3 5 5 5 5 5 5 5 5 5 5 5 5 5 5 5 5 5 5 5 5 5 3 5 5 5 5 5 5 5 5 5 5 5 5 5 5 5 5 5 3 5 5 5 5 5 3 5 5 5 5 5 5 5 5 5 5 5 5 5 5 5 5 5 5 5 5 5 5 5 5 5 5 5 3 5 5 3 5 5 5 3 5 5 5 5 5 5 5 5 5 5 5 5 5 5 5 3 5 3 5 5 5 5 5 5 5 5 5 3 5 5 5 5 5 5 5 5 5 3 3 5 5 5 5 5 5 5 5 5 5 5 5 5 5 5 5 5 5 5 5 5 5 5 5 5 5 5 5 5 5 5 5 5 5 5 5 5 5 5 5 5 5 5 5 5 5 5 5 5 5 5 5 5 5 5 5 5 5 5 5 5 5 5 5 5 5 5 5 5 5 5 3 5 5 5 5 5 5 3 5 5 5 5 5 5 5 5 5 3 5 3 5 5 5 5 5 5 5 5 5 5 5 5 5 5 5 5 5 5 5 5 5 5 5 5 5 5 5 5 5 5 5 5 5 5 3 5 5 5 3 3 5 5 5 5 5 5 5 5 5 5 5 5 5 5 5 5 5 5 5 5 5 5 3 3 5 5 5 5 5 5 5 5 3 5 5 5 5 5 5 3 5 5 5 5 5 3 5 5 5 5 3 5 5 5 3 5 5 5 3 5 5 3 5 5 5 5 5 5 5 5 5 5 5 5 5 3 5 5 5 5 5 5 5 5 3 5 5 5 5 5 5 5 5 5 5 5 3 5 5 5 3 5 5 5 5 3 5 5 5 5 5 5 5 5 3 5 3 5 5 3 5 5 5 5 5 3 5 5 5 5 5 5 5 5 5 5 5 5 3 5 5 5 5 5 5 5 5 5 3 5 5 5 5 5 5 3 5 5 5 5 5 5 5 3 5 5 5 5 5 3 5 5 5 5 5 5 5 5 5 5 5 5 5 5 5 5 5 5 5 5 5 5 5 5 5 5 5 5 5 5 5 5 5 5 5 5 5 5 5 5 5 5 5 5 5 5 5 3 5 3 5 5 5 5 5 5 5 5 5 5 5 5 5 5 3 5 5 5 5 5 5 5 5 5 5 5 5 5 5 5 3 5 5 3 5 3 5 5 5 5 5 3 5 5 5 5 5 5 5 5 5 5 5 5 5 5 5 5 5 5 5 5 3 5 5 5 5 5 5 5 5 5 5 5 3 5 3 5 5 3 5 3 5 5 5 5 5 5 5 3 5 3 5 5 5 5 3 5 5 5 5 3 3 5 5 3 5 5 5 5 5 5 5 5 5 5 5 5 5 5 5 5 3 5 5 5 5 5 5 5 5 5 5 5 5 5 5 3 5 3 5 5 5 5 5 5 5 3 5 3 5 5 5 5 5 5 5 5 5 3 3 5 5 5 3 5 5 5 5 3 5 3 5 5 3 5 3 3 3 5 5 3 5 5 5 3 3 3 5 5 5 5 5 5 5 5 5 5 5 3 5 5 5 5 5 5 3 5 5 5 3 5 5 5 5 5 5 5 5 3 5 5 5 3 5 5 5 5 5 5 5 5 5 5 5 5 5 5 5 5 5 5 5 5 5 5 5 5 5 5 5 5 5 5 5 5 5 5 5 5 5 5 5 5 5 5 5 5 5 5 5 5 5 5 5 5 5 5 5 5 5 5 5 5 3 5 5 5 5 5 3 5 5 5 5 3 5 5 5 3 5 5 5 5 5 5 5 5 5 5 5 5 5 5 5 5 5 5 5 5 5 5 5 5 5 5 5 5 5 5 5 5 5 5 5 5 5 5 5 5 3 5 5 3 5 5 5 5 5 5 5 3 5 5 5 5 5 5 5 5 5 5 5 3 5 5 3 5 3 5 5 5 3 5 5 5 5 5 5 5 5 3 5 5 5 5 3 5 5 5 5 3 5 3 5 5 5 5 5 5 5 5 5 5 5 5 3 5 3 5 5 5 5 5 5 5 5 5 5 5 5 5 3 5 5 5 5 5 5 5 5 5 3 5 5 5 3 5 5 5 5 5 5 5 5 5 5 5 5 5 5 5 5 5 5 5 5 5 5 5 5 5 5 5 5 5 5 5 5 5 5 5 3 5 5 3 5 5 5 5 3 5 5 5 5 5 5 5 5 5 5 5 5 5 5 5 3 5 5 5 5 5 5 5 5 5 3 5 3 5 5 5 5 5 5 5 3 5 5 5 5 5 5 5 5 5 5 5 5 5 5 3 5 5 5 5 5 5 5 5 5 5 5 3 5 5 5 5 5 5 5 5 5 5 5 5 5 5 5 5 5 5 5 5 5 5 5 3 5 3 5 5 5 5 5 5 3 5 3 5 5 5 3 5 5 5 3 5 5 5 3 5 5 3 5 5 5 5 5 5 5 3 5 5 5 5 5 5 5 3 5 5 5 5 5 5 5 5 5 5 5 5 5 3 5 5 5 5 5 5 5 5 3 5 5 5 5 5 5 5 5 5 5 5 5 5 5 5 5 5 5 5 5 3 5 5 5 5 5 5 5 5 5 5 5 5 5 5 5 5 5 5 5 5 5 5 5 5 5 5 5 5 5 5 5 5 5 5 5 5 5 5 5 5 5 5 5 5 5 5 5 5 5 5 3 5 3 5 5 5 3 5 5 3 3 5 3 5 5 5 5 5 5 5 5 5 5 5 5 5 5 5 5 5 5 5 5 5 5 5 5 5 5 5 5 5 5 5 5 5 5 5 3 5 5 5 5 3 5 5 3 5 5 5 3 5 5 5 5 3 5 3 3 5 5 5 5 3 5 5 5 3 5 5 5 3 5 5 5 5 5 5 3 5 5 5 5 5 5 5 5 5 5 5 5 5 5 5 5 5 5 5 5 3 5 5 5 5 5 5 5 5 5 5 5 5 5 5 5 5 5 5 3 5 5 3 5 5 3 5 5 5 5 5 5 5 5 5 5 5 3 5 5 5 5 3 5 5 5 5 3 5 5 5 3 5 5 5 5 5 5 5 5 5 5 5 5 5 5 5 5 5 5 5 5 5 5 5 5 5 3 5 5 5 5 5 5 5 5 3 5 5 5 3 5 5 5 5 5 5 5 5 5 5 5 5 5 5 5 5 5 5 5 5 5 5 5 5 3 5 5 5 3 5 5 5 5 5 5 5 5 3 5 5 3 5 5 5 5 3 5 5 5 5 5 5 5 3 5 3 5 5 3 5 5 3 3 5 5 5 5 5 5 5 5 5 5 5 5 5 5 5 5 5 5 5 5 5 3 5 5 5 5 3 5 5 5 5 5 5 5 5 5 5 5 5 5 3 5 5 3 5 5 5 5 5 5 5 5 5 5 5 5 5 5 5 5 5 5 5 5 5 5 5 5 5 5 5 5 5 5 5 5 5 5 5 5 5 5 5 5 5 5 5 5 5 5 5 5 5 5 5 5 5 5 5 5 5 5 5 5 5 5 5 5 5 5 5 5 5 5 5 5 5 5 5 5 5 5 5 5 5 5 5 5 5 5 5 5 5 5 5 5 5 5 5 5 5 5 5 5 5 5 5 5 5 5 5 5 5 5 5 5 5 5 5 5 5 5 5 5 5 5 5 5 5 5 5 5 3 5 5 5 5 5 5 5 3 5 5 5 5 5 5 5 5 5 3 5 3 5 5 5 3 5 5 3 5 5 5 5 5 5 5 5 5 5 5 5 5 5 5 5 5 5 5 5 5 5 5 5 5 5 5 5 5 5 5 5 5 5 5 5 5 3 5 5 3 3 5 5 3 5 5 3 5 5 5 3 5 5 5 5 5 5 5 5 5 3 5 5 5 5 5 5 3 5 5 5 5 5 5 5 5 5 5 5 5 5 5 5 5 5 5 5 5 5 5 5 5 5 5 5 5 5 5 5 3 5 5 5 5 5 5 5 5 5 5 5 5 5 5 5 5 5 5 5 5 5 5 5 5 5 5 5 5 5 5 5 5 5 5 5 5 5 5 5 5 5 5 5 5 5 5 3 5 3 5 5 5 5 3 5 5 5 5 3 5 5 5 5 3 5 5 5 5 5 5 5 5 3 5 5 3 5 3 5 5 5 5 3 5 5 3 3 5 5 5 5 5 5 3 5 5 5 5 5 5 5 5 5 5 3 3 5 5 5 5 5 3 5 5 3 5 5 5 5 3 5 5 3 5 5 5 5 5 5 5 5 5 5 5 5 5 5 5 5 5 5 5 5 5 5 5 5 5 5 5 5 5 3 5 3 5 5 5 5 5 5 5 5 5 5 5 5 5 3 5 5 5 5 3 3 5 5 5 5 5 5 5 5 5 5 5 5 5 5 5 5 5 5 5 5 5 5 5 5 5 5 5 5 5 5 5 5 5 5 5 5 5 5 5 5 5 5 3 5 5 5 3 5 5 5 5 5 5 5 5 5 5 5 5 5 5 5 5 5 5 5 5 3 5 5 3 5 5 5 5 5 5 5 5 5 3 5 5 5 5 5 3 5 5 5 5 5 3 5 3 5 5 5 5 5 5 5 5 5 5 5 5 5 3 5 5 5 3 3 5 5 5 5 5 5 5 5 3 5 5 3 5 5 3 3 5 5 5 5 5 3 5 5 5 5 5 5 5 3 5 5 3 3 5 5 5 5 5 5 3 3 5 5 5 3 5 5 5 5 5 5 5 3 5 5 5 5 5 5 5 5 5 5 5 5 5 5 5 5 5 5 5 5 5 5 5 5 5 5 3 5 5 5 5 5 5 5 3 5 5 5 5 5 5 5 5 5 5 5 3 5 5 5 5 5 5 5 5 3 5 5 5 5 5 5 5 5 5 5 5 5 5 5 5 5 3 5 5 5 3 5 5 5 5 5 3 5 5 5 5 5 5 5 5 5 5 5 5 5 5 3 5 5 5 5 3 5 5 3 5 5 5 5 5 3 5 5 5 5 5 5 5 5 5 5 5 5 5 5 3 5 3 5 5 5 3 5 3 5 3 5 5 5 5 5 5 3 3 5 5 5 5 5 5 3 5 3 5 5 5 5 5 5 5 5 5 5 5 5 5 5 5 5 5 3 5 5 5 3 3 5 5 5 5 5 3 5 5 3 3 5 5 5 5 5 5 5 5 5 5 5 5 5 5 5 5 5 5 5 5 5 5 5 5 5 5 5 5 5 5 5 5 5 5 5 5 5 5 5 5 5 5 5 5 3 5 5 3 3 3 5 5 5 5 5 5 3 5 5 5 5 5 5 5 5 5 3 5 5 5 3 5 5 5 5 5 5 5 5 5 5 5 5 5 5 5 5 5 5 5 5 3 5 5 5 5 3 5 5 5 5 5 5 5 5 5 5 5 5 5 5 5 5 5 5 5 5 5 5 5 5 5 5 5 5 5 5 5 5 5 5 3 5 3 5 5 5 5 5 5 5 5 3 5 5 5 3 5 3 5 5 5 5 5 5 5 5 3 5 5 5 5 3 5 5 5 5 3 5 5 5 5 5 5 5 3 5 5 5 5 3 5 5 5 5 5 5 5 5 5 5 5 5 5 5 5 5 5 5 5 5 5 5 5 5 5 5 5 5 5 5 5 5 5 5 5 5 5 5 5 5 5 5 5 5 5 5 3 5 5 5 5 3 3 5 5 3 3 5 5 5 5 5 5 5 5 5 5 5 5 5 5 5 5 5 5 5 3 5 5 5 3 3 5 5 5 5 5 5 5 5 5 5 5 5 5 5 5 5 5 5 5 5 5 5 5 5 5 5 5 3 5 5 5 5 5 5 5 3 5 5 5 5 5 5 5 5 5 5 5 5 5 5 5 3 5 5 5 5 5 5 5 5 3 5 3 3 5 5 5 5 5 5 5 5 5 5 5 5 3 5 5 5 5 5 5 5 5 5 5 5 5 5 5 5 5 5 5 3 5 5 5 3 5 5 5 5 5 5 5 5 3 5 5 5 5 5 5 5 5 5 5 5 5 5 5 5 3 5 5 5 3 5 5 5 5 5 5 5 5 5 5 5 5 5 5 5 5 5 5 5 5 5 5 5 5 5 5 5 5 5 5 5 5 5 3 5 3 5 5 5 5 5 5 5 5 3 5 5 5 5 5 5 5 5 5 3 5 5 3 5 5 5 5 5 3 5 5 5 5 3 5 5 5 5 3 5 5 5 3 5 3 5 5 3 5 5 5 5 5 5 5 5 5 5 5 5 5 5 3 5 5 3 5 3 5 5 5 3 5 5 3 5 5 5 5 3 5 3 5 5 5 5 5 5 3 5 3 5 5 5 5 5 3 5 5 5 5 3 5 5 5 5 5 5 3 5 5 5 5 5 5 5 5 5 5 5 5 5 5 5 5 5 5 5 5 5 5 5 5 5 5 5 5 5 5 5 5 5 3 3 5 5 5 5 5 5 5 5 5 5 3 5 5 3 3 5 3 5 5 5 5 5 5 5 3 5 5 5 5 5 5 5 5 5 5 5 5 3 5 5 5 5 3 5 5 5 5 5 5 5 5 5 5 5 5 3 5 5 5 5 5 5 5 5 5 5 5 5 5 5 5 5 5 3 5 5 5 5 5 3 5 5 5 3 5 5 5 5 5 5 3 5 3 5 5 5 3 5 5 5 5 5 5 5 5 5 3 5 5 3 5 5 5 5 5 5 5 3 5 5 5 5 5 5 5 5 5 5 5 5 5 3 5 5 3 5 5 5 5 5 5 3 5 5 5 5 5 5 3 5 5 5 5 5 5 5 3 5 5 5 5 5 5 5 5 5 5 5 5 5 5 5 5 5 5 5 5 5 5 3 5 5 5 5 5 5 5 5 5 5 3 5 5 5 5 3 3 5 5 5 5 3 5 5 5 5 5 5 5 5 5 3 5 5 5 5 5 5 5 5 5 5 5 3 5 5 5 3 5 5 5 3 5 5 5 5 5 5 5 5 5 5 5 5 3 5 5 5 5 5 3 5 5 3 5 5 5 5 5 5 5 5 5 5 5 5 5 5 3 5 5 5 5 5 5 5 3 5 5 5 3 5 5 5 5 5 3 5 5 5 5 5 5 5 5 5 3 5 5 5 5 5 5 5 5 3 5 5 5 5 5 3 5 5 5 5 5 5 5 3 5 5 5 5 5 5 5 5 5 5 5 5 5 5 5 5 5 5 5 5 5 5 5 5 5 5 5 5 5 5 5 5 5 5 5 5 5 5 5 5 5 5 5 5 5 5 5 5 3 5 5 5 5 5 5 5 3 5 5 5 5 5 5 5 5 5 5 5 5 5 5 5 5 5 5 5 5 5 5 3 3 5 5 3 3 5 5 5 5 5 5 5 3 5 5 5 5 5 5 5 5 5 5 5 5 5 5 3 5 5 5 5 5 5 5 5 3 5 5 3 5 5 5 3 5 5 5 5 5 5 5 5 5 5 5 5 5 5 5 5 5 5 5 5 5 5 5 5 5 5 5 5 3 5 5 5 5 5 5 5 5 3 5 5 5 5 5 5 3 3 5 5 5 5 3 5 5 3 5 5 3 5 5 5 5 5 5 3 5 5 5 5 5 5 5 5 3 5 5 5 5 5 5 5 5 5 5 5 3 5 5 3 5 5 5 5 5 5 5 3 5 5 5 3 5 3 5 3 5 5 5 5 5 5 5 5 5 5 5 5 5 5 5 5 5 3 5 3 5 5 5 5 5 5 5 5 5 5 3 5 5 5 5 5 5 5 3 5 5 5 3 5 3 3 5 5 3 5 5 5 5 3 5 5 5 3 5 5 5 3 5 3 3 5 5 5 5 5 5 3 5 5 5 5 5 5 5 5 3 3 3 5 3 5 5 3 3 5 5 3 5 5 5 5 5 5 5 5 5 5 5 3 5 5 5 5 5 5 5 5 5 5 5 5 5 3 3 5 5 5 5 3 5 5 5 3 5 5 5 5 5 3 3 5 5 5 3 5 5 5 5 5 5 5 5 5 5 5 5 5 5 5 3 5 5 5 3 5 5 5 3 5 5 5 5 5 5 3 5 5 5 5 5 3 5 5 5 5 5 5 5 5 3 5 5 5 5 5 5 5 5 5 3 5 5 5 5 3 5 3 5 5 3 5 3 5 5 5 5 5 5 3 5 3 3 5 5 5 5 5 5 5 5 3 5 3 5 3 5 3 5 5 5 5 5 5 5 5 5 5 5 3 5 5 5 3 5 5 5 5 5 5 5 5 3 5 5 5 5 5 5 5 5 5 3 5 5 5 5 3 5 5 3 5 5 5 5 5 5 5 5 5 3 5 5 5 3 5 5 5 5 5 5 5 5 5 5 5 5 5 5 5 5 5 5 5 3 5 5 5 5 5 5 5 5 5 5 3 5 5 5 5 5 5 5 5 5 5 5 5 5 5 5 5 5 5 5 5 5 5 5 5 5 5 5 5 5 5 5 5 5 5 5 5 5 5 5 5 5 5 5 5 5 3 3 5 5 5 5 5 5 5 5 5 5 5 5 5 3 3 5 5 5 3 5 5 3 5 5 5 3 5 5 5 3 5 5 5 5 5 5 5 5 3 5 5 3 5 3 3 5 5 5 5 5 5 3 5 3 3 3 5 5 3 5 5 3 3 5 5 5 5 5 5 5 5 5 5 5 5 5 5 5 5 5 5 5 5 5 3 5 5 5 5 5 5 5 5 5 3 5 5 5 5 5 5 5 3 3 5 5 5 5 5 5 5 5 5 5 5 5 5 5 5 5 5 5 5 5 5 5 5 3 5 3 5 5 5 5 5 5 5 3 5 5 5 3 3 5 5 3 5 5 5 5 3 5 5 5 3 5 5 5 3 5 5 5 5 5 5 5 5 5 3 3 5 5 5 5 5 3 5 5 3 3 3 5 5 5 5 5 3 5 5 5 5 5 5 5 5 5 3 5 3 5 5 5 5 5 5 5 5 5 5 5 5 5 5 5 5 5 5 5 5 5 5 5 5 3 5 5 5 5 3 3 5 5 5 3 5 5 5 5 5 5 5 5 5 5 5 5 5 5 5 5 3 5 5 5 3 5 5 3 5 5 5 5 5 5 5 5 5 5 5 5 5 3 5 5 3 5 5 5 3 5 3 5 3 5 3 3 3 5 5 5 5 5 5 5 5 3 5 5 5 5 5 5 5 5 3 5 5 3 5 5 5 5 5 5 5 5 5 5 5 5 5 5 5 5 5 5 5 5 5 3 5 5 5 5 5 5 5 5 5 5 3 5 3 5 5 3 5 3 5 3 5 5 3 5 3 5 5 3 5 5 5 3 5 5 5 5 5 5 5 5 5 5 5 5 5 5 5 5 5 5 5 5 5 5 5 5 5 5 5 5 5 5 5 5 5 5 5 5 5 5 5 5 5 5 5 5 5 5 5 5 5 5 5 5 5 5 5 5 5 5 5 5 5 3 5 5 3 5 5 5 5 5 5 3 3 5 5 5 5 5 5 5 5 5 5 5 5 5 5 5 5 5 5 3 5 5 5 3 5 5 5 5 5 5 5 5 5 5 5 5 5 5 5 5 3 5 5 5 5 5 5 5 3 5 5 5 5 5 5 5 5 3 5 3 5 5 5 5 5 5 5 5 5 5 5 5 5 5 5 5 3 5 5 5 5 5 5 5 3 5 5 5 5 3 5 5 5 5 5 5 5 3 5 5 3 3 5 5 3 5 5 5 5 5 5 3 5 5 5 5 5 5 5 5 5 3 5 5 3 5 5 3 5 5 3 5 5 5 5 5 3 5 5 5 5 5 5 5 5 3 5 5 5 5 5 5 5 3 5 5 5 5 5 5 5 5 5 5 5 5 3 5 5 5 5 5 5 5 3 3 5 3 5 3 5 5 5 5 5 5 5 5 5 5 5 5 5 5 5 3 5 3 5 5 5 5 5 5 5 5 3 5 3 5 3 5 3 5 3 5 5 3 5 5 5 5 5 3 5 5 5 5 5 5 5 5 3 5 5 5 5 5 3 5 5 3 5 3 3 5 5 5 5 5 5 5 5 3 5 5 5 5 5 5 5 5 5 5 5 5 5 3 5 5 5 5 5 5 5 3 5 5 5 3 5 5 5 5 5 5 5 5 5 5 5 5 5 5 5 5 5 3 5 5 5 5 5 5 5 3 5 5 3 5 5 5 5 5 5 5 5 5 5 5 5 5 5 5 3 5 5 5 5 3 5 5 5 5 5 5 5 5 5 5 5 5 5 5 5 5 5 5 5 5 5 5 5 5 5 3 5 5 5 5 5 5 3 5 5 5 5 5 5 5 5 5 3 3 5 5 5 3 5 3 5 5 5 5 5 5 5 5 5 5 5 5 5 5 5 3 5 5 5 5 5 5 5 5 5 5 5 5 3 3 5 5 5 5 5 5 5 5 3 5 5 3 5 5 3 3 5 5 5 5 5 5 5 3 5 5 5 5 5 5 5 5 5 3 5 5 5 3 5 5 5 5 5 3 5 5 5 5 5 5 5 5 5 5 5 5 3 5 5 5 3 5 5 5 3 5 5 5 5 5 5 5 5 5 5 5 5 5 5 5 5 5 5 5 5 5 5 5 5 5 5 5 5 5 5 5 5 3 5 5 5 5 5 5 5 5 5 5 5 5 5 5 5 5 5 5 5 5 5 5 5 5 3 5 3 5 5 3 5 5 5 5 5 5 5 5 5 3 5 5 5 5 5 5 5 5 5 5 5 5 5 5 3 5 5 5 5 3 5 5 5 3 5 5 5 5 5 5 5 5 5 5 5 5 5 5 5 5 5 5 5 5 5 5 5 5 5 5 5 5 5 5 5 5 5 5 5 5 5 5 5 5 5 5 5 5 5 5 5 5 5 5 5 5 5 5 5 5 5 5 5 5 5 5 5 5 5 5 5 5 5 5 5 5 5 5 5 5 5 5 5 5 5 5 5 5 5 5 5 5 5 5 5 5 5 5 5 5 5 5 5 5 5 5 5 5 5 5 5 5 5 5 5 5 5 5 5 5 5 5 5 5 5 5 5 5 5 5 5 5 5 5 5 5 5 5 5 5 5 5 5 5 5 5 5 5 5 5 5 5 5 5 5 5 5 5 5 5 5 5 5 5 5 5 5 5 5 5 5 5 5 5 5 5 5 5 5 5 5 5 5 5 5 5 5 5 5 5 5 5 5 3 5 5 5 5 5 5 5 5 5 5 5 5 5 5 5 5 3 5 5 5 5 5 5 5 5 3 5 5 5 5 3 5 5 5 5 5 5 5 5 5 5 5 5 5 5 5 5 5 5 5 5 5 5 3 5 5 5 5 5 5 5 5 5 5 5 5 5 3 3 5 5 5 5 5 3 5 3 5 5 5 5 5 5 5 5 5 5 5 3 5 5 5 5 5 5 5 3 5 5 5 5 5 5 5 5 5 5 5 5 5 5 5 3 3 5 5 5 5 5 5 5 5 5 5 5 5 3 5 5 5 5 5 5 5 5 5 5 5 5 5 5 5 5 3 5 5 5 5 5 5 5 3 5 5 5 5 5 5 5 5 5 5 3 3 5 5 5 5 5 5 5 5 5 5 5 5 5 5 5 5 5 5 5 5 5 5 5 5 5 5 5 5 5 5 3 5 5 5 5 5 3 5 5 5 5 5 5 5 5 5 5 3 5 5 5 5 3 5 5 5 5 5 5 5 5 5 5 3 5 3 5 5 5 5 5 5 5 5 5 5 5 5 5 5 5 5 5 5 5 5 5 5 5 5 5 5 5 5 5 5 5 3 5 5 5 5 5 3 5 5 5 5 5 5 5 5 5 5 5 5 5 5 5 5 5 5 3 5 5 3 5 5 5 3 5 5 5 5 5 3 5 5 5 5 5 5 5 5 5 5 3 5 5 5 5 5 5 3 5 5 5 5 5 3 3 5 5 3 5 5 3 5 5 5 5 5 5 5 5 5 5 3 5 5 3 5 5 3 5 5 3 5 5 3 5 5 3 5 5 5 5 5 5 3 5 5 5 5 5 5 5 5 5 5 5 3 5 5 5 5 5 5 5 3 5 5 5 5 3 5 5 5 3 5 5 5 5 5 5 5 5 5 5 5 3 5 5 5 5 5 5 5 5 5 5 5 5 5 5 5 5 5 5 5 5 5 5 5 5 3 5 5 5 5 5 3 5 5 5 5 5 5 5 5 5 5 5 5 5 5 3 5 5 3 5 3 5 5 5 5 3 5 3 3 5 3 5 5 5 5 5 5 5 3 5 3 5 5 5 5 5 5 3 5 5 5 5 5 5 3 5 5 5 5 3 5 5 5 5 5 3 5 5 3 5 5 5 5 3 5 5 5 5 3 5 5 5 5 5 5 3 5 5 5 5 5 5 5 5 5 3 5 5 5 5 5 5 3 5 5 5 5 3 5 5 5 5 5 5 5 5 5 5 5 5 5 5 5 5 3 5 5 5 3 5 5 3 5 5 5 5 5 5 5 5 5 5 5 5 5 5 5 5 3 5 3 5 5 5 5 5 5 5 5 5 5 5 5 5 5 5 5 5 5 5 5 5 5 5 5 5 5 3 5 5 3 5 5 5 5 5 5 5 5 5 5 3 5 5 5 5 3 5 5 5 5 3 5 5 5 5 5 5 5 5 5 3 5 5 5 5 5 5 5 5 5 5 5 5 5 5 5 5 5 5 5 5 5 5 5 5 5 5 5 5 
</DataArray>
</Cells>
<PointData Scalars="" Vectors="displacement," Tensors="">
<DataArray type="Float64" Name="displacement" NumberOfComponents="3" format="ascii">
-0.034997368861381002 -0.034997992516254503 0 -0.032607476116346026 -0.034342649391928111 0 -0.029503373654496481 -0.034995323605458213 0 -0.034997368861381002 -0.034997992516254503 0 -0.034404756705862079 -0.033685722623377802 0 -0.032607476116346026 -0.034342649391928111 0 -0.034997368861381002 -0.034997992516254503 0 -0.034404756705862079 -0.033685722623377802 0 -0.034998034344868319 -0.031405169800196128 0 -0.034404756705862079 -0.033685722623377802 0 -0.034998034344868319 -0.031405169800196128 0 -0.034553971598975206 -0.033084929166252615 0 -0.034998034344868319 -0.031405169800196128 0 -0.034553971598975206 -0.033084929166252615 0 -0.035064876494285108 -0.030775266679242765 0 -0.034100718036896481 -0.033216405127964831 0 -0.034974153535596776 -0.033684539767803293 0 -0.034553971598975206 -0.033084929166252615 0 -0.036858260563015263 -0.03296629841056594 0 -0.0370624067915378 -0.031921960793821723 0 -0.034553971598975206 -0.033084929166252615 0 -0.0370624067915378 -0.031921960793821723 0 -0.036172384668483673 -0.030995722504489752 0 -0.034404756705862079 -0.033685722623377802 0 -0.034553971598975206 -0.033084929166252615 0 -0.032607476116346026 -0.034342649391928111 0 -0.034553971598975206 -0.033084929166252615 0 -0.032607476116346026 -0.034342649391928111 0 -0.031883481152766499 -0.034878565259569408 0 -0.032607476116346026 -0.034342649391928111 0 -0.030419192665118402 -0.034596225324865247 0 -0.031883481152766499 -0.034878565259569408 0 -0.032607476116346026 -0.034342649391928111 0 -0.029503373654496481 -0.034995323605458213 0 -0.030419192665118402 -0.034596225324865247 0 -0.029492656092652985 -0.034999989286979949 0 -0.028751682984349412 -0.036307489245202246 0 -0.027572057376183193 -0.034999986206303832 0 -0.029493091359923371 -0.034999615746843578 0 -0.029307588126322868 -0.035717907373359503 0 -0.027572057376183193 -0.034999986206303832 0 -0.02729581779857268 -0.036479264688554759 0 -0.025996884665276668 -0.03608849468126591 0 -0.027572057376183193 -0.034999986206303832 0 -0.025651404470290972 -0.034999985553092694 0 -0.025996884665276668 -0.03608849468126591 0 -0.028751682984349412 -0.036307489245202246 0 -0.027572057376183193 -0.034999986206303832 0 -0.02729581779857268 -0.036479264688554759 0 -0.028751682984349412 -0.036307489245202246 0 -0.02729581779857268 -0.036479264688554759 0 -0.028027941563466583 -0.037612150341838735 0 -0.029307588126322868 -0.035717907373359503 0 -0.031184128479784672 -0.035263449919755961 0 -0.02729581779857268 -0.036479264688554759 0 -0.026372726628133732 -0.037266995427024795 0 -0.028027941563466583 -0.037612150341838735 0 -0.02729581779857268 -0.036479264688554759 0 -0.026372726628133732 -0.037266995427024795 0 -0.025996884665276668 -0.03608849468126591 0 -0.025710462690835639 -0.03713832268153857 0 -0.031184128479784672 -0.035263449919755961 0 -0.026594714291317045 -0.036827615718336343 0 -0.026563035469912614 -0.036869301874501458 0 -0.026610262944715156 -0.036852631760446286 0 -0.026594714291317045 -0.036827615718336343 0 -0.026563035469912614 -0.036869301874501458 0 -0.026471946952846208 -0.036927890975758187 0 -0.026563035469912614 -0.036869301874501458 0 -0.026610262944715156 -0.036852631760446286 0 -0.026517159604053327 -0.036866376718011913 0 -0.037951712300588629 -0.032798518760140276 0 -0.038114155614339916 -0.03205714213335694 0 -0.037639446185234217 -0.03231458510680045 0 -0.031184128479784672 -0.035263449919755961 0 -0.032462688619017625 -0.034291047599460105 0 -0.038114155614339916 -0.03205714213335694 0 -0.037639446185234217 -0.03231458510680045 0 -0.037814723644022052 -0.03182537689189107 0 -0.026517159604053327 -0.036866376718011913 0 -0.026471946952846208 -0.036927890975758187 0 -0.026456733503453751 -0.03687109186849883 0 -0.026563035469912614 -0.036869301874501458 0 -0.026517159604053327 -0.036866376718011913 0 -0.026471946952846208 -0.036927890975758187 0 -0.037951712300588629 -0.032798518760140276 0 -0.036858260563015263 -0.03296629841056594 0 -0.037639446185234217 -0.03231458510680045 0 -0.031184128479784672 -0.035263449919755961 0 -0.034974153535596776 -0.033684539767803293 0 -0.030419192665118402 -0.034596225324865247 0 -0.030310951689543342 -0.035073489473264392 0 -0.031883481152766499 -0.034878565259569408 0 -0.037639446185234217 -0.03231458510680045 0 -0.0370624067915378 -0.031921960793821723 0 -0.037574945974358093 -0.031857446556581556 0 -0.037639446185234217 -0.03231458510680045 0 -0.037574945974358093 -0.031857446556581556 0 -0.037814723644022052 -0.03182537689189107 0 -0.036858260563015263 -0.03296629841056594 0 -0.037639446185234217 -0.03231458510680045 0 -0.0370624067915378 -0.031921960793821723 0 -0.0370624067915378 -0.031921960793821723 0 -0.037027344879654485 -0.031195489294269411 0 -0.036172384668483673 -0.030995722504489752 0 -0.037027344879654485 -0.031195489294269411 0 -0.036886371933053878 -0.030454900417649602 0 -0.036172384668483673 -0.030995722504489752 0 -0.037027344879654485 -0.031195489294269411 0 -0.037346429803295965 -0.031232621358809887 0 -0.03732593652096456 -0.030861079387914957 0 -0.037027344879654485 -0.031195489294269411 0 -0.037407498424719313 -0.031545639772890655 0 -0.037346429803295965 -0.031232621358809887 0 -0.0370624067915378 -0.031921960793821723 0 -0.037027344879654485 -0.031195489294269411 0 -0.037407498424719313 -0.031545639772890655 0 -0.0370624067915378 -0.031921960793821723 0 -0.037574945974358093 -0.031857446556581556 0 -0.037407498424719313 -0.031545639772890655 0 -0.037574945974358093 -0.031857446556581556 0 -0.037407498424719313 -0.031545639772890655 0 -0.037707615675604919 -0.031557526931036181 0 -0.037574945974358093 -0.031857446556581556 0 -0.037707615675604919 -0.031557526931036181 0 -0.037814723644022052 -0.03182537689189107 0 -0.037707615675604919 -0.031557526931036181 0 -0.037814723644022052 -0.03182537689189107 0 -0.037795464825854413 -0.031627558406925896 0 -0.037621863833937973 -0.031434641967990958 0 -0.037530342428035351 -0.031036133196189409 0 -0.037707615675604919 -0.031557526931036181 0 -0.037623436754105004 -0.031319731017572745 0 -0.037905724561227844 -0.03086198715577701 0 -0.037707615675604919 -0.031557526931036181 0 -0.03774616941395012 -0.031583365834683824 0 -0.037795464825854413 -0.031627558406925896 0 -0.037602783809790638 -0.031090261630613587 0 -0.037530342428035351 -0.031036133196189409 0 -0.037623436754105004 -0.031319731017572745 0 -0.03732593652096456 -0.030861079387914957 0 -0.037929265490935296 -0.030810680267573855 0 -0.037407498424719313 -0.031545639772890655 0 -0.037346429803295965 -0.031232621358809887 0 -0.037623436754105004 -0.031319731017572745 0 -0.037407498424719313 -0.031545639772890655 0 -0.037707615675604919 -0.031557526931036181 0 -0.037623436754105004 -0.031319731017572745 0 -0.037346429803295965 -0.031232621358809887 0 -0.037623436754105004 -0.031319731017572745 0 -0.03732593652096456 -0.030861079387914957 0 -0.03732593652096456 -0.030861079387914957 0 -0.037929265490935296 -0.030810680267573855 0 -0.037437310194202662 -0.030167049315587738 0 -0.037530342428035351 -0.031036133196189409 0 -0.03756292495105313 -0.029781479938205901 0 -0.037929265490935296 -0.030810680267573855 0 -0.037437310194202662 -0.030167049315587738 0 -0.038121061322651154 -0.02942916978398432 0 -0.037437310194202662 -0.030167049315587738 0 -0.036886371933053878 -0.030454900417649602 0 -0.036964632693607412 -0.029335719998337478 0 -0.036886371933053878 -0.030454900417649602 0 -0.036964632693607412 -0.029335719998337478 0 -0.036196125015611959 -0.030166575326806628 0 -0.03732593652096456 -0.030861079387914957 0 -0.037437310194202662 -0.030167049315587738 0 -0.036886371933053878 -0.030454900417649602 0 -0.037027344879654485 -0.031195489294269411 0 -0.03732593652096456 -0.030861079387914957 0 -0.036886371933053878 -0.030454900417649602 0 -0.038114155614339916 -0.03205714213335694 0 -0.038001248912815734 -0.031656775445452368 0 -0.037919924311183746 -0.031686903691719989 0 -0.026517159604053327 -0.036866376718011913 0 -0.026446658895469204 -0.036719946363058281 0 -0.026456733503453751 -0.03687109186849883 0 -0.032462688619017625 -0.034291047599460105 0 -0.032129760094202417 -0.034463935389024716 0 -0.038001248912815734 -0.031656775445452368 0 -0.037919924311183746 -0.031686903691719989 0 -0.037914271041634647 -0.031591392806624499 0 -0.038114155614339916 -0.03205714213335694 0 -0.037919924311183746 -0.031686903691719989 0 -0.037814723644022052 -0.03182537689189107 0 -0.037919924311183746 -0.031686903691719989 0 -0.037814723644022052 -0.03182537689189107 0 -0.037795464825854413 -0.031627558406925896 0 -0.03774616941395012 -0.031583365834683824 0 -0.037842842585235681 -0.031549316054802996 0 -0.037837935458289659 -0.031463197305938405 0 -0.037530342428035351 -0.031036133196189409 0 -0.037825351674683622 -0.030963194950574667 0 -0.037919924311183746 -0.031686903691719989 0 -0.037795464825854413 -0.031627558406925896 0 -0.037842842585235681 -0.031549316054802996 0 -0.03774616941395012 -0.031583365834683824 0 -0.037795464825854413 -0.031627558406925896 0 -0.037842842585235681 -0.031549316054802996 0 -0.037919924311183746 -0.031686903691719989 0 -0.037842842585235681 -0.031549316054802996 0 -0.037914271041634647 -0.031591392806624499 0 -0.037842842585235681 -0.031549316054802996 0 -0.037914271041634647 -0.031591392806624499 0 -0.037887678066005175 -0.031483489243044276 0 -0.038001248912815734 -0.031656775445452368 0 -0.037887678066005175 -0.031483489243044276 0 -0.03795126724691264 -0.031499751084830281 0 -0.038001248912815734 -0.031656775445452368 0 -0.037914271041634647 -0.031591392806624499 0 -0.037887678066005175 -0.031483489243044276 0 -0.037887678066005175 -0.031483489243044276 0 -0.037847643946048053 -0.031465337227487553 0 -0.037837935458289659 -0.031463197305938405 0 -0.037887678066005175 -0.031483489243044276 0 -0.037847643946048053 -0.031465337227487553 0 -0.037812067997225168 -0.031467029961798593 0 -0.037842842585235681 -0.031549316054802996 0 -0.037887678066005175 -0.031483489243044276 0 -0.037837935458289659 -0.031463197305938405 0 -0.037825351674683622 -0.030963194950574667 0 -0.037328185328234134 -0.02728484798950043 0 -0.037839453225666064 -0.029516290365923875 0 -0.037370949703081573 -0.027813837625091938 0 -0.038777672166149413 -0.027835493277706624 0 -0.037839453225666064 -0.029516290365923875 0 -0.037370949703081573 -0.027813837625091938 0 -0.03713418866763963 -0.029505687784085459 0 -0.038194630252011495 -0.026392945445874935 0 -0.037328185328234134 -0.02728484798950043 0 -0.037841535166386997 -0.031470276520917238 0 -0.037812067997225168 -0.031467029961798593 0 -0.037768214849375349 -0.031496514395560039 0 -0.037847643946048053 -0.031465337227487553 0 -0.037841535166386997 -0.031470276520917238 0 -0.037812067997225168 -0.031467029961798593 0 -0.037328185328234134 -0.02728484798950043 0 -0.03669844879358005 -0.027788327329802288 0 -0.037847643946048053 -0.031465337227487553 0 -0.037837935458289659 -0.031463197305938405 0 -0.037841535166386997 -0.031470276520917238 0 -0.036905956928307324 -0.031186728399720469 0 -0.037839453225666064 -0.029516290365923875 0 -0.03713418866763963 -0.029505687784085459 0 -0.037437310194202662 -0.030167049315587738 0 -0.036964632693607412 -0.029335719998337478 0 -0.038121061322651154 -0.02942916978398432 0 -0.038299958098451194 -0.028150319081265904 0 -0.036964632693607412 -0.029335719998337478 0 -0.038121061322651154 -0.02942916978398432 0 -0.038194630252011495 -0.026392945445874935 0 -0.03756292495105313 -0.029781479938205901 0 -0.038299958098451194 -0.028150319081265904 0 -0.036964632693607412 -0.029335719998337478 0 -0.036618398364479735 -0.028149969033165849 0 -0.036964632693607412 -0.029335719998337478 0 -0.036021620582643743 -0.029157507103932327 0 -0.036618398364479735 -0.028149969033165849 0 -0.036021620582643743 -0.029157507103932327 0 -0.035006451538673385 -0.028123478884082117 0 -0.036618398364479735 -0.028149969033165849 0 -0.036964632693607412 -0.029335719998337478 0 -0.036021620582643743 -0.029157507103932327 0 -0.036196125015611959 -0.030166575326806628 0 -0.036021620582643743 -0.029157507103932327 0 -0.035434609415833838 -0.029745107599546246 0 -0.036196125015611959 -0.030166575326806628 0 -0.035848385736966193 -0.029544950777378731 0 -0.03554831605462154 -0.02826315006894441 0 -0.035476492245419426 -0.029749644801529796 0 -0.037817662287817556 -0.028187188967390291 0 -0.03756245341913076 -0.027204422945926478 0 -0.03643091741910516 -0.027425162637370926 0 -0.03645491013130954 -0.029015644247325886 0 -0.035980573869674931 -0.027797257890851718 0 -0.03645491013130954 -0.029015644247325886 0 -0.036432152423662677 -0.029126161023850398 0 -0.03645491013130954 -0.029015644247325886 0 -0.036423014621056238 -0.028159619588287107 0 -0.036021620582643743 -0.029157507103932327 0 -0.035434609415833838 -0.029745107599546246 0 -0.035218466782468962 -0.028937090708453406 0 -0.036021620582643743 -0.029157507103932327 0 -0.035218466782468962 -0.028937090708453406 0 -0.035006451538673385 -0.028123478884082117 0 -0.036423014621056238 -0.028159619588287107 0 -0.036340585658161895 -0.026445820479742334 0 -0.03756245341913076 -0.027204422945926478 0 -0.036906268026284543 -0.026844047648512104 0 -0.037302470193336303 -0.026214036779467109 0 -0.036906268026284543 -0.026844047648512104 0 -0.03643091741910516 -0.027425162637370926 0 -0.036534479302169236 -0.026189747508213339 0 -0.03643091741910516 -0.027425162637370926 0 -0.035696154987521711 -0.026069176564429176 0 -0.036534479302169236 -0.026189747508213339 0 -0.036906268026284543 -0.026844047648512104 0 -0.036534479302169236 -0.026189747508213339 0 -0.037302470193336303 -0.026214036779467109 0 -0.03756245341913076 -0.027204422945926478 0 -0.036906268026284543 -0.026844047648512104 0 -0.03643091741910516 -0.027425162637370926 0 -0.034999925313660786 -0.026666539643298695 0 -0.035980573869674931 -0.027797257890851718 0 -0.034999986834935139 -0.026666231423533967 0 -0.03643091741910516 -0.027425162637370926 0 -0.035696154987521711 -0.026069176564429176 0 -0.034999862919690289 -0.02666756601584375 0 -0.03554831605462154 -0.02826315006894441 0 -0.034999112715246965 -0.028699239933456501 0 -0.03554831605462154 -0.02826315006894441 0 -0.035476492245419426 -0.029749644801529796 0 -0.034999112715246965 -0.028699239933456501 0 -0.035476492245419426 -0.029749644801529796 0 -0.034999112715246965 -0.028699239933456501 0 -0.035064876494285108 -0.030775266679242765 0 -0.034998034344868319 -0.031405169800196128 0 -0.034999112715246965 -0.028699239933456501 0 -0.035064876494285108 -0.030775266679242765 0 -0.035476492245419426 -0.029749644801529796 0 -0.035064876494285108 -0.030775266679242765 0 -0.03534525468437149 -0.030904110380049775 0 -0.034553971598975206 -0.033084929166252615 0 -0.035064876494285108 -0.030775266679242765 0 -0.03534525468437149 -0.030904110380049775 0 -0.034553971598975206 -0.033084929166252615 0 -0.03534525468437149 -0.030904110380049775 0 -0.036172384668483673 -0.030995722504489752 0 -0.03534525468437149 -0.030904110380049775 0 -0.036172384668483673 -0.030995722504489752 0 -0.035787143342278768 -0.030288196840287083 0 -0.036172384668483673 -0.030995722504489752 0 -0.036196125015611959 -0.030166575326806628 0 -0.035787143342278768 -0.030288196840287083 0 -0.036886371933053878 -0.030454900417649602 0 -0.036172384668483673 -0.030995722504489752 0 -0.036196125015611959 -0.030166575326806628 0 -0.035814977044428604 -0.029577337076930565 0 -0.036196125015611959 -0.030166575326806628 0 -0.03582736272729798 -0.029698843186285802 0 -0.036196125015611959 -0.030166575326806628 0 -0.03582736272729798 -0.029698843186285802 0 -0.035787143342278768 -0.030288196840287083 0 -0.03645491013130954 -0.029015644247325886 0 -0.036022578815218829 -0.029943997126747963 0 -0.035476492245419426 -0.029749644801529796 0 -0.03582736272729798 -0.029698843186285802 0 -0.035787143342278768 -0.030288196840287083 0 -0.035848385736966193 -0.029544950777378731 0 -0.035476492245419426 -0.029749644801529796 0 -0.03582736272729798 -0.029698843186285802 0 -0.035476492245419426 -0.029749644801529796 0 -0.03534525468437149 -0.030904110380049775 0 -0.035787143342278768 -0.030288196840287083 0 -0.017844802899463399 -0.038034480423001997 0 -0.012964392909072501 -0.036270465862644492 0 -0.017280587830715108 -0.037162020982242104 0 -0.017153854261994703 -0.038905356938175116 0 -0.016222680300416372 -0.037519233737341985 0 -0.019146176829486366 -0.038286163307858959 0 -0.017742511162774401 -0.037819579119485289 0 -0.017595858100136651 -0.039386456210112435 0 -0.019146176829486366 -0.038286163307858959 0 -0.019054880517593676 -0.039655670593055622 0 -0.017595858100136651 -0.039386456210112435 0 -0.019146176829486366 -0.038286163307858959 0 -0.020425167882451096 -0.038902742712588784 0 -0.019054880517593676 -0.039655670593055622 0 -0.019146176829486366 -0.038286163307858959 0 -0.018632800547018762 -0.037059379146751184 0 -0.019742831715686384 -0.036927442989075791 0 -0.019146176829486366 -0.038286163307858959 0 -0.018632800547018762 -0.037059379146751184 0 -0.017742511162774401 -0.037819579119485289 0 -0.017844802899463399 -0.038034480423001997 0 -0.017708162014251638 -0.035975431056685221 0 -0.018632800547018762 -0.037059379146751184 0 -0.017742511162774401 -0.037819579119485289 0 -0.017792637308788335 -0.036128742836284408 0 -0.017280587830715108 -0.037162020982242104 0 -0.017792637308788335 -0.036128742836284408 0 -0.016111365802917211 -0.036288312547004549 0 -0.017792637308788335 -0.036128742836284408 0 -0.017968362139842042 -0.034999571883565769 0 -0.019097867870507077 -0.035926309201750897 0 -0.017792637308788335 -0.036128742836284408 0 -0.017968362139842042 -0.034999571883565769 0 -0.016762938523635536 -0.035578894546820686 0 -0.017968362139842042 -0.034999571883565769 0 -0.019097867870507077 -0.035926309201750897 0 -0.019889440995139208 -0.034999862054078831 0 -0.018632800547018762 -0.037059379146751184 0 -0.017792637308788335 -0.036128742836284408 0 -0.019097867870507077 -0.035926309201750897 0 -0.018632800547018762 -0.037059379146751184 0 -0.019097867870507077 -0.035926309201750897 0 -0.019742831715686384 -0.036927442989075791 0 -0.019742831715686384 -0.036927442989075791 0 -0.02041107906136436 -0.035835082871979812 0 -0.020874716403590007 -0.036744511916751633 0 -0.019097867870507077 -0.035926309201750897 0 -0.019742831715686384 -0.036927442989075791 0 -0.02041107906136436 -0.035835082871979812 0 -0.019889440995139208 -0.034999862054078831 0 -0.02041107906136436 -0.035835082871979812 0 -0.021810046507943194 -0.034999883539690621 0 -0.019097867870507077 -0.035926309201750897 0 -0.019889440995139208 -0.034999862054078831 0 -0.02041107906136436 -0.035835082871979812 0 -0.02041107906136436 -0.035835082871979812 0 -0.021810046507943194 -0.034999883539690621 0 -0.021417545542947333 -0.036012031723093717 0 -0.021417545542947333 -0.036012031723093717 0 -0.020874716403590007 -0.036744511916751633 0 -0.022121670150122383 -0.036653740241433599 0 -0.02041107906136436 -0.035835082871979812 0 -0.021417545542947333 -0.036012031723093717 0 -0.020874716403590007 -0.036744511916751633 0 -0.020874716403590007 -0.036744511916751633 0 -0.021495153098762418 -0.03747201742505081 0 -0.022121670150122383 -0.036653740241433599 0 -0.021495153098762418 -0.03747201742505081 0 -0.021256259885837452 -0.038462335962660195 0 -0.022062272507220152 -0.038088883507325762 0 -0.021495153098762418 -0.03747201742505081 0 -0.020459245883991759 -0.037788419739587353 0 -0.021256259885837452 -0.038462335962660195 0 -0.020874716403590007 -0.036744511916751633 0 -0.021495153098762418 -0.03747201742505081 0 -0.020459245883991759 -0.037788419739587353 0 -0.019146176829486366 -0.038286163307858959 0 -0.019742831715686384 -0.036927442989075791 0 -0.020459245883991759 -0.037788419739587353 0 -0.019742831715686384 -0.036927442989075791 0 -0.020874716403590007 -0.036744511916751633 0 -0.020459245883991759 -0.037788419739587353 0 -0.019146176829486366 -0.038286163307858959 0 -0.020459245883991759 -0.037788419739587353 0 -0.020425167882451096 -0.038902742712588784 0 -0.020459245883991759 -0.037788419739587353 0 -0.020425167882451096 -0.038902742712588784 0 -0.021256259885837452 -0.038462335962660195 0 -0.020425167882451096 -0.038902742712588784 0 -0.021256259885837452 -0.038462335962660195 0 -0.021301378419720872 -0.039356342888839255 0 -0.021256259885837452 -0.038462335962660195 0 -0.022382950573268556 -0.039002133382432955 0 -0.021301378419720872 -0.039356342888839255 0 -0.021256259885837452 -0.038462335962660195 0 -0.022062272507220152 -0.038088883507325762 0 -0.022382950573268556 -0.039002133382432955 0 -0.022348567645478119 -0.039209384062325804 0 -0.023015558635005186 -0.037740397093907474 0 -0.022545825316970951 -0.038806997209873406 0 -0.023608735684062403 -0.038894398120476764 0 -0.02302718959059501 -0.037726110699886087 0 -0.022062272507220152 -0.038088883507325762 0 -0.022382950573268556 -0.039002133382432955 0 -0.02302718959059501 -0.037726110699886087 0 -0.02398296112923138 -0.03924746886595383 0 -0.024200998327274199 -0.038384708452254182 0 -0.023248991729827015 -0.036852487444545501 0 -0.024260822795721119 -0.037969582039941524 0 -0.025925682835111846 -0.03748817695424829 0 -0.02398296112923138 -0.03924746886595383 0 -0.024200998327274199 -0.038384708452254182 0 -0.025137687106433968 -0.038269939587819282 0 -0.024200998327274199 -0.038384708452254182 0 -0.023248991729827015 -0.036852487444545501 0 -0.023930351069963409 -0.037212064805572147 0 -0.024260822795721119 -0.037969582039941524 0 -0.023170722660466429 -0.037383940880929563 0 -0.023608735684062403 -0.038894398120476764 0 -0.023248991729827015 -0.036852487444545501 0 -0.02302718959059501 -0.037726110699886087 0 -0.024200998327274199 -0.038384708452254182 0 -0.024338077467166968 -0.037623579648576704 0 -0.024808719768627412 -0.037719805942377657 0 -0.024200998327274199 -0.038384708452254182 0 -0.024338077467166968 -0.037623579648576704 0 -0.023930351069963409 -0.037212064805572147 0 -0.024338077467166968 -0.037623579648576704 0 -0.024547951129061316 -0.037110163809630982 0 -0.024808719768627412 -0.037719805942377657 0 -0.024338077467166968 -0.037623579648576704 0 -0.024547951129061316 -0.037110163809630982 0 -0.023930351069963409 -0.037212064805572147 0 -0.023248991729827015 -0.036852487444545501 0 -0.022383974545428759 -0.037360480287281339 0 -0.022121670150122383 -0.036653740241433599 0 -0.023248991729827015 -0.036852487444545501 0 -0.02302718959059501 -0.037726110699886087 0 -0.022383974545428759 -0.037360480287281339 0 -0.021495153098762418 -0.03747201742505081 0 -0.022062272507220152 -0.038088883507325762 0 -0.022383974545428759 -0.037360480287281339 0 -0.022062272507220152 -0.038088883507325762 0 -0.02302718959059501 -0.037726110699886087 0 -0.022383974545428759 -0.037360480287281339 0 -0.021495153098762418 -0.03747201742505081 0 -0.022383974545428759 -0.037360480287281339 0 -0.022121670150122383 -0.036653740241433599 0 -0.021417545542947333 -0.036012031723093717 0 -0.022121670150122383 -0.036653740241433599 0 -0.023313848276249625 -0.036066588847726386 0 -0.021576775149227501 -0.036022816895974287 0 -0.023157201075485179 -0.036296423555541649 0 -0.021417545542947333 -0.036012031723093717 0 -0.022370001058783635 -0.035791298631639122 0 -0.023062576446838585 -0.03652263445676885 0 -0.023248991729827015 -0.036852487444545501 0 -0.022121670150122383 -0.036653740241433599 0 -0.023313848276249625 -0.036066588847726386 0 -0.021810046507943194 -0.034999883539690621 0 -0.023730734642301479 -0.03499996982003508 0 -0.023060413812660465 -0.035628448439252766 0 -0.021810046507943194 -0.034999883539690621 0 -0.022370001058783635 -0.035791298631639122 0 -0.023060413812660465 -0.035628448439252766 0 -0.021810046507943194 -0.034999883539690621 0 -0.021417545542947333 -0.036012031723093717 0 -0.022370001058783635 -0.035791298631639122 0 -0.022370001058783635 -0.035791298631639122 0 -0.023060413812660465 -0.035628448439252766 0 -0.023062576446838585 -0.03652263445676885 0 -0.023060413812660465 -0.035628448439252766 0 -0.023062576446838585 -0.03652263445676885 0 -0.02435689164723653 -0.035884814604342438 0 -0.023730734642301479 -0.03499996982003508 0 -0.023060413812660465 -0.035628448439252766 0 -0.02435689164723653 -0.035884814604342438 0 -0.023157201075485179 -0.036296423555541649 0 -0.02529274641623519 -0.036691037762954959 0 -0.023062576446838585 -0.03652263445676885 0 -0.024722897494989141 -0.03690732686830285 0 -0.02435689164723653 -0.035884814604342438 0 -0.024547951129061316 -0.037110163809630982 0 -0.023313848276249625 -0.036066588847726386 0 -0.025591511399909148 -0.036437485192380006 0 -0.023248991729827015 -0.036852487444545501 0 -0.023930351069963409 -0.037212064805572147 0 -0.023313848276249625 -0.036066588847726386 0 -0.024547951129061316 -0.037110163809630982 0 -0.023930351069963409 -0.037212064805572147 0 -0.023313848276249625 -0.036066588847726386 0 -0.024722897494989141 -0.03690732686830285 0 -0.02435689164723653 -0.035884814604342438 0 -0.025996884665276668 -0.03608849468126591 0 -0.023730734642301479 -0.03499996982003508 0 -0.02435689164723653 -0.035884814604342438 0 -0.025651404470290972 -0.034999985553092694 0 -0.02435689164723653 -0.035884814604342438 0 -0.025651404470290972 -0.034999985553092694 0 -0.025996884665276668 -0.03608849468126591 0 -0.026372726628133732 -0.037266995427024795 0 -0.024722897494989141 -0.03690732686830285 0 -0.025996884665276668 -0.03608849468126591 0 -0.025710462690835639 -0.03713832268153857 0 -0.02529274641623519 -0.036691037762954959 0 -0.026594714291317045 -0.036827615718336343 0 -0.026471946952846208 -0.036927890975758187 0 -0.026203437442820894 -0.037009019787587104 0 -0.026594714291317045 -0.036827615718336343 0 -0.025591511399909148 -0.036437485192380006 0 -0.026203437442820894 -0.037009019787587104 0 -0.026471946952846208 -0.036927890975758187 0 -0.026203437442820894 -0.037009019787587104 0 -0.026368901171779219 -0.036936190574457309 0 -0.025591511399909148 -0.036437485192380006 0 -0.026203437442820894 -0.037009019787587104 0 -0.025320754597347183 -0.037294605811772887 0 -0.024547951129061316 -0.037110163809630982 0 -0.025591511399909148 -0.036437485192380006 0 -0.025320754597347183 -0.037294605811772887 0 -0.024547951129061316 -0.037110163809630982 0 -0.025320754597347183 -0.037294605811772887 0 -0.024808719768627412 -0.037719805942377657 0 -0.025320754597347183 -0.037294605811772887 0 -0.024808719768627412 -0.037719805942377657 0 -0.025137687106433968 -0.038269939587819282 0 -0.026203437442820894 -0.037009019787587104 0 -0.026546819868157188 -0.036928215251471407 0 -0.026368901171779219 -0.036936190574457309 0 -0.026203437442820894 -0.037009019787587104 0 -0.025320754597347183 -0.037294605811772887 0 -0.025137687106433968 -0.038269939587819282 0 -0.026152288574260895 -0.037144611020675428 0 -0.025925682835111846 -0.03748817695424829 0 -0.026546819868157188 -0.036928215251471407 0 -0.026468011109110266 -0.036879192387801886 0 -0.026368901171779219 -0.036936190574457309 0 -0.024200998327274199 -0.038384708452254182 0 -0.024808719768627412 -0.037719805942377657 0 -0.025137687106433968 -0.038269939587819282 0 -0.026546819868157188 -0.036928215251471407 0 -0.026561905244669084 -0.036888208313319626 0 -0.026468011109110266 -0.036879192387801886 0 -0.026588198800224911 -0.036870717063282495 0 -0.026546819868157188 -0.036928215251471407 0 -0.026561905244669084 -0.036888208313319626 0 -0.026561905244669084 -0.036888208313319626 0 -0.026527102585762005 -0.036828905444564575 0 -0.026578549081005088 -0.03676231590280437 0 -0.026561905244669084 -0.036888208313319626 0 -0.026527102585762005 -0.036828905444564575 0 -0.026468011109110266 -0.036879192387801886 0 -0.026527102585762005 -0.036828905444564575 0 -0.026468011109110266 -0.036879192387801886 0 -0.026501323367870106 -0.036789574959881971 0 -0.026468011109110266 -0.036879192387801886 0 -0.026456733503453751 -0.03687109186849883 0 -0.026501323367870106 -0.036789574959881971 0 -0.026471946952846208 -0.036927890975758187 0 -0.026456733503453751 -0.03687109186849883 0 -0.026368901171779219 -0.036936190574457309 0 -0.026468011109110266 -0.036879192387801886 0 -0.026456733503453751 -0.03687109186849883 0 -0.026368901171779219 -0.036936190574457309 0 -0.026446658895469204 -0.036719946363058281 0 -0.026456733503453751 -0.03687109186849883 0 -0.026501323367870106 -0.036789574959881971 0 -0.026446658895469204 -0.036719946363058281 0 -0.026501323367870106 -0.036789574959881971 0 -0.026523680247377855 -0.036654605633837899 0 -0.026501323367870106 -0.036789574959881971 0 -0.026576214857794791 -0.036678969176759418 0 -0.026523680247377855 -0.036654605633837899 0 -0.026561905244669084 -0.036888208313319626 0 -0.026578549081005088 -0.03676231590280437 0 -0.026708090697347246 -0.036693254957642689 0 -0.026527102585762005 -0.036828905444564575 0 -0.026501323367870106 -0.036789574959881971 0 -0.026578549081005088 -0.03676231590280437 0 -0.026578549081005088 -0.03676231590280437 0 -0.026638858459377548 -0.03667598601764515 0 -0.026576214857794791 -0.036678969176759418 0 -0.026578549081005088 -0.03676231590280437 0 -0.026638858459377548 -0.03667598601764515 0 -0.026708090697347246 -0.036693254957642689 0 -0.026501323367870106 -0.036789574959881971 0 -0.026578549081005088 -0.03676231590280437 0 -0.026576214857794791 -0.036678969176759418 0 -0.026576214857794791 -0.036678969176759418 0 -0.026586298478120825 -0.036578363015988026 0 -0.026523680247377855 -0.036654605633837899 0 -0.026586298478120825 -0.036578363015988026 0 -0.026515713956273664 -0.036490525442937204 0 -0.026691128609679277 -0.036467376795574158 0 -0.026576214857794791 -0.036678969176759418 0 -0.026640914007594753 -0.03661946376086142 0 -0.026586298478120825 -0.036578363015988026 0 -0.026638858459377548 -0.03667598601764515 0 -0.026576214857794791 -0.036678969176759418 0 -0.026640914007594753 -0.03661946376086142 0 -0.026638858459377548 -0.03667598601764515 0 -0.026640914007594753 -0.03661946376086142 0 -0.026695520804206667 -0.036633758318482867 0 -0.026641946887239244 -0.036091777797427893 0 -0.02555424931152785 -0.03551011804414457 0 -0.026640914007594753 -0.03661946376086142 0 -0.026586298478120825 -0.036578363015988026 0 -0.026691128609679277 -0.036467376795574158 0 -0.026640914007594753 -0.03661946376086142 0 -0.026691128609679277 -0.036467376795574158 0 -0.026710973726693888 -0.03662526555127002 0 -0.026446658895469204 -0.036719946363058281 0 -0.026523680247377855 -0.036654605633837899 0 -0.026515713956273664 -0.036490525442937204 0 -0.032129760094202417 -0.034463935389024716 0 -0.032340405848530637 -0.032701108845803899 0 -0.026586298478120825 -0.036578363015988026 0 -0.026523680247377855 -0.036654605633837899 0 -0.026515713956273664 -0.036490525442937204 0 -0.039306570613877788 -0.031605266077166294 0 -0.032340405848530637 -0.032701108845803899 0 -0.037887678066005175 -0.031483489243044276 0 -0.037771121686572748 -0.031438662081825615 0 -0.037812067997225168 -0.031467029961798593 0 -0.032340405848530637 -0.032701108845803899 0 -0.033939973731218515 -0.030586434869990464 0 -0.037771121686572748 -0.031438662081825615 0 -0.037812067997225168 -0.031467029961798593 0 -0.037716573375668604 -0.031449823420711738 0 -0.037812067997225168 -0.031467029961798593 0 -0.037716573375668604 -0.031449823420711738 0 -0.037768214849375349 -0.031496514395560039 0 -0.03669844879358005 -0.027788327329802288 0 -0.032068027210039693 -0.027468180686495276 0 -0.037716573375668604 -0.031449823420711738 0 -0.037768214849375349 -0.031496514395560039 0 -0.037639058504922301 -0.031486625124374237 0 -0.030267376601928037 -0.029992007649402595 0 -0.030726637967951984 -0.029293408745657556 0 -0.031007040365782182 -0.030644672198629673 0 -0.026229519331895927 -0.028181985441343628 0 -0.02618993681837652 -0.028158379779386497 0 -0.026179764167688978 -0.028167724134940911 0 -0.030435744966195558 -0.026947088343585338 0 -0.026882195898574972 -0.03169156477531395 0 -0.030950617284250165 -0.023622722669759476 0 -0.028208575545376882 -0.023586195005962141 0 -0.03110822805766671 -0.024293483145377263 0 -0.030435744966195558 -0.026947088343585338 0 -0.027959067327782243 -0.023532784362864517 0 -0.031319652055714353 -0.027968043483652259 0 -0.030776710404733242 -0.027960627477318402 0 -0.031158655437230093 -0.027273196722081571 0 -0.030435744966195558 -0.026947088343585338 0 -0.032068027210039693 -0.027468180686495276 0 -0.030267376601928037 -0.029992007649402595 0 -0.030726637967951984 -0.029293408745657556 0 -0.030647866701646081 -0.02929196414912489 0 -0.033939973731218515 -0.030586434869990464 0 -0.032068027210039693 -0.027468180686495276 0 -0.032340405848530637 -0.032701108845803899 0 -0.026882195898574972 -0.03169156477531395 0 -0.029899735104479696 -0.030679447363449883 0 -0.030267376601928037 -0.029992007649402595 0 -0.031007040365782182 -0.030644672198629673 0 -0.026882195898574972 -0.03169156477531395 0 -0.023933599075676472 -0.030137583899862219 0 -0.026151186215665406 -0.028151640435527068 0 -0.026179764167688978 -0.028167724134940911 0 -0.026124980017135927 -0.028168237624595541 0 -0.02618993681837652 -0.028158379779386497 0 -0.026151186215665406 -0.028151640435527068 0 -0.026179764167688978 -0.028167724134940911 0 -0.027959067327782243 -0.023532784362864517 0 -0.022732740553410957 -0.021024030253503946 0 -0.026179764167688978 -0.028167724134940911 0 -0.026201077082836692 -0.02818294906549898 0 -0.026124980017135927 -0.028168237624595541 0 -0.027959067327782243 -0.023532784362864517 0 -0.022931685059805973 -0.026227480786788639 0 -0.026229519331895927 -0.028181985441343628 0 -0.026179764167688978 -0.028167724134940911 0 -0.026201077082836692 -0.02818294906549898 0 -0.027208459443074963 -0.023869243595060617 0 -0.022825959574299434 -0.023802281782801041 0 -0.023463293520069754 -0.022322372085244221 0 -0.020182205516535615 -0.025369052731137234 0 -0.020703249673030413 -0.024166620372702903 0 -0.017564869198296727 -0.024206991217456422 0 -0.022732740553410957 -0.021024030253503946 0 -0.022931685059805973 -0.026227480786788639 0 -0.022479529093811377 -0.027215163024138046 0 -0.021524075645452043 -0.02941116469259298 0 -0.018954620399288507 -0.027298479096734038 0 -0.023933599075676472 -0.030137583899862219 0 -0.022931685059805973 -0.026227480786788639 0 -0.023933599075676472 -0.030137583899862219 0 -0.018282724454273112 -0.030136825918886525 0 -0.022293190000335392 -0.032959560624452072 0 -0.021716359834080809 -0.032482010193107286 0 -0.020844692115610745 -0.032986657427665558 0 -0.021716359834080809 -0.032482010193107286 0 -0.022648421767258172 -0.032161042007563853 0 -0.021622110547688721 -0.031971337888926088 0 -0.024140125746866633 -0.034570835442496013 0 -0.021723463224225924 -0.036061561285422032 0 -0.021716359834080809 -0.032482010193107286 0 -0.021622110547688721 -0.031971337888926088 0 -0.021169095022896357 -0.032334503334305278 0 -0.02457595823195111 -0.032021077400749949 0 -0.025235645923008001 -0.033526734994520427 0 -0.024904071292144326 -0.033465567767066023 0 -0.02457595823195111 -0.032021077400749949 0 -0.025886358641774743 -0.031979509328431556 0 -0.025235645923008001 -0.033526734994520427 0 -0.023933599075676472 -0.030137583899862219 0 -0.024140125746866633 -0.034570835442496013 0 -0.022293190000335392 -0.032959560624452072 0 -0.021716359834080809 -0.032482010193107286 0 -0.022648421767258172 -0.032161042007563853 0 -0.026882195898574972 -0.03169156477531395 0 -0.02555424931152785 -0.03551011804414457 0 -0.02555424931152785 -0.03551011804414457 0 -0.025319461395795221 -0.036137717104375779 0 -0.024140125746866633 -0.034570835442496013 0 -0.025319461395795221 -0.036137717104375779 0 -0.025286509448232183 -0.034897583184901056 0 -0.024780941240764069 -0.034803831162040014 0 -0.024973097986477514 -0.035634222704657617 0 -0.024140125746866633 -0.034570835442496013 0 -0.02555424931152785 -0.03551011804414457 0 -0.026588198800224911 -0.036870717063282495 0 -0.026561905244669084 -0.036888208313319626 0 -0.026564997014804029 -0.036822278021057996 0 -0.023592718467778832 -0.036212074066617334 0 -0.023667027313216252 -0.036523794641319579 0 -0.023162144490600948 -0.036551527260553156 0 -0.023617361893829059 -0.036634171332137887 0 -0.023667027313216252 -0.036523794641319579 0 -0.023162144490600948 -0.036551527260553156 0 -0.026737702203959029 -0.036965829283857429 0 -0.025319461395795221 -0.036137717104375779 0 -0.026638858459377548 -0.03667598601764515 0 -0.026695520804206667 -0.036633758318482867 0 -0.026708090697347246 -0.036693254957642689 0 -0.024260822795721119 -0.037969582039941524 0 -0.025319461395795221 -0.036137717104375779 0 -0.024260822795721119 -0.037969582039941524 0 -0.021723463224225924 -0.036061561285422032 0 -0.022348567645478119 -0.039209384062325804 0 -0.020830530891433784 -0.037293061747873266 0 -0.022545825316970951 -0.038806997209873406 0 -0.023608735684062403 -0.038894398120476764 0 -0.022382894435627153 -0.039831455573521683 0 -0.022545825316970951 -0.038806997209873406 0 -0.022382894435627153 -0.039831455573521683 0 -0.022081041404744952 -0.039771846935781029 0 -0.021723463224225924 -0.036061561285422032 0 -0.020830530891433784 -0.037293061747873266 0 -0.020830530891433784 -0.037293061747873266 0 -0.01825000108008757 -0.036375852664181883 0 -0.022382950573268556 -0.039002133382432955 0 -0.021788721467793492 -0.040183010409073051 0 -0.021301378419720872 -0.039356342888839255 0 -0.01835574571094465 -0.035203923763610735 0 -0.018941944177975973 -0.035314407717099129 0 -0.018488722325145535 -0.034893784222521609 0 -0.021788721467793492 -0.040183010409073051 0 -0.021301378419720872 -0.039356342888839255 0 -0.020527873517468993 -0.039948579317183992 0 -0.020425167882451096 -0.038902742712588784 0 -0.021301378419720872 -0.039356342888839255 0 -0.020527873517468993 -0.039948579317183992 0 -0.01825000108008757 -0.036375852664181883 0 -0.016397748240432913 -0.03590605281792239 0 -0.014328493219970243 -0.032362731376699851 0 -0.013795005775682606 -0.032836379052513354 0 -0.013349480867194653 -0.032180230771662238 0 -0.020277632177651432 -0.040084627987853561 0 -0.01825000108008757 -0.036375852664181883 0 -0.020425167882451096 -0.038902742712588784 0 -0.020496061528011575 -0.039905916471465019 0 -0.019054880517593676 -0.039655670593055622 0 -0.014328493219970243 -0.032362731376699851 0 -0.013795005775682606 -0.032836379052513354 0 -0.014412693325815957 -0.03333760083783182 0 -0.01825000108008757 -0.036375852664181883 0 -0.016294344343507908 -0.032728022601961136 0 -0.013795005775682606 -0.032836379052513354 0 -0.013846110449461218 -0.033301827027873272 0 -0.014412693325815957 -0.03333760083783182 0 -0.017694895084234368 -0.032170670191529957 0 -0.017857945215817208 -0.031751845441269036 0 -0.017991778902775382 -0.031882591624460464 0 -0.018941944177975973 -0.035314407717099129 0 -0.018488722325145535 -0.034893784222521609 0 -0.018861161048153992 -0.03455586907934171 0 -0.019801829030999512 -0.03373323384413425 0 -0.016294344343507908 -0.032728022601961136 0 -0.021716359834080809 -0.032482010193107286 0 -0.021169095022896357 -0.032334503334305278 0 -0.020844692115610745 -0.032986657427665558 0 -0.019801829030999512 -0.03373323384413425 0 -0.018282724454273112 -0.030136825918886525 0 -0.021723463224225924 -0.036061561285422032 0 -0.019801829030999512 -0.03373323384413425 0 -0.020830530891433784 -0.037293061747873266 0 -0.019801829030999512 -0.03373323384413425 0 -0.020281805699725475 -0.03550495163801301 0 -0.020525294663405982 -0.035549328621651999 0 -0.020714360409137073 -0.035120283222437855 0 -0.021524075645452043 -0.02941116469259298 0 -0.018954620399288507 -0.027298479096734038 0 -0.018528059861683651 -0.028190485789303135 0 -0.017857945215817208 -0.031751845441269036 0 -0.017976045722072492 -0.031746976708641482 0 -0.017991778902775382 -0.031882591624460464 0 -0.018282724454273112 -0.030136825918886525 0 -0.014949908251692909 -0.029814452067997498 0 -0.015521867001754609 -0.030012349217538568 0 -0.016594341679080967 -0.02770470843717265 0 -0.016818497023447527 -0.029976029136198894 0 -0.018282724454273112 -0.030136825918886525 0 -0.015875276187133774 -0.026431466680009817 0 -0.015875276187133774 -0.026431466680009817 0 -0.014949908251692909 -0.029814452067997498 0 -0.022732740553410957 -0.021024030253503946 0 -0.014626672744431716 -0.021917072104662493 0 -0.022931685059805973 -0.026227480786788639 0 -0.015875276187133774 -0.026431466680009817 0 -0.020703249673030413 -0.024166620372702903 0 -0.016986973783505301 -0.022669295873636714 0 -0.017564869198296727 -0.024206991217456422 0 -0.020182205516535615 -0.025369052731137234 0 -0.017564869198296727 -0.024206991217456422 0 -0.017241035339349002 -0.025328028251116696 0 -0.016986973783505301 -0.022669295873636714 0 -0.017564869198296727 -0.024206991217456422 0 -0.017205138652219627 -0.024941454854847334 0 -0.015875276187133774 -0.026431466680009817 0 -0.014308631052807594 -0.023406107527671159 0 -0.015160563070782144 -0.023507960234222934 0 -0.014308631052807594 -0.023406107527671159 0 -0.017564869198296727 -0.024206991217456422 0 -0.017204596083008634 -0.024939795279902376 0 -0.017241035339349002 -0.025328028251116696 0 -0.014177136139597306 -0.022916130782538964 0 -0.01400159486813974 -0.021084647543636155 0 -0.015049708732730075 -0.021099778480000147 0 -0.014308631052807594 -0.023406107527671159 0 -0.012829651461755546 -0.022275361271541897 0 -0.014308631052807594 -0.023406107527671159 0 -0.014626672744431716 -0.021917072104662493 0 -0.014626672744431716 -0.021917072104662493 0 -0.012829651461755546 -0.022275361271541897 0 -0.012227963748730898 -0.02662104567188207 0 -0.011430072143724412 -0.025907394374313657 0 -0.01093025861963505 -0.026003283255999675 0 -0.012829651461755546 -0.022275361271541897 0 -0.0085840420840148125 -0.023812445135939567 0 -0.012227963748730898 -0.02662104567188207 0 -0.01093025861963505 -0.026003283255999675 0 -0.01047270177879449 -0.026594278293712501 0 -0.012326618589990975 -0.026423887945359957 0 -0.012227963748730898 -0.02662104567188207 0 -0.011857355906969225 -0.026011616999030329 0 -0.012227963748730898 -0.02662104567188207 0 -0.011857355906969225 -0.026011616999030329 0 -0.011430072143724412 -0.025907394374313657 0 -0.012245190218333753 -0.025241395275974163 0 -0.012326618589990975 -0.026423887945359957 0 -0.011857355906969225 -0.026011616999030329 0 -0.015875276187133774 -0.026431466680009817 0 -0.013107474404636986 -0.026439051051477157 0 -0.01221409422156495 -0.025277192512889089 0 -0.011857355906969225 -0.026011616999030329 0 -0.011612938797965164 -0.025447684168914381 0 -0.011857355906969225 -0.026011616999030329 0 -0.011430072143724412 -0.025907394374313657 0 -0.011612938797965164 -0.025447684168914381 0 -0.011430072143724412 -0.025907394374313657 0 -0.011157969759503634 -0.025573491590626881 0 -0.011612938797965164 -0.025447684168914381 0 -0.011157969759503634 -0.025573491590626881 0 -0.010705508161663066 -0.025289199600712003 0 -0.01093025861963505 -0.026003283255999675 0 -0.011430072143724412 -0.025907394374313657 0 -0.011157969759503634 -0.025573491590626881 0 -0.01093025861963505 -0.026003283255999675 0 -0.011266490369097531 -0.025156790753266 0 -0.012167881392476017 -0.024723567896664342 0 -0.010683819025673546 -0.024751625648206099 0 -0.011157969759503634 -0.025573491590626881 0 -0.011266490369097531 -0.025156790753266 0 -0.010705508161663066 -0.025289199600712003 0 -0.014949908251692909 -0.029814452067997498 0 -0.01254333446419204 -0.029155169328957113 0 -0.014442951403415807 -0.03354276574352065 0 -0.014244012665575735 -0.033472498494205138 0 -0.013503731008445163 -0.033571083375358378 0 -0.011157969759503634 -0.025573491590626881 0 -0.011266490369097531 -0.025156790753266 0 -0.011612938797965164 -0.025447684168914381 0 -0.011266490369097531 -0.025156790753266 0 -0.011612938797965164 -0.025447684168914381 0 -0.012167881392476017 -0.024723567896664342 0 -0.01221409422156495 -0.025277192512889089 0 -0.011612938797965164 -0.025447684168914381 0 -0.012167881392476017 -0.024723567896664342 0 -0.013846110449461218 -0.033301827027873272 0 -0.014244012665575735 -0.033472498494205138 0 -0.014412693325815957 -0.03333760083783182 0 -0.014442951403415807 -0.03354276574352065 0 -0.014244012665575735 -0.033472498494205138 0 -0.014429971614434696 -0.03331260376246635 0 -0.014949908251692909 -0.029814452067997498 0 -0.016294344343507908 -0.032728022601961136 0 -0.015394648282133714 -0.03330663181475773 0 -0.016294344343507908 -0.032728022601961136 0 -0.013846110449461218 -0.033301827027873272 0 -0.014244012665575735 -0.033472498494205138 0 -0.013503731008445163 -0.033571083375358378 0 -0.010705508161663066 -0.025289199600712003 0 -0.010099913861267237 -0.026566038970271981 0 -0.0092223417945524761 -0.024808923528285572 0 -0.010683819025673546 -0.024751625648206099 0 -0.010705508161663066 -0.025289199600712003 0 -0.0092223417945524761 -0.024808923528285572 0 -0.01254333446419204 -0.029155169328957113 0 -0.0067127871757638371 -0.028351773647365807 0 -0.013503731008445163 -0.033571083375358378 0 -0.012566599264989327 -0.033576990247261802 0 -0.013142127256029337 -0.032992385705694835 0 -0.011266490369097531 -0.025156790753266 0 -0.010683819025673546 -0.024751625648206099 0 -0.010705508161663066 -0.025289199600712003 0 -0.010705508161663066 -0.025289199600712003 0 -0.010099913861267237 -0.026566038970271981 0 -0.010422292271664708 -0.026567998364427664 0 -0.010540361082399039 -0.026213802481317577 0 -0.0085840420840148125 -0.023812445135939567 0 -0.010705508161663066 -0.025289199600712003 0 -0.01093025861963505 -0.026003283255999675 0 -0.01047270177879449 -0.026594278293712501 0 -0.0048144442911023308 -0.023173184439532882 0 -0.0085840420840148125 -0.023812445135939567 0 0.00067866403012146461 -0.022411760858609873 0 -0.0019524089996761187 -0.024122524212107366 0 -0.001671547416508361 -0.027310121054080587 0 -0.0048144442911023308 -0.023173184439532882 0 -0.0050802369940035567 -0.02159319297144836 0 -0.0048144442911023308 -0.023173184439532882 0 -0.0067127871757638371 -0.028351773647365807 0 0.00067866403012146461 -0.022411760858609873 0 -0.0019524089996761187 -0.024122524212107366 0 -0.004663174825131608 -0.022386256255285081 0 -0.0019524089996761187 -0.024122524212107366 0 -0.0035568693164293118 -0.025895678056045261 0 -0.004663174825131608 -0.022386256255285081 0 -0.0019524089996761187 -0.024122524212107366 0 -0.0035568693164293118 -0.025895678056045261 0 -0.001671547416508361 -0.027310121054080587 0 -0.001293827408253126 -0.028206170620924433 0 -0.003007210785669524 -0.028689870307178407 0 -0.005697408871532003 -0.028047717384228139 0 -0.0067127871757638371 -0.028351773647365807 0 -0.0047532428506307095 -0.02769554108686962 0 -0.0035568693164293118 -0.025895678056045261 0 -0.001671547416508361 -0.027310121054080587 0 -0.0055340749264629887 -0.027356323587403433 0 -0.001293827408253126 -0.028206170620924433 0 -0.003007210785669524 -0.028689870307178407 0 -0.002823053679427505 -0.031284858675651263 0 -0.0067127871757638371 -0.028351773647365807 0 -0.0053400443960919999 -0.031856644496256269 0 -0.012566599264989327 -0.033576990247261802 0 -0.01227348934769687 -0.032966650788149782 0 -0.013142127256029337 -0.032992385705694835 0 -0.01227348934769687 -0.032966650788149782 0 -0.013142127256029337 -0.032992385705694835 0 -0.012785079518409025 -0.032540405144233141 0 -0.0026927172370201737 -0.031383288920125992 0 -0.0030594645618011716 -0.032139041050811619 0 -0.0022831381128730083 -0.036692668718970055 0 -0.003007210785669524 -0.028689870307178407 0 -0.0027156377826550162 -0.03139007420533689 0 -0.0040448522153491637 -0.030096775357414098 0 -0.0037918332198334749 -0.029344526066432161 0 -0.0053400443960919999 -0.031856644496256269 0 -0.0027156377826550162 -0.03139007420533689 0 -0.0030594645618011716 -0.032139041050811619 0 -0.0043729920845819231 -0.03200353623765885 0 -0.0053400443960919999 -0.031856644496256269 0 -0.0049970910436859545 -0.031647386259591827 0 -0.013795005775682606 -0.032836379052513354 0 -0.013142127256029337 -0.032992385705694835 0 -0.013349480867194653 -0.032180230771662238 0 -0.013846110449461218 -0.033301827027873272 0 -0.013503731008445163 -0.033571083375358378 0 -0.013142127256029337 -0.032992385705694835 0 -0.013795005775682606 -0.032836379052513354 0 -0.013846110449461218 -0.033301827027873272 0 -0.013142127256029337 -0.032992385705694835 0 -0.013142127256029337 -0.032992385705694835 0 -0.013349480867194653 -0.032180230771662238 0 -0.012785079518409025 -0.032540405144233141 0 -0.013349480867194653 -0.032180230771662238 0 -0.012785079518409025 -0.032540405144233141 0 -0.012380996855115033 -0.032024259319170266 0 -0.0053400443960919999 -0.031856644496256269 0 -0.012964392909072501 -0.036270465862644492 0 -0.016397748240432913 -0.03590605281792239 0 -0.012964392909072501 -0.036270465862644492 0 -0.01227348934769687 -0.032966650788149782 0 -0.012785079518409025 -0.032540405144233141 0 -0.012380996855115033 -0.032024259319170266 0 -0.0030594645618011716 -0.032139041050811619 0 -0.0022831381128730083 -0.036692668718970055 0 -0.0037566418136319446 -0.033829795895274968 0 -0.0056119116870906472 -0.015702727003417922 0 -0.0045948139580889169 -0.016962790237905635 0 -0.0058899369224170578 -0.014656616379600437 0 -0.0056119116870906472 -0.015702727003417922 0 -0.0061857624434921207 -0.016254310056569493 0 -0.0066877690471251056 -0.015198055723692429 0 -0.0056119116870906472 -0.015702727003417922 0 -0.0061628391789552654 -0.014976152393820113 0 -0.0066877690471251056 -0.015198055723692429 0 -0.0061628391789552654 -0.014976152393820113 0 -0.0064452068456591792 -0.014440756635467258 0 -0.0066877690471251056 -0.015198055723692429 0 -0.0056119116870906472 -0.015702727003417922 0 -0.0061628391789552654 -0.014976152393820113 0 -0.0058899369224170578 -0.014656616379600437 0 -0.0055325558859634907 -0.015142679397150459 0 -0.0052447177134890407 -0.01471690346265505 0 -0.0055211647408029054 -0.014440443365702252 0 -0.004874967901096156 -0.016817320874604712 0 -0.0058646548853095986 -0.014864888078753795 0 -0.0049441571971643207 -0.016240465215127068 0 -0.0058899369224170578 -0.014656616379600437 0 -0.0059280910766612675 -0.014249502833140991 0 -0.0055325558859634907 -0.015142679397150459 0 -0.0055211647408029054 -0.014440443365702252 0 -0.0059280910766612675 -0.014249502833140991 0 -0.0050995407694550271 -0.016275583654072116 0 -0.0049441571971643207 -0.016240465215127068 0 -0.0058899369224170578 -0.014656616379600437 0 -0.0066897382248289625 -0.017066478063931405 0 -0.0055467852638910057 -0.01385162371422799 0 -0.0050995407694550271 -0.016275583654072116 0 -0.0055711951038880832 -0.016994851431260925 0 -0.0058899369224170578 -0.014656616379600437 0 -0.0049414400619421893 -0.016242870724718122 0 -0.0055711951038880832 -0.016994851431260925 0 -0.0042501782600318583 -0.017708397375615373 0 -0.0066897382248289625 -0.017066478063931405 0 -0.0091574745989174075 -0.018927055706700353 0 -0.0050995407694550271 -0.016275583654072116 0 -0.0049414400619421893 -0.016242870724718122 0 -0.0055711951038880832 -0.016994851431260925 0 -0.0064460567626772906 -0.017001764359083564 0 -0.0066897382248289625 -0.017066478063931405 0 -0.0045948139580889169 -0.016962790237905635 0 -0.005514286246869414 -0.016534849615949736 0 -0.0056818406300082128 -0.017319530086432375 0 -0.0056119116870906472 -0.015702727003417922 0 -0.0045948139580889169 -0.016962790237905635 0 -0.005514286246869414 -0.016534849615949736 0 -0.0056119116870906472 -0.015702727003417922 0 -0.005514286246869414 -0.016534849615949736 0 -0.0061857624434921207 -0.016254310056569493 0 -0.005514286246869414 -0.016534849615949736 0 -0.0061857624434921207 -0.016254310056569493 0 -0.0056818406300082128 -0.017319530086432375 0 -0.0061857624434921207 -0.016254310056569493 0 -0.0056818406300082128 -0.017319530086432375 0 -0.0069556957041436128 -0.01718148240078211 0 -0.0045948139580889169 -0.016962790237905635 0 -0.0056818406300082128 -0.017319530086432375 0 -0.0050293232587520836 -0.018724766604154185 0 -0.0056818406300082128 -0.017319530086432375 0 -0.0062236933321868394 -0.018865956110827368 0 -0.0069556957041436128 -0.01718148240078211 0 -0.0056818406300082128 -0.017319530086432375 0 -0.0050293232587520836 -0.018724766604154185 0 -0.0062236933321868394 -0.018865956110827368 0 -0.0040670467061616443 -0.020883930400051817 0 -0.0051520786338007463 -0.019965647665612735 0 -0.0067191176891881702 -0.021131623711853113 0 -0.0062236933321868394 -0.018865956110827368 0 -0.0051520786338007463 -0.019965647665612735 0 -0.0067191176891881702 -0.021131623711853113 0 -0.0050293232587520836 -0.018724766604154185 0 -0.0062236933321868394 -0.018865956110827368 0 -0.0051520786338007463 -0.019965647665612735 0 -0.006085977392184418 -0.020768612586236069 0 -0.0091574745989174075 -0.018927055706700353 0 -0.0072048297514002383 -0.023740620189349481 0 -0.0060473873823589279 -0.023723671412466622 0 -0.0063624265698795819 -0.022006391936056611 0 -0.0085840420840148125 -0.023812445135939567 0 -0.006085977392184418 -0.020768612586236069 0 -0.0040670467061616443 -0.020883930400051817 0 -0.0051520786338007463 -0.019965647665612735 0 -0.0037312076770834655 -0.02021354169618814 0 -0.0048144442911023308 -0.023173184439532882 0 -0.006085977392184418 -0.020768612586236069 0 -0.0050293232587520836 -0.018724766604154185 0 -0.0051520786338007463 -0.019965647665612735 0 -0.0037312076770834655 -0.02021354169618814 0 -0.0045948139580889169 -0.016962790237905635 0 -0.0050293232587520836 -0.018724766604154185 0 -0.0037312076770834655 -0.02021354169618814 0 -0.0055711951038880832 -0.016994851431260925 0 -0.0051611410438729306 -0.019562538393537155 0 -0.0042501782600318583 -0.017708397375615373 0 -0.004874967901096156 -0.016817320874604712 0 -0.006085977392184418 -0.020768612586236069 0 -0.011230292666831926 -0.019294462988004295 0 -0.010859871013543656 -0.019517770583597518 0 -0.011092936490736928 -0.019057563007984758 0 -0.0091574745989174075 -0.018927055706700353 0 -0.010625967010353512 -0.01950176133634246 0 -0.0096211135740646957 -0.020973684861671879 0 -0.0098189292571670226 -0.020909839452006456 0 -0.0097218285598767371 -0.020688247465795003 0 -0.012829651461755546 -0.022275361271541897 0 -0.0091574745989174075 -0.018927055706700353 0 -0.0096211135740646957 -0.020973684861671879 0 -0.0098096406174386658 -0.020973649855879132 0 -0.0098189292571670226 -0.020909839452006456 0 -0.010970295840670666 -0.020010687256667974 0 -0.011230292666831926 -0.019294462988004295 0 -0.010859871013543656 -0.019517770583597518 0 -0.010932775141820266 -0.020010937934105119 0 -0.010970295840670666 -0.020010687256667974 0 -0.010859871013543656 -0.019517770583597518 0 -0.018595891119094276 -0.019888779043209005 0 -0.018249587002095679 -0.01988701776740075 0 -0.018369087168580291 -0.020017553087629664 0 -0.018595891119094276 -0.019888779043209005 0 -0.018369087168580291 -0.020017553087629664 0 -0.018441563421162651 -0.020164107130119586 0 -0.018249587002095679 -0.01988701776740075 0 -0.018369087168580291 -0.020017553087629664 0 -0.018290529965472764 -0.02016123707756021 0 -0.014626672744431716 -0.021917072104662493 0 -0.014485204673372359 -0.019432478574832417 0 -0.018369087168580291 -0.020017553087629664 0 -0.018441563421162651 -0.020164107130119586 0 -0.018290529965472764 -0.02016123707756021 0 -0.022169561062306543 -0.019256174032957742 0 -0.016968658173334213 -0.019882838706588409 0 -0.025217213564802173 -0.019245418527903766 0 -0.024412411232912594 -0.020999687811587665 0 -0.025441319151975113 -0.020480545840745948 0 -0.010859871013543656 -0.019517770583597518 0 -0.010826061269809359 -0.019062808143857253 0 -0.011092936490736928 -0.019057563007984758 0 -0.018441563421162651 -0.020164107130119586 0 -0.018290529965472764 -0.02016123707756021 0 -0.018304217691705666 -0.020407632074444619 0 -0.014485204673372359 -0.019432478574832417 0 -0.016968658173334213 -0.019882838706588409 0 -0.025285470842685093 -0.021281803635179782 0 -0.024412411232912594 -0.020999687811587665 0 -0.025441319151975113 -0.020480545840745948 0 -0.025285470842685093 -0.021281803635179782 0 -0.024412411232912594 -0.020999687811587665 0 -0.024510044805920679 -0.022205590730466202 0 -0.025285470842685093 -0.021281803635179782 0 -0.025086065298477032 -0.022318105052336081 0 -0.024510044805920679 -0.022205590730466202 0 -0.016968658173334213 -0.019882838706588409 0 -0.017458496435691504 -0.018058362691317852 0 -0.0159265373958524 -0.017266428457428939 0 -0.015181993514382465 -0.019048091082766425 0 -0.014990142462800735 -0.017090619191140122 0 -0.010768930817986532 -0.016676831902122147 0 -0.016968658173334213 -0.019882838706588409 0 -0.0066897382248289625 -0.017066478063931405 0 -0.010768930817986532 -0.016676831902122147 0 -0.011261259744789361 -0.018930127964673363 0 -0.010935188923201002 -0.018840107403572094 0 -0.011092936490736928 -0.019057563007984758 0 -0.011261259744789361 -0.018930127964673363 0 -0.011141833453082879 -0.019181305240265522 0 -0.011092936490736928 -0.019057563007984758 0 -0.010935188923201002 -0.018840107403572094 0 -0.010826061269809359 -0.019062808143857253 0 -0.011092936490736928 -0.019057563007984758 0 -0.0048391076365516842 -0.01500631307408439 0 -0.0052447177134890407 -0.01471690346265505 0 -0.0050034785407013765 -0.014498746694388085 0 -0.010768930817986532 -0.016676831902122147 0 -0.0081290577496509944 -0.014897723655383381 0 -0.0055325558859634907 -0.015142679397150459 0 -0.0048391076365516842 -0.01500631307408439 0 -0.0052447177134890407 -0.01471690346265505 0 -0.0052447177134890407 -0.01471690346265505 0 -0.0050034785407013765 -0.014498746694388085 0 -0.0052549322719276483 -0.014346615892240344 0 -0.0052447177134890407 -0.01471690346265505 0 -0.0052549322719276483 -0.014346615892240344 0 -0.0055211647408029054 -0.014440443365702252 0 -0.024832943273977951 -0.013338726543405807 0 -0.025117281115027975 -0.013018087814826832 0 -0.025621588956844677 -0.013697709835447257 0 -0.015508629149412482 -0.014098159820279819 0 -0.023466265815904747 -0.018399707146785359 0 -0.023466265815904747 -0.018399707146785359 0 -0.017458496435691504 -0.018058362691317852 0 -0.018270153282979932 -0.016923638999303232 0 -0.017952889282373406 -0.017321617694128752 0 -0.018319897428098135 -0.017391512993249262 0 -0.011374351598573213 -0.01491094979978524 0 -0.011209379958925694 -0.015173998207716905 0 -0.011510067612991292 -0.015062934114584248 0 -0.010768930817986532 -0.016676831902122147 0 -0.017458496435691504 -0.018058362691317852 0 -0.011374351598573213 -0.01491094979978524 0 -0.011510067612991292 -0.015062934114584248 0 -0.011502784563183301 -0.014935168305425723 0 -0.015508629149412482 -0.014098159820279819 0 -0.017458496435691504 -0.018058362691317852 0 -0.025117281115027975 -0.013018087814826832 0 -0.025621588956844677 -0.013697709835447257 0 -0.026349746239856475 -0.01323890494901225 0 -0.023466265815904747 -0.018399707146785359 0 -0.02604763887122679 -0.017780176568973415 0 -0.02604763887122679 -0.017780176568973415 0 -0.034172780687865403 -0.018904744403732042 0 -0.027321553812673489 -0.022711278449702405 0 -0.028722025813960606 -0.020534220194464246 0 -0.029498239270148705 -0.023111230987104887 0 -0.027321553812673489 -0.022711278449702405 0 -0.026856825120428949 -0.020394304753793665 0 -0.028722025813960606 -0.020534220194464246 0 -0.025285470842685093 -0.021281803635179782 0 -0.025086065298477032 -0.022318105052336081 0 -0.026856825120428949 -0.020394304753793665 0 -0.023466265815904747 -0.018399707146785359 0 -0.026936451535822616 -0.021675275183042006 0 -0.02519319622034915 -0.022289997205825848 0 -0.027321553812673489 -0.022711278449702405 0 -0.026856825120428949 -0.020394304753793665 0 -0.025285470842685093 -0.021281803635179782 0 -0.025441319151975113 -0.020480545840745948 0 -0.026856825120428949 -0.020394304753793665 0 -0.025217213564802173 -0.019245418527903766 0 -0.025441319151975113 -0.020480545840745948 0 -0.026856825120428949 -0.020394304753793665 0 -0.025217213564802173 -0.019245418527903766 0 -0.026856825120428949 -0.020394304753793665 0 -0.027461620197220187 -0.019450793316466004 0 -0.022732740553410957 -0.021024030253503946 0 -0.022169561062306543 -0.019256174032957742 0 -0.025993187517055778 -0.017497376894746616 0 -0.025217213564802173 -0.019245418527903766 0 -0.027144066664314351 -0.018380930562677984 0 -0.025217213564802173 -0.019245418527903766 0 -0.027144066664314351 -0.018380930562677984 0 -0.027461620197220187 -0.019450793316466004 0 -0.028310747193200706 -0.017543573410218987 0 -0.025993187517055778 -0.017497376894746616 0 -0.027144066664314351 -0.018380930562677984 0 -0.028310747193200706 -0.017543573410218987 0 -0.028425545190476097 -0.018230328853398585 0 -0.027144066664314351 -0.018380930562677984 0 -0.027144066664314351 -0.018380930562677984 0 -0.028491362755713776 -0.018957372886949295 0 -0.027461620197220187 -0.019450793316466004 0 -0.028425545190476097 -0.018230328853398585 0 -0.027144066664314351 -0.018380930562677984 0 -0.028491362755713776 -0.018957372886949295 0 -0.026856825120428949 -0.020394304753793665 0 -0.027461620197220187 -0.019450793316466004 0 -0.028722025813960606 -0.020534220194464246 0 -0.028491362755713776 -0.018957372886949295 0 -0.027461620197220187 -0.019450793316466004 0 -0.028722025813960606 -0.020534220194464246 0 -0.028491362755713776 -0.018957372886949295 0 -0.028722025813960606 -0.020534220194464246 0 -0.029265494331230414 -0.019146583865839967 0 -0.028722025813960606 -0.020534220194464246 0 -0.030047214480917711 -0.019577286583844906 0 -0.030701522807338774 -0.021058879146010644 0 -0.028722025813960606 -0.020534220194464246 0 -0.030047214480917711 -0.019577286583844906 0 -0.029265494331230414 -0.019146583865839967 0 -0.029433189104995379 -0.0185100393684773 0 -0.029969461257446008 -0.021838964033409292 0 -0.028491362755713776 -0.018957372886949295 0 -0.029265494331230414 -0.019146583865839967 0 -0.029310760209478755 -0.01812370878990005 0 -0.034643506033577028 -0.024071535019092781 0 -0.032319617607405399 -0.024037830164434858 0 -0.032218327868070967 -0.024525215351060746 0 -0.030047214480917711 -0.019577286583844906 0 -0.029265494331230414 -0.019146583865839967 0 -0.029310760209478755 -0.01812370878990005 0 -0.028310747193200706 -0.017543573410218987 0 -0.028425545190476097 -0.018230328853398585 0 -0.029193304696378802 -0.017922012007375795 0 -0.027959067327782243 -0.023532784362864517 0 -0.029969461257446008 -0.021838964033409292 0 -0.028208575545376882 -0.023586195005962141 0 -0.03110822805766671 -0.024293483145377263 0 -0.031235050359738618 -0.024833949050781512 0 -0.032319617607405399 -0.024037830164434858 0 -0.032165919184040492 -0.024306399940549176 0 -0.032218327868070967 -0.024525215351060746 0 -0.028425545190476097 -0.018230328853398585 0 -0.028491362755713776 -0.018957372886949295 0 -0.029193304696378802 -0.017922012007375795 0 -0.032068027210039693 -0.027468180686495276 0 -0.030945508070541354 -0.025308278639944753 0 -0.028491362755713776 -0.018957372886949295 0 -0.029310760209478755 -0.01812370878990005 0 -0.029259254036950968 -0.017892588253040721 0 -0.030435744966195558 -0.026947088343585338 0 -0.030945508070541354 -0.025308278639944753 0 -0.030945508070541354 -0.025308278639944753 0 -0.029969461257446008 -0.021838964033409292 0 -0.02979872676497974 -0.021053876252371099 0 -0.029969461257446008 -0.021838964033409292 0 -0.034643506033577028 -0.024071535019092781 0 -0.032218327868070967 -0.024525215351060746 0 -0.035851313035515732 -0.026007826301356333 0 -0.030047214480917711 -0.019577286583844906 0 -0.029310760209478755 -0.01812370878990005 0 -0.031936246812381414 -0.018993722686482795 0 -0.029310760209478755 -0.01812370878990005 0 -0.029256683396380583 -0.017891313780042696 0 -0.031936246812381414 -0.018993722686482795 0 -0.029969461257446008 -0.021838964033409292 0 -0.036284205192008326 -0.021967011329411801 0 -0.035006387138031121 -0.021461781913151155 0 -0.036284205192008326 -0.021967011329411801 0 -0.030047214480917711 -0.019577286583844906 0 -0.030701522807338774 -0.021058879146010644 0 -0.031936246812381414 -0.018993722686482795 0 -0.035006387138031121 -0.021461781913151155 0 -0.034172780687865403 -0.018904744403732042 0 -0.039510343294302558 -0.021300637976713263 0 -0.039760778651161441 -0.020758018733702772 0 -0.039321515507401157 -0.021013748350092305 0 -0.028722025813960606 -0.020534220194464246 0 -0.030701522807338774 -0.021058879146010644 0 -0.029498239270148705 -0.023111230987104887 0 -0.034172780687865403 -0.018904744403732042 0 -0.041204320784409616 -0.020737038956068016 0 -0.039760778651161441 -0.020758018733702772 0 -0.039332715480800716 -0.020660343129775882 0 -0.039321515507401157 -0.021013748350092305 0 -0.040470258667640521 -0.020265566063844755 0 -0.041126831042744762 -0.019461802795028019 0 -0.040078022950451049 -0.019168278511428057 0 -0.041483629627287022 -0.020426378898814636 0 -0.040470258667640521 -0.020265566063844755 0 -0.041126831042744762 -0.019461802795028019 0 -0.041483629627287022 -0.020426378898814636 0 -0.041126831042744762 -0.019461802795028019 0 -0.042235308647844194 -0.019109155827509206 0 -0.034172780687865403 -0.018904744403732042 0 -0.035092880277267355 -0.016663661311013683 0 -0.041126831042744762 -0.019461802795028019 0 -0.040898481567152999 -0.018300105747097666 0 -0.042235308647844194 -0.019109155827509206 0 -0.041126831042744762 -0.019461802795028019 0 -0.040898481567152999 -0.018300105747097666 0 -0.040078022950451049 -0.019168278511428057 0 -0.040898481567152999 -0.018300105747097666 0 -0.041083771338049212 -0.017244623636338635 0 -0.041831086382838764 -0.017655638448767282 0 -0.040898481567152999 -0.018300105747097666 0 -0.041083771338049212 -0.017244623636338635 0 -0.040430147383035804 -0.017281229186054653 0 -0.041083771338049212 -0.017244623636338635 0 -0.040623312858349497 -0.016714012141061291 0 -0.04111124901590027 -0.016540789429186672 0 -0.041083771338049212 -0.017244623636338635 0 -0.040430147383035804 -0.017281229186054653 0 -0.040623312858349497 -0.016714012141061291 0 -0.041083771338049212 -0.017244623636338635 0 -0.041831086382838764 -0.017655638448767282 0 -0.041504612183830829 -0.016646779033196349 0 -0.041831086382838764 -0.017655638448767282 0 -0.041504612183830829 -0.016646779033196349 0 -0.042309051087372165 -0.016783734259804117 0 -0.040898481567152999 -0.018300105747097666 0 -0.041831086382838764 -0.017655638448767282 0 -0.042235308647844194 -0.019109155827509206 0 -0.02596502696419067 -0.015964365086386642 0 -0.025672781180142382 -0.015574647230108787 0 -0.026761063849539191 -0.014761629367250624 0 -0.041831086382838764 -0.017655638448767282 0 -0.042922457944157173 -0.017768796724203142 0 -0.042235308647844194 -0.019109155827509206 0 -0.031123990871336788 -0.015600488240694869 0 -0.035092880277267355 -0.016663661311013683 0 -0.031123990871336788 -0.015600488240694869 0 -0.037326773507395883 -0.015417586225714803 0 -0.041831086382838764 -0.017655638448767282 0 -0.042922457944157173 -0.017768796724203142 0 -0.042309051087372165 -0.016783734259804117 0 -0.029260048126904307 -0.010918041481716545 0 -0.03121214093390454 -0.013670925225921365 0 -0.029033341199782927 -0.014350415086445393 0 -0.031123990871336788 -0.015600488240694869 0 -0.021171594576457762 -0.013865714730184149 0 -0.025846098921457006 -0.015866605077957958 0 -0.025181839435098958 -0.015803211174107198 0 -0.025237023501131446 -0.016718244036515499 0 -0.029260048126904307 -0.010918041481716545 0 -0.029033341199782927 -0.014350415086445393 0 -0.027239179546773018 -0.014283320004647264 0 -0.025846098921457006 -0.015866605077957958 0 -0.025672781180142382 -0.015574647230108787 0 -0.025181839435098958 -0.015803211174107198 0 -0.031123990871336788 -0.015600488240694869 0 -0.027384669624690071 -0.014418392296262858 0 -0.025672781180142382 -0.015574647230108787 0 -0.025761940913486821 -0.014676882681248591 0 -0.025002401769512548 -0.014638102694411815 0 -0.025672781180142382 -0.015574647230108787 0 -0.025761940913486821 -0.014676882681248591 0 -0.026761063849539191 -0.014761629367250624 0 -0.025621588956844677 -0.013697709835447257 0 -0.026349746239856475 -0.01323890494901225 0 -0.026761063849539191 -0.014761629367250624 0 -0.026349746239856475 -0.01323890494901225 0 -0.027598997667319096 -0.013484054450455009 0 -0.026761063849539191 -0.014761629367250624 0 -0.025621588956844677 -0.013697709835447257 0 -0.025761940913486821 -0.014676882681248591 0 -0.026761063849539191 -0.014761629367250624 0 -0.025621588956844677 -0.013697709835447257 0 -0.025761940913486821 -0.014676882681248591 0 -0.025002401769512548 -0.014638102694411815 0 -0.015508629149412482 -0.014098159820279819 0 -0.016831955149279664 -0.012480107043044109 0 -0.024832943273977951 -0.013338726543405807 0 -0.025621588956844677 -0.013697709835447257 0 -0.025002401769512548 -0.014638102694411815 0 -0.0084067356525341173 -0.010954335443686038 0 -0.0082817080138915516 -0.011053802686634475 0 -0.0083516301657591639 -0.011159052733877206 0 -0.0082817080138915516 -0.011053802686634475 0 -0.0082270606391786957 -0.011122883689992121 0 -0.0083516301657591639 -0.011159052733877206 0 -0.015508629149412482 -0.014098159820279819 0 -0.0075973943796203893 -0.013522568297284609 0 -0.0084067356525341173 -0.010954335443686038 0 -0.0082817080138915516 -0.011053802686634475 0 -0.008101381259725253 -0.0111099694469476 0 -0.011209379958925694 -0.015173998207716905 0 -0.011510067612991292 -0.015062934114584248 0 -0.011036623172611865 -0.015438842690930389 0 -0.0050034785407013765 -0.014498746694388085 0 -0.0052549322719276483 -0.014346615892240344 0 -0.005122209262061265 -0.013910661018994259 0 -0.0081290577496509944 -0.014897723655383381 0 -0.0075973943796203893 -0.013522568297284609 0 -0.0052549322719276483 -0.014346615892240344 0 -0.005122209262061265 -0.013910661018994259 0 -0.0053716558980811731 -0.014118811713665797 0 -0.0082817080138915516 -0.011053802686634475 0 -0.0081953395594395618 -0.011108845242079678 0 -0.0082270606391786957 -0.011122883689992121 0 -0.0082817080138915516 -0.011053802686634475 0 -0.008101381259725253 -0.0111099694469476 0 -0.0081953395594395618 -0.011108845242079678 0 -0.0081953395594395618 -0.011108845242079678 0 -0.0082270606391786957 -0.011122883689992121 0 -0.0081630682337204222 -0.0111446494515915 0 -0.008101381259725253 -0.0111099694469476 0 -0.0081953395594395618 -0.011108845242079678 0 -0.0081630682337204222 -0.0111446494515915 0 -0.0081630682337204222 -0.0111446494515915 0 -0.0082012486245287512 -0.011177028611762075 0 -0.0080803702174050175 -0.011216342981906234 0 -0.0082270606391786957 -0.011122883689992121 0 -0.0081630682337204222 -0.0111446494515915 0 -0.0082012486245287512 -0.011177028611762075 0 -0.008101381259725253 -0.0111099694469476 0 -0.0081630682337204222 -0.0111446494515915 0 -0.0080803702174050175 -0.011216342981906234 0 -0.0082012486245287512 -0.011177028611762075 0 -0.0080803702174050175 -0.011216342981906234 0 -0.0081801987618562895 -0.011275992587287519 0 -0.0082012486245287512 -0.011177028611762075 0 -0.0083516301657591639 -0.011159052733877206 0 -0.0081801987618562895 -0.011275992587287519 0 -0.0083516301657591639 -0.011159052733877206 0 -0.0083211107445744035 -0.011372229666921684 0 -0.0081801987618562895 -0.011275992587287519 0 -0.016831955149279664 -0.012480107043044109 0 -0.016260630645226783 -0.01367802116503933 0 -0.0082270606391786957 -0.011122883689992121 0 -0.0082012486245287512 -0.011177028611762075 0 -0.0083516301657591639 -0.011159052733877206 0 -0.025672781180142382 -0.015574647230108787 0 -0.025002401769512548 -0.014638102694411815 0 -0.025181839435098958 -0.015803211174107198 0 -0.0083211107445744035 -0.011372229666921684 0 -0.0081242617636534866 -0.011431425747311028 0 -0.0081801987618562895 -0.011275992587287519 0 -0.016260630645226783 -0.01367802116503933 0 -0.021171594576457762 -0.013865714730184149 0 -0.0083211107445744035 -0.011372229666921684 0 -0.0081242617636534866 -0.011431425747311028 0 -0.0083036284968337377 -0.011543927847679573 0 -0.0081242617636534866 -0.011431425747311028 0 -0.0080215800648661614 -0.011341189105997459 0 -0.0078891321184927834 -0.011515406188549664 0 -0.0081242617636534866 -0.011431425747311028 0 -0.0078891321184927834 -0.011515406188549664 0 -0.008107151309759239 -0.011533872821185289 0 -0.0081242617636534866 -0.011431425747311028 0 -0.0080215800648661614 -0.011341189105997459 0 -0.0081801987618562895 -0.011275992587287519 0 -0.0080803702174050175 -0.011216342981906234 0 -0.0080215800648661614 -0.011341189105997459 0 -0.0081801987618562895 -0.011275992587287519 0 -0.0080215800648661614 -0.011341189105997459 0 -0.0078128898227585002 -0.011279179321034413 0 -0.0078891321184927834 -0.011515406188549664 0 -0.0080803702174050175 -0.011216342981906234 0 -0.0080215800648661614 -0.011341189105997459 0 -0.0078128898227585002 -0.011279179321034413 0 -0.0067979670292577501 -0.011877318075407522 0 -0.0074321212085553499 -0.011718860409598183 0 -0.0078128898227585002 -0.011279179321034413 0 -0.0078891321184927834 -0.011515406188549664 0 -0.0074634907416568381 -0.011658789459387371 0 -0.0060000689129438012 -0.012736180638066271 0 -0.0074584436186910423 -0.01252673561364887 0 -0.0074634907416568381 -0.011658789459387371 0 -0.0060000689129438012 -0.012736180638066271 0 -0.0067519760096647861 -0.01350357714243368 0 -0.0074584436186910423 -0.01252673561364887 0 -0.0060000689129438012 -0.012736180638066271 0 -0.0067519760096647861 -0.01350357714243368 0 -0.0061142231994663655 -0.013705867536660438 0 -0.008101381259725253 -0.0111099694469476 0 -0.0080803702174050175 -0.011216342981906234 0 -0.0078128898227585002 -0.011279179321034413 0 -0.0075973943796203893 -0.013522568297284609 0 -0.0067979670292577501 -0.011877318075407522 0 -0.0060000689129438012 -0.012736180638066271 0 -0.0061142231994663655 -0.013705867536660438 0 -0.0056323233009817723 -0.013944367686992592 0 -0.005122209262061265 -0.013910661018994259 0 -0.0060000689129438012 -0.012736180638066271 0 -0.0056323233009817723 -0.013944367686992592 0 -0.0061142231994663655 -0.013705867536660438 0 -0.0056323233009817723 -0.013944367686992592 0 -0.0058460639797440527 -0.014036921552007498 0 -0.0058460639797440527 -0.014036921552007498 0 -0.0055725423775744498 -0.014142385553402742 0 -0.0057129605354790478 -0.014222506248071068 0 -0.0056323233009817723 -0.013944367686992592 0 -0.0058460639797440527 -0.014036921552007498 0 -0.0055725423775744498 -0.014142385553402742 0 -0.0058460639797440527 -0.014036921552007498 0 -0.0057129605354790478 -0.014222506248071068 0 -0.0059280910766612675 -0.014249502833140991 0 -0.005122209262061265 -0.013910661018994259 0 -0.0056323233009817723 -0.013944367686992592 0 -0.0053716558980811731 -0.014118811713665797 0 -0.0056323233009817723 -0.013944367686992592 0 -0.0055725423775744498 -0.014142385553402742 0 -0.0053716558980811731 -0.014118811713665797 0 -0.0052549322719276483 -0.014346615892240344 0 -0.0053716558980811731 -0.014118811713665797 0 -0.0055211647408029054 -0.014440443365702252 0 -0.0055725423775744498 -0.014142385553402742 0 -0.0053716558980811731 -0.014118811713665797 0 -0.0055211647408029054 -0.014440443365702252 0 -0.0055725423775744498 -0.014142385553402742 0 -0.0055211647408029054 -0.014440443365702252 0 -0.0057129605354790478 -0.014222506248071068 0 -0.0055211647408029054 -0.014440443365702252 0 -0.0057129605354790478 -0.014222506248071068 0 -0.0059280910766612675 -0.014249502833140991 0 -0.0061628391789552654 -0.014976152393820113 0 -0.0058899369224170578 -0.014656616379600437 0 -0.0064452068456591792 -0.014440756635467258 0 -0.0067519760096647861 -0.01350357714243368 0 -0.0061142231994663655 -0.013705867536660438 0 -0.0064452068456591792 -0.014440756635467258 0 -0.0058899369224170578 -0.014656616379600437 0 -0.0059280910766612675 -0.014249502833140991 0 -0.0064452068456591792 -0.014440756635467258 0 -0.0061142231994663655 -0.013705867536660438 0 -0.0058460639797440527 -0.014036921552007498 0 -0.0059280910766612675 -0.014249502833140991 0 -0.0061142231994663655 -0.013705867536660438 0 -0.0059280910766612675 -0.014249502833140991 0 -0.0064452068456591792 -0.014440756635467258 0 -0.036994946718277397 -0.023352987081828241 0 -0.037530391401876514 -0.023112054888249873 0 -0.037627377947854951 -0.023977899892392178 0 -0.036994946718277397 -0.023352987081828241 0 -0.037530391401876514 -0.023112054888249873 0 -0.036593316370539433 -0.022567667746080069 0 -0.037307156882597135 -0.0222157410882187 0 -0.03818721543258307 -0.02245966427810147 0 -0.037530391401876514 -0.023112054888249873 0 -0.037627377947854951 -0.023977899892392178 0 -0.038421852653902626 -0.023524248153197144 0 -0.037122735647158921 -0.021309587242657156 0 -0.037175248653021339 -0.021013330920479242 0 -0.037685927767972374 -0.020870074019094343 0 -0.037122735647158921 -0.021309587242657156 0 -0.037175248653021339 -0.021013330920479242 0 -0.036936090474015353 -0.020959084360403953 0 -0.037175248653021339 -0.021013330920479242 0 -0.036936090474015353 -0.020959084360403953 0 -0.037268599220157468 -0.020538459675853847 0 -0.037307156882597135 -0.0222157410882187 0 -0.036364510297572622 -0.021977825501791254 0 -0.037122735647158921 -0.021309587242657156 0 -0.036936090474015353 -0.020959084360403953 0 -0.036255607220424702 -0.021410832664089764 0 -0.036593316370539433 -0.022567667746080069 0 -0.035806715527532472 -0.022937467937425807 0 -0.036463195790709987 -0.023033856942175558 0 -0.036364510297572622 -0.021977825501791254 0 -0.035000161669369929 -0.021723972348006895 0 -0.035806715527532472 -0.022937467937425807 0 -0.034999956996199011 -0.023371427157032026 0 -0.035000037148804251 -0.021724175832545715 0 -0.036593316370539433 -0.022567667746080069 0 -0.035806715527532472 -0.022937467937425807 0 -0.035000037148804251 -0.021724175832545715 0 -0.035806715527532472 -0.022937467937425807 0 -0.035893386462221795 -0.024028994761876647 0 -0.034999956996199011 -0.023371427157032026 0 -0.036994946718277397 -0.023352987081828241 0 -0.036463195790709987 -0.023033856942175558 0 -0.036717523347314436 -0.023936226894050068 0 -0.035893386462221795 -0.024028994761876647 0 -0.036463195790709987 -0.023033856942175558 0 -0.036938682255010971 -0.024620608569560755 0 -0.035806715527532472 -0.022937467937425807 0 -0.035893386462221795 -0.024028994761876647 0 -0.036463195790709987 -0.023033856942175558 0 -0.036994946718277397 -0.023352987081828241 0 -0.036593316370539433 -0.022567667746080069 0 -0.036463195790709987 -0.023033856942175558 0 -0.036494775807309657 -0.023186796771528233 0 -0.036867026509037164 -0.024089311897373681 0 -0.035893386462221795 -0.024028994761876647 0 -0.036938682255010971 -0.024620608569560755 0 -0.036004012287907949 -0.025185119333456865 0 -0.035893386462221795 -0.024028994761876647 0 -0.034999967847157643 -0.02501889014790656 0 -0.036004012287907949 -0.025185119333456865 0 -0.035893386462221795 -0.024028994761876647 0 -0.034999956996199011 -0.023371427157032026 0 -0.034999967847157643 -0.02501889014790656 0 -0.034999986834935139 -0.026666231423533967 0 -0.034999967847157643 -0.02501889014790656 0 -0.035696154987521711 -0.026069176564429176 0 -0.034999967847157643 -0.02501889014790656 0 -0.036004012287907949 -0.025185119333456865 0 -0.035696154987521711 -0.026069176564429176 0 -0.036938682255010971 -0.024620608569560755 0 -0.036004012287907949 -0.025185119333456865 0 -0.036534479302169236 -0.026189747508213339 0 -0.036938682255010971 -0.024620608569560755 0 -0.036534479302169236 -0.026189747508213339 0 -0.037355483147699396 -0.026201238052029611 0 -0.036004012287907949 -0.025185119333456865 0 -0.035696154987521711 -0.026069176564429176 0 -0.036534479302169236 -0.026189747508213339 0 -0.036878522833764381 -0.026268829573727195 0 -0.036340585658161895 -0.026445820479742334 0 -0.036717523347314436 -0.023936226894050068 0 -0.036946056614483393 -0.024801080136631602 0 -0.037627377947854951 -0.023977899892392178 0 -0.036867026509037164 -0.024089311897373681 0 -0.036340585658161895 -0.026445820479742334 0 -0.036994946718277397 -0.023352987081828241 0 -0.036717523347314436 -0.023936226894050068 0 -0.037627377947854951 -0.023977899892392178 0 -0.036946056614483393 -0.024801080136631602 0 -0.037627377947854951 -0.023977899892392178 0 -0.038080320648064638 -0.024803793940415632 0 -0.036340585658161895 -0.026445820479742334 0 -0.037391132108175656 -0.02649216003841107 0 -0.037627377947854951 -0.023977899892392178 0 -0.038080320648064638 -0.024803793940415632 0 -0.038646582548938539 -0.024275086673129831 0 -0.03919033119873902 -0.024819343708915313 0 -0.038080320648064638 -0.024803793940415632 0 -0.038646582548938539 -0.024275086673129831 0 -0.03919033119873902 -0.024819343708915313 0 -0.038646582548938539 -0.024275086673129831 0 -0.039322082755886077 -0.023914511416725581 0 -0.038194630252011495 -0.026392945445874935 0 -0.037391132108175656 -0.02649216003841107 0 -0.038646582548938539 -0.024275086673129831 0 -0.039322082755886077 -0.023914511416725581 0 -0.038421852653902626 -0.023524248153197144 0 -0.038658556795445775 -0.021587302305363855 0 -0.038646429475090636 -0.021676304600754606 0 -0.037893830133328629 -0.021474372351559259 0 -0.038750412140831789 -0.023129744345669962 0 -0.03818721543258307 -0.02245966427810147 0 -0.037627377947854951 -0.023977899892392178 0 -0.038646582548938539 -0.024275086673129831 0 -0.038421852653902626 -0.023524248153197144 0 -0.037724017799316584 -0.024697155505542408 0 -0.037928155197115399 -0.024317030429389014 0 -0.037340954724551241 -0.024068181402895818 0 -0.036943371695555227 -0.024116496427651898 0 -0.034643506033577028 -0.024071535019092781 0 -0.035851313035515732 -0.026007826301356333 0 -0.037328185328234134 -0.02728484798950043 0 -0.036284205192008326 -0.021967011329411801 0 -0.037251784348565381 -0.024695650660285322 0 -0.037724017799316584 -0.024697155505542408 0 -0.037340954724551241 -0.024068181402895818 0 -0.038194630252011495 -0.026392945445874935 0 -0.038750412140831789 -0.023129744345669962 0 -0.038644840941435346 -0.02165628845443689 0 -0.03905279896759075 -0.02150460500798583 0 -0.038849120057644328 -0.021434013430178814 0 -0.038658556795445775 -0.021587302305363855 0 -0.038644840941435346 -0.02165628845443689 0 -0.038849120057644328 -0.021434013430178814 0 -0.038786426155057001 -0.022690156120007458 0 -0.038750412140831789 -0.023129744345669962 0 -0.039510343294302558 -0.021300637976713263 0 -0.039210358577527797 -0.021862436508398458 0 -0.03905279896759075 -0.02150460500798583 0 -0.036284205192008326 -0.021967011329411801 0 -0.038750412140831789 -0.023129744345669962 0 -0.039210358577527797 -0.021862436508398458 0 -0.038644840941435346 -0.02165628845443689 0 -0.03905279896759075 -0.02150460500798583 0 -0.039510343294302558 -0.021300637976713263 0 -0.039321515507401157 -0.021013748350092305 0 -0.03905279896759075 -0.02150460500798583 0 -0.039321515507401157 -0.021013748350092305 0 -0.03905279896759075 -0.02150460500798583 0 -0.038995301171704071 -0.021048054937340417 0 -0.03905279896759075 -0.02150460500798583 0 -0.038995301171704071 -0.021048054937340417 0 -0.038849120057644328 -0.021434013430178814 0 -0.038658556795445775 -0.021587302305363855 0 -0.038730963082650831 -0.021214348918767899 0 -0.038361494100189596 -0.021085891457354729 0 -0.038995301171704071 -0.021048054937340417 0 -0.038849120057644328 -0.021434013430178814 0 -0.038730963082650831 -0.021214348918767899 0 -0.038995301171704071 -0.021048054937340417 0 -0.038730963082650831 -0.021214348918767899 0 -0.038738928921992453 -0.020878659568394461 0 -0.038658556795445775 -0.021587302305363855 0 -0.038849120057644328 -0.021434013430178814 0 -0.038730963082650831 -0.021214348918767899 0 -0.038730963082650831 -0.021214348918767899 0 -0.038738928921992453 -0.020878659568394461 0 -0.038361494100189596 -0.021085891457354729 0 -0.038995301171704071 -0.021048054937340417 0 -0.038738928921992453 -0.020878659568394461 0 -0.038850747982505769 -0.020475497654745385 0 -0.038738928921992453 -0.020878659568394461 0 -0.038292606602435213 -0.020158208502577071 0 -0.038850747982505769 -0.020475497654745385 0 -0.039332715480800716 -0.020660343129775882 0 -0.038995301171704071 -0.021048054937340417 0 -0.038850747982505769 -0.020475497654745385 0 -0.039332715480800716 -0.020660343129775882 0 -0.039321515507401157 -0.021013748350092305 0 -0.038995301171704071 -0.021048054937340417 0 -0.037893830133328629 -0.021474372351559259 0 -0.038361494100189596 -0.021085891457354729 0 -0.037685927767972374 -0.020870074019094343 0 -0.037122735647158921 -0.021309587242657156 0 -0.037893830133328629 -0.021474372351559259 0 -0.037685927767972374 -0.020870074019094343 0 -0.038658556795445775 -0.021587302305363855 0 -0.037893830133328629 -0.021474372351559259 0 -0.038361494100189596 -0.021085891457354729 0 -0.038361494100189596 -0.021085891457354729 0 -0.037685927767972374 -0.020870074019094343 0 -0.038292606602435213 -0.020158208502577071 0 -0.038738928921992453 -0.020878659568394461 0 -0.038361494100189596 -0.021085891457354729 0 -0.038292606602435213 -0.020158208502577071 0 -0.037685927767972374 -0.020870074019094343 0 -0.038292606602435213 -0.020158208502577071 0 -0.037277423454676578 -0.019662434686724746 0 -0.038292606602435213 -0.020158208502577071 0 -0.038394459101833957 -0.018999763736378624 0 -0.039124147917167042 -0.019409140348995966 0 -0.038292606602435213 -0.020158208502577071 0 -0.038394459101833957 -0.018999763736378624 0 -0.037277423454676578 -0.019662434686724746 0 -0.038394459101833957 -0.018999763736378624 0 -0.037277423454676578 -0.019662434686724746 0 -0.037752104072186335 -0.018098908994865732 0 -0.037623679172975023 -0.019811688827960687 0 -0.03810349987326285 -0.018205906139315345 0 -0.037976465338225629 -0.019992255998346552 0 -0.038481762310021463 -0.018316372899894719 0 -0.037516097437904732 -0.018965855822714508 0 -0.041204320784409616 -0.020737038956068016 0 -0.038827193930020661 -0.020258326755551326 0 -0.040470258667640521 -0.020265566063844755 0 -0.039418520346102132 -0.020160581429955457 0 -0.040078022950451049 -0.019168278511428057 0 -0.03844233672493539 -0.020187020987571445 0 -0.038827193930020661 -0.020258326755551326 0 -0.038292606602435213 -0.020158208502577071 0 -0.039418520346102132 -0.020160581429955457 0 -0.039124147917167042 -0.019409140348995966 0 -0.039418520346102132 -0.020160581429955457 0 -0.039124147917167042 -0.019409140348995966 0 -0.040078022950451049 -0.019168278511428057 0 -0.038394459101833957 -0.018999763736378624 0 -0.039124147917167042 -0.019409140348995966 0 -0.039360355749570738 -0.018578791524142223 0 -0.039124147917167042 -0.019409140348995966 0 -0.040078022950451049 -0.019168278511428057 0 -0.039360355749570738 -0.018578791524142223 0 -0.040898481567152999 -0.018300105747097666 0 -0.040078022950451049 -0.019168278511428057 0 -0.040036652951753605 -0.017908561558386139 0 -0.040078022950451049 -0.019168278511428057 0 -0.040036652951753605 -0.017908561558386139 0 -0.039360355749570738 -0.018578791524142223 0 -0.040898481567152999 -0.018300105747097666 0 -0.040036652951753605 -0.017908561558386139 0 -0.040430147383035804 -0.017281229186054653 0 -0.038394459101833957 -0.018999763736378624 0 -0.039360355749570738 -0.018578791524142223 0 -0.039008876352834829 -0.017558099426038049 0 -0.040036652951753605 -0.017908561558386139 0 -0.039360355749570738 -0.018578791524142223 0 -0.039008876352834829 -0.017558099426038049 0 -0.039008876352834829 -0.017558099426038049 0 -0.039880236207416361 -0.016836175022430868 0 -0.039082894523119499 -0.016440261737549054 0 -0.039008876352834829 -0.017558099426038049 0 -0.038488071369745726 -0.016643426662371116 0 -0.039082894523119499 -0.016440261737549054 0 -0.040036652951753605 -0.017908561558386139 0 -0.039008876352834829 -0.017558099426038049 0 -0.039880236207416361 -0.016836175022430868 0 -0.040036652951753605 -0.017908561558386139 0 -0.039880236207416361 -0.016836175022430868 0 -0.040430147383035804 -0.017281229186054653 0 -0.039880236207416361 -0.016836175022430868 0 -0.040430147383035804 -0.017281229186054653 0 -0.040623312858349497 -0.016714012141061291 0 -0.038394459101833957 -0.018999763736378624 0 -0.039008876352834829 -0.017558099426038049 0 -0.037752104072186335 -0.018098908994865732 0 -0.03810349987326285 -0.018205906139315345 0 -0.038486998132470779 -0.016781128206674371 0 -0.039008876352834829 -0.017558099426038049 0 -0.037752104072186335 -0.018098908994865732 0 -0.038488071369745726 -0.016643426662371116 0 -0.038481762310021463 -0.018316372899894719 0 -0.037542252175714712 -0.017525925491192612 0 -0.038488071369745726 -0.016643426662371116 0 -0.037542252175714712 -0.017525925491192612 0 -0.036634086729301858 -0.018963782097893692 0 -0.036378779009620027 -0.017597053096100386 0 -0.037542252175714712 -0.017525925491192612 0 -0.036634086729301858 -0.018963782097893692 0 -0.037516097437904732 -0.018965855822714508 0 -0.038481762310021463 -0.018316372899894719 0 -0.037542252175714712 -0.017525925491192612 0 -0.037516097437904732 -0.018965855822714508 0 -0.037976465338225629 -0.019992255998346552 0 -0.037516097437904732 -0.018965855822714508 0 -0.036788865466400276 -0.020309207882735363 0 -0.036634086729301858 -0.018963782097893692 0 -0.037516097437904732 -0.018965855822714508 0 -0.036788865466400276 -0.020309207882735363 0 -0.036936090474015353 -0.020959084360403953 0 -0.036788865466400276 -0.020309207882735363 0 -0.037268599220157468 -0.020538459675853847 0 -0.036936090474015353 -0.020959084360403953 0 -0.036255607220424702 -0.021410832664089764 0 -0.036788865466400276 -0.020309207882735363 0 -0.037209718972930537 -0.020910412021455667 0 -0.037623679172975023 -0.019811688827960687 0 -0.037175248653021339 -0.021013330920479242 0 -0.037685927767972374 -0.020870074019094343 0 -0.037277423454676578 -0.019662434686724746 0 -0.037175248653021339 -0.021013330920479242 0 -0.037976465338225629 -0.019992255998346552 0 -0.037268599220157468 -0.020538459675853847 0 -0.037976465338225629 -0.019992255998346552 0 -0.036788865466400276 -0.020309207882735363 0 -0.037268599220157468 -0.020538459675853847 0 -0.036255607220424702 -0.021410832664089764 0 -0.035000017130428253 -0.021722186647420431 0 -0.035942258094449266 -0.020292590753663509 0 -0.036255607220424702 -0.021410832664089764 0 -0.036788865466400276 -0.020309207882735363 0 -0.035942258094449266 -0.020292590753663509 0 -0.036634086729301858 -0.018963782097893692 0 -0.036788865466400276 -0.020309207882735363 0 -0.035942258094449266 -0.020292590753663509 0 -0.035942258094449266 -0.020292590753663509 0 -0.034999711812352549 -0.019773753225788563 0 -0.035789846538071539 -0.018778736188468908 0 -0.035000017130428253 -0.021722186647420431 0 -0.035942258094449266 -0.020292590753663509 0 -0.034999711812352549 -0.019773753225788563 0 -0.034999711812352549 -0.019773753225788563 0 -0.035789846538071539 -0.018778736188468908 0 -0.034999792691484344 -0.017823219447015582 0 -0.036634086729301858 -0.018963782097893692 0 -0.035942258094449266 -0.020292590753663509 0 -0.035789846538071539 -0.018778736188468908 0 -0.036634086729301858 -0.018963782097893692 0 -0.035789846538071539 -0.018778736188468908 0 -0.036378779009620027 -0.017597053096100386 0 -0.035789846538071539 -0.018778736188468908 0 -0.036378779009620027 -0.017597053096100386 0 -0.034999792691484344 -0.017823219447015582 0 -0.034999792691484344 -0.017823219447015582 0 -0.036083147988291785 -0.016167713448458881 0 -0.034999798513628479 -0.015873288364768503 0 -0.036378779009620027 -0.017597053096100386 0 -0.034999792691484344 -0.017823219447015582 0 -0.036083147988291785 -0.016167713448458881 0 -0.036378779009620027 -0.017597053096100386 0 -0.036083147988291785 -0.016167713448458881 0 -0.037018225615748787 -0.01632283802653655 0 -0.036083147988291785 -0.016167713448458881 0 -0.037018225615748787 -0.01632283802653655 0 -0.036399945023064005 -0.014701695727752819 0 -0.036083147988291785 -0.016167713448458881 0 -0.034999798513628479 -0.015873288364768503 0 -0.036399945023064005 -0.014701695727752819 0 -0.037542252175714712 -0.017525925491192612 0 -0.037018225615748787 -0.01632283802653655 0 -0.037952110175799102 -0.01597855582974201 0 -0.037542252175714712 -0.017525925491192612 0 -0.036378779009620027 -0.017597053096100386 0 -0.037018225615748787 -0.01632283802653655 0 -0.037018225615748787 -0.01632283802653655 0 -0.037497312124610112 -0.015246649083827588 0 -0.036399945023064005 -0.014701695727752819 0 -0.037018225615748787 -0.01632283802653655 0 -0.037497312124610112 -0.015246649083827588 0 -0.037952110175799102 -0.01597855582974201 0 -0.037497312124610112 -0.015246649083827588 0 -0.037641289052195541 -0.014115452330042305 0 -0.038246538000821069 -0.015049570553608137 0 -0.037497312124610112 -0.015246649083827588 0 -0.037641289052195541 -0.014115452330042305 0 -0.036399945023064005 -0.014701695727752819 0 -0.037641289052195541 -0.014115452330042305 0 -0.036399945023064005 -0.014701695727752819 0 -0.036682021906312527 -0.012933363380397496 0 -0.034999798513628479 -0.015873288364768503 0 -0.036399945023064005 -0.014701695727752819 0 -0.034999824104390148 -0.013923129636945857 0 -0.036399945023064005 -0.014701695727752819 0 -0.035757668529597851 -0.012909371976992526 0 -0.036682021906312527 -0.012933363380397496 0 -0.036399945023064005 -0.014701695727752819 0 -0.034999824104390148 -0.013923129636945857 0 -0.035757668529597851 -0.012909371976992526 0 -0.034999824104390148 -0.013923129636945857 0 -0.035757668529597851 -0.012909371976992526 0 -0.034999816331253361 -0.011973468237787398 0 -0.035757668529597851 -0.012909371976992526 0 -0.034999816331253361 -0.011973468237787398 0 -0.035504266215192967 -0.011718554167533328 0 -0.034999927046829568 -0.011971955427943156 0 -0.034527507215528191 -0.010847963114256684 0 -0.034999996430058057 -0.011972716404896565 0 -0.035607860191525044 -0.011544200001153715 0 -0.034999996181545152 -0.011133611696960956 0 -0.035563835604125932 -0.011474884668809226 0 -0.034999901321489481 -0.011133295830010355 0 -0.03560302620718319 -0.010780360019562696 0 -0.034527507215528191 -0.010847963114256684 0 -0.035000500809578255 -0.011133953499208305 0 -0.031630344367613472 -0.0095224635572060349 0 -0.032906853235828856 -0.0095367653224975903 0 -0.033037942720736263 -0.010520451460658812 0 -0.031630344367613472 -0.0095224635572060349 0 -0.032906853235828856 -0.0095367653224975903 0 -0.032963781208279024 -0.0085556285995719624 0 -0.035563835604125932 -0.011474884668809226 0 -0.03560302620718319 -0.010780360019562696 0 -0.036872872946225335 -0.010455483109090925 0 -0.034527507215528191 -0.010847963114256684 0 -0.034762195052956392 -0.0095109918598780749 0 -0.034527507215528191 -0.010847963114256684 0 -0.034646264709560157 -0.011642700301399647 0 -0.035757668529597851 -0.012909371976992526 0 -0.035504266215192967 -0.011718554167533328 0 -0.036682021906312527 -0.012933363380397496 0 -0.036035565786816708 -0.012893491053462155 0 -0.034646264709560157 -0.011642700301399647 0 -0.034387974078270177 -0.011624704111445679 0 -0.033037942720736263 -0.010520451460658812 0 -0.034012889097581663 -0.0095505078902885544 0 -0.034387974078270177 -0.011624704111445679 0 -0.034012889097581663 -0.0095505078902885544 0 -0.035358949428591198 -0.010206341353043895 0 -0.034012889097581663 -0.0095505078902885544 0 -0.035353065529337653 -0.0089421761279436258 0 -0.035358949428591198 -0.010206341353043895 0 -0.032906853235828856 -0.0095367653224975903 0 -0.034012889097581663 -0.0095505078902885544 0 -0.032963781208279024 -0.0085556285995719624 0 -0.032906853235828856 -0.0095367653224975903 0 -0.033037942720736263 -0.010520451460658812 0 -0.034012889097581663 -0.0095505078902885544 0 -0.036291876041693746 -0.0085042736639339474 0 -0.034762195052956392 -0.0095109918598780749 0 -0.038091522867062681 -0.0094739067570773512 0 -0.036809972804686286 -0.0093715688935877388 0 -0.036872872946225335 -0.010455483109090925 0 -0.034012889097581663 -0.0095505078902885544 0 -0.03441117686173626 -0.0075590487641208383 0 -0.032963781208279024 -0.0085556285995719624 0 -0.03441117686173626 -0.0075590487641208383 0 -0.035647544884868175 -0.0076631490615453384 0 -0.035353065529337653 -0.0089421761279436258 0 -0.034012889097581663 -0.0095505078902885544 0 -0.03441117686173626 -0.0075590487641208383 0 -0.035353065529337653 -0.0089421761279436258 0 -0.03441117686173626 -0.0075590487641208383 0 -0.035647544884868175 -0.0076631490615453384 0 -0.035874335837501235 -0.006721297848165577 0 -0.036291876041693746 -0.0085042736639339474 0 -0.037444129125801327 -0.0077925596864055384 0 -0.038091522867062681 -0.0094739067570773512 0 -0.036809972804686286 -0.0093715688935877388 0 -0.037460563590703329 -0.0085018741864640052 0 -0.036809972804686286 -0.0093715688935877388 0 -0.035804338848468169 -0.0087665735024704296 0 -0.035700716357663607 -0.01006684486515071 0 -0.036809972804686286 -0.0093715688935877388 0 -0.035804338848468169 -0.0087665735024704296 0 -0.037460563590703329 -0.0085018741864640052 0 -0.034999961210628344 -0.0090678084269485652 0 -0.035804338848468169 -0.0087665735024704296 0 -0.035700716357663607 -0.01006684486515071 0 -0.034999901321489481 -0.011133295830010355 0 -0.034999961210628344 -0.0090678084269485652 0 -0.035700716357663607 -0.01006684486515071 0 -0.034999901321489481 -0.011133295830010355 0 -0.035700716357663607 -0.01006684486515071 0 -0.03560302620718319 -0.010780360019562696 0 -0.035700716357663607 -0.01006684486515071 0 -0.03560302620718319 -0.010780360019562696 0 -0.036872872946225335 -0.010455483109090925 0 -0.036809972804686286 -0.0093715688935877388 0 -0.035700716357663607 -0.01006684486515071 0 -0.036872872946225335 -0.010455483109090925 0 -0.037407336828371794 -0.0084784836339026389 0 -0.038301922846428943 -0.0082045736614656563 0 -0.037724376041808338 -0.0077002038299857955 0 -0.038301922846428943 -0.0082045736614656563 0 -0.038262259367364042 -0.0075500168912205146 0 -0.037724376041808338 -0.0077002038299857955 0 -0.037407336828371794 -0.0084784836339026389 0 -0.037724376041808338 -0.0077002038299857955 0 -0.037060798538285589 -0.0077308321862394743 0 -0.038301922846428943 -0.0082045736614656563 0 -0.038262259367364042 -0.0075500168912205146 0 -0.038803423797622354 -0.0076007296602989506 0 -0.038301922846428943 -0.0082045736614656563 0 -0.038929806889413658 -0.0084448535425320857 0 -0.038803423797622354 -0.0076007296602989506 0 -0.038262259367364042 -0.0075500168912205146 0 -0.03846559027106803 -0.0071319486218946139 0 -0.038803423797622354 -0.0076007296602989506 0 -0.038262259367364042 -0.0075500168912205146 0 -0.03846559027106803 -0.0071319486218946139 0 -0.037857050054383133 -0.0071164085387300669 0 -0.038262259367364042 -0.0075500168912205146 0 -0.037857050054383133 -0.0071164085387300669 0 -0.037724376041808338 -0.0077002038299857955 0 -0.037724376041808338 -0.0077002038299857955 0 -0.037403311392462814 -0.0071987369646295367 0 -0.037060798538285589 -0.0077308321862394743 0 -0.037857050054383133 -0.0071164085387300669 0 -0.037724376041808338 -0.0077002038299857955 0 -0.037403311392462814 -0.0071987369646295367 0 -0.037857050054383133 -0.0071164085387300669 0 -0.037403311392462814 -0.0071987369646295367 0 -0.037424306937174433 -0.0068275423628646192 0 -0.037403311392462814 -0.0071987369646295367 0 -0.036844552367652467 -0.007181574542408393 0 -0.037094893752738167 -0.0068296559187932026 0 -0.036844552367652467 -0.007181574542408393 0 -0.036646842052425646 -0.0068269334070873858 0 -0.037094893752738167 -0.0068296559187932026 0 -0.036844552367652467 -0.007181574542408393 0 -0.036451933640815538 -0.0075949912037533993 0 -0.036337634867278173 -0.0071302653062375494 0 -0.036844552367652467 -0.007181574542408393 0 -0.036337634867278173 -0.0071302653062375494 0 -0.036646842052425646 -0.0068269334070873858 0 -0.036844552367652467 -0.007181574542408393 0 -0.036451933640815538 -0.0075949912037533993 0 -0.037060798538285589 -0.0077308321862394743 0 -0.037403311392462814 -0.0071987369646295367 0 -0.036844552367652467 -0.007181574542408393 0 -0.037060798538285589 -0.0077308321862394743 0 -0.036337634867278173 -0.0071302653062375494 0 -0.035647544884868175 -0.0076631490615453384 0 -0.035874335837501235 -0.006721297848165577 0 -0.036451933640815538 -0.0075949912037533993 0 -0.036337634867278173 -0.0071302653062375494 0 -0.035647544884868175 -0.0076631490615453384 0 -0.035647544884868175 -0.0076631490615453384 0 -0.036455685065899683 -0.0083163432068709114 0 -0.035353065529337653 -0.0089421761279436258 0 -0.036451933640815538 -0.0075949912037533993 0 -0.035647544884868175 -0.0076631490615453384 0 -0.036455685065899683 -0.0083163432068709114 0 -0.037407336828371794 -0.0084784836339026389 0 -0.037060798538285589 -0.0077308321862394743 0 -0.036455685065899683 -0.0083163432068709114 0 -0.036451933640815538 -0.0075949912037533993 0 -0.037060798538285589 -0.0077308321862394743 0 -0.036455685065899683 -0.0083163432068709114 0 -0.037407336828371794 -0.0084784836339026389 0 -0.036455685065899683 -0.0083163432068709114 0 -0.036697392608393643 -0.0096912621452285626 0 -0.036455685065899683 -0.0083163432068709114 0 -0.036697392608393643 -0.0096912621452285626 0 -0.035353065529337653 -0.0089421761279436258 0 -0.036697392608393643 -0.0096912621452285626 0 -0.035353065529337653 -0.0089421761279436258 0 -0.035358949428591198 -0.010206341353043895 0 -0.034387974078270177 -0.011624704111445679 0 -0.035358949428591198 -0.010206341353043895 0 -0.036232713794345305 -0.011290852163943878 0 -0.036697392608393643 -0.0096912621452285626 0 -0.035358949428591198 -0.010206341353043895 0 -0.036232713794345305 -0.011290852163943878 0 -0.036697392608393643 -0.0096912621452285626 0 -0.037839080933407127 -0.010867042413984691 0 -0.036232713794345305 -0.011290852163943878 0 -0.037839080933407127 -0.010867042413984691 0 -0.038224326244067748 -0.0093572152085083914 0 -0.038673915027718289 -0.010469926153650853 0 -0.036697392608393643 -0.0096912621452285626 0 -0.037839080933407127 -0.010867042413984691 0 -0.038224326244067748 -0.0093572152085083914 0 -0.037839080933407127 -0.010867042413984691 0 -0.038673915027718289 -0.010469926153650853 0 -0.038764656974911126 -0.011637991566007035 0 -0.037407336828371794 -0.0084784836339026389 0 -0.036697392608393643 -0.0096912621452285626 0 -0.038224326244067748 -0.0093572152085083914 0 -0.037407336828371794 -0.0084784836339026389 0 -0.038301922846428943 -0.0082045736614656563 0 -0.038224326244067748 -0.0093572152085083914 0 -0.038929806889413658 -0.0084448535425320857 0 -0.039048342223427651 -0.0097893380574161637 0 -0.03937775104347227 -0.0085682726624494061 0 -0.038224326244067748 -0.0093572152085083914 0 -0.038929806889413658 -0.0084448535425320857 0 -0.039048342223427651 -0.0097893380574161637 0 -0.038301922846428943 -0.0082045736614656563 0 -0.038224326244067748 -0.0093572152085083914 0 -0.038929806889413658 -0.0084448535425320857 0 -0.039048342223427651 -0.0097893380574161637 0 -0.03937775104347227 -0.0085682726624494061 0 -0.039829160161708177 -0.01073318480372043 0 -0.038224326244067748 -0.0093572152085083914 0 -0.039048342223427651 -0.0097893380574161637 0 -0.038673915027718289 -0.010469926153650853 0 -0.039048342223427651 -0.0097893380574161637 0 -0.038673915027718289 -0.010469926153650853 0 -0.039580175102940159 -0.01097410237523333 0 -0.039048342223427651 -0.0097893380574161637 0 -0.039580175102940159 -0.01097410237523333 0 -0.039829160161708177 -0.01073318480372043 0 -0.039714198949596616 -0.011152403803605217 0 -0.040161973788450371 -0.012209435337455107 0 -0.039580175102940159 -0.01097410237523333 0 -0.039960153134132023 -0.011547331794266496 0 -0.039829160161708177 -0.01073318480372043 0 -0.039580175102940159 -0.01097410237523333 0 -0.039665596000972615 -0.012257997950459431 0 -0.040927236123735222 -0.012613209520257572 0 -0.039665596000972615 -0.012257997950459431 0 -0.03990316925990639 -0.013199830639782072 0 -0.040927236123735222 -0.012613209520257572 0 -0.039665596000972615 -0.012257997950459431 0 -0.038764656974911126 -0.011637991566007035 0 -0.038991752344150324 -0.013074141595562703 0 -0.039580175102940159 -0.01097410237523333 0 -0.039665596000972615 -0.012257997950459431 0 -0.038764656974911126 -0.011637991566007035 0 -0.038673915027718289 -0.010469926153650853 0 -0.039580175102940159 -0.01097410237523333 0 -0.038764656974911126 -0.011637991566007035 0 -0.037839080933407127 -0.010867042413984691 0 -0.038764656974911126 -0.011637991566007035 0 -0.037603203960069186 -0.012515634521905621 0 -0.038764656974911126 -0.011637991566007035 0 -0.038991752344150324 -0.013074141595562703 0 -0.037603203960069186 -0.012515634521905621 0 -0.038991752344150324 -0.013074141595562703 0 -0.039574619798836898 -0.014050459784779685 0 -0.038460789342705762 -0.01518057791061905 0 -0.038991752344150324 -0.013074141595562703 0 -0.037603203960069186 -0.012515634521905621 0 -0.038460789342705762 -0.01518057791061905 0 -0.039574619798836898 -0.014050459784779685 0 -0.03990316925990639 -0.013199830639782072 0 -0.040545603528886108 -0.013907026333824546 0 -0.039574619798836898 -0.014050459784779685 0 -0.039954002429944083 -0.014935787786796835 0 -0.040545603528886108 -0.013907026333824546 0 -0.03990316925990639 -0.013199830639782072 0 -0.040927236123735222 -0.012613209520257572 0 -0.040545603528886108 -0.013907026333824546 0 -0.038991752344150324 -0.013074141595562703 0 -0.039574619798836898 -0.014050459784779685 0 -0.03990316925990639 -0.013199830639782072 0 -0.039665596000972615 -0.012257997950459431 0 -0.038991752344150324 -0.013074141595562703 0 -0.03990316925990639 -0.013199830639782072 0 -0.036035565786816708 -0.012893491053462155 0 -0.037095115463879225 -0.014077481383132327 0 -0.034387974078270177 -0.011624704111445679 0 -0.036232713794345305 -0.011290852163943878 0 -0.035873485943128947 -0.013118687097719966 0 -0.036232713794345305 -0.011290852163943878 0 -0.037603203960069186 -0.012515634521905621 0 -0.035873485943128947 -0.013118687097719966 0 -0.037839080933407127 -0.010867042413984691 0 -0.036232713794345305 -0.011290852163943878 0 -0.037603203960069186 -0.012515634521905621 0 -0.037603203960069186 -0.012515634521905621 0 -0.035873485943128947 -0.013118687097719966 0 -0.038460789342705762 -0.01518057791061905 0 -0.037095115463879225 -0.014077481383132327 0 -0.038401878961505424 -0.015120486471124074 0 -0.037497312124610112 -0.015246649083827588 0 -0.038246538000821069 -0.015049570553608137 0 -0.037952110175799102 -0.01597855582974201 0 -0.038246538000821069 -0.015049570553608137 0 -0.037952110175799102 -0.01597855582974201 0 -0.038460789342705762 -0.01518057791061905 0 -0.037952110175799102 -0.01597855582974201 0 -0.038488071369745726 -0.016643426662371116 0 -0.038460789342705762 -0.01518057791061905 0 -0.037542252175714712 -0.017525925491192612 0 -0.037952110175799102 -0.01597855582974201 0 -0.038488071369745726 -0.016643426662371116 0 -0.039954002429944083 -0.014935787786796835 0 -0.039686980318074307 -0.015843392035294827 0 -0.040649786090074129 -0.015367192552126194 0 -0.039954002429944083 -0.014935787786796835 0 -0.040874588674026956 -0.01470507798854033 0 -0.040545603528886108 -0.013907026333824546 0 -0.039954002429944083 -0.014935787786796835 0 -0.040649786090074129 -0.015367192552126194 0 -0.040874588674026956 -0.01470507798854033 0 -0.038460789342705762 -0.01518057791061905 0 -0.039082894523119499 -0.016440261737549054 0 -0.039686980318074307 -0.015843392035294827 0 -0.039574619798836898 -0.014050459784779685 0 -0.039954002429944083 -0.014935787786796835 0 -0.038460789342705762 -0.01518057791061905 0 -0.039954002429944083 -0.014935787786796835 0 -0.038460789342705762 -0.01518057791061905 0 -0.039686980318074307 -0.015843392035294827 0 -0.038488071369745726 -0.016643426662371116 0 -0.038460789342705762 -0.01518057791061905 0 -0.039082894523119499 -0.016440261737549054 0 -0.039880236207416361 -0.016836175022430868 0 -0.039082894523119499 -0.016440261737549054 0 -0.039686980318074307 -0.015843392035294827 0 -0.039880236207416361 -0.016836175022430868 0 -0.039686980318074307 -0.015843392035294827 0 -0.040321360079508095 -0.016188400589914446 0 -0.039686980318074307 -0.015843392035294827 0 -0.040321360079508095 -0.016188400589914446 0 -0.040649786090074129 -0.015367192552126194 0 -0.039880236207416361 -0.016836175022430868 0 -0.040321360079508095 -0.016188400589914446 0 -0.040623312858349497 -0.016714012141061291 0 -0.040623312858349497 -0.016714012141061291 0 -0.04111124901590027 -0.016540789429186672 0 -0.040863771807360984 -0.01607318273409428 0 -0.040321360079508095 -0.016188400589914446 0 -0.040623312858349497 -0.016714012141061291 0 -0.040863771807360984 -0.01607318273409428 0 -0.041083771338049212 -0.017244623636338635 0 -0.04111124901590027 -0.016540789429186672 0 -0.041504612183830829 -0.016646779033196349 0 -0.04111124901590027 -0.016540789429186672 0 -0.041340002667564012 -0.016357342862659271 0 -0.041504612183830829 -0.016646779033196349 0 -0.04111124901590027 -0.016540789429186672 0 -0.041340002667564012 -0.016357342862659271 0 -0.041187849196273316 -0.016132691590213362 0 -0.041340002667564012 -0.016357342862659271 0 -0.041187849196273316 -0.016132691590213362 0 -0.041646865690938478 -0.015982875890118247 0 -0.04111124901590027 -0.016540789429186672 0 -0.041187849196273316 -0.016132691590213362 0 -0.040863771807360984 -0.01607318273409428 0 -0.041187849196273316 -0.016132691590213362 0 -0.040863771807360984 -0.01607318273409428 0 -0.041276765225176787 -0.015684828436418045 0 -0.041187849196273316 -0.016132691590213362 0 -0.041276765225176787 -0.015684828436418045 0 -0.041646865690938478 -0.015982875890118247 0 -0.040321360079508095 -0.016188400589914446 0 -0.040863771807360984 -0.01607318273409428 0 -0.040649786090074129 -0.015367192552126194 0 -0.041276765225176787 -0.015684828436418045 0 -0.040874588674026956 -0.01470507798854033 0 -0.041653590720449406 -0.014020153410642408 0 -0.040649786090074129 -0.015367192552126194 0 -0.041276765225176787 -0.015684828436418045 0 -0.040874588674026956 -0.01470507798854033 0 -0.040529185267694362 -0.015689188189018492 0 -0.039523174709548387 -0.013897609063427446 0 -0.040863771807360984 -0.01607318273409428 0 -0.040649786090074129 -0.015367192552126194 0 -0.041276765225176787 -0.015684828436418045 0 -0.041276765225176787 -0.015684828436418045 0 -0.041646865690938478 -0.015982875890118247 0 -0.041653590720449406 -0.014020153410642408 0 -0.037624270636356087 -0.015409577013351697 0 -0.036236876688638155 -0.013297931953985405 0 -0.039794960574246363 -0.015096607525774854 0 -0.039430983640415737 -0.015538866183442534 0 -0.039216769562238345 -0.014253426741600477 0 -0.037624270636356087 -0.015409577013351697 0 -0.032655154347970235 -0.016678070375974737 0 -0.037624270636356087 -0.015409577013351697 0 -0.039523174709548387 -0.013897609063427446 0 -0.037624270636356087 -0.015409577013351697 0 -0.040529185267694362 -0.015689188189018492 0 -0.037624270636356087 -0.015409577013351697 0 -0.037326773507395883 -0.015417586225714803 0 -0.041689216278614834 -0.015869318198976037 0 -0.04141482788545002 -0.016219608645392059 0 -0.041504612183830829 -0.016646779033196349 0 -0.041689216278614834 -0.015869318198976037 0 -0.041504612183830829 -0.016646779033196349 0 -0.042309051087372165 -0.016783734259804117 0 -0.040529185267694362 -0.015689188189018492 0 -0.041164393533111382 -0.016551084432025676 0 -0.041340002667564012 -0.016357342862659271 0 -0.041646865690938478 -0.015982875890118247 0 -0.041504612183830829 -0.016646779033196349 0 -0.033269262221802855 -0.016552662208059815 0 -0.03121214093390454 -0.013670925225921365 0 -0.030640656216359887 -0.01605067213350702 0 -0.03121214093390454 -0.013670925225921365 0 -0.029033341199782927 -0.014350415086445393 0 -0.030640656216359887 -0.01605067213350702 0 -0.028291233310021389 -0.015515272804793295 0 -0.027463099141124561 -0.016720331380503051 0 -0.027239179546773018 -0.014283320004647264 0 -0.029033341199782927 -0.014350415086445393 0 -0.029264498432571812 -0.0156897166366665 0 -0.028291233310021389 -0.015515272804793295 0 -0.029033341199782927 -0.014350415086445393 0 -0.029264498432571812 -0.0156897166366665 0 -0.030640656216359887 -0.01605067213350702 0 -0.029033341199782927 -0.014350415086445393 0 -0.028291233310021389 -0.015515272804793295 0 -0.027239179546773018 -0.014283320004647264 0 -0.027463099141124561 -0.016720331380503051 0 -0.028412430473146535 -0.01800513091620163 0 -0.02700572364965742 -0.019205103698651096 0 -0.028291233310021389 -0.015515272804793295 0 -0.027463099141124561 -0.016720331380503051 0 -0.028895845136338659 -0.016674106293772424 0 -0.029264498432571812 -0.0156897166366665 0 -0.028895845136338659 -0.016674106293772424 0 -0.030640656216359887 -0.01605067213350702 0 -0.029264498432571812 -0.0156897166366665 0 -0.028291233310021389 -0.015515272804793295 0 -0.028895845136338659 -0.016674106293772424 0 -0.028895845136338659 -0.016674106293772424 0 -0.028412430473146535 -0.01800513091620163 0 -0.029792353073290031 -0.017598568808151565 0 -0.027463099141124561 -0.016720331380503051 0 -0.028895845136338659 -0.016674106293772424 0 -0.028412430473146535 -0.01800513091620163 0 -0.033269262221802855 -0.016552662208059815 0 -0.030640656216359887 -0.01605067213350702 0 -0.031403373688115757 -0.017911552003390833 0 -0.035901126102743326 -0.014054096690877165 0 -0.034780710418358417 -0.014826461128077615 0 -0.034435685267612683 -0.015704006188524081 0 -0.028895845136338659 -0.016674106293772424 0 -0.030640656216359887 -0.01605067213350702 0 -0.029792353073290031 -0.017598568808151565 0 -0.030640656216359887 -0.01605067213350702 0 -0.029792353073290031 -0.017598568808151565 0 -0.031403373688115757 -0.017911552003390833 0 -0.032655154347970235 -0.016678070375974737 0 -0.031015079719314734 -0.014604322999033428 0 -0.029792353073290031 -0.017598568808151565 0 -0.031403373688115757 -0.017911552003390833 0 -0.029600439886582213 -0.019360114411754947 0 -0.034780710418358417 -0.014826461128077615 0 -0.034435685267612683 -0.015704006188524081 0 -0.033695144571213385 -0.015649991342854122 0 -0.036236876688638155 -0.013297931953985405 0 -0.031015079719314734 -0.014604322999033428 0 -0.02763971986700315 -0.012822006368899708 0 -0.027980257966722613 -0.012828331132848416 0 -0.028081355579344457 -0.012354841131125735 0 -0.031015079719314734 -0.014604322999033428 0 -0.028578886989248879 -0.01606819116355843 0 -0.033183821875749711 -0.013578377691943387 0 -0.034155153942112729 -0.013638031803912248 0 -0.035064663085348682 -0.011520178138243964 0 -0.028412430473146535 -0.01800513091620163 0 -0.029600439886582213 -0.019360114411754947 0 -0.02700572364965742 -0.019205103698651096 0 -0.028412430473146535 -0.01800513091620163 0 -0.029792353073290031 -0.017598568808151565 0 -0.029600439886582213 -0.019360114411754947 0 -0.037382974248522431 -0.012259981214217385 0 -0.037855906766190689 -0.011649150069118923 0 -0.037962405635048282 -0.011579550976416877 0 -0.031015079719314734 -0.014604322999033428 0 -0.03211928249196 -0.01183917066694974 0 -0.034155153942112729 -0.013638031803912248 0 -0.035064663085348682 -0.011520178138243964 0 -0.036729338450572684 -0.011527000788434742 0 -0.036236876688638155 -0.013297931953985405 0 -0.036280225044013181 -0.011681708963948345 0 -0.037997849158464124 -0.011372310694117796 0 -0.037895202604813369 -0.011262606356191859 0 -0.038018379662560553 -0.011219881564030566 0 -0.037855906766190689 -0.011649150069118923 0 -0.037962405635048282 -0.011579550976416877 0 -0.038268147131291862 -0.011110076305615548 0 -0.037831805576212164 -0.011545888426358755 0 -0.03780785883111392 -0.011361717110255751 0 -0.037666628343144833 -0.011372235321167731 0 -0.037831805576212164 -0.011545888426358755 0 -0.037997849158464124 -0.011372310694117796 0 -0.03780785883111392 -0.011361717110255751 0 -0.036236876688638155 -0.013297931953985405 0 -0.038192251054624426 -0.011206792181045509 0 -0.037997849158464124 -0.011372310694117796 0 -0.03780785883111392 -0.011361717110255751 0 -0.037895202604813369 -0.011262606356191859 0 -0.03780785883111392 -0.011361717110255751 0 -0.037720953170131764 -0.011203985761271497 0 -0.037895202604813369 -0.011262606356191859 0 -0.03780785883111392 -0.011361717110255751 0 -0.037666628343144833 -0.011372235321167731 0 -0.037720953170131764 -0.011203985761271497 0 -0.038807563030228101 -0.012583546087158943 0 -0.038970985887798806 -0.010192746930550174 0 -0.037666628343144833 -0.011372235321167731 0 -0.037537090585676912 -0.01151622654942433 0 -0.037499671380976943 -0.011244510019352963 0 -0.039960153134132023 -0.011547331794266496 0 -0.04016604319114403 -0.010682075829461041 0 -0.039829160161708177 -0.01073318480372043 0 -0.039960153134132023 -0.011547331794266496 0 -0.040359773542609487 -0.011892063047395575 0 -0.04016604319114403 -0.010682075829461041 0 -0.039960153134132023 -0.011547331794266496 0 -0.040359773542609487 -0.011892063047395575 0 -0.040192193417183372 -0.01189375210145158 0 -0.039368970097630122 -0.012753996939909626 0 -0.038965420877841682 -0.012757881890261592 0 -0.039496515112094892 -0.013530891393054615 0 -0.038807563030228101 -0.012583546087158943 0 -0.039772357144518961 -0.012898636777512986 0 -0.040927236123735222 -0.012613209520257572 0 -0.041328299985717201 -0.013364153979199137 0 -0.040545603528886108 -0.013907026333824546 0 -0.040161973788450371 -0.012209435337455107 0 -0.039772357144518961 -0.012898636777512986 0 -0.041328299985717201 -0.013364153979199137 0 -0.040545603528886108 -0.013907026333824546 0 -0.041653590720449406 -0.014020153410642408 0 -0.040874588674026956 -0.01470507798854033 0 -0.040545603528886108 -0.013907026333824546 0 -0.041653590720449406 -0.014020153410642408 0 -0.038807563030228101 -0.012583546087158943 0 -0.039523174709548387 -0.013897609063427446 0 -0.039772357144518961 -0.012898636777512986 0 -0.039523174709548387 -0.013897609063427446 0 -0.037831805576212164 -0.011545888426358755 0 -0.037666628343144833 -0.011372235321167731 0 -0.037537090585676912 -0.01151622654942433 0 -0.036236876688638155 -0.013297931953985405 0 -0.038807563030228101 -0.012583546087158943 0 -0.037372352167921175 -0.014077449664962497 0 -0.037957069021916041 -0.014113714925330903 0 -0.037934547425248058 -0.013986881049226558 0 -0.037716451073538333 -0.013688212398437051 0 -0.037372352167921175 -0.014077449664962497 0 -0.037934547425248058 -0.013986881049226558 0 -0.007741156352167388 -0.01151661313639394 0 -0.0078574721314519022 -0.011293334811417189 0 -0.0078642765863793269 -0.01135585752740746 0 -0.007741156352167388 -0.01151661313639394 0 -0.0078767680269069742 -0.011549972674434469 0 -0.0078574721314519022 -0.011293334811417189 0 -0.0078891321184927834 -0.011515406188549664 0 -0.007741156352167388 -0.01151661313639394 0 -0.0074634907416568381 -0.011658789459387371 0 -0.0078891321184927834 -0.011515406188549664 0 -0.007741156352167388 -0.01151661313639394 0 -0.007964974504607869 -0.011556538477080155 0 -0.007741156352167388 -0.01151661313639394 0 -0.007964974504607869 -0.011556538477080155 0 -0.0078767680269069742 -0.011549972674434469 0 -0.007964974504607869 -0.011556538477080155 0 -0.0080859462562837565 -0.011659367465339432 0 -0.0078767680269069742 -0.011549972674434469 0 -0.007964974504607869 -0.011556538477080155 0 -0.008107151309759239 -0.011533872821185289 0 -0.0081796098138063791 -0.011610180520159415 0 -0.007964974504607869 -0.011556538477080155 0 -0.0081796098138063791 -0.011610180520159415 0 -0.0080859462562837565 -0.011659367465339432 0 -0.0078891321184927834 -0.011515406188549664 0 -0.007964974504607869 -0.011556538477080155 0 -0.008107151309759239 -0.011533872821185289 0 -0.021171594576457762 -0.013865714730184149 0 -0.016658909178541719 -0.014546515757728999 0 -0.008107151309759239 -0.011533872821185289 0 -0.0083036284968337377 -0.011543927847679573 0 -0.0081796098138063791 -0.011610180520159415 0 -0.0081242617636534866 -0.011431425747311028 0 -0.008107151309759239 -0.011533872821185289 0 -0.0083036284968337377 -0.011543927847679573 0 -0.027463099141124561 -0.016720331380503051 0 -0.027239179546773018 -0.014283320004647264 0 -0.025799078529254584 -0.016621453908863684 0 -0.016658909178541719 -0.014546515757728999 0 -0.017574024571103266 -0.013584321031160218 0 -0.027463099141124561 -0.016720331380503051 0 -0.025799078529254584 -0.016621453908863684 0 -0.02700572364965742 -0.019205103698651096 0 -0.025799078529254584 -0.016621453908863684 0 -0.02700572364965742 -0.019205103698651096 0 -0.024355723391148488 -0.01902046054843538 0 -0.027980257966722613 -0.012828331132848416 0 -0.028081355579344457 -0.012354841131125735 0 -0.02835310017165284 -0.012878009470307048 0 -0.028578886989248879 -0.01606819116355843 0 -0.017574024571103266 -0.013584321031160218 0 -0.028081355579344457 -0.012354841131125735 0 -0.028694972866540162 -0.012369433255170825 0 -0.02835310017165284 -0.012878009470307048 0 -0.0079818135671158343 -0.011114334909988288 0 -0.0080711464010357094 -0.011134746226348472 0 -0.0079418585081236226 -0.011154828507067177 0 -0.018610544133174596 -0.011276952020734322 0 -0.017574024571103266 -0.013584321031160218 0 -0.017574024571103266 -0.013584321031160218 0 -0.0061628808659297931 -0.011212930669704657 0 -0.0061628808659297931 -0.011212930669704657 0 -0.0085057183941935031 -0.011352708199824318 0 -0.0079818135671158343 -0.011114334909988288 0 -0.0079418585081236226 -0.011154828507067177 0 -0.0079357035305360098 -0.01110871962261962 0 -0.0079818135671158343 -0.011114334909988288 0 -0.0079357035305360098 -0.01110871962261962 0 -0.0080037903908102039 -0.010966638912722154 0 -0.0079357035305360098 -0.01110871962261962 0 -0.0079274513860729534 -0.011153768978165852 0 -0.0079713493635860631 -0.011022535222291787 0 -0.0079357035305360098 -0.01110871962261962 0 -0.0079959381683721575 -0.011003346279483244 0 -0.0079713493635860631 -0.011022535222291787 0 -0.0079357035305360098 -0.01110871962261962 0 -0.0078574721314519022 -0.011293334811417189 0 -0.0079274513860729534 -0.011153768978165852 0 -0.0079418585081236226 -0.011154828507067177 0 -0.0079357035305360098 -0.01110871962261962 0 -0.0078574721314519022 -0.011293334811417189 0 -0.0081328182711370278 -0.010727077897876164 0 -0.0081207288578857076 -0.010855606449550383 0 -0.0080037903908102039 -0.010966638912722154 0 -0.0080538045776049044 -0.010917366136449906 0 -0.0081207288578857076 -0.010855606449550383 0 -0.0080952585518371395 -0.010952703229259489 0 -0.0080538045776049044 -0.010917366136449906 0 -0.0081207288578857076 -0.010855606449550383 0 -0.0080439243801880816 -0.010908962174742815 0 -0.0080538045776049044 -0.010917366136449906 0 -0.0080439243801880816 -0.010908962174742815 0 -0.0080073287605616113 -0.010933718375995915 0 -0.0081328182711370278 -0.010727077897876164 0 -0.0081207288578857076 -0.010855606449550383 0 -0.008306875103753884 -0.010604682236176813 0 -0.01047024861519128 -0.011569970854072182 0 -0.01484771765395756 -0.0097127007233973536 0 -0.0081207288578857076 -0.010855606449550383 0 -0.0080443351857279449 -0.010939162764888908 0 -0.0080037903908102039 -0.010966638912722154 0 -0.0081207288578857076 -0.010855606449550383 0 -0.0080439243801880816 -0.010908962174742815 0 -0.0080443351857279449 -0.010939162764888908 0 -0.0080439243801880816 -0.010908962174742815 0 -0.0080097969199365068 -0.010958803069648537 0 -0.0080443351857279449 -0.010939162764888908 0 -0.0079357035305360098 -0.01110871962261962 0 -0.0079959381683721575 -0.011003346279483244 0 -0.0080037903908102039 -0.010966638912722154 0 -0.0080097969199365068 -0.010958803069648537 0 -0.0079959381683721575 -0.011003346279483244 0 -0.0080443351857279449 -0.010939162764888908 0 -0.0079959381683721575 -0.011003346279483244 0 -0.0080443351857279449 -0.010939162764888908 0 -0.0080037903908102039 -0.010966638912722154 0 -0.0080097969199365068 -0.010958803069648537 0 -0.0079959381683721575 -0.011003346279483244 0 -0.0079713493635860631 -0.011022535222291787 0 -0.028694972866540162 -0.012369433255170825 0 -0.029078623084870792 -0.011770829080827407 0 -0.02872351516184897 -0.011736449179970151 0 -0.018610544133174596 -0.011276952020734322 0 -0.017757616795486188 -0.012129995007640832 0 -0.025614013572162395 -0.0090490071294488487 0 -0.035608368079696265 -0.010277542631474878 0 -0.025614013572162395 -0.0090490071294488487 0 -0.017757616795486188 -0.012129995007640832 0 -0.029470247653010321 -0.011069862227315456 0 -0.029078623084870792 -0.011770829080827407 0 -0.02872351516184897 -0.011736449179970151 0 -0.040374176665805651 -0.0078877961298631522 0 -0.039543396361795609 -0.00812815063845263 0 -0.039103779450422364 -0.0094366257684161993 0 -0.039543396361795609 -0.00812815063845263 0 -0.038308524151660493 -0.0083133480105679822 0 -0.039633847142131098 -0.0073770488940680286 0 -0.039674230493209582 -0.0075947241936274437 0 -0.039459813223310498 -0.007597745191827026 0 -0.03966379032882069 -0.0074048436493278922 0 -0.038308524151660493 -0.0083133480105679822 0 -0.039103779450422364 -0.0094366257684161993 0 -0.037986388550491877 -0.0093681470714328564 0 -0.039543396361795609 -0.00812815063845263 0 -0.038308524151660493 -0.0083133480105679822 0 -0.039103779450422364 -0.0094366257684161993 0 -0.028081355579344457 -0.012354841131125735 0 -0.028694972866540162 -0.012369433255170825 0 -0.02872351516184897 -0.011736449179970151 0 -0.036729338450572684 -0.011527000788434742 0 -0.039103779450422364 -0.0094366257684161993 0 -0.037986388550491877 -0.0093681470714328564 0 -0.03211928249196 -0.01183917066694974 0 -0.035608368079696265 -0.010277542631474878 0 -0.037645405154219727 -0.0095308194309559873 0 -0.038223731769264135 -0.0095887819989624347 0 -0.035064663085348682 -0.011520178138243964 0 -0.036729338450572684 -0.011527000788434742 0 -0.036910877334333889 -0.0095251348096006203 0 -0.036729338450572684 -0.011527000788434742 0 -0.037986388550491877 -0.0093681470714328564 0 -0.036910877334333889 -0.0095251348096006203 0 -0.037962405635048282 -0.011579550976416877 0 -0.038424669992989019 -0.010985101738564512 0 -0.038268147131291862 -0.011110076305615548 0 -0.036280225044013181 -0.011681708963948345 0 -0.038223731769264135 -0.0095887819989624347 0 -0.039459888512254328 -0.0079063980143629885 0 -0.039459813223310498 -0.007597745191827026 0 -0.03926031374955271 -0.007762421465943024 0 -0.039674230493209582 -0.0075947241936274437 0 -0.039459888512254328 -0.0079063980143629885 0 -0.039459813223310498 -0.007597745191827026 0 -0.03906847159211483 -0.0078822501934081024 0 -0.038223731769264135 -0.0095887819989624347 0 -0.038308524151660493 -0.0083133480105679822 0 -0.037986388550491877 -0.0093681470714328564 0 -0.0370977058328643 -0.0094952941724063891 0 -0.039512554691912255 -0.0072489106007848705 0 -0.039240022448139331 -0.0075031928348796894 0 -0.039224761814063792 -0.0069082765286575436 0 -0.039459813223310498 -0.007597745191827026 0 -0.039512554691912255 -0.0072489106007848705 0 -0.039240022448139331 -0.0075031928348796894 0 -0.039459813223310498 -0.007597745191827026 0 -0.039512554691912255 -0.0072489106007848705 0 -0.03966379032882069 -0.0074048436493278922 0 -0.039512554691912255 -0.0072489106007848705 0 -0.039595974575332336 -0.0067343824339360942 0 -0.039224761814063792 -0.0069082765286575436 0 -0.039595974575332336 -0.0067343824339360942 0 -0.039224761814063792 -0.0069082765286575436 0 -0.039377413264398753 -0.0059953672227619154 0 -0.039595974575332336 -0.0067343824339360942 0 -0.039889348737166527 -0.007059414958205246 0 -0.039981032200700546 -0.0059877934367214784 0 -0.039512554691912255 -0.0072489106007848705 0 -0.039595974575332336 -0.0067343824339360942 0 -0.039889348737166527 -0.007059414958205246 0 -0.039889348737166527 -0.007059414958205246 0 -0.03966379032882069 -0.0074048436493278922 0 -0.039633847142131098 -0.0073770488940680286 0 -0.039512554691912255 -0.0072489106007848705 0 -0.039889348737166527 -0.007059414958205246 0 -0.03966379032882069 -0.0074048436493278922 0 -0.039674230493209582 -0.0075947241936274437 0 -0.03966379032882069 -0.0074048436493278922 0 -0.039633847142131098 -0.0073770488940680286 0 -0.03906847159211483 -0.0078822501934081024 0 -0.039492090288537424 -0.0074904279571343943 0 -0.040374176665805651 -0.0078877961298631522 0 -0.039543396361795609 -0.00812815063845263 0 -0.03994197014379311 -0.007494223155304543 0 -0.039543396361795609 -0.00812815063845263 0 -0.039633847142131098 -0.0073770488940680286 0 -0.03994197014379311 -0.007494223155304543 0 -0.040374176665805651 -0.0078877961298631522 0 -0.03994197014379311 -0.007494223155304543 0 -0.04021953206197474 -0.007380176963880096 0 -0.03994197014379311 -0.007494223155304543 0 -0.040048480621858673 -0.0071174149876515281 0 -0.04021953206197474 -0.007380176963880096 0 -0.03994197014379311 -0.007494223155304543 0 -0.039866694771517788 -0.0071511290241692291 0 -0.040048480621858673 -0.0071174149876515281 0 -0.039633847142131098 -0.0073770488940680286 0 -0.03994197014379311 -0.007494223155304543 0 -0.039866694771517788 -0.0071511290241692291 0 -0.039889348737166527 -0.007059414958205246 0 -0.039633847142131098 -0.0073770488940680286 0 -0.039866694771517788 -0.0071511290241692291 0 -0.039889348737166527 -0.007059414958205246 0 -0.039866694771517788 -0.0071511290241692291 0 -0.039973653325987263 -0.0069208568995173889 0 -0.039963882672291881 -0.0069645281906478449 0 -0.040339387021985584 -0.0062262247287543813 0 -0.039889348737166527 -0.007059414958205246 0 -0.039973653325987263 -0.0069208568995173889 0 -0.039884640872788202 -0.006550710006707163 0 -0.039973653325987263 -0.0069208568995173889 0 -0.04014526130127799 -0.0069442416031352677 0 -0.040136010687274515 -0.0067504179758490681 0 -0.039973653325987263 -0.0069208568995173889 0 -0.040136010687274515 -0.0067504179758490681 0 -0.039884640872788202 -0.006550710006707163 0 -0.039973653325987263 -0.0069208568995173889 0 -0.040048480621858673 -0.0071174149876515281 0 -0.04014526130127799 -0.0069442416031352677 0 -0.039866694771517788 -0.0071511290241692291 0 -0.039973653325987263 -0.0069208568995173889 0 -0.040048480621858673 -0.0071174149876515281 0 -0.040048480621858673 -0.0071174149876515281 0 -0.040267874523620649 -0.0070811583326408955 0 -0.04014526130127799 -0.0069442416031352677 0 -0.040267874523620649 -0.0070811583326408955 0 -0.04014526130127799 -0.0069442416031352677 0 -0.040302244359028128 -0.0068639213960249223 0 -0.040136010687274515 -0.0067504179758490681 0 -0.040302244359028128 -0.0068639213960249223 0 -0.040236097810053113 -0.0065391087938822569 0 -0.04014526130127799 -0.0069442416031352677 0 -0.040136010687274515 -0.0067504179758490681 0 -0.040302244359028128 -0.0068639213960249223 0 -0.040302244359028128 -0.0068639213960249223 0 -0.04038225325457221 -0.0069024024328317472 0 -0.040236097810053113 -0.0065391087938822569 0 -0.035162473238371357 -0.0046405227773714921 0 -0.030801055110698694 -0.0029024909925243277 0 -0.024857488239064373 0.0010959143613351251 0 -0.02360070335930866 -0.004818297335784147 0 -0.026572696218225774 0.00042678952672406574 0 -0.030801055110698694 -0.0029024909925243277 0 -0.024356358810867576 -0.0049091456127151245 0 -0.030801055110698694 -0.0029024909925243277 0 -0.0180081312020824 0.0013724157855535457 0 -0.024356358810867576 -0.0049091456127151245 0 -0.0180081312020824 0.0013724157855535457 0 -0.040267874523620649 -0.0070811583326408955 0 -0.040404512587954675 -0.0068966588874894231 0 -0.040425136118775615 -0.0073304428526520362 0 -0.040267874523620649 -0.0070811583326408955 0 -0.040302244359028128 -0.0068639213960249223 0 -0.040404512587954675 -0.0068966588874894231 0 -0.014696227943954443 -0.0038249452908843593 0 -0.014667669008221475 -0.0040189759337807274 0 -0.015041494892796065 -0.0036031223415469724 0 -0.040048480621858673 -0.0071174149876515281 0 -0.040267874523620649 -0.0070811583326408955 0 -0.04021953206197474 -0.007380176963880096 0 -0.040267874523620649 -0.0070811583326408955 0 -0.040425136118775615 -0.0073304428526520362 0 -0.04021953206197474 -0.007380176963880096 0 -0.019465683283270335 -0.011594146550188596 0 -0.023221420336452241 -0.0049272079650305219 0 -0.022311174829587232 -0.0092710529417172026 0 -0.040374176665805651 -0.0078877961298631522 0 -0.040425136118775615 -0.0073304428526520362 0 -0.04021953206197474 -0.007380176963880096 0 -0.025614013572162395 -0.0090490071294488487 0 -0.024356358810867576 -0.0049091456127151245 0 -0.025614013572162395 -0.0090490071294488487 0 -0.01484771765395756 -0.0097127007233973536 0 -0.0080538045776049044 -0.010917366136449906 0 -0.0080952585518371395 -0.010952703229259489 0 -0.0080178861165527641 -0.010950991386844125 0 -0.024356358810867576 -0.0049091456127151245 0 -0.01484771765395756 -0.0097127007233973536 0 -0.039093481207976691 -0.0081953704173090367 0 -0.039015542909598362 -0.0078771311530211521 0 -0.039092352551584206 -0.0080578321746217121 0 -0.039093481207976691 -0.0081953704173090367 0 -0.039015542909598362 -0.0078771311530211521 0 -0.03899352085413927 -0.0080731019670961645 0 -0.039093481207976691 -0.0081953704173090367 0 -0.03937775104347227 -0.0085682726624494061 0 -0.039092352551584206 -0.0080578321746217121 0 -0.038929806889413658 -0.0084448535425320857 0 -0.03937775104347227 -0.0085682726624494061 0 -0.039092352551584206 -0.0080578321746217121 0 -0.039093481207976691 -0.0081953704173090367 0 -0.03937775104347227 -0.0085682726624494061 0 -0.039261370121749795 -0.0079760501144639263 0 -0.039506738349449524 -0.0084224278424529474 0 -0.038970985887798806 -0.010192746930550174 0 -0.03937775104347227 -0.0085682726624494061 0 -0.040419061934878597 -0.010612518003968133 0 -0.039829160161708177 -0.01073318480372043 0 -0.038970985887798806 -0.010192746930550174 0 -0.039745141713846223 -0.010304428789223778 0 -0.038970985887798806 -0.010192746930550174 0 -0.038231997913737319 -0.0096046335246761927 0 -0.037666628343144833 -0.011372235321167731 0 -0.037499671380976943 -0.011244510019352963 0 -0.037720953170131764 -0.011203985761271497 0 -0.039093481207976691 -0.0081953704173090367 0 -0.039261370121749795 -0.0079760501144639263 0 -0.03899352085413927 -0.0080731019670961645 0 -0.03899352085413927 -0.0080731019670961645 0 -0.039137001632588743 -0.0079745237074775495 0 -0.039069136122320158 -0.0077952549893667011 0 -0.038231997913737319 -0.0096046335246761927 0 -0.038716291249461549 -0.0095273668095600377 0 -0.037720953170131764 -0.011203985761271497 0 -0.037895202604813369 -0.011262606356191859 0 -0.037953983167186213 -0.011125488547234327 0 -0.038223731769264135 -0.0095887819989624347 0 -0.038716291249461549 -0.0095273668095600377 0 -0.038424669992989019 -0.010985101738564512 0 -0.038268147131291862 -0.011110076305615548 0 -0.037953983167186213 -0.011125488547234327 0 -0.039459888512254328 -0.0079063980143629885 0 -0.039137001632588743 -0.0079745237074775495 0 -0.03926031374955271 -0.007762421465943024 0 -0.037997849158464124 -0.011372310694117796 0 -0.038268147131291862 -0.011110076305615548 0 -0.038018379662560553 -0.011219881564030566 0 -0.038268147131291862 -0.011110076305615548 0 -0.038018379662560553 -0.011219881564030566 0 -0.037953983167186213 -0.011125488547234327 0 -0.038192251054624426 -0.011206792181045509 0 -0.038145233352672517 -0.01125381123941205 0 -0.037895202604813369 -0.011262606356191859 0 -0.038018379662560553 -0.011219881564030566 0 -0.037953983167186213 -0.011125488547234327 0 -0.039137001632588743 -0.0079745237074775495 0 -0.03926031374955271 -0.007762421465943024 0 -0.039069136122320158 -0.0077952549893667011 0 -0.03926031374955271 -0.007762421465943024 0 -0.039069136122320158 -0.0077952549893667011 0 -0.039240022448139331 -0.0075031928348796894 0 -0.039459813223310498 -0.007597745191827026 0 -0.03926031374955271 -0.007762421465943024 0 -0.039240022448139331 -0.0075031928348796894 0 -0.039015542909598362 -0.0078771311530211521 0 -0.03899352085413927 -0.0080731019670961645 0 -0.039069136122320158 -0.0077952549893667011 0 -0.039015542909598362 -0.0078771311530211521 0 -0.039069136122320158 -0.0077952549893667011 0 -0.038963018470982359 -0.0074392164256141197 0 -0.038963018470982359 -0.0074392164256141197 0 -0.039240022448139331 -0.0075031928348796894 0 -0.039224761814063792 -0.0069082765286575436 0 -0.039069136122320158 -0.0077952549893667011 0 -0.038963018470982359 -0.0074392164256141197 0 -0.039240022448139331 -0.0075031928348796894 0 -0.038963018470982359 -0.0074392164256141197 0 -0.039224761814063792 -0.0069082765286575436 0 -0.038663055651582068 -0.0069021922852468545 0 -0.038963018470982359 -0.0074392164256141197 0 -0.038663055651582068 -0.0069021922852468545 0 -0.038932537769873453 -0.0074578733546273321 0 -0.038663055651582068 -0.0069021922852468545 0 -0.038932537769873453 -0.0074578733546273321 0 -0.038933357378166417 -0.0071252287851244107 0 -0.039015542909598362 -0.0078771311530211521 0 -0.038932537769873453 -0.0074578733546273321 0 -0.039092352551584206 -0.0080578321746217121 0 -0.039015542909598362 -0.0078771311530211521 0 -0.038963018470982359 -0.0074392164256141197 0 -0.038932537769873453 -0.0074578733546273321 0 -0.038932537769873453 -0.0074578733546273321 0 -0.039092352551584206 -0.0080578321746217121 0 -0.038803423797622354 -0.0076007296602989506 0 -0.038929806889413658 -0.0084448535425320857 0 -0.039092352551584206 -0.0080578321746217121 0 -0.038803423797622354 -0.0076007296602989506 0 -0.03846559027106803 -0.0071319486218946139 0 -0.038803423797622354 -0.0076007296602989506 0 -0.038933357378166417 -0.0071252287851244107 0 -0.038932537769873453 -0.0074578733546273321 0 -0.038803423797622354 -0.0076007296602989506 0 -0.038933357378166417 -0.0071252287851244107 0 -0.038131398489485067 -0.0067355709662338305 0 -0.037218845046114397 -0.0063336987861629269 0 -0.037255625191428873 -0.0063827175493797999 0 -0.037055091880068447 -0.0057917606518206061 0 -0.03629720071858502 -0.0059988178329857542 0 -0.03846559027106803 -0.0071319486218946139 0 -0.038933357378166417 -0.0071252287851244107 0 -0.038442252915740882 -0.0066675709918841254 0 -0.037055091880068447 -0.0057917606518206061 0 -0.0374816894642351 -0.0051855997891173131 0 -0.036374789286799498 -0.0055129427338322119 0 -0.037786009026078336 -0.0043806365082790554 0 -0.036721724532308826 -0.0045133555998025394 0 -0.038006639218610146 -0.0035578681631589695 0 -0.03742988909193793 -0.0036762688868900678 0 -0.037539957261263836 -0.0032345513111618892 0 -0.0374816894642351 -0.0051855997891173131 0 -0.037994918871048632 -0.0058146264304893601 0 -0.038482395176026966 -0.0047915345358143435 0 -0.037055091880068447 -0.0057917606518206061 0 -0.0374816894642351 -0.0051855997891173131 0 -0.037994918871048632 -0.0058146264304893601 0 -0.037255625191428873 -0.0063827175493797999 0 -0.037055091880068447 -0.0057917606518206061 0 -0.037994918871048632 -0.0058146264304893601 0 -0.038663055651582068 -0.0069021922852468545 0 -0.037255625191428873 -0.0063827175493797999 0 -0.037994918871048632 -0.0058146264304893601 0 -0.038631388118842876 -0.006901407356612186 0 -0.038131398489485067 -0.0067355709662338305 0 -0.038663055651582068 -0.0069021922852468545 0 -0.037994918871048632 -0.0058146264304893601 0 -0.038820157128400055 -0.0058763218773315671 0 -0.039224761814063792 -0.0069082765286575436 0 -0.038663055651582068 -0.0069021922852468545 0 -0.038820157128400055 -0.0058763218773315671 0 -0.039224761814063792 -0.0069082765286575436 0 -0.038820157128400055 -0.0058763218773315671 0 -0.039377413264398753 -0.0059953672227619154 0 -0.038820157128400055 -0.0058763218773315671 0 -0.03914461898623884 -0.0051832960188157489 0 -0.039377413264398753 -0.0059953672227619154 0 -0.038820157128400055 -0.0058763218773315671 0 -0.03914461898623884 -0.0051832960188157489 0 -0.038482395176026966 -0.0047915345358143435 0 -0.037994918871048632 -0.0058146264304893601 0 -0.038820157128400055 -0.0058763218773315671 0 -0.038482395176026966 -0.0047915345358143435 0 -0.037786009026078336 -0.0043806365082790554 0 -0.038621069809328216 -0.0041675554420393798 0 -0.038006639218610146 -0.0035578681631589695 0 -0.038683406214105515 -0.0035876439855311339 0 -0.038504057965768695 -0.0029648125610996184 0 -0.038621069809328216 -0.0041675554420393798 0 -0.039457431858829349 -0.003921590410202281 0 -0.038683406214105515 -0.0035876439855311339 0 -0.038504057965768695 -0.0029648125610996184 0 -0.039441759637446852 -0.0039053661358236721 0 -0.03914461898623884 -0.0051832960188157489 0 -0.038482395176026966 -0.0047915345358143435 0 -0.039441759637446852 -0.0039053661358236721 0 -0.038504057965768695 -0.0029648125610996184 0 -0.039441759637446852 -0.0039053661358236721 0 -0.038935533233353789 -0.0024885758244497899 0 -0.038504057965768695 -0.0029648125610996184 0 -0.037919910999719073 -0.0029847974368086309 0 -0.038040244519944491 -0.0025104616877613308 0 -0.037919910999719073 -0.0029847974368086309 0 -0.038040244519944491 -0.0025104616877613308 0 -0.037586369060602288 -0.0026411372015651153 0 -0.037919910999719073 -0.0029847974368086309 0 -0.037586369060602288 -0.0026411372015651153 0 -0.037539957261263836 -0.0032345513111618892 0 -0.038006639218610146 -0.0035578681631589695 0 -0.037919910999719073 -0.0029847974368086309 0 -0.037539957261263836 -0.0032345513111618892 0 -0.038006639218610146 -0.0035578681631589695 0 -0.038504057965768695 -0.0029648125610996184 0 -0.037919910999719073 -0.0029847974368086309 0 -0.041530041731162641 -0.0053957847547360114 0 -0.040339387021985584 -0.0062262247287543813 0 -0.040152418725728903 -0.0058459969891955952 0 -0.040236097810053113 -0.0065391087938822569 0 -0.040487215791646013 -0.0062467367085730996 0 -0.04038225325457221 -0.0069024024328317472 0 -0.040236097810053113 -0.0065391087938822569 0 -0.040487215791646013 -0.0062467367085730996 0 -0.040152418725728903 -0.0058459969891955952 0 -0.040236097810053113 -0.0065391087938822569 0 -0.039884640872788202 -0.006550710006707163 0 -0.030801055110698694 -0.0029024909925243277 0 -0.033124245390408362 -0.0025923761744628044 0 -0.040136010687274515 -0.0067504179758490681 0 -0.040236097810053113 -0.0065391087938822569 0 -0.039884640872788202 -0.006550710006707163 0 -0.041631347415717626 -0.004650528130534284 0 -0.040976062540598358 -0.0058987830150572951 0 -0.040979496341357967 -0.0042769233522184083 0 -0.040976062540598358 -0.0058987830150572951 0 -0.040376328493084784 -0.0046747154854702615 0 -0.040979496341357967 -0.0042769233522184083 0 -0.040376328493084784 -0.0046747154854702615 0 -0.039724473451079309 -0.0051890442961647649 0 -0.039441759637446852 -0.0039053661358236721 0 -0.040376328493084784 -0.0046747154854702615 0 -0.039981032200700546 -0.0059877934367214784 0 -0.039724473451079309 -0.0051890442961647649 0 -0.039889348737166527 -0.007059414958205246 0 -0.040976062540598358 -0.0058987830150572951 0 -0.039981032200700546 -0.0059877934367214784 0 -0.040976062540598358 -0.0058987830150572951 0 -0.040376328493084784 -0.0046747154854702615 0 -0.039981032200700546 -0.0059877934367214784 0 -0.039981032200700546 -0.0059877934367214784 0 -0.039377413264398753 -0.0059953672227619154 0 -0.039724473451079309 -0.0051890442961647649 0 -0.039595974575332336 -0.0067343824339360942 0 -0.039981032200700546 -0.0059877934367214784 0 -0.039377413264398753 -0.0059953672227619154 0 -0.03914461898623884 -0.0051832960188157489 0 -0.039724473451079309 -0.0051890442961647649 0 -0.039441759637446852 -0.0039053661358236721 0 -0.03914461898623884 -0.0051832960188157489 0 -0.039377413264398753 -0.0059953672227619154 0 -0.039724473451079309 -0.0051890442961647649 0 -0.039441759637446852 -0.0039053661358236721 0 -0.039656187750609133 -0.0028531954968096089 0 -0.040180724707131091 -0.0035408741104180153 0 -0.039441759637446852 -0.0039053661358236721 0 -0.039656187750609133 -0.0028531954968096089 0 -0.038935533233353789 -0.0024885758244497899 0 -0.039656187750609133 -0.0028531954968096089 0 -0.040180724707131091 -0.0035408741104180153 0 -0.040146897986120908 -0.0023773989706306503 0 -0.040180724707131091 -0.0035408741104180153 0 -0.040785222006487591 -0.0032353646778043861 0 -0.040146897986120908 -0.0023773989706306503 0 -0.040376328493084784 -0.0046747154854702615 0 -0.039441759637446852 -0.0039053661358236721 0 -0.040180724707131091 -0.0035408741104180153 0 -0.040376328493084784 -0.0046747154854702615 0 -0.040180724707131091 -0.0035408741104180153 0 -0.040979496341357967 -0.0042769233522184083 0 -0.040180724707131091 -0.0035408741104180153 0 -0.040979496341357967 -0.0042769233522184083 0 -0.040785222006487591 -0.0032353646778043861 0 -0.040979496341357967 -0.0042769233522184083 0 -0.040785222006487591 -0.0032353646778043861 0 -0.041394905978776445 -0.0037257090307576111 0 -0.040785222006487591 -0.0032353646778043861 0 -0.041369428546345823 -0.0029558470027019851 0 -0.040798250657284374 -0.0023105376058461381 0 -0.040785222006487591 -0.0032353646778043861 0 -0.041369428546345823 -0.0029558470027019851 0 -0.041394905978776445 -0.0037257090307576111 0 -0.041369428546345823 -0.0029558470027019851 0 -0.041394905978776445 -0.0037257090307576111 0 -0.042172389459288473 -0.00352792428157544 0 -0.041369428546345823 -0.0029558470027019851 0 -0.041841490380661518 -0.0024118423280573881 0 -0.042172389459288473 -0.00352792428157544 0 -0.041631347415717626 -0.004650528130534284 0 -0.041394905978776445 -0.0037257090307576111 0 -0.042172389459288473 -0.00352792428157544 0 -0.041631347415717626 -0.004650528130534284 0 -0.040979496341357967 -0.0042769233522184083 0 -0.041394905978776445 -0.0037257090307576111 0 -0.041530041731162641 -0.0053957847547360114 0 -0.035532120608236926 -0.0016592230693498738 0 -0.030720120727829033 0.0038087007667066074 0 -0.028104239461589284 0.0024990621293313189 0 -0.038657933144536923 0.0020360691267633543 0 -0.036250813098787596 0.00059865163029721325 0 -0.035694138937886546 0.0051684206845055095 0 -0.035893120090306929 0.0048585444508754561 0 -0.035975009199144925 0.0041516751697571073 0 -0.031096201089852425 0.0030600591572769011 0 -0.030888029378750962 0.0042133076754614996 0 -0.031326877413721636 0.0024069173177704538 0 -0.041011539501326917 -0.00097165372459841225 0 -0.041150986801657692 -0.0018999801066128636 0 -0.041841490380661518 -0.0024118423280573881 0 -0.035694138937886546 0.0051684206845055095 0 -0.035893120090306929 0.0048585444508754561 0 -0.035783265969162509 0.0053744871098313123 0 -0.033368178749459527 0.0044491714418265589 0 -0.030720120727829033 0.0038087007667066074 0 -0.041011539501326917 -0.00097165372459841225 0 -0.040616542616572986 -0.0012770274769220362 0 -0.039740932911324654 2.3616266063715604e-05 0 -0.040616542616572986 -0.0012770274769220362 0 -0.041150986801657692 -0.0018999801066128636 0 -0.040735578871163608 -0.0018126545933906954 0 -0.041011539501326917 -0.00097165372459841225 0 -0.040616542616572986 -0.0012770274769220362 0 -0.041150986801657692 -0.0018999801066128636 0 -0.041275706832827101 -0.0023945226776114588 0 -0.041150986801657692 -0.0018999801066128636 0 -0.041841490380661518 -0.0024118423280573881 0 -0.033368178749459527 0.0044491714418265589 0 -0.036250813098787596 0.00059865163029721325 0 -0.041369428546345823 -0.0029558470027019851 0 -0.041275706832827101 -0.0023945226776114588 0 -0.041841490380661518 -0.0024118423280573881 0 -0.041369428546345823 -0.0029558470027019851 0 -0.041275706832827101 -0.0023945226776114588 0 -0.040798250657284374 -0.0023105376058461381 0 -0.041275706832827101 -0.0023945226776114588 0 -0.041150986801657692 -0.0018999801066128636 0 -0.040798250657284374 -0.0023105376058461381 0 -0.041150986801657692 -0.0018999801066128636 0 -0.040798250657284374 -0.0023105376058461381 0 -0.040735578871163608 -0.0018126545933906954 0 -0.040798250657284374 -0.0023105376058461381 0 -0.040436492668637698 -0.0017839895229200982 0 -0.040735578871163608 -0.0018126545933906954 0 -0.040798250657284374 -0.0023105376058461381 0 -0.040436492668637698 -0.0017839895229200982 0 -0.040146897986120908 -0.0023773989706306503 0 -0.040785222006487591 -0.0032353646778043861 0 -0.040798250657284374 -0.0023105376058461381 0 -0.040146897986120908 -0.0023773989706306503 0 -0.040571212715652526 -0.0012365319412576158 0 -0.039034127290835677 -0.00087253829360552462 0 -0.040616542616572986 -0.0012770274769220362 0 -0.037807459746468576 -0.00022311735232178858 0 -0.039740932911324654 2.3616266063715604e-05 0 -0.040616542616572986 -0.0012770274769220362 0 -0.040436492668637698 -0.0017839895229200982 0 -0.040082985269980019 -0.0015219618111834618 0 -0.040616542616572986 -0.0012770274769220362 0 -0.040436492668637698 -0.0017839895229200982 0 -0.040735578871163608 -0.0018126545933906954 0 -0.040436492668637698 -0.0017839895229200982 0 -0.040082985269980019 -0.0015219618111834618 0 -0.040146897986120908 -0.0023773989706306503 0 -0.040082985269980019 -0.0015219618111834618 0 -0.040146897986120908 -0.0023773989706306503 0 -0.03959717087913954 -0.002082936900236974 0 -0.039656187750609133 -0.0028531954968096089 0 -0.03959717087913954 -0.002082936900236974 0 -0.038935533233353789 -0.0024885758244497899 0 -0.039656187750609133 -0.0028531954968096089 0 -0.040146897986120908 -0.0023773989706306503 0 -0.03959717087913954 -0.002082936900236974 0 -0.040082985269980019 -0.0015219618111834618 0 -0.03959717087913954 -0.002082936900236974 0 -0.039225299324999865 -0.001243713889538786 0 -0.039034127290835677 -0.00087253829360552462 0 -0.038388237007145914 -0.00053285646363615666 0 -0.037807459746468576 -0.00022311735232178858 0 -0.037640709123379357 0.00054052789737253312 0 -0.037632678709023676 0.0002615679803104952 0 -0.037640709123379357 0.00054052789737253312 0 -0.037577662475038555 0.00078433763328290135 0 -0.037632678709023676 0.0002615679803104952 0 -0.037640709123379357 0.00054052789737253312 0 -0.037577662475038555 0.00078433763328290135 0 -0.03766252130173859 0.0012374730609756078 0 -0.037577662475038555 0.00078433763328290135 0 -0.03766252130173859 0.0012374730609756078 0 -0.037509001147832809 0.0014186703824700137 0 -0.037640709123379357 0.00054052789737253312 0 -0.03766252130173859 0.0012374730609756078 0 -0.038357429733503513 0.00079245598126622178 0 -0.03766252130173859 0.0012374730609756078 0 -0.03795139553984779 0.0018060846183559855 0 -0.037395170345491259 0.0020732498494403441 0 -0.03766252130173859 0.0012374730609756078 0 -0.038357429733503513 0.00079245598126622178 0 -0.03795139553984779 0.0018060846183559855 0 -0.037807459746468576 -0.00022311735232178858 0 -0.037640709123379357 0.00054052789737253312 0 -0.038357429733503513 0.00079245598126622178 0 -0.037807459746468576 -0.00022311735232178858 0 -0.039740932911324654 2.3616266063715604e-05 0 -0.038357429733503513 0.00079245598126622178 0 -0.039740932911324654 2.3616266063715604e-05 0 -0.039035343251584594 0.00084921481471078087 0 -0.039512145724985986 0.0012788896744606653 0 -0.039740932911324654 2.3616266063715604e-05 0 -0.039035343251584594 0.00084921481471078087 0 -0.038357429733503513 0.00079245598126622178 0 -0.038357429733503513 0.00079245598126622178 0 -0.03869309540848586 0.0011750632497768369 0 -0.03795139553984779 0.0018060846183559855 0 -0.03767991813310604 0.0032987668250509645 0 -0.037325054267181933 0.0029193784467210983 0 -0.03795139553984779 0.0018060846183559855 0 -0.039512145724985986 0.0012788896744606653 0 -0.037138623956562783 0.0029239663042723257 0 -0.039035343251584594 0.00084921481471078087 0 -0.038357429733503513 0.00079245598126622178 0 -0.03869309540848586 0.0011750632497768369 0 -0.03869309540848586 0.0011750632497768369 0 -0.03795139553984779 0.0018060846183559855 0 -0.039512145724985986 0.0012788896744606653 0 -0.039035343251584594 0.00084921481471078087 0 -0.03869309540848586 0.0011750632497768369 0 -0.039512145724985986 0.0012788896744606653 0 -0.035175449010853781 0.0071406160201097652 0 -0.034932574417771881 0.0059405428179455889 0 -0.03577298299372373 0.004048321157799694 0 -0.035977394580883566 0.005590872707514934 0 -0.035730417085729951 0.0055604088851844849 0 -0.03577298299372373 0.004048321157799694 0 -0.0315996255911839 0.0044668198101798263 0 -0.035971964766242578 0.0046229915802951408 0 -0.034651339318287219 0.0053585597789858859 0 -0.034932574417771881 0.0059405428179455889 0 -0.03577298299372373 0.004048321157799694 0 -0.034382161662384968 0.0063081071084081404 0 -0.033858282711561639 0.0068394659055491325 0 -0.033836161573284014 0.005778445913938759 0 -0.034651339318287219 0.0053585597789858859 0 -0.034382161662384968 0.0063081071084081404 0 -0.033836161573284014 0.005778445913938759 0 -0.034651339318287219 0.0053585597789858859 0 -0.034932574417771881 0.0059405428179455889 0 -0.034382161662384968 0.0063081071084081404 0 -0.034932574417771881 0.0059405428179455889 0 -0.034382161662384968 0.0063081071084081404 0 -0.034627057713973675 0.0066318218633544344 0 -0.034382161662384968 0.0063081071084081404 0 -0.034627057713973675 0.0066318218633544344 0 -0.033858282711561639 0.0068394659055491325 0 -0.035175449010853781 0.0071406160201097652 0 -0.034627057713973675 0.0066318218633544344 0 -0.033858282711561639 0.0068394659055491325 0 -0.035175449010853781 0.0071406160201097652 0 -0.034932574417771881 0.0059405428179455889 0 -0.034627057713973675 0.0066318218633544344 0 -0.0315996255911839 0.0044668198101798263 0 -0.030720120727829033 0.0038087007667066074 0 -0.035694138937886546 0.0051684206845055095 0 -0.035977394580883566 0.005590872707514934 0 -0.035783265969162509 0.0053744871098313123 0 -0.025851435579338323 0.0022744439257813753 0 -0.025784848570929903 0.0023584146715775671 0 -0.025656194135580426 0.0023388073662231239 0 -0.041011539501326917 -0.00097165372459841225 0 -0.039740932911324654 2.3616266063715604e-05 0 -0.039512145724985986 0.0012788896744606653 0 -0.038657933144536923 0.0020360691267633543 0 -0.03767991813310604 0.0032987668250509645 0 -0.035977394580883566 0.005590872707514934 0 -0.035730417085729951 0.0055604088851844849 0 -0.035783265969162509 0.0053744871098313123 0 -0.037818911306229164 -0.0017981793796681951 0 -0.038412490906020544 -0.0019664627897305687 0 -0.038081645436451442 -0.00061473333843235832 0 -0.037818911306229164 -0.0017981793796681951 0 -0.038081645436451442 -0.00061473333843235832 0 -0.037655505941918056 -0.00096437743025678212 0 -0.037818911306229164 -0.0017981793796681951 0 -0.037655505941918056 -0.00096437743025678212 0 -0.037483617988823555 -0.0019495189131137675 0 -0.037586369060602288 -0.0026411372015651153 0 -0.037818911306229164 -0.0017981793796681951 0 -0.037483617988823555 -0.0019495189131137675 0 -0.038040244519944491 -0.0025104616877613308 0 -0.037586369060602288 -0.0026411372015651153 0 -0.037818911306229164 -0.0017981793796681951 0 -0.038040244519944491 -0.0025104616877613308 0 -0.037818911306229164 -0.0017981793796681951 0 -0.038412490906020544 -0.0019664627897305687 0 -0.038504057965768695 -0.0029648125610996184 0 -0.038040244519944491 -0.0025104616877613308 0 -0.038412490906020544 -0.0019664627897305687 0 -0.038504057965768695 -0.0029648125610996184 0 -0.038412490906020544 -0.0019664627897305687 0 -0.038935533233353789 -0.0024885758244497899 0 -0.038412490906020544 -0.0019664627897305687 0 -0.038935533233353789 -0.0024885758244497899 0 -0.039225299324999865 -0.001243713889538786 0 -0.03959717087913954 -0.002082936900236974 0 -0.038935533233353789 -0.0024885758244497899 0 -0.039225299324999865 -0.001243713889538786 0 -0.038412490906020544 -0.0019664627897305687 0 -0.039225299324999865 -0.001243713889538786 0 -0.038081645436451442 -0.00061473333843235832 0 -0.038388237007145914 -0.00053285646363615666 0 -0.038030669791880828 -0.00057166443234695624 0 -0.037632678709023676 0.0002615679803104952 0 -0.037919681211932503 0.00047879210124271318 0 -0.038081645436451442 -0.00061473333843235832 0 -0.037577662475038555 0.00078433763328290135 0 -0.037632678709023676 0.0002615679803104952 0 -0.037919681211932503 0.00047879210124271318 0 -0.037577662475038555 0.00078433763328290135 0 -0.037919681211932503 0.00047879210124271318 0 -0.037566844239657969 0.0012439976275712575 0 -0.037919681211932503 0.00047879210124271318 0 -0.037907933909380097 5.9921371352769381e-05 0 -0.038081645436451442 -0.00061473333843235832 0 -0.037907933909380097 5.9921371352769381e-05 0 -0.038081645436451442 -0.00061473333843235832 0 -0.037655505941918056 -0.00096437743025678212 0 -0.037907933909380097 5.9921371352769381e-05 0 -0.037655505941918056 -0.00096437743025678212 0 -0.037454985021747489 -0.00039247309849058554 0 -0.037454985021747489 -0.00039247309849058554 0 -0.036978358989040484 -0.00078494582020606182 0 -0.037249793069676594 -0.0012961457039378131 0 -0.037454985021747489 -0.00039247309849058554 0 -0.036978358989040484 -0.00078494582020606182 0 -0.037122449033185137 9.0382105028143493e-05 0 -0.036978358989040484 -0.00078494582020606182 0 -0.037249793069676594 -0.0012961457039378131 0 -0.036959812545881446 -0.0016538768179750309 0 -0.037655505941918056 -0.00096437743025678212 0 -0.037454985021747489 -0.00039247309849058554 0 -0.037249793069676594 -0.0012961457039378131 0 -0.037249793069676594 -0.0012961457039378131 0 -0.037190100189036637 -0.0021870814004094053 0 -0.037483617988823555 -0.0019495189131137675 0 -0.037655505941918056 -0.00096437743025678212 0 -0.037249793069676594 -0.0012961457039378131 0 -0.037483617988823555 -0.0019495189131137675 0 -0.037249793069676594 -0.0012961457039378131 0 -0.037190100189036637 -0.0021870814004094053 0 -0.036959812545881446 -0.0016538768179750309 0 -0.037190100189036637 -0.0021870814004094053 0 -0.03730543884989649 -0.0027240004645894098 0 -0.037094852308868609 -0.0028539781423941829 0 -0.037190100189036637 -0.0021870814004094053 0 -0.037483617988823555 -0.0019495189131137675 0 -0.03730543884989649 -0.0027240004645894098 0 -0.037586369060602288 -0.0026411372015651153 0 -0.037483617988823555 -0.0019495189131137675 0 -0.03730543884989649 -0.0027240004645894098 0 -0.036788861802699573 -0.0027224155462262996 0 -0.036685744898067099 -0.0021678798041090581 0 -0.036616329784152364 -0.0030669635668946608 0 -0.036788861802699573 -0.0027224155462262996 0 -0.036933148961659369 -0.0024072682311610102 0 -0.036907096621326997 -0.003043196109213729 0 -0.036788861802699573 -0.0027224155462262996 0 -0.036616329784152364 -0.0030669635668946608 0 -0.036747018229928055 -0.003634884636749464 0 -0.036933148961659369 -0.0024072682311610102 0 -0.037094852308868609 -0.0028539781423941829 0 -0.036907096621326997 -0.003043196109213729 0 -0.037190100189036637 -0.0021870814004094053 0 -0.036933148961659369 -0.0024072682311610102 0 -0.037094852308868609 -0.0028539781423941829 0 -0.037190100189036637 -0.0021870814004094053 0 -0.036933148961659369 -0.0024072682311610102 0 -0.036959812545881446 -0.0016538768179750309 0 -0.036933148961659369 -0.0024072682311610102 0 -0.036685744898067099 -0.0021678798041090581 0 -0.036959812545881446 -0.0016538768179750309 0 -0.036788861802699573 -0.0027224155462262996 0 -0.036933148961659369 -0.0024072682311610102 0 -0.036685744898067099 -0.0021678798041090581 0 -0.036685744898067099 -0.0021678798041090581 0 -0.036744848908075813 -0.0013134117644133547 0 -0.036534258732965078 -0.0016576841253558214 0 -0.036685744898067099 -0.0021678798041090581 0 -0.036744848908075813 -0.0013134117644133547 0 -0.036959812545881446 -0.0016538768179750309 0 -0.036978358989040484 -0.00078494582020606182 0 -0.036744848908075813 -0.0013134117644133547 0 -0.036959812545881446 -0.0016538768179750309 0 -0.036978358989040484 -0.00078494582020606182 0 -0.036744848908075813 -0.0013134117644133547 0 -0.036796844979706339 -0.00046653657947904264 0 -0.036744848908075813 -0.0013134117644133547 0 -0.036410456678864576 -0.0011611420532341267 0 -0.036796844979706339 -0.00046653657947904264 0 -0.036410456678864576 -0.0011611420532341267 0 -0.035867056489500469 -0.00096491361466143945 0 -0.036006781434074216 -0.0015563143874310491 0 -0.035867056489500469 -0.00096491361466143945 0 -0.036006781434074216 -0.0015563143874310491 0 -0.03555596626177155 -0.0014663334083957031 0 -0.036410456678864576 -0.0011611420532341267 0 -0.036006781434074216 -0.0015563143874310491 0 -0.036296954937427982 -0.0020290560270369994 0 -0.036006781434074216 -0.0015563143874310491 0 -0.036021037756561167 -0.002195355824372558 0 -0.035673514573629342 -0.0020267283704653752 0 -0.036006781434074216 -0.0015563143874310491 0 -0.036021037756561167 -0.002195355824372558 0 -0.036296954937427982 -0.0020290560270369994 0 -0.036685744898067099 -0.0021678798041090581 0 -0.036296954937427982 -0.0020290560270369994 0 -0.036534258732965078 -0.0016576841253558214 0 -0.036744848908075813 -0.0013134117644133547 0 -0.036410456678864576 -0.0011611420532341267 0 -0.036534258732965078 -0.0016576841253558214 0 -0.036410456678864576 -0.0011611420532341267 0 -0.036296954937427982 -0.0020290560270369994 0 -0.036534258732965078 -0.0016576841253558214 0 -0.034999978708761072 -0.00080440431088654697 0 -0.035732248223318705 -0.00071140528657493839 0 -0.036035657476708852 0.00088929121951330094 0 -0.034974483618221433 -0.0013767359921737041 0 -0.035351844750997792 -0.00086967275775325635 0 -0.03555596626177155 -0.0014663334083957031 0 -0.034974483618221433 -0.0013767359921737041 0 -0.03555596626177155 -0.0014663334083957031 0 -0.035371270725704514 -0.0019175287115134666 0 -0.035867056489500469 -0.00096491361466143945 0 -0.035351844750997792 -0.00086967275775325635 0 -0.03555596626177155 -0.0014663334083957031 0 -0.036006781434074216 -0.0015563143874310491 0 -0.03555596626177155 -0.0014663334083957031 0 -0.035673514573629342 -0.0020267283704653752 0 -0.035673514573629342 -0.0020267283704653752 0 -0.035371270725704514 -0.0019175287115134666 0 -0.035498356083290786 -0.0023592206440662847 0 -0.03555596626177155 -0.0014663334083957031 0 -0.035673514573629342 -0.0020267283704653752 0 -0.035371270725704514 -0.0019175287115134666 0 -0.034999978708761072 -0.00080440431088654697 0 -0.035732248223318705 -0.00071140528657493839 0 -0.035273525545459795 -0.0023539671988614514 0 -0.034974483618221433 -0.0013767359921737041 0 -0.035371270725704514 -0.0019175287115134666 0 -0.035273525545459795 -0.0023539671988614514 0 -0.034999978708761072 -0.00080440431088654697 0 -0.03499952838111469 -0.0028701928472860939 0 -0.035273525545459795 -0.0023539671988614514 0 -0.035361505857622558 -0.0010348437117380651 0 -0.035260841430895029 -0.0022226147515072756 0 -0.035371270725704514 -0.0019175287115134666 0 -0.035273525545459795 -0.0023539671988614514 0 -0.035498356083290786 -0.0023592206440662847 0 -0.03499952838111469 -0.0028701928472860939 0 -0.035419787278842506 -0.0027890882736840549 0 -0.035468669201219091 -0.0037205348065826377 0 -0.03499952838111469 -0.0028701928472860939 0 -0.035273525545459795 -0.0023539671988614514 0 -0.035419787278842506 -0.0027890882736840549 0 -0.035273525545459795 -0.0023539671988614514 0 -0.035419787278842506 -0.0027890882736840549 0 -0.035498356083290786 -0.0023592206440662847 0 -0.035419787278842506 -0.0027890882736840549 0 -0.035787780440259466 -0.0027231328781760324 0 -0.035468669201219091 -0.0037205348065826377 0 -0.035419787278842506 -0.0027890882736840549 0 -0.035787780440259466 -0.0027231328781760324 0 -0.035498356083290786 -0.0023592206440662847 0 -0.035673514573629342 -0.0020267283704653752 0 -0.035787780440259466 -0.0027231328781760324 0 -0.035498356083290786 -0.0023592206440662847 0 -0.036021037756561167 -0.002195355824372558 0 -0.035673514573629342 -0.0020267283704653752 0 -0.035787780440259466 -0.0027231328781760324 0 -0.035787780440259466 -0.0027231328781760324 0 -0.036084784545367309 -0.0034837928430790769 0 -0.036187518624698593 -0.0026863190521625759 0 -0.035787780440259466 -0.0027231328781760324 0 -0.036084784545367309 -0.0034837928430790769 0 -0.035468669201219091 -0.0037205348065826377 0 -0.036084784545367309 -0.0034837928430790769 0 -0.035468669201219091 -0.0037205348065826377 0 -0.035982103540790455 -0.0042738962314515716 0 -0.03499952838111469 -0.0028701928472860939 0 -0.035468669201219091 -0.0037205348065826377 0 -0.034999776834820653 -0.004935065985723382 0 -0.036685744898067099 -0.0021678798041090581 0 -0.036296954937427982 -0.0020290560270369994 0 -0.036449600530264054 -0.0025774433965528041 0 -0.036685744898067099 -0.0021678798041090581 0 -0.036449600530264054 -0.0025774433965528041 0 -0.036616329784152364 -0.0030669635668946608 0 -0.036296954937427982 -0.0020290560270369994 0 -0.036449600530264054 -0.0025774433965528041 0 -0.036187518624698593 -0.0026863190521625759 0 -0.036021037756561167 -0.002195355824372558 0 -0.036296954937427982 -0.0020290560270369994 0 -0.036187518624698593 -0.0026863190521625759 0 -0.036021037756561167 -0.002195355824372558 0 -0.035787780440259466 -0.0027231328781760324 0 -0.036187518624698593 -0.0026863190521625759 0 -0.036449600530264054 -0.0025774433965528041 0 -0.036187518624698593 -0.0026863190521625759 0 -0.036381504755833668 -0.0032085578405692951 0 -0.036084784545367309 -0.0034837928430790769 0 -0.036381504755833668 -0.0032085578405692951 0 -0.036528568863877682 -0.003972683152880966 0 -0.036084784545367309 -0.0034837928430790769 0 -0.036187518624698593 -0.0026863190521625759 0 -0.036381504755833668 -0.0032085578405692951 0 -0.036381504755833668 -0.0032085578405692951 0 -0.036616329784152364 -0.0030669635668946608 0 -0.036528568863877682 -0.003972683152880966 0 -0.036449600530264054 -0.0025774433965528041 0 -0.036381504755833668 -0.0032085578405692951 0 -0.036616329784152364 -0.0030669635668946608 0 -0.036616329784152364 -0.0030669635668946608 0 -0.036528568863877682 -0.003972683152880966 0 -0.036747018229928055 -0.003634884636749464 0 -0.036528568863877682 -0.003972683152880966 0 -0.036382812995500322 -0.0052971221519152473 0 -0.036603487999070282 -0.0042555097760243847 0 -0.036427032794093803 -0.0052059240296312009 0 -0.037370455952868163 -0.0051812074432509144 0 -0.036528568863877682 -0.003972683152880966 0 -0.036603487999070282 -0.0042555097760243847 0 -0.036747018229928055 -0.003634884636749464 0 -0.036603487999070282 -0.0042555097760243847 0 -0.036809123278003494 -0.0038694724227227909 0 -0.036747018229928055 -0.003634884636749464 0 -0.035468669201219091 -0.0037205348065826377 0 -0.034999776834820653 -0.004935065985723382 0 -0.035982103540790455 -0.0042738962314515716 0 -0.036084784545367309 -0.0034837928430790769 0 -0.036528568863877682 -0.003972683152880966 0 -0.035982103540790455 -0.0042738962314515716 0 -0.036528568863877682 -0.003972683152880966 0 -0.035982103540790455 -0.0042738962314515716 0 -0.036382812995500322 -0.0052971221519152473 0 -0.034999776834820653 -0.004935065985723382 0 -0.035982103540790455 -0.0042738962314515716 0 -0.036382812995500322 -0.0052971221519152473 0 -0.034999776834820653 -0.004935065985723382 0 -0.036382812995500322 -0.0052971221519152473 0 -0.03499960462711852 -0.0070011777166262791 0 -0.036382812995500322 -0.0052971221519152473 0 -0.03499960462711852 -0.0070011777166262791 0 -0.036365872484070631 -0.0072990409166796945 0 -0.036382812995500322 -0.0052971221519152473 0 -0.036365872484070631 -0.0072990409166796945 0 -0.037425169073672528 -0.0068271547524490226 0 -0.035804338848468169 -0.0087665735024704296 0 -0.036365872484070631 -0.0072990409166796945 0 -0.0376171509112673 -0.0081686369870486563 0 -0.035919265823883606 -0.0087397099161182525 0 -0.037426059321546447 -0.0083361296571627108 0 -0.035804338848468169 -0.0087665735024704296 0 -0.03499960462711852 -0.0070011777166262791 0 -0.036365872484070631 -0.0072990409166796945 0 -0.034999961210628344 -0.0090678084269485652 0 -0.035804338848468169 -0.0087665735024704296 0 -0.03499960462711852 -0.0070011777166262791 0 -0.037370455952868163 -0.0051812074432509144 0 -0.038536275505313369 -0.0052736260073099461 0 -0.03860330953715127 -0.0070518202406954214 0 -0.039511162187346509 -0.0075893940332389821 0 -0.039889727079151033 -0.0066551379446763408 0 -0.03860330953715127 -0.0070518202406954214 0 -0.038382678466833645 -0.0060891298031761944 0 -0.039889727079151033 -0.0066551379446763408 0 -0.036382812995500322 -0.0052971221519152473 0 -0.038382678466833645 -0.0060891298031761944 0 -0.037425169073672528 -0.0068271547524490226 0 -0.03860330953715127 -0.0070518202406954214 0 -0.038382678466833645 -0.0060891298031761944 0 -0.037425169073672528 -0.0068271547524490226 0 -0.036365872484070631 -0.0072990409166796945 0 -0.037425169073672528 -0.0068271547524490226 0 -0.0376171509112673 -0.0081686369870486563 0 -0.03860330953715127 -0.0070518202406954214 0 -0.037425169073672528 -0.0068271547524490226 0 -0.0376171509112673 -0.0081686369870486563 0 -0.038091522867062681 -0.0094739067570773512 0 -0.037460563590703329 -0.0085018741864640052 0 -0.038904706571548535 -0.0081862352148849449 0 -0.03860330953715127 -0.0070518202406954214 0 -0.0376171509112673 -0.0081686369870486563 0 -0.039511162187346509 -0.0075893940332389821 0 -0.038091522867062681 -0.0094739067570773512 0 -0.03918852580144646 -0.0086316420647920156 0 -0.038904706571548535 -0.0081862352148849449 0 -0.037426059321546447 -0.0083361296571627108 0 -0.039564248401558477 -0.0079947486756287572 0 -0.03918852580144646 -0.0086316420647920156 0 -0.038904706571548535 -0.0081862352148849449 0 -0.040222917724780642 -0.0078556862927984146 0 -0.039564248401558477 -0.0079947486756287572 0 -0.038869177209738794 -0.00634400526432948 0 -0.036337634867278173 -0.0071302653062375494 0 -0.035874335837501235 -0.006721297848165577 0 -0.036646842052425646 -0.0068269334070873858 0 -0.039511162187346509 -0.0075893940332389821 0 -0.039889727079151033 -0.0066551379446763408 0 -0.041076138099022129 -0.0071508192244255512 0 -0.036809123278003494 -0.0038694724227227909 0 -0.03696959596078752 -0.0036602603311681804 0 -0.037088141580821167 -0.0038020902479136581 0 -0.039889727079151033 -0.0066551379446763408 0 -0.041224932763281326 -0.0070447272274710244 0 -0.041076138099022129 -0.0071508192244255512 0 -0.038536275505313369 -0.0052736260073099461 0 -0.038117726264471165 -0.0056743162717217827 0 -0.03696959596078752 -0.0036602603311681804 0 -0.037088141580821167 -0.0038020902479136581 0 -0.037117685006746226 -0.0035651038978150615 0 -0.037137075851225651 -0.0061056828436215644 0 -0.037286495266750902 -0.0062331548503787972 0 -0.03740023910127982 -0.0060726088057848401 0 -0.038869177209738794 -0.00634400526432948 0 -0.037089971793157983 -0.005703921152657567 0 -0.038129979873920777 -0.0062021176232606792 0 -0.038443798260793423 -0.0059878557664524608 0 -0.037845376320956699 -0.0061201351961069532 0 -0.038117726264471165 -0.0056743162717217827 0 -0.038869177209738794 -0.00634400526432948 0 -0.035874335837501235 -0.006721297848165577 0 -0.036891796912687742 -0.0064917606416568293 0 -0.036646842052425646 -0.0068269334070873858 0 -0.037137075851225651 -0.0061056828436215644 0 -0.037162683965441604 -0.0063211663026919761 0 -0.036891796912687742 -0.0064917606416568293 0 -0.037162683965441604 -0.0063211663026919761 0 -0.037286495266750902 -0.0062331548503787972 0 -0.037333527578873628 -0.0064572476655116798 0 -0.035874335837501235 -0.006721297848165577 0 -0.037137075851225651 -0.0061056828436215644 0 -0.036891796912687742 -0.0064917606416568293 0 -0.037137075851225651 -0.0061056828436215644 0 -0.037162683965441604 -0.0063211663026919761 0 -0.037286495266750902 -0.0062331548503787972 0 -0.037444129125801327 -0.0077925596864055384 0 -0.038869177209738794 -0.00634400526432948 0 -0.037162683965441604 -0.0063211663026919761 0 -0.036891796912687742 -0.0064917606416568293 0 -0.037333527578873628 -0.0064572476655116798 0 -0.037094893752738167 -0.0068296559187932026 0 -0.037424306937174433 -0.0068275423628646192 0 -0.037333527578873628 -0.0064572476655116798 0 -0.036891796912687742 -0.0064917606416568293 0 -0.037094893752738167 -0.0068296559187932026 0 -0.037333527578873628 -0.0064572476655116798 0 -0.036891796912687742 -0.0064917606416568293 0 -0.036646842052425646 -0.0068269334070873858 0 -0.037094893752738167 -0.0068296559187932026 0 -0.037857050054383133 -0.0071164085387300669 0 -0.037424306937174433 -0.0068275423628646192 0 -0.037661548805136384 -0.0067172419551828309 0 -0.037679934763411548 -0.0064248164670548851 0 -0.038442252915740882 -0.0066675709918841254 0 -0.03740023910127982 -0.0060726088057848401 0 -0.037403311392462814 -0.0071987369646295367 0 -0.037094893752738167 -0.0068296559187932026 0 -0.037424306937174433 -0.0068275423628646192 0 -0.037995783420819655 -0.0067391339761196977 0 -0.037679934763411548 -0.0064248164670548851 0 -0.038442252915740882 -0.0066675709918841254 0 -0.037218845046114397 -0.0063336987861629269 0 -0.037089971793157983 -0.005703921152657567 0 -0.037424306937174433 -0.0068275423628646192 0 -0.037661548805136384 -0.0067172419551828309 0 -0.037333527578873628 -0.0064572476655116798 0 -0.037857050054383133 -0.0071164085387300669 0 -0.037661548805136384 -0.0067172419551828309 0 -0.037995783420819655 -0.0067391339761196977 0 -0.037661548805136384 -0.0067172419551828309 0 -0.037995783420819655 -0.0067391339761196977 0 -0.037679934763411548 -0.0064248164670548851 0 -0.037286495266750902 -0.0062331548503787972 0 -0.037425555764210548 -0.0062982834980620864 0 -0.03740023910127982 -0.0060726088057848401 0 -0.037286495266750902 -0.0062331548503787972 0 -0.037425555764210548 -0.0062982834980620864 0 -0.037333527578873628 -0.0064572476655116798 0 -0.037679934763411548 -0.0064248164670548851 0 -0.037425555764210548 -0.0062982834980620864 0 -0.037333527578873628 -0.0064572476655116798 0 -0.037679934763411548 -0.0064248164670548851 0 -0.037425555764210548 -0.0062982834980620864 0 -0.03740023910127982 -0.0060726088057848401 0 -0.037661548805136384 -0.0067172419551828309 0 -0.037679934763411548 -0.0064248164670548851 0 -0.037333527578873628 -0.0064572476655116798 0 -0.03846559027106803 -0.0071319486218946139 0 -0.037995783420819655 -0.0067391339761196977 0 -0.038442252915740882 -0.0066675709918841254 0 -0.03846559027106803 -0.0071319486218946139 0 -0.037857050054383133 -0.0071164085387300669 0 -0.037995783420819655 -0.0067391339761196977 0 -0.03629720071858502 -0.0059988178329857542 0 -0.036374789286799498 -0.0055129427338322119 0 -0.035479831662099982 -0.0057437191106397036 0 -0.03742988909193793 -0.0036762688868900678 0 -0.037123361929339981 -0.003530933538757474 0 -0.037539957261263836 -0.0032345513111618892 0 -0.037055091880068447 -0.0057917606518206061 0 -0.03629720071858502 -0.0059988178329857542 0 -0.036374789286799498 -0.0055129427338322119 0 -0.03742988909193793 -0.0036762688868900678 0 -0.036772116018060123 -0.0038652997926602408 0 -0.037123361929339981 -0.003530933538757474 0 -0.036721724532308826 -0.0045133555998025394 0 -0.037089971793157983 -0.005703921152657567 0 -0.036710499473309961 -0.0038498560129147036 0 -0.036772116018060123 -0.0038652997926602408 0 -0.037123361929339981 -0.003530933538757474 0 -0.038117726264471165 -0.0056743162717217827 0 -0.037089971793157983 -0.005703921152657567 0 -0.038117726264471165 -0.0056743162717217827 0 -0.037197794692358808 -0.0034796974412011094 0 -0.037088141580821167 -0.0038020902479136581 0 -0.037325307323447875 -0.0035448807527211205 0 -0.037117685006746226 -0.0035651038978150615 0 -0.037117685006746226 -0.0035651038978150615 0 -0.037241711011671494 -0.0032303704522375297 0 -0.037019198839508528 -0.0033856467769962477 0 -0.037325307323447875 -0.0035448807527211205 0 -0.037117685006746226 -0.0035651038978150615 0 -0.037241711011671494 -0.0032303704522375297 0 -0.037325307323447875 -0.0035448807527211205 0 -0.037241711011671494 -0.0032303704522375297 0 -0.037539957261263836 -0.0032345513111618892 0 -0.037241711011671494 -0.0032303704522375297 0 -0.037539957261263836 -0.0032345513111618892 0 -0.037416308739628021 -0.0029594693467860931 0 -0.037197794692358808 -0.0034796974412011094 0 -0.037507002684503077 -0.0032867038321111749 0 -0.037241711011671494 -0.0032303704522375297 0 -0.03730543884989649 -0.0027240004645894098 0 -0.037416308739628021 -0.0029594693467860931 0 -0.037586369060602288 -0.0026411372015651153 0 -0.037539957261263836 -0.0032345513111618892 0 -0.037416308739628021 -0.0029594693467860931 0 -0.037586369060602288 -0.0026411372015651153 0 -0.03730543884989649 -0.0027240004645894098 0 -0.037416308739628021 -0.0029594693467860931 0 -0.037241711011671494 -0.0032303704522375297 0 -0.037094852308868609 -0.0028539781423941829 0 -0.037019198839508528 -0.0033856467769962477 0 -0.037241711011671494 -0.0032303704522375297 0 -0.03730543884989649 -0.0027240004645894098 0 -0.037094852308868609 -0.0028539781423941829 0 -0.036907096621326997 -0.003043196109213729 0 -0.036867469367790985 -0.0035852363123088449 0 -0.037019198839508528 -0.0033856467769962477 0 -0.037094852308868609 -0.0028539781423941829 0 -0.036907096621326997 -0.003043196109213729 0 -0.037019198839508528 -0.0033856467769962477 0 -0.036907096621326997 -0.003043196109213729 0 -0.036747018229928055 -0.003634884636749464 0 -0.036867469367790985 -0.0035852363123088449 0 -0.036788861802699573 -0.0027224155462262996 0 -0.036907096621326997 -0.003043196109213729 0 -0.036747018229928055 -0.003634884636749464 0 -0.036809123278003494 -0.0038694724227227909 0 -0.036747018229928055 -0.003634884636749464 0 -0.036867469367790985 -0.0035852363123088449 0 -0.036809123278003494 -0.0038694724227227909 0 -0.03696959596078752 -0.0036602603311681804 0 -0.036867469367790985 -0.0035852363123088449 0 -0.03696959596078752 -0.0036602603311681804 0 -0.036867469367790985 -0.0035852363123088449 0 -0.037019198839508528 -0.0033856467769962477 0 -0.03696959596078752 -0.0036602603311681804 0 -0.037117685006746226 -0.0035651038978150615 0 -0.037019198839508528 -0.0033856467769962477 0 -0.006436664114316289 0.0091560900256182371 0 -0.0064069521961082204 0.0090262104433133719 0 -0.0067372288086192649 0.0087198913720905168 0 -0.006436664114316289 0.0091560900256182371 0 -0.0062685267692037692 0.0091773432959057124 0 -0.0064069521961082204 0.0090262104433133719 0 -0.0070459920918191738 0.0075025308498381914 0 -0.0085584867373168436 0.0083548744903856713 0 -0.006436664114316289 0.0091560900256182371 0 -0.0071516337690191063 0.0090391866583634638 0 -0.0067372288086192649 0.0087198913720905168 0 -0.0071516337690191063 0.0090391866583634638 0 -0.0067372288086192649 0.0087198913720905168 0 -0.0077495864751936355 0.0087294151921488584 0 -0.006436664114316289 0.0091560900256182371 0 -0.0068243698692291117 0.0094080814102795139 0 -0.0071516337690191063 0.0090391866583634638 0 -0.0068243698692291117 0.0094080814102795139 0 -0.0071516337690191063 0.0090391866583634638 0 -0.0071528607640083753 0.0096417127095238461 0 -0.0071516337690191063 0.0090391866583634638 0 -0.0071528607640083753 0.0096417127095238461 0 -0.0078015852216552955 0.009250759851503863 0 -0.0071516337690191063 0.0090391866583634638 0 -0.0077495864751936355 0.0087294151921488584 0 -0.0078015852216552955 0.009250759851503863 0 -0.0071528607640083753 0.0096417127095238461 0 -0.0078015852216552955 0.009250759851503863 0 -0.0076048376041799402 0.010050994761772396 0 -0.0068243698692291117 0.0094080814102795139 0 -0.0071528607640083753 0.0096417127095238461 0 -0.0066051889713603772 0.0099132240574380907 0 -0.0071528607640083753 0.0096417127095238461 0 -0.0066051889713603772 0.0099132240574380907 0 -0.0070538494309591261 0.010304706878191048 0 -0.006436664114316289 0.0091560900256182371 0 -0.0066051889713603772 0.0099132240574380907 0 -0.0057125705881008937 0.0097189957727789721 0 -0.006436664114316289 0.0091560900256182371 0 -0.0068243698692291117 0.0094080814102795139 0 -0.0066051889713603772 0.0099132240574380907 0 -0.0065389407961901382 0.0097879461305557247 0 -0.0061442269552177209 0.0097778076926285477 0 -0.0062685267692037692 0.0091773432959057124 0 -0.0065389407961901382 0.0097879461305557247 0 -0.0061442269552177209 0.0097778076926285477 0 -0.0058596355738197202 0.010392809293844785 0 -0.0061967663356529892 0.0096401098623781836 0 -0.0061442269552177209 0.0097778076926285477 0 -0.0061808859245272747 0.0099232739060991244 0 -0.0061967663356529892 0.0096401098623781836 0 -0.0062720125733020972 0.0094054022613675441 0 -0.0062685267692037692 0.0091773432959057124 0 -0.0061967663356529892 0.0096401098623781836 0 -0.0061442269552177209 0.0097778076926285477 0 -0.0062685267692037692 0.0091773432959057124 0 -0.0061293094166569966 0.0098193084595844301 0 -0.0062420372342110201 0.0092275168041714498 0 -0.006436664114316289 0.0091560900256182371 0 -0.0057125705881008937 0.0097189957727789721 0 -0.0062685267692037692 0.0091773432959057124 0 -0.0062685267692037692 0.0091773432959057124 0 -0.0063178032964514271 0.0093639885270539493 0 -0.0062656728626724898 0.0091628668910469363 0 -0.0062685267692037692 0.0091773432959057124 0 -0.0062656728626724898 0.0091628668910469363 0 -0.0064069521961082204 0.0090262104433133719 0 -0.0062720125733020972 0.0094054022613675441 0 -0.0062685267692037692 0.0091773432959057124 0 -0.0063178032964514271 0.0093639885270539493 0 -0.0063178032964514271 0.0093639885270539493 0 -0.0062656728626724898 0.0091628668910469363 0 -0.0063146784474051969 0.0094266530149541838 0 -0.0060506712801436753 0.0068681237547021084 0 -0.0052202530330498114 0.0062905194834672216 0 -0.0071124843040822477 0.0044794342685011042 0 -0.005689638986103863 0.00231618055209761 0 -0.0056844867677570288 0.0044954071685089376 0 -0.0071291899044520005 0.0045527059883756198 0 -0.0058383684355851496 0.0031452485174558683 0 -0.0056844867677570288 0.0044954071685089376 0 -0.0071827913429457881 0.0062080125668212043 0 -0.0071291899044520005 0.0045527059883756198 0 -0.0060506712801436753 0.0068681237547021084 0 -0.0070459920918191738 0.0075025308498381914 0 -0.0062656728626724898 0.0091628668910469363 0 -0.0064069521961082204 0.0090262104433133719 0 -0.0067372288086192649 0.0087198913720905168 0 -0.0071827913429457881 0.0062080125668212043 0 -0.0079637814275835273 0.0056532293251869313 0 -0.0071291899044520005 0.0045527059883756198 0 -0.0071827913429457881 0.0062080125668212043 0 -0.0079637814275835273 0.0056532293251869313 0 -0.0081861120459101652 0.006857530286289327 0 -0.0079637814275835273 0.0056532293251869313 0 -0.0071291899044520005 0.0045527059883756198 0 -0.008617139202274228 0.0043381759470407554 0 -0.0071291899044520005 0.0045527059883756198 0 -0.008617139202274228 0.0043381759470407554 0 -0.0073580184590340356 0.0013918972578025376 0 -0.0064971525668206347 0.0012139907338518481 0 -0.0063630553353986397 0.0015361026355756311 0 -0.0061622273505530234 0.0019139333314627193 0 -0.0064971525668206347 0.0012139907338518481 0 -0.0063630553353986397 0.0015361026355756311 0 -0.0065616294765449869 0.0013411828076175143 0 -0.0057787293526116871 0.00097409600444113315 0 -0.0051986299775635767 0.00013458379078022442 0 -0.0035741787983669744 -0.00019639220463364891 0 -0.0064447090222799052 0.0016474216136875388 0 -0.0063630553353986397 0.0015361026355756311 0 -0.0065616294765449869 0.0013411828076175143 0 -0.0064447090222799052 0.0016474216136875388 0 -0.0057787293526116871 0.00097409600444113315 0 -0.0035741787983669744 -0.00019639220463364891 0 -0.0062234148250222927 0.0015453585071187762 0 -0.0051739297614652596 0.00050051722094400107 0 -0.0057787293526116871 0.00097409600444113315 0 -0.0058413061566749552 0.00042735690284707341 0 -0.0051986299775635767 0.00013458379078022442 0 -0.0064447090222799052 0.0016474216136875388 0 -0.0063630553353986397 0.0015361026355756311 0 -0.0061622273505530234 0.0019139333314627193 0 -0.0064447090222799052 0.0016474216136875388 0 -0.0057787293526116871 0.00097409600444113315 0 -0.00829082556360646 0.0030575145622948534 0 -0.0064447090222799052 0.0016474216136875388 0 -0.0061622273505530234 0.0019139333314627193 0 -0.00829082556360646 0.0030575145622948534 0 -0.0061622273505530234 0.0019139333314627193 0 -0.0058868399445538618 0.0028979756314879779 0 -0.00829082556360646 0.0030575145622948534 0 -0.0064971525668206347 0.0012139907338518481 0 -0.0061622273505530234 0.0019139333314627193 0 -0.0058868399445538618 0.0028979756314879779 0 -0.0079637814275835273 0.0056532293251869313 0 -0.008617139202274228 0.0043381759470407554 0 -0.0086309883126390458 0.0061134112246950907 0 -0.008617139202274228 0.0043381759470407554 0 -0.0093986386655177199 0.0066255863693892043 0 -0.0086309883126390458 0.0061134112246950907 0 -0.0093986386655177199 0.0066255863693892043 0 -0.0086309883126390458 0.0061134112246950907 0 -0.0089375439019832616 0.006952300622879228 0 -0.0075155414108014516 0.0027830614579390425 0 -0.0077701963838848007 0.004813882436554005 0 -0.0079637814275835273 0.0056532293251869313 0 -0.0086309883126390458 0.0061134112246950907 0 -0.0081861120459101652 0.006857530286289327 0 0.0025329825959709818 0.0065585417025163925 0 0.001876409190316999 0.0054097477714794961 0 -0.0065413336796108917 0.00022449509849450437 0 -0.0061611997287543321 0.0011520581716587888 0 -0.0068904108179319908 0.0016934950582576192 0 -0.0065413336796108917 0.00022449509849450437 0 -0.0068904108179319908 0.0016934950582576192 0 -0.0077725027739767531 -6.4275975077360668e-05 0 -0.0065413336796108917 0.00022449509849450437 0 -0.0061611997287543321 0.0011520581716587888 0 -0.0058413061566749552 0.00042735690284707341 0 -0.0057787293526116871 0.00097409600444113315 0 -0.0058413061566749552 0.00042735690284707341 0 -0.0058806804074005778 0.0011533326577528754 0 -0.0061611997287543321 0.0011520581716587888 0 -0.0058413061566749552 0.00042735690284707341 0 -0.0058806804074005778 0.0011533326577528754 0 -0.0060132494282790199 0.0012343938107052636 0 -0.007374762632392038 0.0024182851847499034 0 -0.0061611997287543321 0.0011520581716587888 0 -0.0056862743970469915 0.0019698935270131062 0 -0.0068904108179319908 0.0016934950582576192 0 -0.0057787293526116871 0.00097409600444113315 0 -0.0058806804074005778 0.0011533326577528754 0 -0.0056862743970469915 0.0019698935270131062 0 -0.0061611997287543321 0.0011520581716587888 0 -0.0058806804074005778 0.0011533326577528754 0 -0.0056862743970469915 0.0019698935270131062 0 0.011758271408705549 0.011886173018256868 0 0.011651880095317212 0.012309818619838589 0 0.011908752551510032 0.012477600381938602 0 0.0025329825959709818 0.0065585417025163925 0 0.0020348725913350669 0.0092812475706963039 0 0.011758271408705549 0.011886173018256868 0 0.011651880095317212 0.012309818619838589 0 0.011455242790195245 0.01219317113377302 0 0.011651880095317212 0.012309818619838589 0 0.011639869479771574 0.012604818767348544 0 0.011510653934377713 0.012494385516381237 0 0.011651880095317212 0.012309818619838589 0 0.011908752551510032 0.012477600381938602 0 0.011639869479771574 0.012604818767348544 0 -0.007374762632392038 0.0024182851847499034 0 0.0020348725913350669 0.0092812475706963039 0 -0.00829082556360646 0.0030575145622948534 0 -0.0099284117361768138 0.0076247528496489626 0 -0.0096083370910517111 0.0076986591611707426 0 -0.0056862743970469915 0.0019698935270131062 0 -0.0068904108179319908 0.0016934950582576192 0 -0.0060326299076561849 0.0033037182957732004 0 0.010702331495772285 0.01402983205513984 0 0.010550779537584588 0.013704932599594731 0 0.010938143823021685 0.013757501344384882 0 0.0020348725913350669 0.0092812475706963039 0 -0.002209745412249105 0.012961446487846045 0 -0.0096083370910517111 0.0076986591611707426 0 -0.0093778399802069406 0.0079342168881726925 0 -0.0092299155932946495 0.0088956198167597384 0 -0.0099284117361768138 0.0076247528496489626 0 -0.0096083370910517111 0.0076986591611707426 0 -0.0092299155932946495 0.0088956198167597384 0 0.0020348725913350669 0.0092812475706963039 0 0.011895738591591407 0.013701307314049902 0 0.011908752551510032 0.012477600381938602 0 0.011639869479771574 0.012604818767348544 0 0.011683488283035526 0.012975875492825062 0 0.011639869479771574 0.012604818767348544 0 0.011683488283035526 0.012975875492825062 0 0.011432271273753439 0.01273931924250611 0 0.011639869479771574 0.012604818767348544 0 0.011510653934377713 0.012494385516381237 0 0.011432271273753439 0.01273931924250611 0 -0.0071827913429457881 0.0062080125668212043 0 -0.0081861120459101652 0.006857530286289327 0 -0.0085708041218453476 0.0082988518652035975 0 -0.0067372288086192649 0.0087198913720905168 0 -0.0077495864751936355 0.0087294151921488584 0 -0.0085708041218453476 0.0082988518652035975 0 -0.0085397676191119182 0.0074511301725109762 0 -0.0081861120459101652 0.006857530286289327 0 -0.0085708041218453476 0.0082988518652035975 0 -0.0085397676191119182 0.0074511301725109762 0 -0.0087515880426508302 0.0078414064421298696 0 -0.0090231725001901873 0.0076216339238868724 0 -0.0087515880426508302 0.0078414064421298696 0 -0.0088243633054164022 0.0080361013677876843 0 -0.0090231725001901873 0.0076216339238868724 0 -0.0087515880426508302 0.0078414064421298696 0 -0.0088243633054164022 0.0080361013677876843 0 -0.0085708041218453476 0.0082988518652035975 0 -0.0085397676191119182 0.0074511301725109762 0 -0.0087515880426508302 0.0078414064421298696 0 -0.0085708041218453476 0.0082988518652035975 0 -0.0085397676191119182 0.0074511301725109762 0 -0.0089375439019832616 0.006952300622879228 0 -0.0090231725001901873 0.0076216339238868724 0 -0.0085397676191119182 0.0074511301725109762 0 -0.0081861120459101652 0.006857530286289327 0 -0.0089375439019832616 0.006952300622879228 0 -0.0086309883126390458 0.0061134112246950907 0 -0.0081861120459101652 0.006857530286289327 0 -0.0089375439019832616 0.006952300622879228 0 -0.0093986386655177199 0.0066255863693892043 0 -0.0091982089623027109 0.0071530556723005869 0 -0.0093506860212021481 0.0074435037570117091 0 -0.0058868399445538618 0.0028979756314879779 0 -0.00829082556360646 0.0030575145622948534 0 -0.0096083370910517111 0.0076986591611707426 0 -0.0093986386655177199 0.0066255863693892043 0 -0.0096083370910517111 0.0076986591611707426 0 -0.0093506860212021481 0.0074435037570117091 0 -0.0077701963838848007 0.004813882436554005 0 -0.0095161940026375728 0.0074672230361124657 0 -0.0089375439019832616 0.006952300622879228 0 -0.0091982089623027109 0.0071530556723005869 0 -0.0090231725001901873 0.0076216339238868724 0 -0.0093986386655177199 0.0066255863693892043 0 -0.0089375439019832616 0.006952300622879228 0 -0.0091982089623027109 0.0071530556723005869 0 -0.0096083370910517111 0.0076986591611707426 0 -0.0093506860212021481 0.0074435037570117091 0 -0.0093778399802069406 0.0079342168881726925 0 -0.0093506860212021481 0.0074435037570117091 0 -0.0090231725001901873 0.0076216339238868724 0 -0.0091356849616214351 0.0081113205525332691 0 -0.0091982089623027109 0.0071530556723005869 0 -0.0093506860212021481 0.0074435037570117091 0 -0.0090231725001901873 0.0076216339238868724 0 -0.0090231725001901873 0.0076216339238868724 0 -0.0089534653179522104 0.0080244752868741265 0 -0.0091356849616214351 0.0081113205525332691 0 -0.0088243633054164022 0.0080361013677876843 0 -0.0090231725001901873 0.0076216339238868724 0 -0.0089534653179522104 0.0080244752868741265 0 -0.010775201004640068 0.007988246725327032 0 -0.002209745412249105 0.012961446487846045 0 -0.0089534653179522104 0.0080244752868741265 0 -0.0091356849616214351 0.0081113205525332691 0 -0.0088158545893769549 0.0083201248423687094 0 -0.0091356849616214351 0.0081113205525332691 0 -0.0093778399802069406 0.0079342168881726925 0 -0.0092299155932946495 0.0088956198167597384 0 -0.0088158545893769549 0.0083201248423687094 0 -0.0090531236505050818 0.0099135920496346217 0 -0.010318158462945294 0.010574538697699377 0 -0.0091356849616214351 0.0081113205525332691 0 -0.0088158545893769549 0.0083201248423687094 0 -0.0092299155932946495 0.0088956198167597384 0 -0.0093506860212021481 0.0074435037570117091 0 -0.0091356849616214351 0.0081113205525332691 0 -0.0093778399802069406 0.0079342168881726925 0 -0.008515736170008446 0.0095202616937797233 0 -0.0088158545893769549 0.0083201248423687094 0 -0.0090531236505050818 0.0099135920496346217 0 -0.008515736170008446 0.0095202616937797233 0 -0.0084752762291153035 0.0087751770069577507 0 -0.0082355722114652984 0.0091576259980007749 0 -0.008515736170008446 0.0095202616937797233 0 -0.0084752762291153035 0.0087751770069577507 0 -0.0088158545893769549 0.0083201248423687094 0 -0.0084752762291153035 0.0087751770069577507 0 -0.0081614622501649074 0.0088337037849194888 0 -0.0082355722114652984 0.0091576259980007749 0 -0.0084752762291153035 0.0087751770069577507 0 -0.0085708041218453476 0.0082988518652035975 0 -0.0081614622501649074 0.0088337037849194888 0 -0.0088243633054164022 0.0080361013677876843 0 -0.0085708041218453476 0.0082988518652035975 0 -0.0088158545893769549 0.0083201248423687094 0 -0.0084752762291153035 0.0087751770069577507 0 -0.0085708041218453476 0.0082988518652035975 0 -0.0088158545893769549 0.0083201248423687094 0 -0.0088243633054164022 0.0080361013677876843 0 -0.0089534653179522104 0.0080244752868741265 0 -0.0088158545893769549 0.0083201248423687094 0 -0.0077495864751936355 0.0087294151921488584 0 -0.0081614622501649074 0.0088337037849194888 0 -0.0078015852216552955 0.009250759851503863 0 -0.0077495864751936355 0.0087294151921488584 0 -0.0085708041218453476 0.0082988518652035975 0 -0.0081614622501649074 0.0088337037849194888 0 -0.0081614622501649074 0.0088337037849194888 0 -0.0078015852216552955 0.009250759851503863 0 -0.0082355722114652984 0.0091576259980007749 0 -0.0078015852216552955 0.009250759851503863 0 -0.0080868560355448846 0.0096929318681634787 0 -0.0076048376041799402 0.010050994761772396 0 -0.0078015852216552955 0.009250759851503863 0 -0.0082355722114652984 0.0091576259980007749 0 -0.0080868560355448846 0.0096929318681634787 0 -0.008515736170008446 0.0095202616937797233 0 -0.0082355722114652984 0.0091576259980007749 0 -0.0080868560355448846 0.0096929318681634787 0 -0.0080868560355448846 0.0096929318681634787 0 -0.0082426935781259852 0.010439251130708104 0 -0.0076048376041799402 0.010050994761772396 0 -0.008515736170008446 0.0095202616937797233 0 -0.0080868560355448846 0.0096929318681634787 0 -0.0082426935781259852 0.010439251130708104 0 -0.0082426935781259852 0.010439251130708104 0 -0.0081816734689124683 0.011704585731674461 0 -0.0074460037131056107 0.01098717574321508 0 -0.0082426935781259852 0.010439251130708104 0 -0.0089149383312081935 0.010997334042439164 0 -0.0081816734689124683 0.011704585731674461 0 -0.0082426935781259852 0.010439251130708104 0 -0.0089149383312081935 0.010997334042439164 0 -0.0090531236505050818 0.0099135920496346217 0 -0.008515736170008446 0.0095202616937797233 0 -0.0082426935781259852 0.010439251130708104 0 -0.0090531236505050818 0.0099135920496346217 0 -0.0089149383312081935 0.010997334042439164 0 -0.0090531236505050818 0.0099135920496346217 0 -0.010318158462945294 0.010574538697699377 0 -0.0089149383312081935 0.010997334042439164 0 -0.010318158462945294 0.010574538697699377 0 -0.0092198791003927395 0.012478254879379501 0 -0.002209745412249105 0.012961446487846045 0 -0.0039723480539608017 0.016085921903023024 0 0.0016180855759591938 0.019266856328082439 0 0.0014943172215934818 0.019165895392394373 0 0.0016534902303474996 0.019171033353698505 0 -0.0089149383312081935 0.010997334042439164 0 -0.0092198791003927395 0.012478254879379501 0 -0.0081816734689124683 0.011704585731674461 0 -0.0092198791003927395 0.012478254879379501 0 -0.0081816734689124683 0.011704585731674461 0 -0.0080208562814092516 0.012890841772993504 0 0.011683488283035526 0.012975875492825062 0 0.01131790093492715 0.012981121845935067 0 0.011229647437979925 0.013278188444872545 0 0.011895738591591407 0.013701307314049902 0 0.01119207185304668 0.013325784532447095 0 0.011683488283035526 0.012975875492825062 0 0.011432271273753439 0.01273931924250611 0 0.01131790093492715 0.012981121845935067 0 0.010550779537584588 0.013704932599594731 0 0.010938143823021685 0.013757501344384882 0 0.010997125980277075 0.013420537360805163 0 0.0016180855759591938 0.019266856328082439 0 0.001795573245905205 0.019213695710105037 0 0.0016534902303474996 0.019171033353698505 0 -0.002209745412249105 0.012961446487846045 0 0.0074529970087408538 0.016319968439702914 0 0.010938143823021685 0.013757501344384882 0 0.010997125980277075 0.013420537360805163 0 0.011234011081443774 0.013435539257590686 0 0.011683488283035526 0.012975875492825062 0 0.011234011081443774 0.013435539257590686 0 0.011229647437979925 0.013278188444872545 0 0.010997125980277075 0.013420537360805163 0 0.011234011081443774 0.013435539257590686 0 0.011097704721588803 0.013488624105569204 0 0.011234011081443774 0.013435539257590686 0 0.011127115188047437 0.013489464511137734 0 0.011097704721588803 0.013488624105569204 0 0.011234011081443774 0.013435539257590686 0 0.011127115188047437 0.013489464511137734 0 0.011187903122781369 0.013423409277234932 0 0.011234011081443774 0.013435539257590686 0 0.011187903122781369 0.013423409277234932 0 0.011229647437979925 0.013278188444872545 0 0.001795573245905205 0.019213695710105037 0 0.0021339149186957096 0.01919211731898415 0 0.0021037365200751346 0.019191327524484075 0 0.010997125980277075 0.013420537360805163 0 0.011013931285782525 0.01359030593453071 0 0.011097704721588803 0.013488624105569204 0 0.001795573245905205 0.019213695710105037 0 0.0021037365200751346 0.019191327524484075 0 0.0017824000937807904 0.019116583690123191 0 0.0074529970087408538 0.016319968439702914 0 0.0056704460715796094 0.016915531068005349 0 0.0021824675633193825 0.019211016750381657 0 0.0021037365200751346 0.019191327524484075 0 0.0021623306342744321 0.019132404559779867 0 0.0056704460715796094 0.016915531068005349 0 0.0052513241559842246 0.017153539363861992 0 0.011013931285782525 0.01359030593453071 0 0.011074908800252857 0.013525952368298493 0 0.011058966797421165 0.01354898373215211 0 0.011074908800252857 0.013525952368298493 0 0.011127115188047437 0.013489464511137734 0 0.011058966797421165 0.01354898373215211 0 0.011013931285782525 0.01359030593453071 0 0.011074908800252857 0.013525952368298493 0 0.011097704721588803 0.013488624105569204 0 0.011074908800252857 0.013525952368298493 0 0.011127115188047437 0.013489464511137734 0 0.011097704721588803 0.013488624105569204 0 0.0021037365200751346 0.019191327524484075 0 0.0017824000937807904 0.019116583690123191 0 0.0019878658432178225 0.019077688336502502 0 0.001795573245905205 0.019213695710105037 0 0.0017824000937807904 0.019116583690123191 0 0.0016534902303474996 0.019171033353698505 0 0.0017824000937807904 0.019116583690123191 0 0.0016534902303474996 0.019171033353698505 0 0.0015748816792697806 0.019034266839464443 0 0.0017276610672157327 0.018965567462012257 0 0.0018018642191991554 0.018898414286092426 0 0.0016009672669622676 0.018856365006244616 0 0.0017276610672157327 0.018965567462012257 0 0.0015748816792697806 0.019034266839464443 0 0.0016009672669622676 0.018856365006244616 0 0.0017824000937807904 0.019116583690123191 0 0.0017276610672157327 0.018965567462012257 0 0.0015748816792697806 0.019034266839464443 0 0.0017824000937807904 0.019116583690123191 0 0.0017276610672157327 0.018965567462012257 0 0.0019878658432178225 0.019077688336502502 0 0.0019878658432178225 0.019077688336502502 0 0.0018018642191991554 0.018898414286092426 0 0.0022456637071441763 0.019050858565767357 0 0.0017276610672157327 0.018965567462012257 0 0.0019878658432178225 0.019077688336502502 0 0.0018018642191991554 0.018898414286092426 0 0.0018018642191991554 0.018898414286092426 0 0.0022456637071441763 0.019050858565767357 0 0.0022737675453052323 0.018926936999072112 0 0.0022456637071441763 0.019050858565767357 0 0.0021623306342744321 0.019132404559779867 0 0.0024228034243754873 0.019158921499070582 0 0.0019878658432178225 0.019077688336502502 0 0.0022456637071441763 0.019050858565767357 0 0.0021623306342744321 0.019132404559779867 0 0.0021037365200751346 0.019191327524484075 0 0.0019878658432178225 0.019077688336502502 0 0.0021623306342744321 0.019132404559779867 0 0.0021824675633193825 0.019211016750381657 0 0.0021623306342744321 0.019132404559779867 0 0.0024228034243754873 0.019158921499070582 0 0.0056704460715796094 0.016915531068005349 0 0.0042148271176141909 0.01843324026201415 0 -0.0039723480539608017 0.016085921903023024 0 -0.0043473498906088492 0.01685134932611192 0 -0.0092198791003927395 0.012478254879379501 0 -0.0080208562814092516 0.012890841772993504 0 -0.0082909360473194336 0.014281155073314176 0 0.0014943172215934818 0.019165895392394373 0 0.0016534902303474996 0.019171033353698505 0 0.0015748816792697806 0.019034266839464443 0 0.0014943172215934818 0.019165895392394373 0 0.0015748816792697806 0.019034266839464443 0 0.0013032663472893938 0.018941723173786083 0 -0.0043473498906088492 0.01685134932611192 0 0.00086664422681867221 0.019571460286653602 0 0.0015748816792697806 0.019034266839464443 0 0.0013032663472893938 0.018941723173786083 0 0.0016009672669622676 0.018856365006244616 0 -0.0035509939099005305 0.020928578023513087 0 -0.0009658114481181742 0.019770469598629437 0 -0.0029440132895977768 0.019044954557778875 0 -0.0043473498906088492 0.01685134932611192 0 -0.0055524057872673874 0.01731639323241017 0 -0.0073681619103485229 0.014509511913040188 0 -0.0064915845437457723 0.014799277408002071 0 -0.0067960383586367747 0.015450837488593609 0 -0.0064915845437457723 0.014799277408002071 0 -0.0059225529726469649 0.014477228417236554 0 -0.0066663088967057332 0.014065162434550763 0 -0.0043473498906088492 0.01685134932611192 0 -0.007157159525206255 0.014103142503088209 0 -0.0073681619103485229 0.014509511913040188 0 -0.0064915845437457723 0.014799277408002071 0 -0.0066663088967057332 0.014065162434550763 0 -0.0059225529726469649 0.014477228417236554 0 -0.0054393183833761714 0.014878398608167765 0 -0.0058310561583692954 0.015364597920738229 0 -0.0064915845437457723 0.014799277408002071 0 -0.0059225529726469649 0.014477228417236554 0 -0.0058310561583692954 0.015364597920738229 0 -0.0059887368802799866 0.014285981524597846 0 -0.0060693411121052173 0.012082830270921982 0 -0.0059225529726469649 0.014477228417236554 0 -0.0061027391330442391 0.013281413114229944 0 -0.0066663088967057332 0.014065162434550763 0 -0.0059225529726469649 0.014477228417236554 0 -0.0061027391330442391 0.013281413114229944 0 -0.005451457118679193 0.011958805004315468 0 -0.0060576541549187757 0.013349180095041369 0 -0.007157159525206255 0.014103142503088209 0 -0.0061027391330442391 0.013281413114229944 0 -0.0071957654059243399 0.013740594911193412 0 -0.0072157474395404741 0.012224882252337642 0 -0.0080208562814092516 0.012890841772993504 0 -0.0071957654059243399 0.013740594911193412 0 -0.0072157474395404741 0.012224882252337642 0 -0.0080208562814092516 0.012890841772993504 0 -0.0082909360473194336 0.014281155073314176 0 -0.0071957654059243399 0.013740594911193412 0 -0.0081816734689124683 0.011704585731674461 0 -0.0080208562814092516 0.012890841772993504 0 -0.0072157474395404741 0.012224882252337642 0 -0.0081816734689124683 0.011704585731674461 0 -0.0072157474395404741 0.012224882252337642 0 -0.0074460037131056107 0.01098717574321508 0 -0.0072157474395404741 0.012224882252337642 0 -0.0064948369160141529 0.011019676997630708 0 -0.0074460037131056107 0.01098717574321508 0 -0.0061027391330442391 0.013281413114229944 0 -0.0072157474395404741 0.012224882252337642 0 -0.0063204268751241898 0.012113503302590175 0 -0.0061027391330442391 0.013281413114229944 0 -0.0063204268751241898 0.012113503302590175 0 -0.005451457118679193 0.011958805004315468 0 -0.0063204268751241898 0.012113503302590175 0 -0.0064948369160141529 0.011019676997630708 0 -0.005451457118679193 0.011958805004315468 0 -0.0072157474395404741 0.012224882252337642 0 -0.0063204268751241898 0.012113503302590175 0 -0.0064948369160141529 0.011019676997630708 0 -0.0066051889713603772 0.0099132240574380907 0 -0.0057125705881008937 0.0097189957727789721 0 -0.0064948369160141529 0.011019676997630708 0 -0.0057125705881008937 0.0097189957727789721 0 -0.0064948369160141529 0.011019676997630708 0 -0.005451457118679193 0.011958805004315468 0 -0.0066051889713603772 0.0099132240574380907 0 -0.0064948369160141529 0.011019676997630708 0 -0.0070538494309591261 0.010304706878191048 0 -0.0082426935781259852 0.010439251130708104 0 -0.0076048376041799402 0.010050994761772396 0 -0.0074460037131056107 0.01098717574321508 0 -0.0070538494309591261 0.010304706878191048 0 -0.0076048376041799402 0.010050994761772396 0 -0.0074460037131056107 0.01098717574321508 0 -0.0071528607640083753 0.0096417127095238461 0 -0.0070538494309591261 0.010304706878191048 0 -0.0076048376041799402 0.010050994761772396 0 -0.0064948369160141529 0.011019676997630708 0 -0.0070538494309591261 0.010304706878191048 0 -0.0074460037131056107 0.01098717574321508 0 -0.0061442269552177209 0.0097778076926285477 0 -0.0058596355738197202 0.010392809293844785 0 -0.0061808859245272747 0.0099232739060991244 0 -0.0058596355738197202 0.010392809293844785 0 -0.0061808859245272747 0.0099232739060991244 0 -0.0061972837073465854 0.0095760120130227028 0 -0.0065389407961901382 0.0097879461305557247 0 -0.0058596355738197202 0.010392809293844785 0 -0.006734026927194472 0.012197457168989694 0 -0.0061293094166569966 0.0098193084595844301 0 -0.0060693411121052173 0.012082830270921982 0 -0.0058596355738197202 0.010392809293844785 0 -0.006734026927194472 0.012197457168989694 0 -0.005532005179315719 0.012388872625658853 0 -0.0057260527781215374 0.010511680090060755 0 -0.005542988386810532 0.01099270288443834 0 -0.0058596355738197202 0.010392809293844785 0 -0.005532005179315719 0.012388872625658853 0 -0.0041993883259555656 0.012861146821506511 0 -0.0052824008621471926 0.013879617118529385 0 -0.0045105004202697493 0.014123099810530958 0 -0.0041993883259555656 0.012861146821506511 0 -0.005532005179315719 0.012388872625658853 0 -0.0052824008621471926 0.013879617118529385 0 -0.0041993883259555656 0.012861146821506511 0 -0.0059225529726469649 0.014477228417236554 0 -0.006734026927194472 0.012197457168989694 0 -0.0052824008621471926 0.013879617118529385 0 -0.006734026927194472 0.012197457168989694 0 -0.005532005179315719 0.012388872625658853 0 -0.0052824008621471926 0.013879617118529385 0 -0.0052824008621471926 0.013879617118529385 0 -0.0054393183833761714 0.014878398608167765 0 -0.0050128302306160725 0.015031786797582221 0 -0.0059225529726469649 0.014477228417236554 0 -0.0052824008621471926 0.013879617118529385 0 -0.0054393183833761714 0.014878398608167765 0 -0.0052824008621471926 0.013879617118529385 0 -0.0045105004202697493 0.014123099810530958 0 -0.0050128302306160725 0.015031786797582221 0 -0.0045105004202697493 0.014123099810530958 0 -0.0044854588923030903 0.014814125768348915 0 -0.0050128302306160725 0.015031786797582221 0 -0.0065045817471315551 0.0092520483374693343 0 -0.0067311171865171004 0.0095524976069471055 0 -0.0061972837073465854 0.0095760120130227028 0 -0.0045105004202697493 0.014123099810530958 0 -0.0039092892607582698 0.014287726538231856 0 -0.0044854588923030903 0.014814125768348915 0 -0.0038249412377861533 0.012407112332590413 0 -0.005542988386810532 0.01099270288443834 0 -0.0045105004202697493 0.014123099810530958 0 -0.0039092892607582698 0.014287726538231856 0 -0.0041993883259555656 0.012861146821506511 0 -0.0038249412377861533 0.012407112332590413 0 -0.012766868719785416 0.010222466826207128 0 -0.0065045817471315551 0.0092520483374693343 0 -0.0070229333131667385 0.0091954802452576066 0 -0.0068805522986244358 0.0089116115506317518 0 -0.025923523885903906 0.0070834915262306458 0 -0.02739134996584586 0.0065810636668676287 0 -0.026942252970016622 0.0087429855886864381 0 -0.025923523885903906 0.0070834915262306458 0 -0.02739134996584586 0.0065810636668676287 0 -0.025831108646946696 0.006013630250170294 0 -0.016533361777499936 0.0077198722981248547 0 -0.017287190791511642 0.0096096007397540352 0 -0.0070229333131667385 0.0091954802452576066 0 -0.0067311171865171004 0.0095524976069471055 0 -0.007176313284923708 0.0094789522673865666 0 -0.0065045817471315551 0.0092520483374693343 0 -0.0070229333131667385 0.0091954802452576066 0 -0.0067311171865171004 0.0095524976069471055 0 -0.0067311171865171004 0.0095524976069471055 0 -0.0069791905316268655 0.0096291994694290371 0 -0.007176313284923708 0.0094789522673865666 0 -0.0067311171865171004 0.0095524976069471055 0 -0.0069791905316268655 0.0096291994694290371 0 -0.0067160731972316324 0.0096803004146768339 0 -0.0069791905316268655 0.0096291994694290371 0 -0.0067160731972316324 0.0096803004146768339 0 -0.007375074631076302 0.0097847068459694583 0 -0.0027134414944302325 0.010915338052788272 0 -0.016806269016803255 0.0077995060209347456 0 -0.0067311171865171004 0.0095524976069471055 0 -0.0067160731972316324 0.0096803004146768339 0 -0.0064768000250448121 0.009721324528487979 0 -0.0067160731972316324 0.0096803004146768339 0 -0.0064768000250448121 0.009721324528487979 0 -0.0064297394429586692 0.0096717269054770773 0 -0.0064768000250448121 0.009721324528487979 0 -0.0061808859245272747 0.0099232739060991244 0 -0.0064297394429586692 0.0096717269054770773 0 -0.0067311171865171004 0.0095524976069471055 0 -0.0064768000250448121 0.009721324528487979 0 -0.0061972837073465854 0.0095760120130227028 0 -0.0064768000250448121 0.009721324528487979 0 -0.0061808859245272747 0.0099232739060991244 0 -0.0061972837073465854 0.0095760120130227028 0 -0.025784848570929903 0.0023584146715775671 0 -0.025656194135580426 0.0023388073662231239 0 -0.025667683117473729 0.0023909861301527331 0 -0.0315996255911839 0.0044668198101798263 0 -0.028545716083898772 0.0056370312287204495 0 -0.035175449010853781 0.0071406160201097652 0 -0.03252237626193815 0.0084462925555461293 0 -0.033858282711561639 0.0068394659055491325 0 -0.03252237626193815 0.0084462925555461293 0 -0.032777622818524178 0.006392184517566294 0 -0.031603117688109264 0.0067609309590976252 0 -0.03252237626193815 0.0084462925555461293 0 -0.033858282711561639 0.0068394659055491325 0 -0.032777622818524178 0.006392184517566294 0 -0.033858282711561639 0.0068394659055491325 0 -0.033836161573284014 0.005778445913938759 0 -0.032777622818524178 0.006392184517566294 0 -0.033836161573284014 0.005778445913938759 0 -0.032777622818524178 0.006392184517566294 0 -0.03319529774003914 0.0052023396818097183 0 -0.032777622818524178 0.006392184517566294 0 -0.03319529774003914 0.0052023396818097183 0 -0.032105501335957236 0.005496738701386423 0 -0.032777622818524178 0.006392184517566294 0 -0.031603117688109264 0.0067609309590976252 0 -0.032105501335957236 0.005496738701386423 0 -0.031603117688109264 0.0067609309590976252 0 -0.030514043007094593 0.0059953614774970266 0 -0.030366998186706438 0.0078539058269426112 0 -0.031603117688109264 0.0067609309590976252 0 -0.030514043007094593 0.0059953614774970266 0 -0.032105501335957236 0.005496738701386423 0 -0.03252237626193815 0.0084462925555461293 0 -0.031603117688109264 0.0067609309590976252 0 -0.030366998186706438 0.0078539058269426112 0 -0.03252237626193815 0.0084462925555461293 0 -0.030366998186706438 0.0078539058269426112 0 -0.030192292926219683 0.0095820556370117757 0 -0.028545716083898772 0.0056370312287204495 0 -0.029751989128484126 0.0052981625473140104 0 -0.030366998186706438 0.0078539058269426112 0 -0.028717057183699223 0.0087611445248737384 0 -0.030192292926219683 0.0095820556370117757 0 -0.030366998186706438 0.0078539058269426112 0 -0.028717057183699223 0.0087611445248737384 0 -0.028885198825094778 0.0071571896145264102 0 -0.030514043007094593 0.0059953614774970266 0 -0.030366998186706438 0.0078539058269426112 0 -0.028885198825094778 0.0071571896145264102 0 -0.030514043007094593 0.0059953614774970266 0 -0.028885198825094778 0.0071571896145264102 0 -0.029409701907727535 0.0050682902558803382 0 -0.028885198825094778 0.0071571896145264102 0 -0.02739134996584586 0.0065810636668676287 0 -0.029409701907727535 0.0050682902558803382 0 -0.028885198825094778 0.0071571896145264102 0 -0.02739134996584586 0.0065810636668676287 0 -0.026942252970016622 0.0087429855886864381 0 -0.028717057183699223 0.0087611445248737384 0 -0.028885198825094778 0.0071571896145264102 0 -0.026942252970016622 0.0087429855886864381 0 -0.0069791905316268655 0.0096291994694290371 0 -0.007176313284923708 0.0094789522673865666 0 -0.007375074631076302 0.0097847068459694583 0 -0.017287190791511642 0.0096096007397540352 0 -0.016806269016803255 0.0077995060209347456 0 -0.028717057183699223 0.0087611445248737384 0 -0.026942252970016622 0.0087429855886864381 0 -0.027938599808771971 0.010560436421227554 0 -0.0068388187030285702 0.0095638835802809435 0 -0.0067356765799925101 0.0095894827223239141 0 -0.0067783477213511825 0.0095912819423110054 0 -0.0067160731972316324 0.0096803004146768339 0 -0.0068388187030285702 0.0095638835802809435 0 -0.0067783477213511825 0.0095912819423110054 0 -0.016806269016803255 0.0077995060209347456 0 -0.015954954737890034 0.0056131985279210522 0 -0.025449855733067277 0.0024770615262375093 0 -0.025535810524632514 0.002450937719426964 0 -0.025551693375115272 0.0024052561837444642 0 -0.025449855733067277 0.0024770615262375093 0 -0.02553892415084371 0.0024067988903298068 0 -0.025535810524632514 0.002450937719426964 0 -0.016806269016803255 0.0077995060209347456 0 -0.029751989128484126 0.0052981625473140104 0 -0.028717057183699223 0.0087611445248737384 0 -0.027938599808771971 0.010560436421227554 0 -0.030192292926219683 0.0095820556370117757 0 -0.02553892415084371 0.0024067988903298068 0 -0.025582336784386601 0.0024235196944354287 0 -0.025535810524632514 0.002450937719426964 0 -0.025656194135580426 0.0023388073662231239 0 -0.02553892415084371 0.0024067988903298068 0 -0.025582336784386601 0.0024235196944354287 0 -0.025582336784386601 0.0024235196944354287 0 -0.025535810524632514 0.002450937719426964 0 -0.0255135775783762 0.0024354123067308626 0 -0.0255135775783762 0.0024354123067308626 0 -0.0256554459882786 0.0024258779240915519 0 -0.025606992677154494 0.0024953600294531806 0 -0.028104239461589284 0.0024990621293313189 0 -0.03001272569074873 0.0011448859115348723 0 -0.031300458982871225 0.0019067719805917181 0 -0.031326877413721636 0.0024069173177704538 0 -0.031686949678190558 0.00082217002322039002 0 -0.025582336784386601 0.0024235196944354287 0 -0.0255135775783762 0.0024354123067308626 0 -0.0256554459882786 0.0024258779240915519 0 -0.031096201089852425 0.0030600591572769011 0 -0.031300458982871225 0.0019067719805917181 0 -0.031326877413721636 0.0024069173177704538 0 -0.025582336784386601 0.0024235196944354287 0 -0.0256554459882786 0.0024258779240915519 0 -0.025667683117473729 0.0023909861301527331 0 -0.025656194135580426 0.0023388073662231239 0 -0.025582336784386601 0.0024235196944354287 0 -0.025667683117473729 0.0023909861301527331 0 -0.025784848570929903 0.0023584146715775671 0 -0.0256554459882786 0.0024258779240915519 0 -0.025667683117473729 0.0023909861301527331 0 -0.040152418725728903 -0.0058459969891955952 0 -0.04060630081466432 -0.0054444066504939518 0 -0.040512181802557577 -0.0050939427424557216 0 -0.025261837763841284 0.0020077807424900567 0 -0.025289479686017934 0.0020135686323633929 0 -0.025214606675394692 0.0016952185269696861 0 -0.025289479686017934 0.0020135686323633929 0 -0.025282491333814525 0.0022663502684173984 0 -0.02549401753520399 0.002300485075231323 0 -0.02567238357189118 0.0027332655529205855 0 -0.029171144636520579 0.00076764274466480955 0 -0.025289479686017934 0.0020135686323633929 0 -0.025323286822026957 0.0019850670711813231 0 -0.025324797766967971 0.0019745631684743837 0 -0.025261837763841284 0.0020077807424900567 0 -0.025289479686017934 0.0020135686323633929 0 -0.025323286822026957 0.0019850670711813231 0 -0.030184184694417797 -0.00063556209514989133 0 -0.035532120608236926 -0.0016592230693498738 0 -0.034540876803115725 0.00046294624104296748 0 -0.03463812303315101 -0.00022208304229314507 0 -0.03469722859755496 -1.3952428361137143e-05 0 -0.036250813098787596 0.00059865163029721325 0 -0.035532120608236926 -0.0016592230693498738 0 -0.03463812303315101 -0.00022208304229314507 0 -0.03469722859755496 -1.3952428361137143e-05 0 -0.034717908812993165 -0.00011006557423572556 0 -0.035532120608236926 -0.0016592230693498738 0 -0.029171144636520579 0.00076764274466480955 0 -0.03001272569074873 0.0011448859115348723 0 -0.029171144636520579 0.00076764274466480955 0 -0.036250813098787596 0.00059865163029721325 0 -0.03001272569074873 0.0011448859115348723 0 -0.0255135775783762 0.0024354123067308626 0 -0.025606992677154494 0.0024953600294531806 0 -0.025606931404612655 0.0025127808985230928 0 -0.025495748067608289 0.0021109331649776701 0 -0.029171144636520579 0.00076764274466480955 0 -0.02549401753520399 0.002300485075231323 0 -0.025551435747537283 0.0020346665160357572 0 -0.025551693375115272 0.0024052561837444642 0 -0.025535810524632514 0.002450937719426964 0 -0.0255135775783762 0.0024354123067308626 0 -0.02549401753520399 0.002300485075231323 0 -0.025535810524632514 0.002450937719426964 0 -0.02549401753520399 0.002300485075231323 0 -0.025551693375115272 0.0024052561837444642 0 -0.0255135775783762 0.0024354123067308626 0 -0.025282491333814525 0.0022663502684173984 0 -0.02549401753520399 0.002300485075231323 0 -0.025289479686017934 0.0020135686323633929 0 -0.02549401753520399 0.002300485075231323 0 -0.025551435747537283 0.0020346665160357572 0 -0.025289479686017934 0.0020135686323633929 0 -0.025551435747537283 0.0020346665160357572 0 -0.025214606675394692 0.0016952185269696861 0 -0.016000658910566491 0.0056772830582831882 0 -0.015954954737890034 0.0056131985279210522 0 -0.0063480088699886684 0.0093208308243812182 0 -0.0067171901424545773 0.0094230077784654195 0 -0.0069132810743192151 0.009213932326235413 0 -0.0063480088699886684 0.0093208308243812182 0 -0.0067171901424545773 0.0094230077784654195 0 -0.0067356765799925101 0.0095894827223239141 0 -0.0067171901424545773 0.0094230077784654195 0 -0.0067356765799925101 0.0095894827223239141 0 -0.00677669771919667 0.0094731170553513794 0 -0.0067356765799925101 0.0095894827223239141 0 -0.0067783477213511825 0.0095912819423110054 0 -0.00677669771919667 0.0094731170553513794 0 -0.00677669771919667 0.0094731170553513794 0 -0.0069132810743192151 0.009213932326235413 0 -0.0066367106392340039 0.009475629418254564 0 -0.0067171901424545773 0.0094230077784654195 0 -0.00677669771919667 0.0094731170553513794 0 -0.0069132810743192151 0.009213932326235413 0 -0.0069525678106607397 0.009202815181662518 0 -0.0072906702381801631 0.008884799088359166 0 -0.0068899345642284586 0.0080580664272453615 0 -0.0080010802496338681 0.0083131613827621582 0 -0.007680721954841865 0.0073413871150076644 0 -0.0069132810743192151 0.009213932326235413 0 -0.0068899345642284586 0.0080580664272453615 0 -0.0080010802496338681 0.0083131613827621582 0 -0.0068899345642284586 0.0080580664272453615 0 -0.0064211436865995574 0.0086981693822630463 0 -0.0062837842708262665 0.0080979476002978057 0 -0.0068899345642284586 0.0080580664272453615 0 -0.0062837842708262665 0.0080979476002978057 0 -0.0064342572091426941 0.0075846469025169418 0 -0.0063480088699886684 0.0093208308243812182 0 -0.0069132810743192151 0.009213932326235413 0 -0.0064211436865995574 0.0086981693822630463 0 -0.0069132810743192151 0.009213932326235413 0 -0.0068899345642284586 0.0080580664272453615 0 -0.0064211436865995574 0.0086981693822630463 0 -0.025551435747537283 0.0020346665160357572 0 -0.025315631883722038 0.0013604034237305403 0 -0.025214606675394692 0.0016952185269696861 0 -0.016000658910566491 0.0056772830582831882 0 -0.015241819959898756 0.0052267421631477969 0 -0.0063480088699886684 0.0093208308243812182 0 -0.0064211436865995574 0.0086981693822630463 0 -0.0057449122743291033 0.0084427291973766042 0 -0.0062837842708262665 0.0080979476002978057 0 -0.0057449122743291033 0.0084427291973766042 0 -0.0059681748719047321 0.0077192506832970817 0 -0.0064211436865995574 0.0086981693822630463 0 -0.0062837842708262665 0.0080979476002978057 0 -0.0057449122743291033 0.0084427291973766042 0 -0.024678953709459002 0.00047671313518392962 0 -0.024942328433188228 0.00091470629871715772 0 -0.024923864056436779 0.0014007570013380279 0 -0.015241819959898756 0.0052267421631477969 0 -0.0180081312020824 0.0013724157855535457 0 -0.025315631883722038 0.0013604034237305403 0 -0.024942328433188228 0.00091470629871715772 0 -0.024843632991989023 0.00041319657063931283 0 -0.0057449122743291033 0.0084427291973766042 0 -0.0052798486621887892 0.0074178210487238156 0 -0.0059681748719047321 0.0077192506832970817 0 -0.025315631883722038 0.0013604034237305403 0 -0.024942328433188228 0.00091470629871715772 0 -0.024923864056436779 0.0014007570013380279 0 -0.040152418725728903 -0.0058459969891955952 0 -0.04060630081466432 -0.0054444066504939518 0 -0.040487215791646013 -0.0062467367085730996 0 -0.025210096095769727 0.0020669678582727769 0 -0.024923864056436779 0.0014007570013380279 0 -0.025214606675394692 0.0016952185269696861 0 -0.030184184694417797 -0.00063556209514989133 0 -0.033124245390408362 -0.0025923761744628044 0 -0.025315631883722038 0.0013604034237305403 0 -0.024923864056436779 0.0014007570013380279 0 -0.025214606675394692 0.0016952185269696861 0 -0.030184184694417797 -0.00063556209514989133 0 -0.025857661644709342 0.0027584010224308056 0 -0.0064297394429586692 0.0096717269054770773 0 -0.0066367106392340039 0.009475629418254564 0 -0.0063782485605536187 0.0094833871926881044 0 -0.0061967663356529892 0.0096401098623781836 0 -0.0062720125733020972 0.0094054022613675441 0 -0.0063782485605536187 0.0094833871926881044 0 -0.0061967663356529892 0.0096401098623781836 0 -0.0064297394429586692 0.0096717269054770773 0 -0.0063782485605536187 0.0094833871926881044 0 -0.0061967663356529892 0.0096401098623781836 0 -0.0061808859245272747 0.0099232739060991244 0 -0.0064297394429586692 0.0096717269054770773 0 -0.0067160731972316324 0.0096803004146768339 0 -0.0064297394429586692 0.0096717269054770773 0 -0.0066367106392340039 0.009475629418254564 0 -0.0067160731972316324 0.0096803004146768339 0 -0.00677669771919667 0.0094731170553513794 0 -0.0066367106392340039 0.009475629418254564 0 -0.0067160731972316324 0.0096803004146768339 0 -0.0067783477213511825 0.0095912819423110054 0 -0.00677669771919667 0.0094731170553513794 0 -0.0066367106392340039 0.009475629418254564 0 -0.0065189900580436269 0.0094881746226152721 0 -0.0063782485605536187 0.0094833871926881044 0 -0.0069132810743192151 0.009213932326235413 0 -0.0066367106392340039 0.009475629418254564 0 -0.0066676483072802654 0.009495096967188775 0 -0.0066367106392340039 0.009475629418254564 0 -0.0066676483072802654 0.009495096967188775 0 -0.0065189900580436269 0.0094881746226152721 0 -0.0072906702381801631 0.008884799088359166 0 -0.0079520775434636891 0.0086720454918322275 0 -0.0066676483072802654 0.009495096967188775 0 -0.0065189900580436269 0.0094881746226152721 0 -0.0065219365716845095 0.0095210194468144608 0 -0.0065189900580436269 0.0094881746226152721 0 -0.0064160893917070078 0.0094570415533950271 0 -0.0065219365716845095 0.0095210194468144608 0 -0.0065189900580436269 0.0094881746226152721 0 -0.0064160893917070078 0.0094570415533950271 0 -0.0063782485605536187 0.0094833871926881044 0 -0.0063178032964514271 0.0093639885270539493 0 -0.0064160893917070078 0.0094570415533950271 0 -0.0063782485605536187 0.0094833871926881044 0 -0.0062720125733020972 0.0094054022613675441 0 -0.0063178032964514271 0.0093639885270539493 0 -0.0063782485605536187 0.0094833871926881044 0 -0.0063178032964514271 0.0093639885270539493 0 -0.0064160893917070078 0.0094570415533950271 0 -0.0063146784474051969 0.0094266530149541838 0 -0.0064160893917070078 0.0094570415533950271 0 -0.0064220800323956159 0.0095286894798434982 0 -0.0063146784474051969 0.0094266530149541838 0 -0.0060482066581725585 0.0061803134031227936 0 -0.0052202530330498114 0.0062905194834672216 0 -0.0036254438186950218 0.0022297321622618545 0 -0.003521844445258888 0.002326178569335082 0 -0.0045492479145319868 0.0033219004124073665 0 -0.0042230026551161358 0.0020665601134813435 0 -0.0036254438186950218 0.0022297321622618545 0 -0.0045492479145319868 0.0033219004124073665 0 -0.0042230026551161358 0.0020665601134813435 0 -0.0036254438186950218 0.0022297321622618545 0 -0.0037585077412349939 0.0019333261187997395 0 -0.0035104036317259351 0.0020265050629639809 0 -0.0035394494783016124 0.0023014158817118296 0 -0.003246475236025852 0.0017935493555576757 0 -0.0036084330959589858 0.0019894965944714767 0 -0.0036254438186950218 0.0022297321622618545 0 -0.0037585077412349939 0.0019333261187997395 0 -0.0035104036317259351 0.0020265050629639809 0 -0.0036084330959589858 0.0019894965944714767 0 -0.0036254438186950218 0.0022297321622618545 0 -0.0035104036317259351 0.0020265050629639809 0 -0.0036254438186950218 0.0022297321622618545 0 -0.0035394494783016124 0.0023014158817118296 0 -0.0059601101376941306 0.0057726261698456127 0 -0.0060482066581725585 0.0061803134031227936 0 -0.0064160893917070078 0.0094570415533950271 0 -0.0064220800323956159 0.0095286894798434982 0 -0.0065219365716845095 0.0095210194468144608 0 -0.0060482066581725585 0.0061803134031227936 0 -0.0079520775434636891 0.0086720454918322275 0 -0.0088932984783726046 0.0074637976533188611 0 -0.0082748273142021055 0.0066992837900882599 0 -0.007680721954841865 0.0073413871150076644 0 -0.0080010802496338681 0.0083131613827621582 0 -0.0088932984783726046 0.0074637976533188611 0 -0.007680721954841865 0.0073413871150076644 0 -0.0082748273142021055 0.0066992837900882599 0 -0.0087059063890502393 0.0057754169654891307 0 -0.0074348245601437339 0.0063525151828030795 0 -0.0082748273142021055 0.0066992837900882599 0 -0.007680721954841865 0.0073413871150076644 0 -0.0074348245601437339 0.0063525151828030795 0 -0.0082748273142021055 0.0066992837900882599 0 -0.0088833372242146293 0.0066354358001056964 0 -0.0087059063890502393 0.0057754169654891307 0 -0.0097662149262155631 0.0066353475008576433 0 -0.0088932984783726046 0.0074637976533188611 0 -0.0088833372242146293 0.0066354358001056964 0 -0.0097662149262155631 0.0066353475008576433 0 -0.0088833372242146293 0.0066354358001056964 0 -0.0087059063890502393 0.0057754169654891307 0 -0.0088932984783726046 0.0074637976533188611 0 -0.0082748273142021055 0.0066992837900882599 0 -0.0088833372242146293 0.0066354358001056964 0 -0.0072770610711274872 -0.0031630452031614622 0 -0.0053362076826903781 -0.0047681958451274865 0 -0.002621822220311472 0.0014496935948553381 0 -0.003246475236025852 0.0017935493555576757 0 -0.0032632874376369047 0.0012022435624027374 0 -0.0075881729098329692 -0.010884540213137416 0 -0.0076269754607706415 -0.010918972833261546 0 -0.0076835107755926025 -0.010945445425339635 0 -0.0075881729098329692 -0.010884540213137416 0 -0.0077001187199949288 -0.010964671146245901 0 -0.0076835107755926025 -0.010945445425339635 0 -0.0072770610711274872 -0.0031630452031614622 0 -0.0077803789913900457 -0.0022491117299798112 0 -0.0072770610711274872 -0.0031630452031614622 0 -0.006380532030732888 -0.011587081591275422 0 -0.0076269754607706415 -0.010918972833261546 0 -0.0076538195250297949 -0.010927383317765667 0 -0.0076028268773842772 -0.010983639406535062 0 -0.0076451421752076918 -0.010834841443302913 0 -0.0076269754607706415 -0.010918972833261546 0 -0.0076538195250297949 -0.010927383317765667 0 -0.0076451421752076918 -0.010834841443302913 0 -0.0076538195250297949 -0.010927383317765667 0 -0.0076975882772128031 -0.010846324060820015 0 -0.0076538195250297949 -0.010927383317765667 0 -0.0076975882772128031 -0.010846324060820015 0 -0.0077344082351158078 -0.010944257173597618 0 -0.0077547027454831861 -0.010859866795929801 0 -0.0076975882772128031 -0.010846324060820015 0 -0.0077344082351158078 -0.010944257173597618 0 -0.0046824311838343955 -0.0067221379995781446 0 -0.0053362076826903781 -0.0047681958451274865 0 -0.0046824311838343955 -0.0067221379995781446 0 -0.0072935885776315972 -0.010932640079879062 0 -0.0077163107872460033 -0.010849852648254272 0 -0.0077705307208574123 -0.010955092813187428 0 -0.007635748264168042 -0.010708676347231817 0 -0.0046824311838343955 -0.0067221379995781446 0 -0.0046646088379202703 -0.0094245269618136712 0 -0.0042230026551161358 0.0020665601134813435 0 -0.0038108577757655377 0.0015689290625015262 0 -0.0048532204480286542 0.0019689769397345193 0 -0.003949985973331206 0.00088829856903911166 0 -0.0038108577757655377 0.0015689290625015262 0 -0.0048532204480286542 0.0019689769397345193 0 -0.0046824311838343955 -0.0067221379995781446 0 -0.0029994094463259104 0.00065887678919700253 0 -0.0042230026551161358 0.0020665601134813435 0 -0.0038108577757655377 0.0015689290625015262 0 -0.0037585077412349939 0.0019333261187997395 0 -0.0038108577757655377 0.0015689290625015262 0 -0.0037585077412349939 0.0019333261187997395 0 -0.0035388712266205915 0.0017719840424185122 0 -0.0060482066581725585 0.0061803134031227936 0 -0.0072770610711274872 -0.0031630452031614622 0 -0.0035394494783016124 0.0023014158817118296 0 -0.002621822220311472 0.0014496935948553381 0 -0.003246475236025852 0.0017935493555576757 0 -0.0036084330959589858 0.0019894965944714767 0 -0.0037585077412349939 0.0019333261187997395 0 -0.0035388712266205915 0.0017719840424185122 0 -0.0035104036317259351 0.0020265050629639809 0 -0.0036084330959589858 0.0019894965944714767 0 -0.0035388712266205915 0.0017719840424185122 0 -0.0035104036317259351 0.0020265050629639809 0 -0.0035388712266205915 0.0017719840424185122 0 -0.003246475236025852 0.0017935493555576757 0 -0.0035388712266205915 0.0017719840424185122 0 -0.003246475236025852 0.0017935493555576757 0 -0.0032632874376369047 0.0012022435624027374 0 -0.003949985973331206 0.00088829856903911166 0 -0.0038108577757655377 0.0015689290625015262 0 -0.0032632874376369047 0.0012022435624027374 0 -0.0038108577757655377 0.0015689290625015262 0 -0.0035388712266205915 0.0017719840424185122 0 -0.0032632874376369047 0.0012022435624027374 0 -0.0080952585518371395 -0.010952703229259489 0 -0.0080178861165527641 -0.010950991386844125 0 -0.0079605064940284839 -0.01097916620407636 0 -0.01484771765395756 -0.0097127007233973536 0 -0.0079187626802599415 -0.0020821584266920157 0 -0.0079704236382248557 -0.010955432048174575 0 -0.0079605064940284839 -0.01097916620407636 0 -0.0079072954844152561 -0.01096462064818934 0 -0.0080178861165527641 -0.010950991386844125 0 -0.0079704236382248557 -0.010955432048174575 0 -0.0080073287605616113 -0.010933718375995915 0 -0.0080178861165527641 -0.010950991386844125 0 -0.0079704236382248557 -0.010955432048174575 0 -0.0079605064940284839 -0.01097916620407636 0 -0.014696227943954443 -0.0038249452908843593 0 -0.014833372971407216 -0.0035128044419318626 0 -0.015041494892796065 -0.0036031223415469724 0 -0.0052798486621887892 0.0074178210487238156 0 -0.0056658168797360294 0.0072667367381045005 0 -0.0059681748719047321 0.0077192506832970817 0 -0.0180081312020824 0.0013724157855535457 0 -0.0079187626802599415 -0.0020821584266920157 0 -0.024678953709459002 0.00047671313518392962 0 -0.024942328433188228 0.00091470629871715772 0 -0.024843632991989023 0.00041319657063931283 0 -0.0059681748719047321 0.0077192506832970817 0 -0.0062655352281084462 0.0069605880757138772 0 -0.0064342572091426941 0.0075846469025169418 0 -0.0056658168797360294 0.0072667367381045005 0 -0.0059681748719047321 0.0077192506832970817 0 -0.0062655352281084462 0.0069605880757138772 0 -0.0062837842708262665 0.0080979476002978057 0 -0.0059681748719047321 0.0077192506832970817 0 -0.0064342572091426941 0.0075846469025169418 0 -0.0079187626802599415 -0.0020821584266920157 0 -0.0068820629511405591 -0.0019615120327935959 0 -0.0078690546255730225 -0.010978608721035926 0 -0.0079072954844152561 -0.01096462064818934 0 -0.0078303111711426725 -0.010967312659753148 0 -0.0079605064940284839 -0.01097916620407636 0 -0.0078690546255730225 -0.010978608721035926 0 -0.0079072954844152561 -0.01096462064818934 0 -0.0068820629511405591 -0.0019615120327935959 0 -0.0077803789913900457 -0.0022491117299798112 0 -0.0062655352281084462 0.0069605880757138772 0 -0.0069282663563198874 0.0072554407618222313 0 -0.0074348245601437339 0.0063525151828030795 0 -0.0078690546255730225 -0.010978608721035926 0 -0.0077001187199949288 -0.010964671146245901 0 -0.0078303111711426725 -0.010967312659753148 0 -0.0062655352281084462 0.0069605880757138772 0 -0.0069282663563198874 0.0072554407618222313 0 -0.0064342572091426941 0.0075846469025169418 0 -0.0068899345642284586 0.0080580664272453615 0 -0.0069282663563198874 0.0072554407618222313 0 -0.0064342572091426941 0.0075846469025169418 0 -0.0068899345642284586 0.0080580664272453615 0 -0.0069282663563198874 0.0072554407618222313 0 -0.007680721954841865 0.0073413871150076644 0 -0.0069282663563198874 0.0072554407618222313 0 -0.007680721954841865 0.0073413871150076644 0 -0.0074348245601437339 0.0063525151828030795 0 -0.0076835107755926025 -0.010945445425339635 0 -0.0077111793043729534 -0.010970073199433626 0 -0.0078303111711426725 -0.010967312659753148 0 -0.0077001187199949288 -0.010964671146245901 0 -0.0076835107755926025 -0.010945445425339635 0 -0.0078303111711426725 -0.010967312659753148 0 -0.0076269754607706415 -0.010918972833261546 0 -0.0076835107755926025 -0.010945445425339635 0 -0.0077111793043729534 -0.010970073199433626 0 -0.0076269754607706415 -0.010918972833261546 0 -0.0077111793043729534 -0.010970073199433626 0 -0.0076028268773842772 -0.010983639406535062 0 -0.0077111793043729534 -0.010970073199433626 0 -0.0078562762337177922 -0.010976773372125558 0 -0.0078303111711426725 -0.010967312659753148 0 -0.0077111793043729534 -0.010970073199433626 0 -0.0077624455551304934 -0.010982194461959483 0 -0.0076560672497694698 -0.01098364874795193 0 -0.0077111793043729534 -0.010970073199433626 0 -0.0078562762337177922 -0.010976773372125558 0 -0.0077624455551304934 -0.010982194461959483 0 -0.0078562762337177922 -0.010976773372125558 0 -0.0079411799525280838 -0.010975601601650764 0 -0.0077624455551304934 -0.010982194461959483 0 -0.0079072954844152561 -0.01096462064818934 0 -0.0078303111711426725 -0.010967312659753148 0 -0.0079013208423904611 -0.010962071834639736 0 -0.0079072954844152561 -0.01096462064818934 0 -0.0079013208423904611 -0.010962071834639736 0 -0.0079545322420804428 -0.010948582462861388 0 -0.0079704236382248557 -0.010955432048174575 0 -0.0079072954844152561 -0.01096462064818934 0 -0.0079545322420804428 -0.010948582462861388 0 -0.0079013208423904611 -0.010962071834639736 0 -0.0079432682074066455 -0.010964192296995967 0 -0.0079545322420804428 -0.010948582462861388 0 -0.0078562762337177922 -0.010976773372125558 0 -0.0078303111711426725 -0.010967312659753148 0 -0.0079013208423904611 -0.010962071834639736 0 -0.0078562762337177922 -0.010976773372125558 0 -0.0079013208423904611 -0.010962071834639736 0 -0.0079432682074066455 -0.010964192296995967 0 -0.0078562762337177922 -0.010976773372125558 0 -0.0079432682074066455 -0.010964192296995967 0 -0.0079411799525280838 -0.010975601601650764 0 -0.0079432682074066455 -0.010964192296995967 0 -0.0079760142312277123 -0.010975141484303992 0 -0.0079580720949874641 -0.011025193483352996 0 -0.0079432682074066455 -0.010964192296995967 0 -0.0079760142312277123 -0.010975141484303992 0 -0.0079926629448653971 -0.010938748724964972 0 -0.0080097969199365068 -0.010958803069648537 0 -0.0079760142312277123 -0.010975141484303992 0 -0.0079713493635860631 -0.011022535222291787 0 -0.0080097969199365068 -0.010958803069648537 0 -0.0079760142312277123 -0.010975141484303992 0 -0.0079926629448653971 -0.010938748724964972 0 -0.0080439243801880816 -0.010908962174742815 0 -0.0080097969199365068 -0.010958803069648537 0 -0.0079926629448653971 -0.010938748724964972 0 -0.0080439243801880816 -0.010908962174742815 0 -0.0079926629448653971 -0.010938748724964972 0 -0.0080073287605616113 -0.010933718375995915 0 -0.0079432682074066455 -0.010964192296995967 0 -0.0079926629448653971 -0.010938748724964972 0 -0.0079545322420804428 -0.010948582462861388 0 -0.0079926629448653971 -0.010938748724964972 0 -0.0079545322420804428 -0.010948582462861388 0 -0.0080073287605616113 -0.010933718375995915 0 -0.0079704236382248557 -0.010955432048174575 0 -0.0079545322420804428 -0.010948582462861388 0 -0.0080073287605616113 -0.010933718375995915 0 -0.0080538045776049044 -0.010917366136449906 0 -0.0080178861165527641 -0.010950991386844125 0 -0.0080073287605616113 -0.010933718375995915 0 -0.0079274513860729534 -0.011153768978165852 0 -0.0079580720949874641 -0.011025193483352996 0 -0.0079760691583971172 -0.011178342555535745 0 -0.0078574721314519022 -0.011293334811417189 0 -0.0079274513860729534 -0.011153768978165852 0 -0.0078642765863793269 -0.01135585752740746 0 -0.0079274513860729534 -0.011153768978165852 0 -0.0079760691583971172 -0.011178342555535745 0 -0.0078642765863793269 -0.01135585752740746 0 -0.0079274513860729534 -0.011153768978165852 0 -0.0079713493635860631 -0.011022535222291787 0 -0.0079580720949874641 -0.011025193483352996 0 -0.0079760142312277123 -0.010975141484303992 0 -0.0079713493635860631 -0.011022535222291787 0 -0.0079580720949874641 -0.011025193483352996 0 -0.0079432682074066455 -0.010964192296995967 0 -0.0079580720949874641 -0.011025193483352996 0 -0.0079411799525280838 -0.010975601601650764 0 -0.0079580720949874641 -0.011025193483352996 0 -0.0079411799525280838 -0.010975601601650764 0 -0.0080270119790617437 -0.011097654280475702 0 -0.0079760691583971172 -0.011178342555535745 0 -0.0080270119790617437 -0.011097654280475702 0 -0.0082034397342656638 -0.011340720181079225 0 -0.0079580720949874641 -0.011025193483352996 0 -0.0079760691583971172 -0.011178342555535745 0 -0.0080270119790617437 -0.011097654280475702 0 -0.0080431974394142118 -0.012238004974107061 0 -0.0082093325003702589 -0.012390097289504937 0 -0.0080004579865457486 -0.012473969855272994 0 -0.0078973690910435386 -0.011433486552212617 0 -0.0081192594426024913 -0.011956644167364012 0 -0.0080270119790617437 -0.011097654280475702 0 -0.0081598316616953142 -0.011068768099082858 0 -0.0082034397342656638 -0.011340720181079225 0 -0.0079411799525280838 -0.010975601601650764 0 -0.0080270119790617437 -0.011097654280475702 0 -0.0081598316616953142 -0.011068768099082858 0 -0.0078750357810347654 -0.010971751807046659 0 -0.0078973690910435386 -0.011433486552212617 0 -0.0079411799525280838 -0.010975601601650764 0 -0.0077624455551304934 -0.010982194461959483 0 -0.0076884789193237485 -0.010938180874854835 0 -0.0077624455551304934 -0.010982194461959483 0 -0.0076884789193237485 -0.010938180874854835 0 -0.0076560672497694698 -0.01098364874795193 0 -0.0077111793043729534 -0.010970073199433626 0 -0.0076560672497694698 -0.01098364874795193 0 -0.0076028268773842772 -0.010983639406535062 0 -0.0076884789193237485 -0.010938180874854835 0 -0.0076560672497694698 -0.01098364874795193 0 -0.0075921992023526876 -0.011018907026841378 0 -0.0076560672497694698 -0.01098364874795193 0 -0.0075921992023526876 -0.011018907026841378 0 -0.0076028268773842772 -0.010983639406535062 0 -0.0078973690910435386 -0.011433486552212617 0 -0.0078679221729442382 -0.01180760799446361 0 -0.0075921992023526876 -0.011018907026841378 0 -0.0074872273739299078 -0.011155203388558733 0 -0.0075643703674848793 -0.011072921013919738 0 -0.0076884789193237485 -0.010938180874854835 0 -0.0075921992023526876 -0.011018907026841378 0 -0.0074872273739299078 -0.011155203388558733 0 -0.0082093325003702589 -0.012390097289504937 0 -0.0081785279972841265 -0.012566888126563395 0 -0.0080004579865457486 -0.012473969855272994 0 -0.0081785279972841265 -0.012566888126563395 0 -0.007925368535514515 -0.012768396296089413 0 -0.0083128578473324524 -0.012755972961101734 0 -0.0081192594426024913 -0.011956644167364012 0 -0.0081000600502389216 -0.012234477404054348 0 -0.0081785279972841265 -0.012566888126563395 0 -0.0080004579865457486 -0.012473969855272994 0 -0.007925368535514515 -0.012768396296089413 0 -0.0079760691583971172 -0.011178342555535745 0 -0.0082034397342656638 -0.011340720181079225 0 -0.0078642765863793269 -0.01135585752740746 0 -0.0082034397342656638 -0.011340720181079225 0 -0.0078642765863793269 -0.01135585752740746 0 -0.0082731296777463336 -0.011680896617115235 0 -0.0078642765863793269 -0.01135585752740746 0 -0.0074634907416568381 -0.011658789459387371 0 -0.0082731296777463336 -0.011680896617115235 0 -0.007741156352167388 -0.01151661313639394 0 -0.0078642765863793269 -0.01135585752740746 0 -0.0074634907416568381 -0.011658789459387371 0 -0.0077685298969725012 -0.011152148733658471 0 -0.0078848930621281815 -0.011605051800463511 0 -0.0079134669227430288 -0.011357825641296415 0 -0.0077685298969725012 -0.011152148733658471 0 -0.0077705307208574123 -0.010955092813187428 0 -0.0079134669227430288 -0.011357825641296415 0 -0.0077705307208574123 -0.010955092813187428 0 -0.0079134669227430288 -0.011357825641296415 0 -0.0077579339095876568 -0.010938595246173129 0 -0.0077163107872460033 -0.010849852648254272 0 -0.0077705307208574123 -0.010955092813187428 0 -0.0077344082351158078 -0.010944257173597618 0 -0.0077685298969725012 -0.011152148733658471 0 -0.0077344082351158078 -0.010944257173597618 0 -0.0076869225737814561 -0.010998427208677991 0 -0.0077685298969725012 -0.011152148733658471 0 -0.0077705307208574123 -0.010955092813187428 0 -0.0077344082351158078 -0.010944257173597618 0 -0.0077685298969725012 -0.011152148733658471 0 -0.0076869225737814561 -0.010998427208677991 0 -0.0076168276188430563 -0.011044154391942789 0 -0.0076538195250297949 -0.010927383317765667 0 -0.0077344082351158078 -0.010944257173597618 0 -0.0076869225737814561 -0.010998427208677991 0 -0.0076538195250297949 -0.010927383317765667 0 -0.0076869225737814561 -0.010998427208677991 0 -0.0076168276188430563 -0.011044154391942789 0 -0.0076538195250297949 -0.010927383317765667 0 -0.0076168276188430563 -0.011044154391942789 0 -0.0076028268773842772 -0.010983639406535062 0 -0.0076168276188430563 -0.011044154391942789 0 -0.0076028268773842772 -0.010983639406535062 0 -0.0075643703674848793 -0.011072921013919738 0 -0.0075921992023526876 -0.011018907026841378 0 -0.0076028268773842772 -0.010983639406535062 0 -0.0075643703674848793 -0.011072921013919738 0 -0.0074872273739299078 -0.011155203388558733 0 -0.0075643703674848793 -0.011072921013919738 0 -0.0075902270280542869 -0.011238892742369284 0 -0.0076168276188430563 -0.011044154391942789 0 -0.0075643703674848793 -0.011072921013919738 0 -0.0075902270280542869 -0.011238892742369284 0 -0.0077685298969725012 -0.011152148733658471 0 -0.0075902270280542869 -0.011238892742369284 0 -0.0078848930621281815 -0.011605051800463511 0 -0.0077685298969725012 -0.011152148733658471 0 -0.0076168276188430563 -0.011044154391942789 0 -0.0075902270280542869 -0.011238892742369284 0 -0.0074899984486514895 -0.011582616151496371 0 -0.0080182575892329012 -0.012327009546253801 0 -0.0078848930621281815 -0.011605051800463511 0 -0.0075902270280542869 -0.011238892742369284 0 -0.0074899984486514895 -0.011582616151496371 0 -0.0078848930621281815 -0.011605051800463511 0 -0.0074872273739299078 -0.011155203388558733 0 -0.0075902270280542869 -0.011238892742369284 0 -0.0074899984486514895 -0.011582616151496371 0 -0.0078679221729442382 -0.01180760799446361 0 -0.0079083271874198328 -0.012057295390255842 0 -0.0082093325003702589 -0.012390097289504937 0 -0.0081785279972841265 -0.012566888126563395 0 -0.0082951184153486693 -0.012519250208057544 0 -0.0081785279972841265 -0.012566888126563395 0 -0.0082951184153486693 -0.012519250208057544 0 -0.0083128578473324524 -0.012755972961101734 0 -0.0082951184153486693 -0.012519250208057544 0 -0.0083128578473324524 -0.012755972961101734 0 -0.008318318107662032 -0.012656081183544393 0 -0.0079083271874198328 -0.012057295390255842 0 -0.0080309695934155795 -0.012297678546068997 0 -0.0082951184153486693 -0.012519250208057544 0 -0.0080182575892329012 -0.012327009546253801 0 -0.008318318107662032 -0.012656081183544393 0 -0.0080182575892329012 -0.012327009546253801 0 -0.0078848930621281815 -0.011605051800463511 0 -0.0081042530445085952 -0.012079885794977114 0 -0.0078848930621281815 -0.011605051800463511 0 -0.0079134669227430288 -0.011357825641296415 0 -0.0081042530445085952 -0.012079885794977114 0 -0.0079134669227430288 -0.011357825641296415 0 -0.0081042530445085952 -0.012079885794977114 0 -0.0080763817917813684 -0.011613474504596039 0 -0.0081042530445085952 -0.012079885794977114 0 -0.0083889797405176728 -0.012131939492232825 0 -0.0080763817917813684 -0.011613474504596039 0 -0.0083889797405176728 -0.012131939492232825 0 -0.0082545027366828869 -0.011580701161442131 0 -0.0080763817917813684 -0.011613474504596039 0 -0.0082985367944988595 -0.011614104596504651 0 -0.0087174025289749688 -0.012091255574126688 0 -0.0083889797405176728 -0.012131939492232825 0 -0.0082545027366828869 -0.011580701161442131 0 -0.0090572459335988599 -0.012228296381176963 0 -0.0082545027366828869 -0.011580701161442131 0 -0.0077579339095876568 -0.010938595246173129 0 -0.0080121366248358285 -0.011166021069738376 0 -0.0082545027366828869 -0.011580701161442131 0 -0.0083354481551915823 -0.011370164778434153 0 -0.0080121366248358285 -0.011166021069738376 0 -0.0082545027366828869 -0.011580701161442131 0 -0.0080763817917813684 -0.011613474504596039 0 -0.0077579339095876568 -0.010938595246173129 0 -0.0079134669227430288 -0.011357825641296415 0 -0.0080763817917813684 -0.011613474504596039 0 -0.0077579339095876568 -0.010938595246173129 0 -0.0085033422851682177 -0.011594438186197226 0 -0.0089098628027380281 -0.011790125277048327 0 -0.0087283838786555226 -0.012074848978461065 0 -0.0085033422851682177 -0.011594438186197226 0 -0.0087283838786555226 -0.012074848978461065 0 -0.008398731404655092 -0.011938071374667805 0 -0.0082545027366828869 -0.011580701161442131 0 -0.0085033422851682177 -0.011594438186197226 0 -0.008398731404655092 -0.011938071374667805 0 -0.0082545027366828869 -0.011580701161442131 0 -0.0083354481551915823 -0.011370164778434153 0 -0.0085033422851682177 -0.011594438186197226 0 -0.0083354481551915823 -0.011370164778434153 0 -0.0085033422851682177 -0.011594438186197226 0 -0.0085232133218581217 -0.011356161749738629 0 -0.0085033422851682177 -0.011594438186197226 0 -0.0087099072111298942 -0.011283841299533394 0 -0.0089098628027380281 -0.011790125277048327 0 -0.0020515134179462714 -0.011447772162327011 0 -0.0048702655991409395 -0.012207071475018531 0 -0.0085033422851682177 -0.011594438186197226 0 -0.0085232133218581217 -0.011356161749738629 0 -0.0087099072111298942 -0.011283841299533394 0 -0.0028903626306269236 -0.0097007919133749246 0 -0.0094105609978998341 -0.010838286230264943 0 -0.0020515134179462714 -0.011447772162327011 0 -0.0094105609978998341 -0.010838286230264943 0 -0.0036294367700580735 -0.012133936922962336 0 -0.0030546770697611435 -0.0094994262380078687 0 -0.007923699652997435 -0.010626168166366799 0 -0.0085232133218581217 -0.011356161749738629 0 -0.0087099072111298942 -0.011283841299533394 0 -0.0083761310037392591 -0.011227843411972357 0 -0.0028903626306269236 -0.0097007919133749246 0 -0.0020515134179462714 -0.011447772162327011 0 0.0043020890344557267 -0.010127880329901171 0 0.004061478121671091 -0.011455144756960814 0 0.003106841017747026 -0.010399599814517893 0 -0.010719399558313508 -0.010850355203047252 0 -0.0083761310037392591 -0.011227843411972357 0 -0.0085327555839780234 -0.010196110787291152 0 -0.0083354481551915823 -0.011370164778434153 0 -0.0085232133218581217 -0.011356161749738629 0 -0.0083761310037392591 -0.011227843411972357 0 -0.0083354481551915823 -0.011370164778434153 0 -0.0083761310037392591 -0.011227843411972357 0 -0.0080121366248358285 -0.011166021069738376 0 -0.0083761310037392591 -0.011227843411972357 0 -0.0085327555839780234 -0.010196110787291152 0 -0.0077629182921985836 -0.010768554865936638 0 -0.0083761310037392591 -0.011227843411972357 0 -0.0080121366248358285 -0.011166021069738376 0 -0.0077629182921985836 -0.010768554865936638 0 -0.0085327555839780234 -0.010196110787291152 0 -0.0079103638628369582 -0.0073191283856657036 0 -0.010484037051042953 -0.0078518377321338279 0 -0.0085327555839780234 -0.010196110787291152 0 -0.0070386768806355053 -0.0099443498011437502 0 -0.0079103638628369582 -0.0073191283856657036 0 -0.0085327555839780234 -0.010196110787291152 0 -0.0077629182921985836 -0.010768554865936638 0 -0.0070386768806355053 -0.0099443498011437502 0 -0.010719399558313508 -0.010850355203047252 0 -0.0085327555839780234 -0.010196110787291152 0 -0.010484037051042953 -0.0078518377321338279 0 -0.0018090283632853682 -0.0067559863462020404 0 -0.001453021497677953 -0.0051327191263569319 0 -0.0026274381773812336 -0.0054130799437308282 0 -0.0028903626306269236 -0.0097007919133749246 0 -0.0060618343346688155 -0.0064533890899267582 0 -0.0077579339095876568 -0.010938595246173129 0 -0.0080121366248358285 -0.011166021069738376 0 -0.0077629182921985836 -0.010768554865936638 0 -0.0077579339095876568 -0.010938595246173129 0 -0.0077629182921985836 -0.010768554865936638 0 -0.0070386768806355053 -0.0099443498011437502 0 -0.0069390460554791793 -0.0099656609539342886 0 -0.0046646088379202703 -0.0094245269618136712 0 -0.0077579339095876568 -0.010938595246173129 0 -0.0070386768806355053 -0.0099443498011437502 0 -0.007635748264168042 -0.010708676347231817 0 -0.0077705307208574123 -0.010955092813187428 0 -0.0077579339095876568 -0.010938595246173129 0 -0.007635748264168042 -0.010708676347231817 0 -0.0020438265596757852 -0.0080438801188807245 0 -0.0050829787893910327 -0.0056049984624886315 0 -0.0021656887286292418 -0.0017694590551195612 0 0.0020029050701005332 -0.0064120877434797208 0 -0.0020438265596757852 -0.0080438801188807245 0 -0.0021656887286292418 -0.0017694590551195612 0 -0.0049594149874446734 -0.0027238106478359178 0 -0.0050829787893910327 -0.0056049984624886315 0 -0.0021656887286292418 -0.0017694590551195612 0 -0.0049594149874446734 -0.0027238106478359178 0 -0.0067996734468767153 -0.0042015033803352256 0 -0.0066441682752712171 -0.0019277372936068781 0 -0.0049594149874446734 -0.0027238106478359178 0 -0.0050829787893910327 -0.0056049984624886315 0 -0.0067996734468767153 -0.0042015033803352256 0 -0.0050829787893910327 -0.0056049984624886315 0 -0.0079103638628369582 -0.0073191283856657036 0 -0.0067996734468767153 -0.0042015033803352256 0 -0.0070386768806355053 -0.0099443498011437502 0 -0.0020438265596757852 -0.0080438801188807245 0 -0.0050829787893910327 -0.0056049984624886315 0 -0.0070386768806355053 -0.0099443498011437502 0 -0.0050829787893910327 -0.0056049984624886315 0 -0.0079103638628369582 -0.0073191283856657036 0 -0.0079103638628369582 -0.0073191283856657036 0 -0.010484037051042953 -0.0078518377321338279 0 -0.0088305572046123507 -0.004710567481309577 0 -0.0079103638628369582 -0.0073191283856657036 0 -0.0067996734468767153 -0.0042015033803352256 0 -0.0088305572046123507 -0.004710567481309577 0 -0.001453021497677953 -0.0051327191263569319 0 -0.0018261695549882432 -0.003994903601198441 0 -0.0010731735853275214 -0.0034668126891238696 0 -0.010484037051042953 -0.0078518377321338279 0 -0.0097295624451750034 -0.0036030960299455596 0 -0.0088305572046123507 -0.004710567481309577 0 -0.001453021497677953 -0.0051327191263569319 0 -0.0026188779405486784 -0.0041399052890210659 0 -0.0026274381773812336 -0.0054130799437308282 0 -0.0060618343346688155 -0.0064533890899267582 0 -0.006726274569320994 -0.0028989821326232774 0 -0.001453021497677953 -0.0051327191263569319 0 -0.0018261695549882432 -0.003994903601198441 0 -0.0026188779405486784 -0.0041399052890210659 0 -0.0010731735853275214 -0.0034668126891238696 0 -0.0021653242882095549 -0.0032282560576065364 0 -0.0022198242732501634 -0.0019127604369904502 0 -0.0018261695549882432 -0.003994903601198441 0 -0.0021653242882095549 -0.0032282560576065364 0 -0.0026188779405486784 -0.0041399052890210659 0 -0.0018261695549882432 -0.003994903601198441 0 -0.0010731735853275214 -0.0034668126891238696 0 -0.0021653242882095549 -0.0032282560576065364 0 -0.0095848978991612006 -0.0033939135737702268 0 -0.0078929062892141126 -0.0027681312620673709 0 -0.0075414801267209624 0.00019434588943758037 0 -0.0067996734468767153 -0.0042015033803352256 0 -0.0088305572046123507 -0.004710567481309577 0 -0.0078929062892141126 -0.0027681312620673709 0 -0.0095848978991612006 -0.0033939135737702268 0 -0.0088305572046123507 -0.004710567481309577 0 -0.0078929062892141126 -0.0027681312620673709 0 -0.006726274569320994 -0.0028989821326232774 0 -0.0076878814844350239 -0.0032835029933336508 0 -0.0067996734468767153 -0.0042015033803352256 0 -0.0078929062892141126 -0.0027681312620673709 0 -0.0066441682752712171 -0.0019277372936068781 0 -0.006726274569320994 -0.0028989821326232774 0 -0.0076824242405485734 0.00015273512170987271 0 -0.0075414801267209624 0.00019434588943758037 0 -0.0073580184590340356 0.0013918972578025376 0 -0.0059014540789349276 -0.00038838526674794973 0 -0.0066441682752712171 -0.0019277372936068781 0 -0.0075414801267209624 0.00019434588943758037 0 -0.0059014540789349276 -0.00038838526674794973 0 -0.0078929062892141126 -0.0027681312620673709 0 -0.0066441682752712171 -0.0019277372936068781 0 -0.0075414801267209624 0.00019434588943758037 0 -0.0075006934904399006 0.00031153608880891504 0 -0.0075414801267209624 0.00019434588943758037 0 -0.007334241463684648 0.0008121038306591375 0 -0.006726274569320994 -0.0028989821326232774 0 -0.0044730296238490678 -0.00050279178323383027 0 -0.0075414801267209624 0.00019434588943758037 0 -0.0073580184590340356 0.0013918972578025376 0 -0.007334241463684648 0.0008121038306591375 0 -0.0075155414108014516 0.0027830614579390425 0 -0.0072784563372421162 0.0015051742756445026 0 -0.0064971525668206347 0.0012139907338518481 0 -0.0073580184590340356 0.0013918972578025376 0 -0.006925194103230458 0.0012412253834748514 0 -0.0073580184590340356 0.0013918972578025376 0 -0.006925194103230458 0.0012412253834748514 0 -0.007334241463684648 0.0008121038306591375 0 -0.0071291899044520005 0.0045527059883756198 0 -0.0073580184590340356 0.0013918972578025376 0 -0.0054320037805751743 0.0015703722820658798 0 -0.0073580184590340356 0.0013918972578025376 0 -0.0054320037805751743 0.0015703722820658798 0 -0.0059014540789349276 -0.00038838526674794973 0 -0.0056844867677570288 0.0044954071685089376 0 -0.0058383684355851496 0.0031452485174558683 0 -0.0045492479145319868 0.0033219004124073665 0 -0.0058383684355851496 0.0031452485174558683 0 -0.0045492479145319868 0.0033219004124073665 0 -0.0048532204480286542 0.0019689769397345193 0 -0.0042230026551161358 0.0020665601134813435 0 -0.0045492479145319868 0.0033219004124073665 0 -0.0048532204480286542 0.0019689769397345193 0 -0.0054320037805751743 0.0015703722820658798 0 -0.0021656887286292418 -0.0017694590551195612 0 -0.0059014540789349276 -0.00038838526674794973 0 -0.0049594149874446734 -0.0027238106478359178 0 -0.0021656887286292418 -0.0017694590551195612 0 -0.0059014540789349276 -0.00038838526674794973 0 -0.005689638986103863 0.00231618055209761 0 -0.0029994094463259104 0.00065887678919700253 0 -0.0049594149874446734 -0.0027238106478359178 0 -0.0066441682752712171 -0.0019277372936068781 0 -0.0059014540789349276 -0.00038838526674794973 0 -0.0057719081785129996 -0.0017137938632353343 0 -0.0048592077194165072 -0.0023703222035477097 0 -0.0052605533875339228 -0.0032752549858814507 0 -0.0057719081785129996 -0.0017137938632353343 0 -0.0052169247017656876 -0.00077223942490017026 0 -0.0048592077194165072 -0.0023703222035477097 0 -0.0057719081785129996 -0.0017137938632353343 0 -0.006209072175670894 -0.0024536969515599155 0 -0.0052605533875339228 -0.0032752549858814507 0 -0.0068171724164705107 -0.0013097400954351457 0 -0.0070420658000602014 -0.0028326688392954409 0 -0.0076792557686946447 -0.001915754411895687 0 -0.006209072175670894 -0.0024536969515599155 0 -0.0068171724164705107 -0.0013097400954351457 0 -0.0070420658000602014 -0.0028326688392954409 0 -0.0057719081785129996 -0.0017137938632353343 0 -0.006209072175670894 -0.0024536969515599155 0 -0.0068171724164705107 -0.0013097400954351457 0 -0.0065413336796108917 0.00022449509849450437 0 -0.0068171724164705107 -0.0013097400954351457 0 -0.0077725027739767531 -6.4275975077360668e-05 0 -0.0068171724164705107 -0.0013097400954351457 0 -0.0077725027739767531 -6.4275975077360668e-05 0 -0.0076792557686946447 -0.001915754411895687 0 -0.0065413336796108917 0.00022449509849450437 0 -0.0068171724164705107 -0.0013097400954351457 0 -0.005997656814720225 -0.00069892979724931392 0 -0.0065413336796108917 0.00022449509849450437 0 -0.0058413061566749552 0.00042735690284707341 0 -0.005997656814720225 -0.00069892979724931392 0 -0.0057719081785129996 -0.0017137938632353343 0 -0.0068171724164705107 -0.0013097400954351457 0 -0.005997656814720225 -0.00069892979724931392 0 -0.0057719081785129996 -0.0017137938632353343 0 -0.005997656814720225 -0.00069892979724931392 0 -0.0052169247017656876 -0.00077223942490017026 0 -0.0058413061566749552 0.00042735690284707341 0 -0.0051986299775635767 0.00013458379078022442 0 -0.0052169247017656876 -0.00077223942490017026 0 -0.0058413061566749552 0.00042735690284707341 0 -0.005997656814720225 -0.00069892979724931392 0 -0.0052169247017656876 -0.00077223942490017026 0 -0.0051986299775635767 0.00013458379078022442 0 -0.0052169247017656876 -0.00077223942490017026 0 -0.0035741787983669744 -0.00019639220463364891 0 -0.0052169247017656876 -0.00077223942490017026 0 -0.0035741787983669744 -0.00019639220463364891 0 -0.0039639201802882627 -0.0019257958210692398 0 -0.0051739297614652596 0.00050051722094400107 0 -0.0044730296238490678 -0.00050279178323383027 0 -0.0035741787983669744 -0.00019639220463364891 0 -0.0022198242732501634 -0.0019127604369904502 0 -0.0039639201802882627 -0.0019257958210692398 0 -0.006925194103230458 0.0012412253834748514 0 -0.0065616294765449869 0.0013411828076175143 0 -0.007334241463684648 0.0008121038306591375 0 -0.0064971525668206347 0.0012139907338518481 0 -0.006925194103230458 0.0012412253834748514 0 -0.0065616294765449869 0.0013411828076175143 0 -0.0022198242732501634 -0.0019127604369904502 0 -0.0039639201802882627 -0.0019257958210692398 0 -0.0030658815868832962 -0.0028903207902851824 0 -0.0021653242882095549 -0.0032282560576065364 0 -0.0022198242732501634 -0.0019127604369904502 0 -0.0030658815868832962 -0.0028903207902851824 0 -0.0048592077194165072 -0.0023703222035477097 0 -0.0039639201802882627 -0.0019257958210692398 0 -0.0039775913682508612 -0.0035132748072964504 0 -0.0052169247017656876 -0.00077223942490017026 0 -0.0048592077194165072 -0.0023703222035477097 0 -0.0039639201802882627 -0.0019257958210692398 0 -0.0039639201802882627 -0.0019257958210692398 0 -0.0039775913682508612 -0.0035132748072964504 0 -0.0030658815868832962 -0.0028903207902851824 0 -0.0048592077194165072 -0.0023703222035477097 0 -0.0039775913682508612 -0.0035132748072964504 0 -0.0052605533875339228 -0.0032752549858814507 0 -0.0039775913682508612 -0.0035132748072964504 0 -0.004720005248014243 -0.004420340801498902 0 -0.0052605533875339228 -0.0032752549858814507 0 -0.0039775913682508612 -0.0035132748072964504 0 -0.0030658815868832962 -0.0028903207902851824 0 -0.0026188779405486784 -0.0041399052890210659 0 -0.0021653242882095549 -0.0032282560576065364 0 -0.0030658815868832962 -0.0028903207902851824 0 -0.0026188779405486784 -0.0041399052890210659 0 -0.0039775913682508612 -0.0035132748072964504 0 -0.0026188779405486784 -0.0041399052890210659 0 -0.0037420017424634709 -0.0049202668397208462 0 -0.0026188779405486784 -0.0041399052890210659 0 -0.0037420017424634709 -0.0049202668397208462 0 -0.0026274381773812336 -0.0054130799437308282 0 -0.0037420017424634709 -0.0049202668397208462 0 -0.004720005248014243 -0.004420340801498902 0 -0.0050572192948548783 -0.0054565166543744225 0 -0.0039775913682508612 -0.0035132748072964504 0 -0.0037420017424634709 -0.0049202668397208462 0 -0.004720005248014243 -0.004420340801498902 0 -0.004720005248014243 -0.004420340801498902 0 -0.0055774216562592656 -0.0047752304591946182 0 -0.0050572192948548783 -0.0054565166543744225 0 -0.0052605533875339228 -0.0032752549858814507 0 -0.0061217253078959134 -0.0034423424718168262 0 -0.0055774216562592656 -0.0047752304591946182 0 -0.004720005248014243 -0.004420340801498902 0 -0.0052605533875339228 -0.0032752549858814507 0 -0.0055774216562592656 -0.0047752304591946182 0 -0.006209072175670894 -0.0024536969515599155 0 -0.0052605533875339228 -0.0032752549858814507 0 -0.0061217253078959134 -0.0034423424718168262 0 -0.0070420658000602014 -0.0028326688392954409 0 -0.0069909045445129955 -0.0037402426198736892 0 -0.0079503207343059185 -0.0032004031817411791 0 -0.0070420658000602014 -0.0028326688392954409 0 -0.0061217253078959134 -0.0034423424718168262 0 -0.0069909045445129955 -0.0037402426198736892 0 -0.006209072175670894 -0.0024536969515599155 0 -0.0070420658000602014 -0.0028326688392954409 0 -0.0061217253078959134 -0.0034423424718168262 0 -0.0061217253078959134 -0.0034423424718168262 0 -0.0069909045445129955 -0.0037402426198736892 0 -0.0055774216562592656 -0.0047752304591946182 0 -0.0055774216562592656 -0.0047752304591946182 0 -0.0058786990193004512 -0.0055221130864729125 0 -0.0050572192948548783 -0.0054565166543744225 0 -0.0056195284264439786 -0.005574595952274464 0 -0.0032937057244964286 -0.0063990520902375524 0 -0.0050210310289276255 -0.004747478672790427 0 -0.0090552456045626395 -0.0051111693226661009 0 -0.0055774216562592656 -0.0047752304591946182 0 -0.0058786990193004512 -0.0055221130864729125 0 -0.0068561266698980994 -0.0052025786062906447 0 -0.0069909045445129955 -0.0037402426198736892 0 -0.0055774216562592656 -0.0047752304591946182 0 -0.0080258892826412694 -0.0045227665512471999 0 -0.0058786990193004512 -0.0055221130864729125 0 -0.0053930550262879969 -0.007394719372525207 0 -0.0010212167643934536 -0.0073623416622861917 0 -0.0058786990193004512 -0.0055221130864729125 0 -0.0053930550262879969 -0.007394719372525207 0 -0.0069565668905593094 -0.0067988653427404414 0 -0.0053930550262879969 -0.007394719372525207 0 -0.0044766282470108266 -0.0089687948103414541 0 -0.0010212167643934536 -0.0073623416622861917 0 -0.0053930550262879969 -0.007394719372525207 0 -0.0044766282470108266 -0.0089687948103414541 0 -0.0074638040048347525 -0.0084695388912096447 0 -0.0044766282470108266 -0.0089687948103414541 0 -0.0021535215017298936 -0.0094073226703004637 0 -0.0035778958844312398 -0.010418639869082681 0 -0.0010212167643934536 -0.0073623416622861917 0 -0.0021535215017298936 -0.0094073226703004637 0 -0.00019031562355026075 -0.011176104216217592 0 -0.0044766282470108266 -0.0089687948103414541 0 -0.0010212167643934536 -0.0073623416622861917 0 -0.0021535215017298936 -0.0094073226703004637 0 -0.0021535215017298936 -0.0094073226703004637 0 -0.00019031562355026075 -0.011176104216217592 0 -0.0035778958844312398 -0.010418639869082681 0 -0.00019031562355026075 -0.011176104216217592 0 5.0238700948905001e-05 -0.012371255050241168 0 -1.4721684781260454e-05 -0.011957074720967315 0 -5.4742851741716984e-05 -0.011234404705607872 0 -0.0028459080077318549 -0.012313277007271153 0 -0.00019031562355026075 -0.011176104216217592 0 0.00063543392282006117 -0.012136618681452778 0 -1.4721684781260454e-05 -0.011957074720967315 0 -0.00019031562355026075 -0.011176104216217592 0 -0.0050399312510250862 -0.012176450609608359 0 -0.0035778958844312398 -0.010418639869082681 0 -0.0044766282470108266 -0.0089687948103414541 0 -0.0035778958844312398 -0.010418639869082681 0 -0.0057957553935940008 -0.010389011649518385 0 -0.0050399312510250862 -0.012176450609608359 0 -0.0035778958844312398 -0.010418639869082681 0 -0.0057957553935940008 -0.010389011649518385 0 -0.0028903626306269236 -0.0097007919133749246 0 1.9205071738771343e-05 -0.0076096716618873168 0 -0.0018090283632853682 -0.0067559863462020404 0 -0.0026274381773812336 -0.0054130799437308282 0 -0.0034878242346622098 -0.0061065173300392864 0 0.0043020890344557267 -0.010127880329901171 0 0.0020393603296885729 -0.0091028380910861423 0 0.003106841017747026 -0.010399599814517893 0 -0.0037420017424634709 -0.0049202668397208462 0 -0.0026274381773812336 -0.0054130799437308282 0 -0.0034878242346622098 -0.0061065173300392864 0 -0.0037420017424634709 -0.0049202668397208462 0 -0.0050572192948548783 -0.0054565166543744225 0 -0.0034878242346622098 -0.0061065173300392864 0 -0.0032937057244964286 -0.0063990520902375524 0 1.9205071738771343e-05 -0.0076096716618873168 0 -0.0010212167643934536 -0.0073623416622861917 0 -0.00019031562355026075 -0.011176104216217592 0 0.0020393603296885729 -0.0091028380910861423 0 -0.00019031562355026075 -0.011176104216217592 0 0.0020118968629308054 -0.010931431292348021 0 0.00063543392282006117 -0.012136618681452778 0 -0.00019031562355026075 -0.011176104216217592 0 0.0020393603296885729 -0.0091028380910861423 0 0.0020118968629308054 -0.010931431292348021 0 0.004061478121671091 -0.011455144756960814 0 0.0020118968629308054 -0.010931431292348021 0 0.00063543392282006117 -0.012136618681452778 0 0.004061478121671091 -0.011455144756960814 0 0.0020118968629308054 -0.010931431292348021 0 0.003106841017747026 -0.010399599814517893 0 0.0020393603296885729 -0.0091028380910861423 0 0.0020118968629308054 -0.010931431292348021 0 0.003106841017747026 -0.010399599814517893 0 -0.00014599578886147069 -0.012513326703337945 0 -6.193490754232278e-05 -0.012447557307169031 0 -0.00010163717361044548 -0.012372046741300022 0 -0.00014599578886147069 -0.012513326703337945 0 -6.193490754232278e-05 -0.012447557307169031 0 4.7777438507687417e-05 -0.012458303578115029 0 -0.0020515134179462714 -0.011447772162327011 0 0.001305945451059934 -0.012288341596103699 0 -6.193490754232278e-05 -0.012447557307169031 0 4.7777438507687417e-05 -0.012458303578115029 0 4.9498628184403024e-06 -0.012403951251017752 0 4.7777438507687417e-05 -0.012458303578115029 0 4.9498628184403024e-06 -0.012403951251017752 0 8.6871049163665857e-05 -0.012407683419878319 0 4.9498628184403024e-06 -0.012403951251017752 0 8.6871049163665857e-05 -0.012407683419878319 0 3.381310058073164e-05 -0.012317899567577537 0 4.9498628184403024e-06 -0.012403951251017752 0 -0.00010163717361044548 -0.012372046741300022 0 3.381310058073164e-05 -0.012317899567577537 0 -6.193490754232278e-05 -0.012447557307169031 0 4.9498628184403024e-06 -0.012403951251017752 0 -0.00010163717361044548 -0.012372046741300022 0 2.2454842270623237e-05 -0.012378558488586088 0 0.00026109843363811991 -0.012487033391863347 0 0.00028190580386427624 -0.012440792928993229 0 5.0238700948905001e-05 -0.012371255050241168 0 2.2454842270623237e-05 -0.012378558488586088 0 0.00026109843363811991 -0.012487033391863347 0 5.0238700948905001e-05 -0.012371255050241168 0 2.2454842270623237e-05 -0.012378558488586088 0 -1.4721684781260454e-05 -0.011957074720967315 0 0.00063543392282006117 -0.012136618681452778 0 2.2454842270623237e-05 -0.012378558488586088 0 -1.4721684781260454e-05 -0.011957074720967315 0 0.001305945451059934 -0.012288341596103699 0 -0.00038840238056106995 -0.012414550058256469 0 4.7777438507687417e-05 -0.012458303578115029 0 2.2454842270623237e-05 -0.012378558488586088 0 8.6871049163665857e-05 -0.012407683419878319 0 2.2454842270623237e-05 -0.012378558488586088 0 8.6871049163665857e-05 -0.012407683419878319 0 0.0001500214641569988 -0.012401495916362805 0 8.6871049163665857e-05 -0.012407683419878319 0 0.0001500214641569988 -0.012401495916362805 0 0.00017171514148832666 -0.012314242011081757 0 2.2454842270623237e-05 -0.012378558488586088 0 0.0001500214641569988 -0.012401495916362805 0 0.00028190580386427624 -0.012440792928993229 0 0.0001500214641569988 -0.012401495916362805 0 0.00031247348594936301 -0.012354229635155417 0 0.00028190580386427624 -0.012440792928993229 0 0.00031247348594936301 -0.012354229635155417 0 0.00017171514148832666 -0.012314242011081757 0 0.00040442330067361936 -0.01224235901400955 0 0.0001500214641569988 -0.012401495916362805 0 0.00031247348594936301 -0.012354229635155417 0 0.00017171514148832666 -0.012314242011081757 0 0.00017171514148832666 -0.012314242011081757 0 0.00013150454809481067 -0.012228146375147219 0 3.381310058073164e-05 -0.012317899567577537 0 8.6871049163665857e-05 -0.012407683419878319 0 0.00017171514148832666 -0.012314242011081757 0 3.381310058073164e-05 -0.012317899567577537 0 0.00017171514148832666 -0.012314242011081757 0 0.00013150454809481067 -0.012228146375147219 0 0.0002335280312737041 -0.012181036680951546 0 0.00013150454809481067 -0.012228146375147219 0 0.0002335280312737041 -0.012181036680951546 0 0.00010857628317859454 -0.012160800337526293 0 0.0002335280312737041 -0.012181036680951546 0 0.00040442330067361936 -0.01224235901400955 0 0.00038749513106185523 -0.012059422063002404 0 0.00017171514148832666 -0.012314242011081757 0 0.0002335280312737041 -0.012181036680951546 0 0.00040442330067361936 -0.01224235901400955 0 0.0002335280312737041 -0.012181036680951546 0 0.00038749513106185523 -0.012059422063002404 0 0.00019839959239679325 -0.012099775332014716 0 0.0002335280312737041 -0.012181036680951546 0 0.00019839959239679325 -0.012099775332014716 0 0.00010857628317859454 -0.012160800337526293 0 0.00019839959239679325 -0.012099775332014716 0 0.00011087285261617804 -0.012087733467484577 0 0.00010857628317859454 -0.012160800337526293 0 0.00019839959239679325 -0.012099775332014716 0 0.00017336743732279431 -0.012048826508995331 0 0.00011087285261617804 -0.012087733467484577 0 0.00017336743732279431 -0.012048826508995331 0 9.1551175679557156e-05 -0.012061616948409839 0 0.00011087285261617804 -0.012087733467484577 0 0.0056331252006250766 -0.020027497863565124 0 0.0046347778438347049 -0.019149571512857393 0 0.0058953862878164094 -0.019126183357682066 0 0.00038749513106185523 -0.012059422063002404 0 0.00019839959239679325 -0.012099775332014716 0 0.00017336743732279431 -0.012048826508995331 0 0.0029040606282277875 -0.015991611932742095 0 0.0030317211103089528 -0.0156975917559979 0 -0.0094006360260781123 -0.013251160833148883 0 -0.0094952876211004296 -0.013272684395113744 0 -0.0093705872774140289 -0.013154053343454585 0 -0.0093646961844383435 -0.013186322419903831 0 -0.0093839074794066241 -0.013281903342283631 0 -0.0093504933486211108 -0.013290520455140854 0 -0.0094006360260781123 -0.013251160833148883 0 -0.0093646961844383435 -0.013186322419903831 0 -0.0093839074794066241 -0.013281903342283631 0 -0.0094006360260781123 -0.013251160833148883 0 -0.0093705872774140289 -0.013154053343454585 0 -0.0093646961844383435 -0.013186322419903831 0 -0.0093839074794066241 -0.013281903342283631 0 -0.0093504933486211108 -0.013290520455140854 0 -0.0093811977855406577 -0.01335411826781702 0 -0.0094006360260781123 -0.013251160833148883 0 -0.0094952876211004296 -0.013272684395113744 0 -0.0094365552601148924 -0.01333147406950729 0 -0.0093839074794066241 -0.013281903342283631 0 -0.0094365552601148924 -0.01333147406950729 0 -0.0093811977855406577 -0.01335411826781702 0 -0.0094006360260781123 -0.013251160833148883 0 -0.0093839074794066241 -0.013281903342283631 0 -0.0094365552601148924 -0.01333147406950729 0 2.4630446078199538e-05 -0.012079630542097035 0 9.1551175679557156e-05 -0.012061616948409839 0 0.00011087285261617804 -0.012087733467484577 0 2.4630446078199538e-05 -0.012079630542097035 0 0.00011087285261617804 -0.012087733467484577 0 6.3329088175511817e-05 -0.012127190965398759 0 0.00011087285261617804 -0.012087733467484577 0 6.3329088175511817e-05 -0.012127190965398759 0 0.00010857628317859454 -0.012160800337526293 0 2.4630446078199538e-05 -0.012079630542097035 0 6.3329088175511817e-05 -0.012127190965398759 0 2.7949775265734649e-05 -0.012168583005277482 0 6.3329088175511817e-05 -0.012127190965398759 0 0.00010857628317859454 -0.012160800337526293 0 2.7949775265734649e-05 -0.012168583005277482 0 2.4630446078199538e-05 -0.012079630542097035 0 2.7949775265734649e-05 -0.012168583005277482 0 -5.9661463896099252e-05 -0.012226799376242345 0 -0.0051079666091518655 -0.012096468871828673 0 -0.0045359351253263557 -0.012440181806934179 0 -0.0093705872774140289 -0.013154053343454585 0 -0.0092097533539189438 -0.012459379049369881 0 -0.0087540863385107363 -0.012504492836330731 0 -0.0093526127442220466 -0.013112384717570966 0 -0.0090874609625080788 -0.01266938112739846 0 -0.0094952876211004296 -0.013272684395113744 0 -0.0093705872774140289 -0.013154053343454585 0 -0.0092097533539189438 -0.012459379049369881 0 -0.0093705872774140289 -0.013154053343454585 0 -0.0093646961844383435 -0.013186322419903831 0 -0.0094257228308253973 -0.012842147620053698 0 0.00013150454809481067 -0.012228146375147219 0 4.4661672012077622e-05 -0.012223734762741805 0 3.381310058073164e-05 -0.012317899567577537 0 -5.9661463896099252e-05 -0.012226799376242345 0 4.4661672012077622e-05 -0.012223734762741805 0 3.381310058073164e-05 -0.012317899567577537 0 0.00010857628317859454 -0.012160800337526293 0 2.7949775265734649e-05 -0.012168583005277482 0 4.4661672012077622e-05 -0.012223734762741805 0 0.00013150454809481067 -0.012228146375147219 0 0.00010857628317859454 -0.012160800337526293 0 4.4661672012077622e-05 -0.012223734762741805 0 2.7949775265734649e-05 -0.012168583005277482 0 -5.9661463896099252e-05 -0.012226799376242345 0 4.4661672012077622e-05 -0.012223734762741805 0 -0.0089098628027380281 -0.011790125277048327 0 -0.0092097533539189438 -0.012459379049369881 0 -0.0087283838786555226 -0.012074848978461065 0 -0.0048702655991409395 -0.012207071475018531 0 -0.0045359351253263557 -0.012440181806934179 0 -0.00010163717361044548 -0.012372046741300022 0 -5.9661463896099252e-05 -0.012226799376242345 0 3.381310058073164e-05 -0.012317899567577537 0 -0.0087283838786555226 -0.012074848978461065 0 -0.008398731404655092 -0.011938071374667805 0 -0.0087540863385107363 -0.012504492836330731 0 -0.0087174025289749688 -0.012091255574126688 0 -0.0090874609625080788 -0.01266938112739846 0 -0.0090572459335988599 -0.012228296381176963 0 -0.0091130886858810742 -0.012739941561542676 0 -0.008742840340727252 -0.012609467350178394 0 -0.0091130886858810742 -0.012739941561542676 0 -0.008742840340727252 -0.012609467350178394 0 -0.009053428206298092 -0.012944201390380406 0 -0.0090572459335988599 -0.012228296381176963 0 -0.0091130886858810742 -0.012739941561542676 0 -0.0094257228308253973 -0.012842147620053698 0 -0.0092097533539189438 -0.012459379049369881 0 -0.0087283838786555226 -0.012074848978461065 0 -0.0087540863385107363 -0.012504492836330731 0 -0.0091130886858810742 -0.012739941561542676 0 -0.0094257228308253973 -0.012842147620053698 0 -0.0092611596549301272 -0.012993154409459799 0 -0.0081042530445085952 -0.012079885794977114 0 -0.0083889797405176728 -0.012131939492232825 0 -0.0083168258664410664 -0.012520003105365248 0 -0.0083889797405176728 -0.012131939492232825 0 -0.0083168258664410664 -0.012520003105365248 0 -0.008742840340727252 -0.012609467350178394 0 -0.0083889797405176728 -0.012131939492232825 0 -0.0090572459335988599 -0.012228296381176963 0 -0.008742840340727252 -0.012609467350178394 0 -0.008742840340727252 -0.012609467350178394 0 -0.0086293847442800598 -0.01293496707969675 0 -0.009053428206298092 -0.012944201390380406 0 -0.0083168258664410664 -0.012520003105365248 0 -0.0086293847442800598 -0.01293496707969675 0 -0.0082680801129413305 -0.012839852752636445 0 -0.0083168258664410664 -0.012520003105365248 0 -0.008742840340727252 -0.012609467350178394 0 -0.0086293847442800598 -0.01293496707969675 0 -0.0086293847442800598 -0.01293496707969675 0 -0.0082680801129413305 -0.012839852752636445 0 -0.0082598434524188049 -0.013314298293841866 0 -0.0086293847442800598 -0.01293496707969675 0 -0.0090625171980947532 -0.013162376181009532 0 -0.009053428206298092 -0.012944201390380406 0 -0.0088610572209425406 -0.013376542019289934 0 -0.0090625171980947532 -0.013162376181009532 0 -0.0093870463431630392 -0.013393016961162 0 -0.0088610572209425406 -0.013376542019289934 0 -0.0093870463431630392 -0.013393016961162 0 -0.0095524675540970376 -0.013818131373117057 0 -0.0086293847442800598 -0.01293496707969675 0 -0.0088610572209425406 -0.013376542019289934 0 -0.0090625171980947532 -0.013162376181009532 0 -0.0086293847442800598 -0.01293496707969675 0 -0.0088610572209425406 -0.013376542019289934 0 -0.0082598434524188049 -0.013314298293841866 0 -0.0093646961844383435 -0.013186322419903831 0 -0.0094257228308253973 -0.012842147620053698 0 -0.0093376999350941823 -0.0131532441886633 0 -0.0094257228308253973 -0.012842147620053698 0 -0.0093376999350941823 -0.0131532441886633 0 -0.0092611596549301272 -0.012993154409459799 0 -0.0093376999350941823 -0.0131532441886633 0 -0.0092611596549301272 -0.012993154409459799 0 -0.009295050495519739 -0.013212361642900728 0 -0.0091130886858810742 -0.012739941561542676 0 -0.0092611596549301272 -0.012993154409459799 0 -0.009053428206298092 -0.012944201390380406 0 -0.0090625171980947532 -0.013162376181009532 0 -0.009053428206298092 -0.012944201390380406 0 -0.009295050495519739 -0.013212361642900728 0 -0.0092611596549301272 -0.012993154409459799 0 -0.009053428206298092 -0.012944201390380406 0 -0.009295050495519739 -0.013212361642900728 0 -0.009295050495519739 -0.013212361642900728 0 -0.0093870463431630392 -0.013393016961162 0 -0.0093257368214009172 -0.013308099865086355 0 -0.0090625171980947532 -0.013162376181009532 0 -0.009295050495519739 -0.013212361642900728 0 -0.0093870463431630392 -0.013393016961162 0 -0.0093870463431630392 -0.013393016961162 0 -0.0093257368214009172 -0.013308099865086355 0 -0.0093143727376891524 -0.013370545284721225 0 -0.0093257368214009172 -0.013308099865086355 0 -0.0093308457887216201 -0.013352057724373707 0 -0.0093143727376891524 -0.013370545284721225 0 -0.0093376999350941823 -0.0131532441886633 0 -0.009295050495519739 -0.013212361642900728 0 -0.0093257368214009172 -0.013308099865086355 0 -0.0093376999350941823 -0.0131532441886633 0 -0.0093257368214009172 -0.013308099865086355 0 -0.0093504933486211108 -0.013290520455140854 0 -0.0093646961844383435 -0.013186322419903831 0 -0.0093376999350941823 -0.0131532441886633 0 -0.0093504933486211108 -0.013290520455140854 0 -0.0093257368214009172 -0.013308099865086355 0 -0.0093504933486211108 -0.013290520455140854 0 -0.0093308457887216201 -0.013352057724373707 0 -0.0093504933486211108 -0.013290520455140854 0 -0.0093506621729554113 -0.01336817327755405 0 -0.0093308457887216201 -0.013352057724373707 0 -0.0093506621729554113 -0.01336817327755405 0 -0.0093308457887216201 -0.013352057724373707 0 -0.0093236605637811148 -0.01341320991804707 0 -0.0093506621729554113 -0.01336817327755405 0 -0.0093236605637811148 -0.01341320991804707 0 -0.009358832374223228 -0.013430257894077842 0 -0.0093236605637811148 -0.01341320991804707 0 -0.0093035133100552933 -0.013416844518625086 0 -0.0093143727376891524 -0.013370545284721225 0 -0.0093308457887216201 -0.013352057724373707 0 -0.0093236605637811148 -0.01341320991804707 0 -0.0093143727376891524 -0.013370545284721225 0 -0.0094184122622930182 -0.01317725009206247 0 -0.0086178670593129673 -0.014685035016538757 0 -0.0093870463431630392 -0.013393016961162 0 -0.0095524675540970376 -0.013818131373117057 0 -0.0098157702274627723 -0.014023102442157992 0 -0.0093870463431630392 -0.013393016961162 0 -0.0093143727376891524 -0.013370545284721225 0 -0.0092895686062712205 -0.01339871194221318 0 -0.0093958781200411332 -0.014376360851168083 0 -0.0086178670593129673 -0.014685035016538757 0 -0.0093035133100552933 -0.013416844518625086 0 -0.0093143727376891524 -0.013370545284721225 0 -0.0092895686062712205 -0.01339871194221318 0 -0.0095524675540970376 -0.013818131373117057 0 -0.010343965573245852 -0.014347158164511375 0 -0.010345584103406191 -0.015392688751918579 0 -0.010343965573245852 -0.014347158164511375 0 -0.010345584103406191 -0.015392688751918579 0 -0.010735386483782248 -0.015784294130505534 0 -0.0061163838035957581 -0.015865495597666476 0 -0.0075536527604948278 -0.017171876765992029 0 -0.0064452884062048636 -0.018293568954999808 0 -0.0086178670593129673 -0.014685035016538757 0 -0.0086328138830316543 -0.016399845453188129 0 -0.0092898426753057501 -0.013498140731100677 0 -0.0093230247278899715 -0.013604521086412988 0 -0.0093388851284985155 -0.013509157690039868 0 -0.0083117845131697211 -0.015239567867523073 0 -0.0055885029676321016 -0.020360077574675072 0 -0.0093236605637811148 -0.01341320991804707 0 -0.0092898426753057501 -0.013498140731100677 0 -0.0093388851284985155 -0.013509157690039868 0 -0.0093035133100552933 -0.013416844518625086 0 -0.0092895686062712205 -0.01339871194221318 0 -0.0092898426753057501 -0.013498140731100677 0 -0.0086178670593129673 -0.014685035016538757 0 -0.0083117845131697211 -0.015239567867523073 0 -0.0093236605637811148 -0.01341320991804707 0 -0.0093035133100552933 -0.013416844518625086 0 -0.0092898426753057501 -0.013498140731100677 0 -0.0095372112271131793 -0.014664430984697252 0 -0.0092149904371395149 -0.014043888467503656 0 -0.0088610572209425406 -0.013376542019289934 0 -0.0086653043498029145 -0.014044227753210316 0 -0.0082598434524188049 -0.013314298293841866 0 -0.010336213920820441 -0.015282247011413166 0 -0.010187859474953796 -0.015454246648346199 0 -0.010177698946809135 -0.014778113319686224 0 -0.0088610572209425406 -0.013376542019289934 0 -0.0095524675540970376 -0.013818131373117057 0 -0.0086653043498029145 -0.014044227753210316 0 -0.010345584103406191 -0.015392688751918579 0 -0.010336213920820441 -0.015282247011413166 0 -0.010294964076560675 -0.015557282873337415 0 -0.0095524675540970376 -0.013818131373117057 0 -0.010345584103406191 -0.015392688751918579 0 -0.0086653043498029145 -0.014044227753210316 0 -0.010294901741039138 -0.015343356212085879 0 -0.0095372112271131793 -0.014664430984697252 0 -0.010336213920820441 -0.015282247011413166 0 -0.010294964076560675 -0.015557282873337415 0 -0.010187859474953796 -0.015454246648346199 0 -0.010187859474953796 -0.015454246648346199 0 -0.01002840559386909 -0.015853635912332457 0 -0.010007189563344053 -0.015463735826479781 0 -0.010294964076560675 -0.015557282873337415 0 -0.01002840559386909 -0.015853635912332457 0 -0.010299609290028476 -0.01600059706344116 0 -0.010294964076560675 -0.015557282873337415 0 -0.010187859474953796 -0.015454246648346199 0 -0.01002840559386909 -0.015853635912332457 0 -0.010294964076560675 -0.015557282873337415 0 -0.010299609290028476 -0.01600059706344116 0 -0.010415616541292975 -0.015773703056523918 0 -0.010345584103406191 -0.015392688751918579 0 -0.010294964076560675 -0.015557282873337415 0 -0.010415616541292975 -0.015773703056523918 0 -0.010299609290028476 -0.01600059706344116 0 -0.010415616541292975 -0.015773703056523918 0 -0.010547704176888013 -0.016087259035014605 0 -0.010299609290028476 -0.01600059706344116 0 -0.010390188691050567 -0.01641855951678238 0 -0.010039457805373334 -0.016377006728802743 0 -0.010299609290028476 -0.01600059706344116 0 -0.010390188691050567 -0.01641855951678238 0 -0.010547704176888013 -0.016087259035014605 0 -0.01002840559386909 -0.015853635912332457 0 -0.010039457805373334 -0.016377006728802743 0 -0.009746201773294081 -0.01633694788914886 0 -0.01002840559386909 -0.015853635912332457 0 -0.010299609290028476 -0.01600059706344116 0 -0.010039457805373334 -0.016377006728802743 0 -0.0074461931861640254 -0.018666623915307465 0 -0.0064452884062048636 -0.018293568954999808 0 -0.0067936089584947207 -0.020724926476777959 0 -0.0068232545087382303 -0.02239378214592367 0 -0.0055885029676321016 -0.020360077574675072 0 -0.0074461931861640254 -0.018666623915307465 0 -0.0067936089584947207 -0.020724926476777959 0 -0.0089920916616062392 -0.018476766771715801 0 -0.0075536527604948278 -0.017171876765992029 0 -0.0074461931861640254 -0.018666623915307465 0 -0.0089920916616062392 -0.018476766771715801 0 -0.0075536527604948278 -0.017171876765992029 0 -0.0074461931861640254 -0.018666623915307465 0 -0.0064452884062048636 -0.018293568954999808 0 -0.0086328138830316543 -0.016399845453188129 0 -0.0068232545087382303 -0.02239378214592367 0 -0.010735386483782248 -0.015784294130505534 0 -0.010547704176888013 -0.016087259035014605 0 -0.010858500364329204 -0.016300529093217834 0 -0.010345584103406191 -0.015392688751918579 0 -0.010735386483782248 -0.015784294130505534 0 -0.010415616541292975 -0.015773703056523918 0 -0.010735386483782248 -0.015784294130505534 0 -0.010415616541292975 -0.015773703056523918 0 -0.010547704176888013 -0.016087259035014605 0 -0.010390188691050567 -0.01641855951678238 0 -0.010547704176888013 -0.016087259035014605 0 -0.010858500364329204 -0.016300529093217834 0 -0.0023143797578964766 -0.027312568179566232 0 -0.0027269832843157026 -0.027329520379343181 0 -0.0027274318719307613 -0.026842614866964546 0 -0.0023143797578964766 -0.027312568179566232 0 -0.0027269832843157026 -0.027329520379343181 0 -0.0025257580565978305 -0.027563827229865581 0 -0.0027269832843157026 -0.027329520379343181 0 -0.0027274318719307613 -0.026842614866964546 0 -0.002995749564997853 -0.027147363727086933 0 -0.0027269832843157026 -0.027329520379343181 0 -0.0029732553841958359 -0.027468214479329418 0 -0.0028125220676969184 -0.027667831047653881 0 -0.0027269832843157026 -0.027329520379343181 0 -0.002995749564997853 -0.027147363727086933 0 -0.0029732553841958359 -0.027468214479329418 0 -0.0055885029676321016 -0.020360077574675072 0 -0.0034148801115398445 -0.025200568304535431 0 -0.0017787839937246986 -0.021324168404839906 0 -0.0034135021787067574 -0.020803292338406207 0 -0.0035425516685457961 -0.022919048735097092 0 -0.00017140248105118732 -0.024066053109873718 0 -0.0012349430433907889 -0.024278865524282885 0 0.00018663988439259987 -0.022346151480431564 0 -0.0034135021787067574 -0.020803292338406207 0 -0.0047644778926852049 -0.02188823890246732 0 -0.0042065970664525729 -0.019251630649614774 0 -0.0034135021787067574 -0.020803292338406207 0 -0.0047644778926852049 -0.02188823890246732 0 -0.0035425516685457961 -0.022919048735097092 0 -0.0034148801115398445 -0.025200568304535431 0 -0.0026941368736152936 -0.025741638467433804 0 -0.0025770885175994077 -0.023435997987482006 0 -0.0026941368736152936 -0.025741638467433804 0 -0.0047644778926852049 -0.02188823890246732 0 -0.0035425516685457961 -0.022919048735097092 0 -0.0053021035738859473 -0.024514997676243499 0 -0.002995749564997853 -0.027147363727086933 0 -0.0029732553841958359 -0.027468214479329418 0 -0.0032574028302523798 -0.027447396692551553 0 -0.00056196992088289213 -0.025715230280062874 0 -0.0012099506196840105 -0.025837578366958353 0 -0.0015153750606660373 -0.025325039797473012 0 -0.00056196992088289213 -0.025715230280062874 0 -0.0015153750606660373 -0.025325039797473012 0 -0.0012349430433907889 -0.024278865524282885 0 -0.0015153750606660373 -0.025325039797473012 0 -0.0023086136587328245 -0.024572300179939072 0 -0.0017515209475550604 -0.026569260392068899 0 -0.00017140248105118732 -0.024066053109873718 0 -0.00056196992088289213 -0.025715230280062874 0 -0.0012349430433907889 -0.024278865524282885 0 -0.0012099506196840105 -0.025837578366958353 0 -0.0015153750606660373 -0.025325039797473012 0 -0.0017515209475550604 -0.026569260392068899 0 -0.0015153750606660373 -0.025325039797473012 0 -0.0023086136587328245 -0.024572300179939072 0 -0.0012349430433907889 -0.024278865524282885 0 -0.0023112134194063988 -0.024679517133689148 0 -0.0018177011445113936 -0.026557057003566 0 -0.0025964413922151364 -0.025758465999984773 0 -0.0023086136587328245 -0.024572300179939072 0 -0.0019736767643923686 -0.026596127266856576 0 -0.0030141997631966517 -0.025915457227639417 0 -0.0025964413922151364 -0.025758465999984773 0 -0.0031149658206963333 -0.024971394784384482 0 -0.0025964413922151364 -0.025758465999984773 0 -0.0031149658206963333 -0.024971394784384482 0 -0.0023086136587328245 -0.024572300179939072 0 -0.0031149658206963333 -0.024971394784384482 0 -0.0020470634613738536 -0.023593918457560665 0 -0.0041485415286240503 -0.024794928230065863 0 -0.0031149658206963333 -0.024971394784384482 0 -0.0023086136587328245 -0.024572300179939072 0 -0.0020470634613738536 -0.023593918457560665 0 0.0019011228074955343 -0.020332604622823339 0 0.0025028114148629046 -0.024816811307551284 0 -0.0020470634613738536 -0.023593918457560665 0 -0.0012349430433907889 -0.024278865524282885 0 0.00018663988439259987 -0.022346151480431564 0 -0.0023086136587328245 -0.024572300179939072 0 -0.0020470634613738536 -0.023593918457560665 0 -0.0012349430433907889 -0.024278865524282885 0 0.0049735219194987461 -0.017601286494661826 0 0.0044786870304568535 -0.018312022487594882 0 0.003695326483462295 -0.018141046916573825 0 0.0019011228074955343 -0.020332604622823339 0 -0.0015270324188009191 -0.017687451119424703 0 0.0049735219194987461 -0.017601286494661826 0 0.0053979574341072702 -0.018412876115752121 0 0.0058699552857917987 -0.017913299251100731 0 0.0049735219194987461 -0.017601286494661826 0 0.0044786870304568535 -0.018312022487594882 0 0.0053979574341072702 -0.018412876115752121 0 0.0046347778438347049 -0.019149571512857393 0 0.0053979574341072702 -0.018412876115752121 0 0.0058953862878164094 -0.019126183357682066 0 0.0030317211103089528 -0.0156975917559979 0 -0.0017664094296088112 -0.015575456415700895 0 0.0046347778438347049 -0.019149571512857393 0 0.0044786870304568535 -0.018312022487594882 0 0.0053979574341072702 -0.018412876115752121 0 0.0046347778438347049 -0.019149571512857393 0 0.0044786870304568535 -0.018312022487594882 0 0.0036684826587208958 -0.01826083311534353 0 2.4630446078199538e-05 -0.012079630542097035 0 9.1551175679557156e-05 -0.012061616948409839 0 6.130472276011873e-05 -0.012038261353762191 0 -0.0094952876211004296 -0.013272684395113744 0 -0.0094365552601148924 -0.01333147406950729 0 -0.0093977474392284883 -0.013489873883322604 0 -0.0051079666091518655 -0.012096468871828673 0 -0.0017664094296088112 -0.015575456415700895 0 0.00017336743732279431 -0.012048826508995331 0 9.1551175679557156e-05 -0.012061616948409839 0 6.130472276011873e-05 -0.012038261353762191 0 -0.0094365552601148924 -0.01333147406950729 0 -0.009410022972727812 -0.013386436881974677 0 -0.0093977474392284883 -0.013489873883322604 0 -0.0094365552601148924 -0.01333147406950729 0 -0.009410022972727812 -0.013386436881974677 0 -0.0093811977855406577 -0.01335411826781702 0 -0.009410022972727812 -0.013386436881974677 0 -0.0093811977855406577 -0.01335411826781702 0 -0.0093826295941453596 -0.013395539786350908 0 -0.0093506621729554113 -0.01336817327755405 0 -0.0093826295941453596 -0.013395539786350908 0 -0.009358832374223228 -0.013430257894077842 0 -0.0093504933486211108 -0.013290520455140854 0 -0.0093506621729554113 -0.01336817327755405 0 -0.0093811977855406577 -0.01335411826781702 0 -0.0093506621729554113 -0.01336817327755405 0 -0.0093811977855406577 -0.01335411826781702 0 -0.0093826295941453596 -0.013395539786350908 0 -0.009410022972727812 -0.013386436881974677 0 -0.009388944222084708 -0.013434805627033442 0 -0.0093977474392284883 -0.013489873883322604 0 -0.0093826295941453596 -0.013395539786350908 0 -0.009358832374223228 -0.013430257894077842 0 -0.009388944222084708 -0.013434805627033442 0 -0.009410022972727812 -0.013386436881974677 0 -0.0093826295941453596 -0.013395539786350908 0 -0.009388944222084708 -0.013434805627033442 0 -0.009358832374223228 -0.013430257894077842 0 -0.0093721609416369638 -0.013454863132159286 0 -0.009388944222084708 -0.013434805627033442 0 -0.0093721609416369638 -0.013454863132159286 0 -0.009388944222084708 -0.013434805627033442 0 -0.0093839439489412108 -0.01347241230893538 0 -0.0017787839937246986 -0.021324168404839906 0 -0.0034135021787067574 -0.020803292338406207 0 -0.0039323437084123102 -0.019110283346908934 0 -0.0093839439489412108 -0.01347241230893538 0 -0.0093388851284985155 -0.013509157690039868 0 -0.0093999787108455489 -0.013496703533683487 0 -0.0055885029676321016 -0.020360077574675072 0 -0.0040539456604854144 -0.015823657936299553 0 -0.0093721609416369638 -0.013454863132159286 0 -0.0093839439489412108 -0.01347241230893538 0 -0.0093388851284985155 -0.013509157690039868 0 -0.0093230247278899715 -0.013604521086412988 0 -0.0093388851284985155 -0.013509157690039868 0 -0.0093999787108455489 -0.013496703533683487 0 -0.0093236605637811148 -0.01341320991804707 0 -0.009358832374223228 -0.013430257894077842 0 -0.0093388851284985155 -0.013509157690039868 0 -0.009358832374223228 -0.013430257894077842 0 -0.0093721609416369638 -0.013454863132159286 0 -0.0093388851284985155 -0.013509157690039868 0 -0.0034135021787067574 -0.020803292338406207 0 -0.0042065970664525729 -0.019251630649614774 0 -0.0039323437084123102 -0.019110283346908934 0 0.0044786870304568535 -0.018312022487594882 0 0.0036684826587208958 -0.01826083311534353 0 0.003695326483462295 -0.018141046916573825 0 -0.0025770885175994077 -0.023435997987482006 0 -0.0015270324188009191 -0.017687451119424703 0 -0.009388944222084708 -0.013434805627033442 0 -0.0093839439489412108 -0.01347241230893538 0 -0.0093977474392284883 -0.013489873883322604 0 -0.0017664094296088112 -0.015575456415700895 0 -0.0040539456604854144 -0.015823657936299553 0 -0.007330111804497534 -0.015832575914718802 0 -0.0040539456604854144 -0.015823657936299553 0 -0.0093839439489412108 -0.01347241230893538 0 -0.0093977474392284883 -0.013489873883322604 0 -0.0093911468046480699 -0.013495321793794731 0 -0.0017664094296088112 -0.015575456415700895 0 -0.0015270324188009191 -0.017687451119424703 0 -0.00093367496032264487 -0.015966447174871105 0 -0.0012306763091886636 -0.017340126578611795 0 -0.00013372511172404165 -0.016777457018457821 0 -0.0015270324188009191 -0.017687451119424703 0 -0.0040539456604854144 -0.015823657936299553 0 -0.0067519760096647861 -0.01350357714243368 0 -0.0064452068456591792 -0.014440756635467258 0 -0.0071225525382516992 -0.014399168178330504 0 -0.0071225525382516992 -0.014399168178330504 0 -0.0079427089498285385 -0.014081820762533899 0 -0.0077301781738043423 -0.015157819139981895 0 -0.0067519760096647861 -0.01350357714243368 0 -0.0071225525382516992 -0.014399168178330504 0 -0.0079427089498285385 -0.014081820762533899 0 -0.0064452068456591792 -0.014440756635467258 0 -0.0071225525382516992 -0.014399168178330504 0 -0.0066877690471251056 -0.015198055723692429 0 -0.0079425817923359128 -0.013995730020126664 0 -0.0080555107333524188 -0.013040219390480615 0 -0.0079427089498285385 -0.014081820762533899 0 -0.0074584436186910423 -0.01252673561364887 0 -0.0082507628736723949 -0.012695926004908277 0 -0.0079427089498285385 -0.014081820762533899 0 -0.0078694140947614174 -0.013348510369708386 0 -0.0082960600832801164 -0.013949251051865608 0 -0.0067519760096647861 -0.01350357714243368 0 -0.0079427089498285385 -0.014081820762533899 0 -0.0074584436186910423 -0.01252673561364887 0 -0.0074584436186910423 -0.01252673561364887 0 -0.0074634907416568381 -0.011658789459387371 0 -0.0082731296777463336 -0.011680896617115235 0 -0.0080555107333524188 -0.013040219390480615 0 -0.0081000600502389216 -0.012234477404054348 0 -0.0074584436186910423 -0.01252673561364887 0 -0.0082507628736723949 -0.012695926004908277 0 -0.0082731296777463336 -0.011680896617115235 0 -0.0078694140947614174 -0.013348510369708386 0 -0.007925368535514515 -0.012768396296089413 0 -0.0083238924921383382 -0.01331662692829199 0 -0.007925368535514515 -0.012768396296089413 0 -0.0083128578473324524 -0.012755972961101734 0 -0.0083238924921383382 -0.01331662692829199 0 -0.0083238924921383382 -0.01331662692829199 0 -0.0082960600832801164 -0.013949251051865608 0 -0.0086436019125801736 -0.014250817038851506 0 -0.0082960600832801164 -0.013949251051865608 0 -0.0086436019125801736 -0.014250817038851506 0 -0.0088113846725840165 -0.015298425558722377 0 -0.0079427089498285385 -0.014081820762533899 0 -0.0082960600832801164 -0.013949251051865608 0 -0.0088113846725840165 -0.015298425558722377 0 -0.0078694140947614174 -0.013348510369708386 0 -0.0083238924921383382 -0.01331662692829199 0 -0.0082960600832801164 -0.013949251051865608 0 -0.0086436019125801736 -0.014250817038851506 0 -0.0091837225794232664 -0.014506416728239447 0 -0.0088533678509515479 -0.014969258216429481 0 -0.0091837225794232664 -0.014506416728239447 0 -0.0097567634578787817 -0.014034855326431653 0 -0.0097121098932230789 -0.015023477270863835 0 -0.008655975689131401 -0.013113478245952563 0 -0.0089591042645580272 -0.013470276424007922 0 -0.0091837225794232664 -0.014506416728239447 0 -0.0086418635234782604 -0.013086199354567046 0 -0.0097567634578787817 -0.014034855326431653 0 -0.0083238924921383382 -0.01331662692829199 0 -0.0086436019125801736 -0.014250817038851506 0 -0.0086418635234782604 -0.013086199354567046 0 -0.0086436019125801736 -0.014250817038851506 0 -0.0091837225794232664 -0.014506416728239447 0 -0.0086418635234782604 -0.013086199354567046 0 -0.0083128578473324524 -0.012755972961101734 0 -0.0083238924921383382 -0.01331662692829199 0 -0.0086418635234782604 -0.013086199354567046 0 -0.0083128578473324524 -0.012755972961101734 0 -0.008318318107662032 -0.012656081183544393 0 -0.0086418635234782604 -0.013086199354567046 0 -0.0080182575892329012 -0.012327009546253801 0 -0.008318318107662032 -0.012656081183544393 0 -0.008202313124511364 -0.012718182914425049 0 -0.0086418635234782604 -0.013086199354567046 0 -0.008202313124511364 -0.012718182914425049 0 -0.0081902175331774532 -0.012881396399387266 0 -0.008318318107662032 -0.012656081183544393 0 -0.0086418635234782604 -0.013086199354567046 0 -0.008202313124511364 -0.012718182914425049 0 -0.0080182575892329012 -0.012327009546253801 0 -0.0081042530445085952 -0.012079885794977114 0 -0.008202313124511364 -0.012718182914425049 0 -0.0081042530445085952 -0.012079885794977114 0 -0.0083168258664410664 -0.012520003105365248 0 -0.008202313124511364 -0.012718182914425049 0 -0.0083168258664410664 -0.012520003105365248 0 -0.008202313124511364 -0.012718182914425049 0 -0.0082680801129413305 -0.012839852752636445 0 -0.0082680801129413305 -0.012839852752636445 0 -0.0081902175331774532 -0.012881396399387266 0 -0.0082598434524188049 -0.013314298293841866 0 -0.008202313124511364 -0.012718182914425049 0 -0.0082680801129413305 -0.012839852752636445 0 -0.0081902175331774532 -0.012881396399387266 0 -0.0097567634578787817 -0.014034855326431653 0 -0.010177698946809135 -0.014778113319686224 0 -0.0097121098932230789 -0.015023477270863835 0 -0.0089591042645580272 -0.013470276424007922 0 -0.0092149904371395149 -0.014043888467503656 0 -0.010187859474953796 -0.015454246648346199 0 -0.010177698946809135 -0.014778113319686224 0 -0.010007189563344053 -0.015463735826479781 0 -0.010177698946809135 -0.014778113319686224 0 -0.0097121098932230789 -0.015023477270863835 0 -0.010007189563344053 -0.015463735826479781 0 -0.0097121098932230789 -0.015023477270863835 0 -0.010007189563344053 -0.015463735826479781 0 -0.0097167629218438377 -0.015664299230442377 0 -0.0098996047920011463 -0.016013119910870417 0 -0.010024332196104237 -0.014888935131022041 0 -0.01002840559386909 -0.015853635912332457 0 -0.010007189563344053 -0.015463735826479781 0 -0.0095869138671364866 -0.016009997473762531 0 -0.01002840559386909 -0.015853635912332457 0 -0.0095869138671364866 -0.016009997473762531 0 -0.009746201773294081 -0.01633694788914886 0 -0.0095869138671364866 -0.016009997473762531 0 -0.009746201773294081 -0.01633694788914886 0 -0.0093292251930631731 -0.016670863938017828 0 -0.010024332196104237 -0.014888935131022041 0 -0.010559973904023986 -0.022868460074479798 0 -0.010143940509067207 -0.016127728771022715 0 -0.0097943900448302264 -0.016362368635335824 0 -0.010053417044783446 -0.016726592789078062 0 -0.0089239517682284455 -0.014911478468557634 0 -0.010559973904023986 -0.022868460074479798 0 -0.0097943900448302264 -0.016362368635335824 0 -0.0097848422866320291 -0.016965462137843931 0 -0.01044020609737473 -0.01708805668979909 0 -0.010007189563344053 -0.015463735826479781 0 -0.010143940509067207 -0.016127728771022715 0 -0.0097167629218438377 -0.015664299230442377 0 -0.010143940509067207 -0.016127728771022715 0 -0.0097167629218438377 -0.015664299230442377 0 -0.0097943900448302264 -0.016362368635335824 0 -0.0097167629218438377 -0.015664299230442377 0 -0.009433645951950639 -0.01595135407305762 0 -0.0097943900448302264 -0.016362368635335824 0 -0.0097943900448302264 -0.016362368635335824 0 -0.0092815717551427285 -0.016749190303167405 0 -0.0097848422866320291 -0.016965462137843931 0 -0.009433645951950639 -0.01595135407305762 0 -0.0097943900448302264 -0.016362368635335824 0 -0.0092815717551427285 -0.016749190303167405 0 -0.0092815717551427285 -0.016749190303167405 0 -0.0089407494235716756 -0.015910582065209303 0 -0.0086525182464412698 -0.016545074482380458 0 -0.009433645951950639 -0.01595135407305762 0 -0.0092815717551427285 -0.016749190303167405 0 -0.0089407494235716756 -0.015910582065209303 0 -0.009433645951950639 -0.01595135407305762 0 -0.0089407494235716756 -0.015910582065209303 0 -0.0092402985362211813 -0.015358961418720684 0 -0.0089407494235716756 -0.015910582065209303 0 -0.0092402985362211813 -0.015358961418720684 0 -0.0087741699176268513 -0.015405321960358034 0 -0.0092402985362211813 -0.015358961418720684 0 -0.0088533678509515479 -0.014969258216429481 0 -0.0087741699176268513 -0.015405321960358034 0 -0.0097121098932230789 -0.015023477270863835 0 -0.0097167629218438377 -0.015664299230442377 0 -0.0092402985362211813 -0.015358961418720684 0 -0.0097167629218438377 -0.015664299230442377 0 -0.009433645951950639 -0.01595135407305762 0 -0.0092402985362211813 -0.015358961418720684 0 -0.0091837225794232664 -0.014506416728239447 0 -0.0097121098932230789 -0.015023477270863835 0 -0.0092402985362211813 -0.015358961418720684 0 -0.0091837225794232664 -0.014506416728239447 0 -0.0092402985362211813 -0.015358961418720684 0 -0.0088533678509515479 -0.014969258216429481 0 -0.0086436019125801736 -0.014250817038851506 0 -0.0088533678509515479 -0.014969258216429481 0 -0.0088113846725840165 -0.015298425558722377 0 -0.008945062138790939 -0.015514484808432606 0 -0.009475592105429257 -0.016775547346034529 0 -0.0088113846725840165 -0.015298425558722377 0 -0.0087741699176268513 -0.015405321960358034 0 -0.0082988503237958026 -0.015784239260401529 0 -0.0088113846725840165 -0.015298425558722377 0 -0.01064685597209483 -0.017631769796381702 0 -0.0082456202855382636 -0.016378237730112884 0 -0.0088533678509515479 -0.014969258216429481 0 -0.0088113846725840165 -0.015298425558722377 0 -0.0087741699176268513 -0.015405321960358034 0 -0.0089407494235716756 -0.015910582065209303 0 -0.0086525182464412698 -0.016545074482380458 0 -0.0082988503237958026 -0.015784239260401529 0 -0.0089407494235716756 -0.015910582065209303 0 -0.0087741699176268513 -0.015405321960358034 0 -0.0082988503237958026 -0.015784239260401529 0 -0.0086525182464412698 -0.016545074482380458 0 -0.008048286568252485 -0.016758472927112734 0 -0.0082988503237958026 -0.015784239260401529 0 -0.010259239333873099 -0.019239770207614439 0 -0.009475592105429257 -0.016775547346034529 0 -0.012461041274443701 -0.021109037698362591 0 -0.01064685597209483 -0.017631769796381702 0 -0.010093748213310088 -0.019868944420943432 0 -0.012461041274443701 -0.021109037698362591 0 -0.010093748213310088 -0.019868944420943432 0 -0.010297822870981809 -0.022011816656337377 0 -0.01064685597209483 -0.017631769796381702 0 -0.0082856827707284836 -0.018755983550065428 0 -0.0082456202855382636 -0.016378237730112884 0 -0.01064685597209483 -0.017631769796381702 0 -0.0082856827707284836 -0.018755983550065428 0 -0.010093748213310088 -0.019868944420943432 0 -0.0082856827707284836 -0.018755983550065428 0 -0.010093748213310088 -0.019868944420943432 0 -0.0088117603439732458 -0.020423896294878861 0 -0.010093748213310088 -0.019868944420943432 0 -0.0088117603439732458 -0.020423896294878861 0 -0.010297822870981809 -0.022011816656337377 0 -0.0082856827707284836 -0.018755983550065428 0 -0.0088117603439732458 -0.020423896294878861 0 -0.0067191176891881702 -0.021131623711853113 0 -0.0062236933321868394 -0.018865956110827368 0 -0.0082856827707284836 -0.018755983550065428 0 -0.0067191176891881702 -0.021131623711853113 0 -0.0082856827707284836 -0.018755983550065428 0 -0.0069556957041436128 -0.01718148240078211 0 -0.0082456202855382636 -0.016378237730112884 0 -0.0062236933321868394 -0.018865956110827368 0 -0.0082856827707284836 -0.018755983550065428 0 -0.0069556957041436128 -0.01718148240078211 0 -0.0061857624434921207 -0.016254310056569493 0 -0.0069556957041436128 -0.01718148240078211 0 -0.0072081802106901951 -0.015995272778553012 0 -0.0061857624434921207 -0.016254310056569493 0 -0.0072081802106901951 -0.015995272778553012 0 -0.0066877690471251056 -0.015198055723692429 0 -0.0069556957041436128 -0.01718148240078211 0 -0.0072081802106901951 -0.015995272778553012 0 -0.0082456202855382636 -0.016378237730112884 0 -0.0088113846725840165 -0.015298425558722377 0 -0.0082456202855382636 -0.016378237730112884 0 -0.0077301781738043423 -0.015157819139981895 0 -0.0072081802106901951 -0.015995272778553012 0 -0.0082456202855382636 -0.016378237730112884 0 -0.0077301781738043423 -0.015157819139981895 0 -0.0079427089498285385 -0.014081820762533899 0 -0.0088113846725840165 -0.015298425558722377 0 -0.0077301781738043423 -0.015157819139981895 0 -0.0071225525382516992 -0.014399168178330504 0 -0.0077301781738043423 -0.015157819139981895 0 -0.0066877690471251056 -0.015198055723692429 0 -0.0072081802106901951 -0.015995272778553012 0 -0.0077301781738043423 -0.015157819139981895 0 -0.0066877690471251056 -0.015198055723692429 0 -0.012964392909072501 -0.036270465862644492 0 -0.010738000042704391 -0.038074204283698801 0 -0.0022831381128730083 -0.036692668718970055 0 -0.0053051573827636537 -0.034488274240765573 0 -0.0073018256384987908 -0.03767581949401827 0 -0.0053051573827636537 -0.034488274240765573 0 -0.0076832419356722449 -0.034396995703306246 0 -0.0062557486449152421 -0.03218426361134781 0 -0.0022831381128730083 -0.036692668718970055 0 -0.0053051573827636537 -0.034488274240765573 0 -0.0037566418136319446 -0.033829795895274968 0 -0.0053051573827636537 -0.034488274240765573 0 -0.0076832419356722449 -0.034396995703306246 0 -0.0073018256384987908 -0.03767581949401827 0 -0.0094448855038417115 -0.035924886182175937 0 -0.0076832419356722449 -0.034396995703306246 0 -0.0073018256384987908 -0.03767581949401827 0 -0.0094448855038417115 -0.035924886182175937 0 -0.012434161540441916 -0.037886805354200422 0 -0.0073018256384987908 -0.03767581949401827 0 -0.0094448855038417115 -0.035924886182175937 0 -0.011356424430011135 -0.036252839370875749 0 -0.012434161540441916 -0.037886805354200422 0 -0.011356424430011135 -0.036252839370875749 0 -0.0098101750514355303 -0.033884161019622619 0 -0.011346556290373497 -0.033903473023144858 0 -0.0094448855038417115 -0.035924886182175937 0 -0.011356424430011135 -0.036252839370875749 0 -0.0098101750514355303 -0.033884161019622619 0 -0.0094448855038417115 -0.035924886182175937 0 -0.0098101750514355303 -0.033884161019622619 0 -0.0076832419356722449 -0.034396995703306246 0 -0.0098101750514355303 -0.033884161019622619 0 -0.0076832419356722449 -0.034396995703306246 0 -0.0081397275259404381 -0.03227633734012763 0 -0.0098101750514355303 -0.033884161019622619 0 -0.0081397275259404381 -0.03227633734012763 0 -0.0096278762995959839 -0.030914610090885523 0 -0.0081397275259404381 -0.03227633734012763 0 -0.0076247105315269256 -0.02986480979560047 0 -0.0062557486449152421 -0.03218426361134781 0 -0.0098101750514355303 -0.033884161019622619 0 -0.0096278762995959839 -0.030914610090885523 0 -0.011539933259360169 -0.032157378344488799 0 -0.0098101750514355303 -0.033884161019622619 0 -0.011539933259360169 -0.032157378344488799 0 -0.011346556290373497 -0.033903473023144858 0 -0.0096278762995959839 -0.030914610090885523 0 -0.0076247105315269256 -0.02986480979560047 0 -0.01001247735285269 -0.027563814659886936 0 -0.0096278762995959839 -0.030914610090885523 0 -0.011759469538647614 -0.029787196352588821 0 -0.011539933259360169 -0.032157378344488799 0 -0.0096278762995959839 -0.030914610090885523 0 -0.01001247735285269 -0.027563814659886936 0 -0.011759469538647614 -0.029787196352588821 0 -0.0081397275259404381 -0.03227633734012763 0 -0.0096278762995959839 -0.030914610090885523 0 -0.0076247105315269256 -0.02986480979560047 0 -0.0076247105315269256 -0.02986480979560047 0 -0.0056303101408639684 -0.030366349549851845 0 -0.0062557486449152421 -0.03218426361134781 0 -0.0076832419356722449 -0.034396995703306246 0 -0.0081397275259404381 -0.03227633734012763 0 -0.0062557486449152421 -0.03218426361134781 0 -0.0056303101408639684 -0.030366349549851845 0 -0.0062557486449152421 -0.03218426361134781 0 -0.0043729920845819231 -0.03200353623765885 0 -0.0053051573827636537 -0.034488274240765573 0 -0.0037566418136319446 -0.033829795895274968 0 -0.0043729920845819231 -0.03200353623765885 0 -0.0053051573827636537 -0.034488274240765573 0 -0.0062557486449152421 -0.03218426361134781 0 -0.0043729920845819231 -0.03200353623765885 0 -0.0030594645618011716 -0.032139041050811619 0 -0.0037566418136319446 -0.033829795895274968 0 -0.0043729920845819231 -0.03200353623765885 0 -0.0027156377826550162 -0.03139007420533689 0 -0.0043729920845819231 -0.03200353623765885 0 -0.0040448522153491637 -0.030096775357414098 0 -0.0056303101408639684 -0.030366349549851845 0 -0.0043729920845819231 -0.03200353623765885 0 -0.0040448522153491637 -0.030096775357414098 0 -0.003007210785669524 -0.028689870307178407 0 -0.0040448522153491637 -0.030096775357414098 0 -0.005697408871532003 -0.028047717384228139 0 -0.0056303101408639684 -0.030366349549851845 0 -0.0040448522153491637 -0.030096775357414098 0 -0.005697408871532003 -0.028047717384228139 0 -0.0076247105315269256 -0.02986480979560047 0 -0.0056303101408639684 -0.030366349549851845 0 -0.005697408871532003 -0.028047717384228139 0 -0.0055340749264629887 -0.027356323587403433 0 -0.0055027971739012296 -0.025139715805828338 0 -0.0076202859543850702 -0.024492363616727676 0 -0.0035568693164293118 -0.025895678056045261 0 -0.0055340749264629887 -0.027356323587403433 0 -0.0055027971739012296 -0.025139715805828338 0 -0.0035568693164293118 -0.025895678056045261 0 -0.0055027971739012296 -0.025139715805828338 0 -0.004663174825131608 -0.022386256255285081 0 -0.0055027971739012296 -0.025139715805828338 0 -0.004663174825131608 -0.022386256255285081 0 -0.0076202859543850702 -0.024492363616727676 0 -0.0050802369940035567 -0.02159319297144836 0 -0.010401927804718825 -0.022015334184509152 0 -0.004663174825131608 -0.022386256255285081 0 -0.010297822870981809 -0.022011816656337377 0 -0.0076202859543850702 -0.024492363616727676 0 -0.0088117603439732458 -0.020423896294878861 0 -0.0067191176891881702 -0.021131623711853113 0 -0.010297822870981809 -0.022011816656337377 0 -0.010297822870981809 -0.022011816656337377 0 -0.0076202859543850702 -0.024492363616727676 0 -0.011089841311508855 -0.024497250416319959 0 -0.0076247105315269256 -0.02986480979560047 0 -0.005697408871532003 -0.028047717384228139 0 -0.01001247735285269 -0.027563814659886936 0 -0.0047532428506307095 -0.02769554108686962 0 -0.009956161210117092 -0.027572512571887427 0 -0.0076202859543850702 -0.024492363616727676 0 -0.01001247735285269 -0.027563814659886936 0 -0.011089841311508855 -0.024497250416319959 0 -0.0055340749264629887 -0.027356323587403433 0 -0.0076202859543850702 -0.024492363616727676 0 -0.01001247735285269 -0.027563814659886936 0 -0.01001247735285269 -0.027563814659886936 0 -0.014108775102236995 -0.026853963681991257 0 -0.011759469538647614 -0.029787196352588821 0 -0.01001247735285269 -0.027563814659886936 0 -0.014108775102236995 -0.026853963681991257 0 -0.011089841311508855 -0.024497250416319959 0 -0.014108775102236995 -0.026853963681991257 0 -0.013131823825816024 -0.031102918584733637 0 -0.011759469538647614 -0.029787196352588821 0 -0.008048286568252485 -0.016758472927112734 0 -0.007926358444168306 -0.017919782220455975 0 -0.0084141363520491095 -0.01722724466345495 0 -0.012461041274443701 -0.021109037698362591 0 -0.014108775102236995 -0.026853963681991257 0 -0.011089841311508855 -0.024497250416319959 0 -0.010259239333873099 -0.019239770207614439 0 -0.011048782424817433 -0.021584310049147768 0 -0.012461041274443701 -0.021109037698362591 0 -0.010297822870981809 -0.022011816656337377 0 -0.011089841311508855 -0.024497250416319959 0 -0.0086525182464412698 -0.016545074482380458 0 -0.0084141363520491095 -0.01722724466345495 0 -0.0088065061309845986 -0.017195794820820866 0 -0.0086525182464412698 -0.016545074482380458 0 -0.008048286568252485 -0.016758472927112734 0 -0.0084141363520491095 -0.01722724466345495 0 -0.0084141363520491095 -0.01722724466345495 0 -0.0086095074585220421 -0.01781236237710836 0 -0.0088065061309845986 -0.017195794820820866 0 -0.007926358444168306 -0.017919782220455975 0 -0.0084141363520491095 -0.01722724466345495 0 -0.0086095074585220421 -0.01781236237710836 0 -0.007926358444168306 -0.017919782220455975 0 -0.0086095074585220421 -0.01781236237710836 0 -0.0083887537598021696 -0.018370279771764687 0 -0.0086095074585220421 -0.01781236237710836 0 -0.0083887537598021696 -0.018370279771764687 0 -0.0089916584772146303 -0.018425943926955304 0 -0.007926358444168306 -0.017919782220455975 0 -0.0083887537598021696 -0.018370279771764687 0 -0.0080028642411572939 -0.019310289149853204 0 -0.011619936215213587 -0.036576348225982026 0 -0.011840428387124929 -0.03670848985698482 0 -0.011318536816618485 -0.036487863556618406 0 -0.010543459181272414 -0.030355837293173094 0 -0.010227190645995204 -0.027113149006679937 0 -0.0083887537598021696 -0.018370279771764687 0 -0.0080028642411572939 -0.019310289149853204 0 -0.0089916584772146303 -0.018425943926955304 0 -0.014108775102236995 -0.026853963681991257 0 -0.013131823825816024 -0.031102918584733637 0 -0.015135931814896569 -0.03313412115902889 0 -0.011048782424817433 -0.021584310049147768 0 -0.010543459181272414 -0.030355837293173094 0 -0.013131823825816024 -0.031102918584733637 0 -0.011759469538647614 -0.029787196352588821 0 -0.011539933259360169 -0.032157378344488799 0 -0.013131823825816024 -0.031102918584733637 0 -0.011539933259360169 -0.032157378344488799 0 -0.012687203012405147 -0.03338557956724085 0 -0.011539933259360169 -0.032157378344488799 0 -0.012687203012405147 -0.03338557956724085 0 -0.011346556290373497 -0.033903473023144858 0 -0.013131823825816024 -0.031102918584733637 0 -0.012687203012405147 -0.03338557956724085 0 -0.015135931814896569 -0.03313412115902889 0 -0.011877619025547176 -0.036770547758197956 0 -0.012001755490439789 -0.037070717654098119 0 -0.011965117041129257 -0.037464664256213261 0 -0.010543459181272414 -0.030355837293173094 0 -0.010967171174543057 -0.033652863901988447 0 -0.011356424430011135 -0.036252839370875749 0 -0.011886029872931072 -0.036727135848604341 0 -0.011877619025547176 -0.036770547758197956 0 -0.011356424430011135 -0.036252839370875749 0 -0.011877619025547176 -0.036770547758197956 0 -0.012001755490439789 -0.037070717654098119 0 -0.011356424430011135 -0.036252839370875749 0 -0.012687203012405147 -0.03338557956724085 0 -0.011346556290373497 -0.033903473023144858 0 -0.011616679077165926 -0.036468835090585627 0 -0.010543459181272414 -0.030355837293173094 0 -0.011356424430011135 -0.036252839370875749 0 -0.012687203012405147 -0.03338557956724085 0 -0.015135931814896569 -0.03313412115902889 0 -0.011356424430011135 -0.036252839370875749 0 -0.012001755490439789 -0.037070717654098119 0 -0.012434161540441916 -0.037886805354200422 0 -0.011671065421416596 -0.036680396258688561 0 -0.01158242117699256 -0.036884087113845339 0 -0.011619936215213587 -0.036576348225982026 0 -0.011345900478733437 -0.036496739006953799 0 -0.011441008917680564 -0.036450798375193556 0 -0.011619936215213587 -0.036576348225982026 0 -0.011877619025547176 -0.036770547758197956 0 -0.011965117041129257 -0.037464664256213261 0 -0.011619936215213587 -0.036576348225982026 0 -0.011441008917680564 -0.036450798375193556 0 -0.0115332878273058 -0.03642620862058208 0 -0.011619936215213587 -0.036576348225982026 0 -0.011840428387124929 -0.03670848985698482 0 -0.011877619025547176 -0.036770547758197956 0 -0.011252555206181592 -0.036511640421770353 0 -0.011345900478733437 -0.036496739006953799 0 -0.011342697586904997 -0.036524140944526336 0 -0.011619936215213587 -0.036576348225982026 0 -0.011345900478733437 -0.036496739006953799 0 -0.011342697586904997 -0.036524140944526336 0 -0.011345900478733437 -0.036496739006953799 0 -0.01121434272566247 -0.03650451307431981 0 -0.011295138946536427 -0.036422964793013109 0 -0.011252555206181592 -0.036511640421770353 0 -0.011345900478733437 -0.036496739006953799 0 -0.01121434272566247 -0.03650451307431981 0 -0.011252555206181592 -0.036511640421770353 0 -0.01121434272566247 -0.03650451307431981 0 -0.011182652170842203 -0.036519606266130267 0 -0.01121434272566247 -0.03650451307431981 0 -0.011182652170842203 -0.036519606266130267 0 -0.011046305507874089 -0.036500993751703542 0 -0.011182652170842203 -0.036519606266130267 0 -0.011223039609056662 -0.036552603109079027 0 -0.011046305507874089 -0.036500993751703542 0 -0.011182652170842203 -0.036519606266130267 0 -0.011275633104002739 -0.036478029103609533 0 -0.011223039609056662 -0.036552603109079027 0 -0.011252555206181592 -0.036511640421770353 0 -0.011182652170842203 -0.036519606266130267 0 -0.011275633104002739 -0.036478029103609533 0 -0.011252555206181592 -0.036511640421770353 0 -0.011275633104002739 -0.036478029103609533 0 -0.011290307000002163 -0.036397254012613414 0 -0.011275633104002739 -0.036478029103609533 0 -0.011290307000002163 -0.036397254012613414 0 -0.011582387850312787 -0.036302140592322965 0 -0.011290307000002163 -0.036397254012613414 0 -0.011342697586904997 -0.036524140944526336 0 -0.011318536816618485 -0.036487863556618406 0 -0.011252555206181592 -0.036511640421770353 0 -0.011290307000002163 -0.036397254012613414 0 -0.011342697586904997 -0.036524140944526336 0 -0.011619936215213587 -0.036576348225982026 0 -0.011342697586904997 -0.036524140944526336 0 -0.011318536816618485 -0.036487863556618406 0 -0.0086095074585220421 -0.01781236237710836 0 -0.0089916584772146303 -0.018425943926955304 0 -0.009128029034097979 -0.01765634291907385 0 -0.0089916584772146303 -0.018425943926955304 0 -0.009128029034097979 -0.01765634291907385 0 -0.0096767575581909182 -0.017684981145477108 0 -0.010227190645995204 -0.027113149006679937 0 -0.010394908741633489 -0.027302621380332386 0 -0.0092815717551427285 -0.016749190303167405 0 -0.0086525182464412698 -0.016545074482380458 0 -0.0088065061309845986 -0.017195794820820866 0 -0.0092815717551427285 -0.016749190303167405 0 -0.009128029034097979 -0.01765634291907385 0 -0.0088065061309845986 -0.017195794820820866 0 -0.0092815717551427285 -0.016749190303167405 0 -0.009128029034097979 -0.01765634291907385 0 -0.0096767575581909182 -0.017684981145477108 0 -0.0086095074585220421 -0.01781236237710836 0 -0.009128029034097979 -0.01765634291907385 0 -0.0088065061309845986 -0.017195794820820866 0 -0.0092815717551427285 -0.016749190303167405 0 -0.0097848422866320291 -0.016965462137843931 0 -0.0096767575581909182 -0.017684981145477108 0 -0.0097848422866320291 -0.016965462137843931 0 -0.0096767575581909182 -0.017684981145477108 0 -0.01044020609737473 -0.01708805668979909 0 -0.011290307000002163 -0.036397254012613414 0 -0.011277861992808105 -0.036001697192149337 0 -0.011582387850312787 -0.036302140592322965 0 -0.011290307000002163 -0.036397254012613414 0 -0.011318536816618485 -0.036487863556618406 0 -0.011277861992808105 -0.036001697192149337 0 -0.011277861992808105 -0.036001697192149337 0 -0.011798207804883342 -0.035427216900556016 0 -0.011582387850312787 -0.036302140592322965 0 -0.010828114900708544 -0.028142387183631271 0 -0.012643701640257339 -0.030458160136824484 0 -0.010246377670542799 -0.031961018988335615 0 -0.010559973904023986 -0.022868460074479798 0 -0.010863100259571375 -0.036105527665328124 0 -0.010394908741633489 -0.027302621380332386 0 -0.010559973904023986 -0.022868460074479798 0 -0.0093292251930631731 -0.016670863938017828 0 -0.0097486290514257282 -0.016715204961678196 0 -0.0096604638149900991 -0.017141311843579719 0 -0.010559973904023986 -0.022868460074479798 0 -0.011115393089059981 -0.023621409168298933 0 -0.010039457805373334 -0.016377006728802743 0 -0.009746201773294081 -0.01633694788914886 0 -0.0097486290514257282 -0.016715204961678196 0 -0.009746201773294081 -0.01633694788914886 0 -0.0093292251930631731 -0.016670863938017828 0 -0.0097486290514257282 -0.016715204961678196 0 -0.0097486290514257282 -0.016715204961678196 0 -0.0096604638149900991 -0.017141311843579719 0 -0.010037394958503275 -0.016929808352829829 0 -0.012643701640257339 -0.030458160136824484 0 -0.012735985901258708 -0.032088809311789514 0 -0.010246377670542799 -0.031961018988335615 0 -0.012643701640257339 -0.030458160136824484 0 -0.012735985901258708 -0.032088809311789514 0 -0.014197270637265719 -0.03246911940760857 0 -0.011115393089059981 -0.023621409168298933 0 -0.0097638352210550842 -0.027128910329989174 0 -0.012735985901258708 -0.032088809311789514 0 -0.013128413256009296 -0.033570131218507895 0 -0.014197270637265719 -0.03246911940760857 0 -0.013128413256009296 -0.033570131218507895 0 -0.011615722579769269 -0.033063585202918119 0 -0.011010498933778496 -0.034643988084944823 0 -0.012735985901258708 -0.032088809311789514 0 -0.011615722579769269 -0.033063585202918119 0 -0.010246377670542799 -0.031961018988335615 0 -0.012735985901258708 -0.032088809311789514 0 -0.013128413256009296 -0.033570131218507895 0 -0.011615722579769269 -0.033063585202918119 0 -0.010863100259571375 -0.036105527665328124 0 -0.010671907210406489 -0.035346383168411266 0 -0.011275633104002739 -0.036478029103609533 0 -0.011582387850312787 -0.036302140592322965 0 -0.011223039609056662 -0.036552603109079027 0 -0.011615722579769269 -0.033063585202918119 0 -0.010246377670542799 -0.031961018988335615 0 -0.011010498933778496 -0.034643988084944823 0 -0.010246377670542799 -0.031961018988335615 0 -0.011010498933778496 -0.034643988084944823 0 -0.0099512562036546282 -0.035204181084705341 0 -0.0099512562036546282 -0.035204181084705341 0 -0.010970357130713218 -0.035390332834218274 0 -0.010391726809834705 -0.035882127733613295 0 -0.011010498933778496 -0.034643988084944823 0 -0.0099512562036546282 -0.035204181084705341 0 -0.010970357130713218 -0.035390332834218274 0 -0.011546697831602592 -0.032871221065271357 0 -0.011076194993943796 -0.035588640842120316 0 -0.012579326251918238 -0.033866563420581988 0 -0.011010498933778496 -0.034643988084944823 0 -0.010970357130713218 -0.035390332834218274 0 -0.011546697831602592 -0.032871221065271357 0 -0.011459488342255271 -0.03446029581981791 0 -0.011768555096357334 -0.034500975470203095 0 -0.010970357130713218 -0.035390332834218274 0 -0.011479887908468496 -0.035308817204872125 0 -0.011768555096357334 -0.034500975470203095 0 -0.011479887908468496 -0.035308817204872125 0 -0.012302412085359798 -0.034240183965904045 0 -0.010621850819091718 -0.037023914591650463 0 -0.0082925944954655127 -0.031142476263629159 0 -0.0096140999892591842 -0.03724557680775991 0 -0.0088794343001369434 -0.037325981602198709 0 -0.0091254732498226073 -0.036925952850074086 0 -0.0096140999892591842 -0.03724557680775991 0 -0.009596255543723781 -0.03659212717794199 0 -0.010448478328686865 -0.036357528044887968 0 -0.009596255543723781 -0.03659212717794199 0 -0.0092291176840270626 -0.036106117389385274 0 -0.0089153049670736631 -0.036502817372650362 0 -0.009596255543723781 -0.03659212717794199 0 -0.0089153049670736631 -0.036502817372650362 0 -0.0091254732498226073 -0.036925952850074086 0 -0.0096140999892591842 -0.03724557680775991 0 -0.009596255543723781 -0.03659212717794199 0 -0.0091254732498226073 -0.036925952850074086 0 -0.010970357130713218 -0.035390332834218274 0 -0.011479887908468496 -0.035308817204872125 0 -0.010448478328686865 -0.036357528044887968 0 -0.010970357130713218 -0.035390332834218274 0 -0.010391726809834705 -0.035882127733613295 0 -0.010448478328686865 -0.036357528044887968 0 -0.009596255543723781 -0.03659212717794199 0 -0.010448478328686865 -0.036357528044887968 0 -0.0099849381595384385 -0.03632306953864832 0 -0.010621850819091718 -0.037023914591650463 0 -0.010509571917657385 -0.036112335258339852 0 -0.010391726809834705 -0.035882127733613295 0 -0.010448478328686865 -0.036357528044887968 0 -0.010600650301751374 -0.036397953929716516 0 -0.010448478328686865 -0.036357528044887968 0 -0.0099849381595384385 -0.03632306953864832 0 -0.010218088182979115 -0.036143932066925677 0 -0.010448478328686865 -0.036357528044887968 0 -0.010218088182979115 -0.036143932066925677 0 -0.010600650301751374 -0.036397953929716516 0 -0.0099849381595384385 -0.03632306953864832 0 -0.010218088182979115 -0.036143932066925677 0 -0.0097310406745834237 -0.036108362436318132 0 -0.0099849381595384385 -0.03632306953864832 0 -0.0097310406745834237 -0.036108362436318132 0 -0.0088216891060053492 -0.036156976486893526 0 -0.0099849381595384385 -0.03632306953864832 0 -0.0092291176840270626 -0.036106117389385274 0 -0.0090167524428546499 -0.035133274003149688 0 -0.0098758766931939922 -0.036294795787425338 0 -0.0089327376464308945 -0.035599074706423428 0 -0.009596255543723781 -0.03659212717794199 0 -0.0099849381595384385 -0.03632306953864832 0 -0.0092291176840270626 -0.036106117389385274 0 -0.0097310406745834237 -0.036108362436318132 0 -0.0098538824707622274 -0.035718208241473808 0 -0.0088216891060053492 -0.036156976486893526 0 -0.0088544844433280628 -0.034999615560972953 0 -0.0098538824707622274 -0.035718208241473808 0 -0.010530388069851867 -0.034999876049876408 0 -0.0088544844433280628 -0.034999615560972953 0 -0.0098538824707622274 -0.035718208241473808 0 -0.0088216891060053492 -0.036156976486893526 0 -0.0098538824707622274 -0.035718208241473808 0 -0.010530388069851867 -0.034999876049876408 0 -0.011163564999448344 -0.036262655146741943 0 -0.010218088182979115 -0.036143932066925677 0 -0.0097310406745834237 -0.036108362436318132 0 -0.0098538824707622274 -0.035718208241473808 0 -0.009977966728954072 -0.035749513302125627 0 -0.01081200029493708 -0.035998741494178643 0 -0.010218088182979115 -0.036143932066925677 0 -0.0098538824707622274 -0.035718208241473808 0 -0.010521533522904334 -0.035755698817204251 0 -0.010521533522904334 -0.035755698817204251 0 -0.010872116208589437 -0.036141656388968969 0 -0.010553433264253584 -0.036111147402340664 0 -0.010218088182979115 -0.036143932066925677 0 -0.010521533522904334 -0.035755698817204251 0 -0.010553433264253584 -0.036111147402340664 0 -0.010521533522904334 -0.035755698817204251 0 -0.011104754252883195 -0.03589903047800367 0 -0.010872116208589437 -0.036141656388968969 0 -0.01081200029493708 -0.035998741494178643 0 -0.011851117856031813 -0.036374280231292098 0 -0.010530388069851867 -0.034999876049876408 0 -0.011163564999448344 -0.036262655146741943 0 -0.012206833632650373 -0.034999985100870351 0 -0.011163564999448344 -0.036262655146741943 0 -0.012206833632650373 -0.034999985100870351 0 -0.012422499864867721 -0.036678196729062737 0 -0.012207309832098159 -0.035000910167440676 0 -0.011851117856031813 -0.036374280231292098 0 -0.012206991934378414 -0.035000058738699012 0 -0.012497797583433053 -0.036737330465999286 0 -0.013392485547227427 -0.035986156474760472 0 -0.011851117856031813 -0.036374280231292098 0 -0.012550919369677284 -0.036625231390021204 0 -0.011275953123833065 -0.036077207601420372 0 -0.011293945441176815 -0.036243370950528604 0 -0.011470873669557303 -0.036139572522104431 0 -0.011165987622532984 -0.036266061063942458 0 -0.010872116208589437 -0.036141656388968969 0 -0.011007912628972848 -0.036387438277735738 0 -0.011851117856031813 -0.036374280231292098 0 -0.011253723099707274 -0.036179915117436789 0 -0.011104754252883195 -0.03589903047800367 0 -0.011165987622532984 -0.036266061063942458 0 -0.010872116208589437 -0.036141656388968969 0 -0.010872116208589437 -0.036141656388968969 0 -0.010553433264253584 -0.036111147402340664 0 -0.010600650301751374 -0.036397953929716516 0 -0.010218088182979115 -0.036143932066925677 0 -0.010553433264253584 -0.036111147402340664 0 -0.010600650301751374 -0.036397953929716516 0 -0.010872116208589437 -0.036141656388968969 0 -0.010600650301751374 -0.036397953929716516 0 -0.011007912628972848 -0.036387438277735738 0 -0.010600650301751374 -0.036397953929716516 0 -0.011007912628972848 -0.036387438277735738 0 -0.011046305507874089 -0.036500993751703542 0 -0.011223039609056662 -0.036552603109079027 0 -0.010600650301751374 -0.036397953929716516 0 -0.011046305507874089 -0.036500993751703542 0 -0.010671907210406489 -0.035346383168411266 0 -0.01056467087129213 -0.036483451267158934 0 -0.0099512562036546282 -0.035204181084705341 0 -0.010391726809834705 -0.035882127733613295 0 -0.010600650301751374 -0.036397953929716516 0 -0.01121434272566247 -0.03650451307431981 0 -0.011046305507874089 -0.036500993751703542 0 -0.011295138946536427 -0.036422964793013109 0 -0.011345900478733437 -0.036496739006953799 0 -0.011295138946536427 -0.036422964793013109 0 -0.011441008917680564 -0.036450798375193556 0 -0.011293945441176815 -0.036243370950528604 0 -0.011295138946536427 -0.036422964793013109 0 -0.011454614150892949 -0.036306105709058942 0 -0.011253723099707274 -0.036179915117436789 0 -0.011284737924920759 -0.036434094948076236 0 -0.011165987622532984 -0.036266061063942458 0 -0.011007912628972848 -0.036387438277735738 0 -0.011295138946536427 -0.036422964793013109 0 -0.011007912628972848 -0.036387438277735738 0 -0.011046305507874089 -0.036500993751703542 0 -0.011295138946536427 -0.036422964793013109 0 -0.011295138946536427 -0.036422964793013109 0 -0.011441008917680564 -0.036450798375193556 0 -0.011454614150892949 -0.036306105709058942 0 -0.011441008917680564 -0.036450798375193556 0 -0.0115332878273058 -0.03642620862058208 0 -0.011454614150892949 -0.036306105709058942 0 -0.0115332878273058 -0.03642620862058208 0 -0.011662865749798778 -0.036206106142919643 0 -0.011454614150892949 -0.036306105709058942 0 -0.011965117041129257 -0.037464664256213261 0 -0.012465218369106742 -0.035973599808610014 0 -0.013186001411553929 -0.036978270667387507 0 -0.012001755490439789 -0.037070717654098119 0 -0.011965117041129257 -0.037464664256213261 0 -0.012434161540441916 -0.037886805354200422 0 -0.011965117041129257 -0.037464664256213261 0 -0.012434161540441916 -0.037886805354200422 0 -0.013186001411553929 -0.036978270667387507 0 -0.01158242117699256 -0.036884087113845339 0 -0.013483247281572464 -0.036506420074213723 0 -0.013483247281572464 -0.036506420074213723 0 -0.012550919369677284 -0.036625231390021204 0 -0.011662865749798778 -0.036206106142919643 0 -0.011454614150892949 -0.036306105709058942 0 -0.011470873669557303 -0.036139572522104431 0 -0.011293945441176815 -0.036243370950528604 0 -0.011454614150892949 -0.036306105709058942 0 -0.011470873669557303 -0.036139572522104431 0 -0.012497797583433053 -0.036737330465999286 0 -0.013659886162510102 -0.037110711963612888 0 -0.013392485547227427 -0.035986156474760472 0 -0.013659886162510102 -0.037110711963612888 0 -0.013392485547227427 -0.035986156474760472 0 -0.01427943612605829 -0.036364282992448552 0 -0.014127475123648649 -0.034999815713230263 0 -0.013392485547227427 -0.035986156474760472 0 -0.01427943612605829 -0.036364282992448552 0 -0.012206991934378414 -0.035000058738699012 0 -0.014127475123648649 -0.034999815713230263 0 -0.013392485547227427 -0.035986156474760472 0 -0.014127475123648649 -0.034999815713230263 0 -0.015396995563597091 -0.036253450097251651 0 -0.015983636250122921 -0.034925905001498073 0 -0.014127475123648649 -0.034999815713230263 0 -0.01427943612605829 -0.036364282992448552 0 -0.015396995563597091 -0.036253450097251651 0 -0.013483247281572464 -0.036506420074213723 0 -0.015402868956548823 -0.036064517835579929 0 -0.014825349108220186 -0.037488099865418616 0 -0.01427943612605829 -0.036364282992448552 0 -0.015396995563597091 -0.036253450097251651 0 -0.014825349108220186 -0.037488099865418616 0 -0.013659886162510102 -0.037110711963612888 0 -0.01427943612605829 -0.036364282992448552 0 -0.014930069062799008 -0.036555431826071121 0 -0.01522844725575742 -0.035902320049518169 0 -0.015272230888309925 -0.036413041352823784 0 -0.01522844725575742 -0.035902320049518169 0 -0.016031403654133511 -0.035539460509994097 0 -0.016111365802917211 -0.036288312547004549 0 -0.01522844725575742 -0.035902320049518169 0 -0.016111365802917211 -0.036288312547004549 0 -0.015272230888309925 -0.036413041352823784 0 -0.01522844725575742 -0.035902320049518169 0 -0.016031403654133511 -0.035539460509994097 0 -0.015983189836036728 -0.034925596290277749 0 -0.015402868956548823 -0.036064517835579929 0 -0.015875974716109988 -0.035055956885651711 0 -0.016031403654133511 -0.035539460509994097 0 -0.015983189836036728 -0.034925596290277749 0 -0.016762938523635536 -0.035578894546820686 0 -0.017968362139842042 -0.034999571883565769 0 -0.015983189836036728 -0.034925596290277749 0 -0.016762938523635536 -0.035578894546820686 0 -0.016031403654133511 -0.035539460509994097 0 -0.016762938523635536 -0.035578894546820686 0 -0.016111365802917211 -0.036288312547004549 0 -0.017792637308788335 -0.036128742836284408 0 -0.016762938523635536 -0.035578894546820686 0 -0.016111365802917211 -0.036288312547004549 0 -0.017280587830715108 -0.037162020982242104 0 -0.016111365802917211 -0.036288312547004549 0 -0.016222680300416372 -0.037519233737341985 0 -0.016111365802917211 -0.036288312547004549 0 -0.01508433187534894 -0.036742119078813237 0 -0.016222680300416372 -0.037519233737341985 0 -0.014930069062799008 -0.036555431826071121 0 -0.015272230888309925 -0.036413041352823784 0 -0.01508433187534894 -0.036742119078813237 0 -0.013483247281572464 -0.036506420074213723 0 -0.015026826101397196 -0.036695695254263229 0 -0.016111365802917211 -0.036288312547004549 0 -0.015272230888309925 -0.036413041352823784 0 -0.01508433187534894 -0.036742119078813237 0 -0.012465218369106742 -0.035973599808610014 0 -0.013186001411553929 -0.036978270667387507 0 -0.01508433187534894 -0.036742119078813237 0 -0.013186001411553929 -0.036978270667387507 0 -0.01508433187534894 -0.036742119078813237 0 -0.015360131541428545 -0.038694496593508147 0 -0.012497578888356257 -0.038039018497707557 0 -0.010738000042704391 -0.038074204283698801 0 -0.012434161540441916 -0.037886805354200422 0 -0.013186001411553929 -0.036978270667387507 0 -0.015360131541428545 -0.038694496593508147 0 -0.01508433187534894 -0.036742119078813237 0 -0.016222680300416372 -0.037519233737341985 0 -0.015360131541428545 -0.038694496593508147 0 -0.017153854261994703 -0.038905356938175116 0 -0.016222680300416372 -0.037519233737341985 0 -0.015360131541428545 -0.038694496593508147 0 -0.0029837857847750827 -0.028367640111095604 0 -0.0027207226939847087 -0.028324642630555775 0 -0.0028290307724167401 -0.028562629713812116 0 -0.0029837857847750827 -0.028367640111095604 0 -0.0027207226939847087 -0.028324642630555775 0 -0.0028977505038664882 -0.028095992784575297 0 -0.0029837857847750827 -0.028367640111095604 0 -0.003285810300838301 -0.028255950843448851 0 -0.0031181997749054596 -0.028110078955195596 0 -0.0027207226939847087 -0.028324642630555775 0 -0.0026379932276500229 -0.028551442607520405 0 -0.0025659195845756295 -0.028399286433121864 0 -0.0027207226939847087 -0.028324642630555775 0 -0.0026379932276500229 -0.028551442607520405 0 -0.0028290307724167401 -0.028562629713812116 0 -0.0026379932276500229 -0.028551442607520405 0 -0.0028290307724167401 -0.028562629713812116 0 -0.0027354000857793288 -0.028817775321900687 0 -0.0026379932276500229 -0.028551442607520405 0 -0.0027354000857793288 -0.028817775321900687 0 -0.0026413964330059135 -0.028871477536496232 0 -0.0029837857847750827 -0.028367640111095604 0 -0.0028290307724167401 -0.028562629713812116 0 -0.003036610168995564 -0.028673382429132907 0 -0.0028290307724167401 -0.028562629713812116 0 -0.003036610168995564 -0.028673382429132907 0 -0.0027354000857793288 -0.028817775321900687 0 0.00098977131638659202 -0.029113030434892575 0 0.00068907312350613382 -0.02926430144100688 0 0.0042708571355373247 -0.02975675723332246 0 0.0042982706342608937 -0.029936890212752306 0 0.0039409516609233931 -0.029554528191802053 0 -0.0022264844780102554 -0.028759406454029513 0 -0.0022108484237793424 -0.028506625492241283 0 -0.002353706558686944 -0.028879778399080163 0 -0.0024194074605882925 -0.028429919329268305 0 -0.0022108484237793424 -0.028506625492241283 0 -0.002353706558686944 -0.028879778399080163 0 0.0042033927606821052 -0.029580492971401376 0 0.0042708571355373247 -0.02975675723332246 0 0.0039409516609233931 -0.029554528191802053 0 0.0010395609827440126 -0.03510757747202433 0 0.0036193510568829435 -0.033578346260944504 0 0.00056849925324070063 -0.032778400233358103 0 0.00096205976887008731 -0.031847340439755234 0 0.0028338422297011687 -0.034388255946873919 0 0.0042033927606821052 -0.029580492971401376 0 0.0042708571355373247 -0.02975675723332246 0 0.0044467332706103774 -0.029816892984171305 0 0.0024463908882881667 -0.031170439202915772 0 0.0036193510568829435 -0.033578346260944504 0 0.0042708571355373247 -0.02975675723332246 0 0.0043792372801369521 -0.029874799890789647 0 0.0044467332706103774 -0.029816892984171305 0 0.0042708571355373247 -0.02975675723332246 0 0.0043792372801369521 -0.029874799890789647 0 0.0042982706342608937 -0.029936890212752306 0 0.0043792372801369521 -0.029874799890789647 0 0.0042982706342608937 -0.029936890212752306 0 0.0044100700618792945 -0.029905015507340729 0 0.0043792372801369521 -0.029874799890789647 0 0.0044100700618792945 -0.029905015507340729 0 0.0044225149835230041 -0.029901574887105348 0 -0.0027018493384714159 -0.028677787557166642 0 -0.0020898592784056786 -0.028228493588056239 0 -0.0029837857847750827 -0.028367640111095604 0 -0.003036610168995564 -0.028673382429132907 0 -0.003285810300838301 -0.028255950843448851 0 -0.0022264844780102554 -0.028759406454029513 0 -0.0022108484237793424 -0.028506625492241283 0 -0.0021295250556270036 -0.028348215439374418 0 -0.0024194074605882925 -0.028429919329268305 0 -0.0022108484237793424 -0.028506625492241283 0 -0.001902044576766519 -0.028140247522727355 0 -0.0021368343853468575 -0.028407342436979947 0 -0.0020898592784056786 -0.028228493588056239 0 -0.0020898592784056786 -0.028228493588056239 0 -0.0021367911194854158 -0.027612369730409991 0 -0.0012437953572082907 -0.02840690327019969 0 -0.00094954317006030911 -0.027086961012287695 0 -0.0017515209475550604 -0.026569260392068899 0 -0.003285810300838301 -0.028255950843448851 0 -0.0032847837459430715 -0.027870582007068781 0 -0.0031181997749054596 -0.028110078955195596 0 -0.001902044576766519 -0.028140247522727355 0 -0.0023918756551732988 -0.027407351056580723 0 -0.0019736767643923686 -0.026596127266856576 0 -0.0020898592784056786 -0.028228493588056239 0 -0.0018177011445113936 -0.026557057003566 0 -0.0024194074605882925 -0.028429919329268305 0 -0.001902044576766519 -0.028140247522727355 0 -0.0023918756551732988 -0.027407351056580723 0 0.0042982706342608937 -0.029936890212752306 0 0.0044100700618792945 -0.029905015507340729 0 0.004674172258491649 -0.029765936482963731 0 -0.0024194074605882925 -0.028429919329268305 0 -0.0023918756551732988 -0.027407351056580723 0 -0.003172888287505859 -0.02685984161694244 0 0.00098977131638659202 -0.029113030434892575 0 0.00039955225990824213 -0.028527092359389793 0 0.0044100700618792945 -0.029905015507340729 0 0.004674172258491649 -0.029765936482963731 0 0.0044609052297235911 -0.029881337555066813 0 -0.0023918756551732988 -0.027407351056580723 0 -0.0026020963089336811 -0.026716063036092849 0 -0.003172888287505859 -0.02685984161694244 0 -0.0023918756551732988 -0.027407351056580723 0 -0.0026020963089336811 -0.026716063036092849 0 -0.0019736767643923686 -0.026596127266856576 0 -0.0026020963089336811 -0.026716063036092849 0 -0.0025475921882322341 -0.026341239708022289 0 -0.0019736767643923686 -0.026596127266856576 0 -0.0025964413922151364 -0.025758465999984773 0 -0.0025475921882322341 -0.026341239708022289 0 -0.0019736767643923686 -0.026596127266856576 0 -0.0030141997631966517 -0.025915457227639417 0 -0.0026020963089336811 -0.026716063036092849 0 -0.003172888287505859 -0.02685984161694244 0 -0.0030141997631966517 -0.025915457227639417 0 -0.0026020963089336811 -0.026716063036092849 0 -0.0025475921882322341 -0.026341239708022289 0 -0.0030141997631966517 -0.025915457227639417 0 -0.0025964413922151364 -0.025758465999984773 0 -0.0025475921882322341 -0.026341239708022289 0 -0.00067140042812833677 -0.025766478264793523 0 -0.00094954317006030911 -0.027086961012287695 0 -0.0012929148596849071 -0.026327746338152911 0 -0.0026941368736152936 -0.025741638467433804 0 -0.0021367911194854158 -0.027612369730409991 0 -0.00094954317006030911 -0.027086961012287695 0 -0.0017515209475550604 -0.026569260392068899 0 -0.0012929148596849071 -0.026327746338152911 0 -0.0012099506196840105 -0.025837578366958353 0 -0.0017515209475550604 -0.026569260392068899 0 -0.0012929148596849071 -0.026327746338152911 0 -0.00056196992088289213 -0.025715230280062874 0 -0.0012099506196840105 -0.025837578366958353 0 -0.0012929148596849071 -0.026327746338152911 0 -0.0026941368736152936 -0.025741638467433804 0 -0.0012208316545271264 -0.025713138668320069 0 -0.0030703500902735758 -0.027744170536919827 0 -0.0028977505038664882 -0.028095992784575297 0 -0.0028125220676969184 -0.027667831047653881 0 -0.0029732553841958359 -0.027468214479329418 0 -0.0032574028302523798 -0.027447396692551553 0 -0.0030703500902735758 -0.027744170536919827 0 -0.0032574028302523798 -0.027447396692551553 0 -0.0032847837459430715 -0.027870582007068781 0 -0.0030703500902735758 -0.027744170536919827 0 -0.0029732553841958359 -0.027468214479329418 0 -0.0030703500902735758 -0.027744170536919827 0 -0.0028125220676969184 -0.027667831047653881 0 -0.0030703500902735758 -0.027744170536919827 0 -0.0028977505038664882 -0.028095992784575297 0 -0.0031181997749054596 -0.028110078955195596 0 -0.0032847837459430715 -0.027870582007068781 0 -0.0030703500902735758 -0.027744170536919827 0 -0.0031181997749054596 -0.028110078955195596 0 -0.0029837857847750827 -0.028367640111095604 0 -0.0028977505038664882 -0.028095992784575297 0 -0.0031181997749054596 -0.028110078955195596 0 -0.0028977505038664882 -0.028095992784575297 0 -0.0026605816231633252 -0.028072979209482731 0 -0.0028125220676969184 -0.027667831047653881 0 -0.0027207226939847087 -0.028324642630555775 0 -0.0026605816231633252 -0.028072979209482731 0 -0.0025799523287694331 -0.028260451172345439 0 -0.0027207226939847087 -0.028324642630555775 0 -0.0028977505038664882 -0.028095992784575297 0 -0.0026605816231633252 -0.028072979209482731 0 -0.0027269832843157026 -0.027329520379343181 0 -0.0028125220676969184 -0.027667831047653881 0 -0.0025257580565978305 -0.027563827229865581 0 -0.0028125220676969184 -0.027667831047653881 0 -0.0025257580565978305 -0.027563827229865581 0 -0.0023939027835449388 -0.027810287080449414 0 -0.0068232545087382303 -0.02239378214592367 0 -0.0038766113762976448 -0.027133753401046977 0 -0.0026605816231633252 -0.028072979209482731 0 -0.0028125220676969184 -0.027667831047653881 0 -0.0024371346696830344 -0.02804944577822328 0 -0.0021986090441768421 -0.028000645365991509 0 -0.0038766113762976448 -0.027133753401046977 0 -0.0023143797578964766 -0.027312568179566232 0 -0.0025257580565978305 -0.027563827229865581 0 -0.0023939027835449388 -0.027810287080449414 0 -0.0074872322684932033 -0.02386278449678083 0 -0.0076104060536492683 -0.024753515898863938 0 -0.0067549976289448879 -0.024656914766065578 0 -0.0068232545087382303 -0.02239378214592367 0 -0.0090604851055574292 -0.019305766947852885 0 -0.010390188691050567 -0.01641855951678238 0 -0.010858500364329204 -0.016300529093217834 0 -0.010482423217565744 -0.016886304204769255 0 -0.0076104060536492683 -0.024753515898863938 0 -0.0067549976289448879 -0.024656914766065578 0 -0.0067615769308783172 -0.024823112639393293 0 -0.0038766113762976448 -0.027133753401046977 0 -0.0045203679109796484 -0.026564257370682721 0 -0.0076104060536492683 -0.024753515898863938 0 -0.0067615769308783172 -0.024823112639393293 0 -0.0069128178529644785 -0.0251397394757083 0 -0.0024726415212384498 -0.02827312439456767 0 -0.002490626769611125 -0.028178028605316874 0 -0.0024472624577803327 -0.028278065950871466 0 -0.0024726415212384498 -0.02827312439456767 0 -0.0024827895420386206 -0.02819064381792126 0 -0.0025073713274952449 -0.028300829648107564 0 -0.0024827895420386206 -0.02819064381792126 0 -0.0025799523287694331 -0.028260451172345439 0 -0.0025073713274952449 -0.028300829648107564 0 -0.0026605816231633252 -0.028072979209482731 0 -0.0024827895420386206 -0.02819064381792126 0 -0.0025799523287694331 -0.028260451172345439 0 -0.0026605816231633252 -0.028072979209482731 0 -0.0024827895420386206 -0.02819064381792126 0 -0.0024371346696830344 -0.02804944577822328 0 -0.0024726415212384498 -0.02827312439456767 0 -0.0024827895420386206 -0.02819064381792126 0 -0.002490626769611125 -0.028178028605316874 0 -0.003507725258132094 -0.027803178058021624 0 -0.0038766113762976448 -0.027133753401046977 0 -0.010039457805373334 -0.016377006728802743 0 -0.0097486290514257282 -0.016715204961678196 0 -0.010037394958503275 -0.016929808352829829 0 -0.010390188691050567 -0.01641855951678238 0 -0.010039457805373334 -0.016377006728802743 0 -0.010037394958503275 -0.016929808352829829 0 -0.010390188691050567 -0.01641855951678238 0 -0.010037394958503275 -0.016929808352829829 0 -0.010482423217565744 -0.016886304204769255 0 -0.0067615769308783172 -0.024823112639393293 0 -0.0069128178529644785 -0.0251397394757083 0 -0.0060366900958397666 -0.025642817240843493 0 -0.0067549976289448879 -0.024656914766065578 0 -0.0067615769308783172 -0.024823112639393293 0 -0.0062896506622452013 -0.025346766690509524 0 -0.0069587999293473802 -0.02401568368394098 0 -0.0065144319904189606 -0.028394715494479247 0 -0.0096604638149900991 -0.017141311843579719 0 -0.010037394958503275 -0.016929808352829829 0 -0.0099822421553256713 -0.017607430716224906 0 -0.0090604851055574292 -0.019305766947852885 0 -0.0097638352210550842 -0.027128910329989174 0 -0.010037394958503275 -0.016929808352829829 0 -0.010482423217565744 -0.016886304204769255 0 -0.0099822421553256713 -0.017607430716224906 0 -0.0067615769308783172 -0.024823112639393293 0 -0.0062896506622452013 -0.025346766690509524 0 -0.006410131413854144 -0.025385303131173868 0 -0.010456435758553359 -0.03097128925706262 0 -0.010008726420784552 -0.031396992442243025 0 -0.0098433751655759936 -0.031196744212488831 0 -0.011546697831602592 -0.032871221065271357 0 -0.0097638352210550842 -0.027128910329989174 0 -0.011546697831602592 -0.032871221065271357 0 -0.0082925944954655127 -0.031142476263629159 0 -0.0062896506622452013 -0.025346766690509524 0 -0.006410131413854144 -0.025385303131173868 0 -0.0063659546836631236 -0.02544440528541651 0 -0.0097638352210550842 -0.027128910329989174 0 -0.0082925944954655127 -0.031142476263629159 0 -0.0065144319904189606 -0.028394715494479247 0 -0.0082925944954655127 -0.031142476263629159 0 -0.0019257131590767087 -0.028462913444465048 0 -0.0018222427277682321 -0.02855013014706741 0 -0.0022978472720212033 -0.028524875565307656 0 -0.0045203679109796484 -0.026564257370682721 0 -0.0065144319904189606 -0.028394715494479247 0 -0.0018222427277682321 -0.02855013014706741 0 -0.0022978472720212033 -0.028524875565307656 0 -0.0023297218066290178 -0.029565820022922851 0 -0.0024472624577803327 -0.028278065950871466 0 -0.0019257131590767087 -0.028462913444465048 0 -0.0022978472720212033 -0.028524875565307656 0 -0.0022978472720212033 -0.028524875565307656 0 -0.0024322247001029506 -0.028426812619977475 0 -0.0024421316791742335 -0.028561427730559891 0 -0.0024472624577803327 -0.028278065950871466 0 -0.0022978472720212033 -0.028524875565307656 0 -0.0024322247001029506 -0.028426812619977475 0 -0.0023297218066290178 -0.029565820022922851 0 -0.0035629302423846013 -0.029561364192322755 0 -0.0032461083825738465 -0.030817976328672191 0 -0.0022978472720212033 -0.028524875565307656 0 -0.0023297218066290178 -0.029565820022922851 0 -0.0035629302423846013 -0.029561364192322755 0 -0.0023420052297497473 -0.028546776461572311 0 -0.0030460720182196141 -0.029062289161471751 0 -0.0087857729939840312 -0.038032080750773141 0 -0.008187388446986613 -0.037365522648836767 0 -0.0088794343001369434 -0.037325981602198709 0 -0.0082925944954655127 -0.031142476263629159 0 -0.0051005581993610856 -0.033531622527951908 0 -0.0096140999892591842 -0.03724557680775991 0 -0.0087857729939840312 -0.038032080750773141 0 -0.0088794343001369434 -0.037325981602198709 0 -0.008187388446986613 -0.037365522648836767 0 -0.0088794343001369434 -0.037325981602198709 0 -0.0086167690552335693 -0.036946906916625166 0 -0.0088794343001369434 -0.037325981602198709 0 -0.0091254732498226073 -0.036925952850074086 0 -0.0086167690552335693 -0.036946906916625166 0 -0.0025659195845756295 -0.028399286433121864 0 -0.0024840837101634218 -0.028420011400029629 0 -0.0025339806832663249 -0.028531950897986574 0 -0.0026379932276500229 -0.028551442607520405 0 -0.0025659195845756295 -0.028399286433121864 0 -0.0025339806832663249 -0.028531950897986574 0 -0.0027207226939847087 -0.028324642630555775 0 -0.0025799523287694331 -0.028260451172345439 0 -0.0025659195845756295 -0.028399286433121864 0 -0.0025799523287694331 -0.028260451172345439 0 -0.0025659195845756295 -0.028399286433121864 0 -0.0025073713274952449 -0.028300829648107564 0 -0.0025659195845756295 -0.028399286433121864 0 -0.0025073713274952449 -0.028300829648107564 0 -0.0024840837101634218 -0.028420011400029629 0 -0.0024322247001029506 -0.028426812619977475 0 -0.0024840837101634218 -0.028420011400029629 0 -0.0024421316791742335 -0.028561427730559891 0 -0.0024726415212384498 -0.02827312439456767 0 -0.0024322247001029506 -0.028426812619977475 0 -0.0024840837101634218 -0.028420011400029629 0 -0.0024726415212384498 -0.02827312439456767 0 -0.0025073713274952449 -0.028300829648107564 0 -0.0024840837101634218 -0.028420011400029629 0 -0.0024726415212384498 -0.02827312439456767 0 -0.0024472624577803327 -0.028278065950871466 0 -0.0024322247001029506 -0.028426812619977475 0 -0.0024840837101634218 -0.028420011400029629 0 -0.0024421316791742335 -0.028561427730559891 0 -0.0025339806832663249 -0.028531950897986574 0 -0.0025543055046745181 -0.028208643496138174 0 -0.0032794119675191155 -0.029961422765857636 0 -0.0024421316791742335 -0.028561427730559891 0 -0.0025339806832663249 -0.028531950897986574 0 -0.0025624268830566625 -0.028687757754797823 0 -0.0026379932276500229 -0.028551442607520405 0 -0.0025339806832663249 -0.028531950897986574 0 -0.0025624268830566625 -0.028687757754797823 0 -0.0032794119675191155 -0.029961422765857636 0 -0.0029962440545211332 -0.030342743800611836 0 -0.0049013851535764557 -0.030794002061931721 0 -0.0032461083825738465 -0.030817976328672191 0 -0.0042368667444856985 -0.032070602057567232 0 -0.0030460720182196141 -0.029062289161471751 0 -0.0032794119675191155 -0.029961422765857636 0 -0.0035629302423846013 -0.029561364192322755 0 -0.0049013851535764557 -0.030794002061931721 0 -0.0032461083825738465 -0.030817976328672191 0 -0.007539245534216435 -0.036641519865337022 0 -0.0075148189378201526 -0.035672086323496451 0 -0.0068985965988016653 -0.035874533604798919 0 -0.0055078012202081136 -0.033821146627325951 0 -0.0048191348484593046 -0.033659372176222939 0 -0.0075148189378201526 -0.035672086323496451 0 -0.0068985965988016653 -0.035874533604798919 0 -0.0072995959123688687 -0.035145908245577361 0 -0.0034264975282822341 -0.031905958600185233 0 -0.0033209160237454029 -0.03213005623260972 0 -0.0036030788072653973 -0.032084450602862385 0 -0.0033209160237454029 -0.03213005623260972 0 -0.0034542589101222965 -0.032298361597826321 0 -0.0036030788072653973 -0.032084450602862385 0 -0.0048191348484593046 -0.033659372176222939 0 -0.0041849824936273285 -0.033835178114881258 0 -0.0032794119675191155 -0.029961422765857636 0 -0.0048191348484593046 -0.033659372176222939 0 -0.0089153049670736631 -0.036502817372650362 0 -0.0091254732498226073 -0.036925952850074086 0 -0.0086167690552335693 -0.036946906916625166 0 -0.0089153049670736631 -0.036502817372650362 0 -0.0086167690552335693 -0.036946906916625166 0 -0.0081897823124561387 -0.036511148084962808 0 -0.0051005581993610856 -0.033531622527951908 0 -0.0055078012202081136 -0.033821146627325951 0 -0.008187388446986613 -0.037365522648836767 0 -0.007539245534216435 -0.036641519865337022 0 -0.0081897823124561387 -0.036511148084962808 0 -0.008187388446986613 -0.037365522648836767 0 -0.0086167690552335693 -0.036946906916625166 0 -0.0081897823124561387 -0.036511148084962808 0 -0.007539245534216435 -0.036641519865337022 0 -0.0081897823124561387 -0.036511148084962808 0 -0.0080405962859443434 -0.035917986735437828 0 -0.007539245534216435 -0.036641519865337022 0 -0.0075148189378201526 -0.035672086323496451 0 -0.0080405962859443434 -0.035917986735437828 0 -0.0075148189378201526 -0.035672086323496451 0 -0.0080405962859443434 -0.035917986735437828 0 -0.007860974032298039 -0.035445019896348164 0 -0.0080405962859443434 -0.035917986735437828 0 -0.0086219275447777886 -0.035907482557677325 0 -0.0082489066099497334 -0.035290377814166302 0 -0.0081897823124561387 -0.036511148084962808 0 -0.0080405962859443434 -0.035917986735437828 0 -0.0086219275447777886 -0.035907482557677325 0 -0.0092291176840270626 -0.036106117389385274 0 -0.0086219275447777886 -0.035907482557677325 0 -0.0090167524428546499 -0.035133274003149688 0 -0.0089153049670736631 -0.036502817372650362 0 -0.0081897823124561387 -0.036511148084962808 0 -0.0086219275447777886 -0.035907482557677325 0 -0.0092291176840270626 -0.036106117389385274 0 -0.0089153049670736631 -0.036502817372650362 0 -0.0086219275447777886 -0.035907482557677325 0 -0.0090167524428546499 -0.035133274003149688 0 -0.0082489066099497334 -0.035290377814166302 0 -0.0079835857401566006 -0.034670614280090814 0 -0.0086219275447777886 -0.035907482557677325 0 -0.0090167524428546499 -0.035133274003149688 0 -0.0082489066099497334 -0.035290377814166302 0 -0.0082489066099497334 -0.035290377814166302 0 -0.0079224564913070519 -0.035131064624857586 0 -0.0079835857401566006 -0.034670614280090814 0 -0.0080405962859443434 -0.035917986735437828 0 -0.0082489066099497334 -0.035290377814166302 0 -0.007860974032298039 -0.035445019896348164 0 -0.0075148189378201526 -0.035672086323496451 0 -0.007860974032298039 -0.035445019896348164 0 -0.0075967966706687205 -0.035116023390089589 0 -0.0082489066099497334 -0.035290377814166302 0 -0.007860974032298039 -0.035445019896348164 0 -0.0079224564913070519 -0.035131064624857586 0 -0.007860974032298039 -0.035445019896348164 0 -0.0079224564913070519 -0.035131064624857586 0 -0.0075967966706687205 -0.035116023390089589 0 -0.0079224564913070519 -0.035131064624857586 0 -0.0079835857401566006 -0.034670614280090814 0 -0.0075967966706687205 -0.035116023390089589 0 -0.0079835857401566006 -0.034670614280090814 0 -0.0075967966706687205 -0.035116023390089589 0 -0.0072939228504853848 -0.035149506682329745 0 -0.0090167524428546499 -0.035133274003149688 0 -0.0079835857401566006 -0.034670614280090814 0 -0.0080325005920306811 -0.034080512172976633 0 -0.0079835857401566006 -0.034670614280090814 0 -0.0078613706004066336 -0.034090953947300981 0 -0.0072939228504853848 -0.035149506682329745 0 -0.0079835857401566006 -0.034670614280090814 0 -0.0078613706004066336 -0.034090953947300981 0 -0.0080325005920306811 -0.034080512172976633 0 -0.0069638948494961861 -0.034999724147711207 0 -0.0069309172342432394 -0.035060230908117072 0 -0.0071452313890893885 -0.034903530523049925 0 -0.006984500816300615 -0.034469607726546475 0 -0.0074501389034668051 -0.034594950142443223 0 -0.0069632185786104228 -0.034998284594055094 0 -0.006984500816300615 -0.034469607726546475 0 -0.0088544844433280628 -0.034999615560972953 0 -0.0088216891060053492 -0.036156976486893526 0 -0.0071456390817440391 -0.034903610840708567 0 -0.0089327376464308945 -0.035599074706423428 0 -0.0074501389034668051 -0.034594950142443223 0 -0.0046147974036771181 -0.034776296148503111 0 -0.0055397916226869771 -0.034679181184747519 0 -0.0049815560695668738 -0.034293812434973071 0 -0.0041849824936273285 -0.033835178114881258 0 -0.0062450140817716339 -0.034627106371462268 0 -0.0044235530661224333 -0.034538675579432417 0 -0.0049815560695668738 -0.034293812434973071 0 -0.004396668909315107 -0.0341384887304816 0 -0.0044235530661224333 -0.034538675579432417 0 -0.0046147974036771181 -0.034776296148503111 0 -0.0049815560695668738 -0.034293812434973071 0 -0.0045007681253784191 -0.034348665925670929 0 -0.0041849824936273285 -0.033835178114881258 0 -0.0048191348484593046 -0.033659372176222939 0 -0.0062450140817716339 -0.034627106371462268 0 -0.0051084877114921465 -0.034346053682215924 0 -0.0047748894262521231 -0.033936564872561394 0 -0.0053690611411069747 -0.033872791127652874 0 -0.0075148189378201526 -0.035672086323496451 0 -0.0075967966706687205 -0.035116023390089589 0 -0.0072995959123688687 -0.035145908245577361 0 -0.0071474928409054998 -0.034715922104026707 0 -0.0062450140817716339 -0.034627106371462268 0 -0.0061140530593471682 -0.033629711615949326 0 -0.0049720382625239755 -0.033688814885268613 0 -0.0049815560695668738 -0.034293812434973071 0 -0.0069637506084150695 -0.034999995173907013 0 -0.0069045231495312737 -0.035109684624251181 0 -0.0054621226799096171 -0.034999996401492012 0 -0.006984500816300615 -0.034469607726546475 0 -0.0050141290819988062 -0.034416333054086562 0 -0.0069045231495312737 -0.035109684624251181 0 -0.0054621226799096171 -0.034999996401492012 0 -0.0053017695117298725 -0.035199920718213179 0 -0.0061140530593471682 -0.033629711615949326 0 -0.0055397916226869771 -0.034679181184747519 0 -0.0049815560695668738 -0.034293812434973071 0 -0.006984500816300615 -0.034469607726546475 0 -0.0062450140817716339 -0.034627106371462268 0 -0.0054621226799096171 -0.034999996401492012 0 -0.0053017695117298725 -0.035199920718213179 0 -0.0039605125386102018 -0.03499999253450408 0 -0.0050141290819988062 -0.034416333054086562 0 -0.0039267365935291886 -0.03481386725915081 0 -0.0049720382625239755 -0.033688814885268613 0 -0.004396668909315107 -0.0341384887304816 0 -0.0038453804542708321 -0.03375770457093636 0 -0.0049720382625239755 -0.033688814885268613 0 -0.0049815560695668738 -0.034293812434973071 0 -0.004396668909315107 -0.0341384887304816 0 -0.0053017695117298725 -0.035199920718213179 0 -0.0039605125386102018 -0.03499999253450408 0 -0.0036999233834089924 -0.035289731306054693 0 -0.0038453804542708321 -0.03375770457093636 0 -0.0030495722308580067 -0.034640257880017053 0 -0.00377183818886159 -0.034410787093207669 0 -0.0039602857816636609 -0.0349998814683493 0 -0.0039267365935291886 -0.03481386725915081 0 -0.0039603693437499686 -0.035000038004818282 0 -0.0037493222514926828 -0.034999946012507159 0 -0.0037134034361496603 -0.035201512855385933 0 -0.004396668909315107 -0.0341384887304816 0 -0.0038453804542708321 -0.03375770457093636 0 -0.00377183818886159 -0.034410787093207669 0 -0.0037493222514926828 -0.034999946012507159 0 -0.0037134034361496603 -0.035201512855385933 0 -0.0024816886944581803 -0.035656846916847632 0 -0.0037134034361496603 -0.035201512855385933 0 -0.002919941073832756 -0.036058397847496301 0 -0.0024816886944581803 -0.035656846916847632 0 -0.0037491666347931199 -0.035000217903225307 0 -0.0019746187432559373 -0.035603026972089294 0 -0.0037491876719850767 -0.035000009051359686 0 -0.0019024082962890332 -0.035964908983392038 0 -0.0017612707188421777 -0.03499997041596517 0 -0.0039267365935291886 -0.03481386725915081 0 -0.0027156489203918437 -0.034788162978726299 0 -0.0027156489203918437 -0.034788162978726299 0 -0.0019746187432559373 -0.035603026972089294 0 -0.0030495722308580067 -0.034640257880017053 0 -0.0033380706164093691 -0.034904190486884763 0 -0.00377183818886159 -0.034410787093207669 0 -0.0027156489203918437 -0.034788162978726299 0 -0.0029776806289224986 -0.032598399588508874 0 -0.0024674961892086331 -0.033354600851794654 0 -0.0028050622278251299 -0.033663037549980804 0 -0.0021161264357896325 -0.033745111135497739 0 -0.0027155553564779476 -0.02878613358003828 0 -0.0025367786242330419 -0.028975461041471563 0 -0.0019104485765242922 -0.028557514883262237 0 -0.0029776806289224986 -0.032598399588508874 0 -0.0017073235660193119 -0.034049369699090649 0 -0.0027156489203918437 -0.034788162978726299 0 -0.0017073235660193119 -0.034049369699090649 0 -0.0023643242646669786 -0.035435127123494621 0 -0.0018331865644993198 -0.03602731015009112 0 -0.0017032788365278586 -0.035439665043501614 0 -0.0044235530661224333 -0.034538675579432417 0 -0.0046086273440178321 -0.034765725488368891 0 -0.0033380706164093691 -0.034904190486884763 0 -0.0044235530661224333 -0.034538675579432417 0 -0.0033380706164093691 -0.034904190486884763 0 -0.00377183818886159 -0.034410787093207669 0 -0.0041849824936273285 -0.033835178114881258 0 -0.0029776806289224986 -0.032598399588508874 0 -0.0044235530661224333 -0.034538675579432417 0 -0.004396668909315107 -0.0341384887304816 0 -0.00377183818886159 -0.034410787093207669 0 -0.0034542589101222965 -0.032298361597826321 0 -0.003772849393785679 -0.032253457320763269 0 -0.0036030788072653973 -0.032084450602862385 0 -0.0026614302872152301 -0.028979977961429169 0 -0.0026558344699189112 -0.028975615463974348 0 -0.0026413964330059135 -0.028871477536496232 0 -0.0027155553564779476 -0.02878613358003828 0 -0.0026614302872152301 -0.028979977961429169 0 -0.0026558344699189112 -0.028975615463974348 0 -0.0029776806289224986 -0.032598399588508874 0 -0.0029962440545211332 -0.030342743800611836 0 -0.0026582623850328136 -0.028950008160616495 0 0.00018802972909091504 -0.029635387837249949 0 -0.0025367786242330419 -0.028975461041471563 0 -0.0026249598045994227 -0.02896041355630366 0 -0.0025280847325301814 -0.028933662873790518 0 -0.0025367786242330419 -0.028975461041471563 0 -0.0016829718318100207 -0.031173031323507811 0 -0.001736996270062895 -0.029467262501502795 0 -0.0027155553564779476 -0.02878613358003828 0 -0.0025367786242330419 -0.028975461041471563 0 -0.0026558344699189112 -0.028975615463974348 0 -0.0025367786242330419 -0.028975461041471563 0 -0.001736996270062895 -0.029467262501502795 0 -0.0019104485765242922 -0.028557514883262237 0 -0.0025367786242330419 -0.028975461041471563 0 -0.0026558344699189112 -0.028975615463974348 0 -0.0026249598045994227 -0.02896041355630366 0 -0.0027018493384714159 -0.028677787557166642 0 -0.0026164440069903969 -0.028905946509648776 0 -0.0026558344699189112 -0.028975615463974348 0 -0.0026249598045994227 -0.02896041355630366 0 -0.0027354000857793288 -0.028817775321900687 0 -0.003036610168995564 -0.028673382429132907 0 -0.0026249598045994227 -0.02896041355630366 0 -0.0027354000857793288 -0.028817775321900687 0 -0.0026558344699189112 -0.028975615463974348 0 -0.0027354000857793288 -0.028817775321900687 0 -0.0026413964330059135 -0.028871477536496232 0 -0.0026379932276500229 -0.028551442607520405 0 -0.0024740745441550064 -0.028880337671278587 0 -0.0026413964330059135 -0.028871477536496232 0 -0.0024740745441550064 -0.028880337671278587 0 -0.0026614302872152301 -0.028979977961429169 0 -0.0026413964330059135 -0.028871477536496232 0 0.0011972556066021799 -0.037892232569793842 0 0.001685005046475892 -0.037341993378718089 0 0.0020404797072337789 -0.037754016657650075 0 0.0011972556066021799 -0.037892232569793842 0 0.00072077954926232297 -0.037247486074719088 0 0.0011920481723050773 -0.037295118650323131 0 0.0011972556066021799 -0.037892232569793842 0 0.0011920481723050773 -0.037295118650323131 0 0.001685005046475892 -0.037341993378718089 0 0.00056849925324070063 -0.032778400233358103 0 0.00096205976887008731 -0.031847340439755234 0 -0.0016829718318100207 -0.031173031323507811 0 -0.0022264844780102554 -0.028759406454029513 0 -0.0026249598045994227 -0.02896041355630366 0 -0.002353706558686944 -0.028879778399080163 0 0.00096205976887008731 -0.031847340439755234 0 -0.0016829718318100207 -0.031173031323507811 0 -0.00088885652624345185 -0.029382983355654601 0 0.0024463908882881667 -0.031170439202915772 0 0.00018802972909091504 -0.029635387837249949 0 0.0042033927606821052 -0.029580492971401376 0 0.0039409516609233931 -0.029554528191802053 0 0.0038163821496207855 -0.029347394903154012 0 0.00068907312350613382 -0.02926430144100688 0 0.00018802972909091504 -0.029635387837249949 0 -0.0026249598045994227 -0.02896041355630366 0 -0.002353706558686944 -0.028879778399080163 0 -0.0025280847325301814 -0.028933662873790518 0 0.0010395609827440126 -0.03510757747202433 0 -0.0002804941397449913 -0.034185153717190518 0 0.00043379792259293958 -0.036948386875238583 0 0.0011604859981053915 -0.036676055964430111 0 2.8379046108821606e-05 -0.036484093709412392 0 0.0011972556066021799 -0.037892232569793842 0 0.00072077954926232297 -0.037247486074719088 0 0.00043320613028326416 -0.036967801441099332 0 0.0010138134845413891 -0.036419463905928595 0 -0.0002804941397449913 -0.034185153717190518 0 -0.0016829718318100207 -0.031173031323507811 0 -0.001736996270062895 -0.029467262501502795 0 -0.00088885652624345185 -0.029382983355654601 0 -0.0002804941397449913 -0.034185153717190518 0 -0.0017073235660193119 -0.034049369699090649 0 -0.001736996270062895 -0.029467262501502795 0 -0.00088885652624345185 -0.029382983355654601 0 -0.0019104485765242922 -0.028557514883262237 0 0.00072077954926232297 -0.037247486074719088 0 0.00043379792259293958 -0.036948386875238583 0 0.0011604859981053915 -0.036676055964430111 0 0.00072077954926232297 -0.037247486074719088 0 0.0011604859981053915 -0.036676055964430111 0 0.0011920481723050773 -0.037295118650323131 0 0.0011604859981053915 -0.036676055964430111 0 0.0011920481723050773 -0.037295118650323131 0 0.001685005046475892 -0.037341993378718089 0 -9.0673584720844976e-05 -0.036237042801537042 0 3.5284580426407007e-05 -0.035573575618114556 0 0.0016522628174428567 -0.036446286128689082 0 -9.0673584720844976e-05 -0.036237042801537042 0 3.5284580426407007e-05 -0.035573575618114556 0 -0.0010332974446175187 -0.035584072363470075 0 -0.0005493811542206015 -0.036627536884952482 0 -0.00070487166792856395 -0.03571992480260975 0 0.00020545813660357936 -0.036263705550907833 0 3.5284580426407007e-05 -0.035573575618114556 0 -0.0010332974446175187 -0.035584072363470075 0 -0.0015810218035245964 -0.034711626987211405 0 -0.00027295831756446183 -0.036073743402832627 0 -0.0019746187432559373 -0.035603026972089294 0 -9.0673584720844976e-05 -0.036237042801537042 0 -0.0018331865644993198 -0.03602731015009112 0 -0.0010332974446175187 -0.035584072363470075 0 -0.0005493811542206015 -0.036627536884952482 0 -0.0018993806382090561 -0.035964201158166932 0 -0.0016452769161135589 -0.035729398792241754 0 0.00078361815870753402 -0.03658437104248926 0 -0.0017073235660193119 -0.034049369699090649 0 -0.0018331865644993198 -0.03602731015009112 0 -0.0010332974446175187 -0.035584072363470075 0 -0.0017032788365278586 -0.035439665043501614 0 -0.0010332974446175187 -0.035584072363470075 0 -0.0017032788365278586 -0.035439665043501614 0 -0.0015810218035245964 -0.034711626987211405 0 -0.0023643242646669786 -0.035435127123494621 0 -0.0017032788365278586 -0.035439665043501614 0 -0.0015810218035245964 -0.034711626987211405 0 -0.0019024082962890332 -0.035964908983392038 0 -0.0016452769161135589 -0.035729398792241754 0 -0.0017612707188421777 -0.03499997041596517 0 -0.0019746187432559373 -0.035603026972089294 0 -0.0019121213498756377 -0.035635498602858411 0 -0.0016452769161135589 -0.035729398792241754 0 -0.0017612707188421777 -0.03499997041596517 0 -0.00070487166792856395 -0.03571992480260975 0 -0.00070487166792856395 -0.03571992480260975 0 0.0002267270394049061 -0.034999916220322953 0 0.00020545813660357936 -0.036263705550907833 0 -0.0017612707188421777 -0.03499997041596517 0 -0.00070487166792856395 -0.03571992480260975 0 0.0002267270394049061 -0.034999916220322953 0 -0.0005493811542206015 -0.036627536884952482 0 -0.0016452769161135589 -0.035729398792241754 0 -0.00070487166792856395 -0.03571992480260975 0 0.0002267270394049061 -0.034999916220322953 0 0.001110626693985478 -0.035901189650196202 0 0.00020545813660357936 -0.036263705550907833 0 0.001110626693985478 -0.035901189650196202 0 0.0019699886170823524 -0.036564393652532175 0 0.0022147564983215251 -0.034999903680983976 0 0.0002267270394049061 -0.034999916220322953 0 0.001110626693985478 -0.035901189650196202 0 0.0022147564983215251 -0.034999903680983976 0 0.001110626693985478 -0.035901189650196202 0 0.0019699886170823524 -0.036564393652532175 0 0.0010948220800268038 -0.036687974731735677 0 0.0019699886170823524 -0.036564393652532175 0 0.0014557097552573082 -0.036959481169849012 0 0.0010948220800268038 -0.036687974731735677 0 -0.0005493811542206015 -0.036627536884952482 0 0.00020545813660357936 -0.036263705550907833 0 0.00087158060335083647 -0.037256274969348982 0 0.0010948220800268038 -0.036687974731735677 0 0.00020545813660357936 -0.036263705550907833 0 0.00087158060335083647 -0.037256274969348982 0 0.0014557097552573082 -0.036959481169849012 0 0.0010948220800268038 -0.036687974731735677 0 0.00087158060335083647 -0.037256274969348982 0 -0.00027295831756446183 -0.036073743402832627 0 0.0014957285369103712 -0.036814758908602828 0 0.001110626693985478 -0.035901189650196202 0 0.0010948220800268038 -0.036687974731735677 0 0.00020545813660357936 -0.036263705550907833 0 0.0042023784013957661 -0.034999984554456812 0 0.0032104112247992728 -0.036395036558579598 0 0.0044441697224620585 -0.036255926518960417 0 0.0019699886170823524 -0.036564393652532175 0 0.0022147564983215251 -0.034999903680983976 0 0.0032104112247992728 -0.036395036558579598 0 0.0042023784013957661 -0.034999984554456812 0 0.0022147564983215251 -0.034999903680983976 0 0.0032104112247992728 -0.036395036558579598 0 0.0019699886170823524 -0.036564393652532175 0 0.0032104112247992728 -0.036395036558579598 0 0.002868907188260824 -0.037193093038209626 0 0.0032104112247992728 -0.036395036558579598 0 0.0036645799949015026 -0.037354208723875876 0 0.0044441697224620585 -0.036255926518960417 0 0.0036645799949015026 -0.037354208723875876 0 0.0044246742624414609 -0.037392212480336084 0 0.0044441697224620585 -0.036255926518960417 0 0.0036645799949015026 -0.037354208723875876 0 0.003638991816688798 -0.038016940744505442 0 0.0044246742624414609 -0.037392212480336084 0 0.0032104112247992728 -0.036395036558579598 0 0.0036645799949015026 -0.037354208723875876 0 0.002868907188260824 -0.037193093038209626 0 0.0036645799949015026 -0.037354208723875876 0 0.002868907188260824 -0.037193093038209626 0 0.0032361756348627071 -0.037779112896617215 0 0.002868907188260824 -0.037193093038209626 0 0.0032361756348627071 -0.037779112896617215 0 0.0020290217403743176 -0.037633930926898915 0 0.0030626029518446237 -0.037740856285973304 0 0.0024053109886210695 -0.037465030239091167 0 0.0036645799949015026 -0.037354208723875876 0 0.0032361756348627071 -0.037779112896617215 0 0.003638991816688798 -0.038016940744505442 0 0.0032361756348627071 -0.037779112896617215 0 0.0032252979470060814 -0.038095851355984374 0 0.0027447964597839083 -0.037853572026245376 0 0.0032361756348627071 -0.037779112896617215 0 0.0032252979470060814 -0.038095851355984374 0 0.003638991816688798 -0.038016940744505442 0 0.0032252979470060814 -0.038095851355984374 0 0.003638991816688798 -0.038016940744505442 0 0.0037218980147967467 -0.038455882282136623 0 0.003638991816688798 -0.038016940744505442 0 0.0047304952602109217 -0.03796593633745441 0 0.0049136922662160474 -0.036967669281450205 0 0.003638991816688798 -0.038016940744505442 0 0.0047304952602109217 -0.03796593633745441 0 0.0044322294922710566 -0.038486805174260466 0 0.0037038114174845812 -0.037979963191742759 0 0.0046615907091849479 -0.037193818873198552 0 0.0011604859981053915 -0.036676055964430111 0 0.001685005046475892 -0.037341993378718089 0 0.0021550234294908941 -0.036882612595505654 0 0.00078361815870753402 -0.03658437104248926 0 0.0014957285369103712 -0.036814758908602828 0 0.0023282351077782851 -0.037378255988503216 0 0.001685005046475892 -0.037341993378718089 0 0.0021550234294908941 -0.036882612595505654 0 0.0014557097552573082 -0.036959481169849012 0 0.00087158060335083647 -0.037256274969348982 0 0.0020290217403743176 -0.037633930926898915 0 0.0014957285369103712 -0.036814758908602828 0 0.0024053109886210695 -0.037465030239091167 0 0.0019699886170823524 -0.036564393652532175 0 0.0014557097552573082 -0.036959481169849012 0 0.0020290217403743176 -0.037633930926898915 0 0.0019699886170823524 -0.036564393652532175 0 0.002868907188260824 -0.037193093038209626 0 0.0020290217403743176 -0.037633930926898915 0 0.0023282351077782851 -0.037378255988503216 0 0.0021550234294908941 -0.036882612595505654 0 0.002775351897891055 -0.037336466145279502 0 0.0023282351077782851 -0.037378255988503216 0 0.002775351897891055 -0.037336466145279502 0 0.0027447964597839083 -0.037853572026245376 0 0.0032361756348627071 -0.037779112896617215 0 0.002775351897891055 -0.037336466145279502 0 0.0027447964597839083 -0.037853572026245376 0 0.0032252979470060814 -0.038095851355984374 0 0.0027447964597839083 -0.037853572026245376 0 0.0028519929032693862 -0.038278690721829781 0 0.0027447964597839083 -0.037853572026245376 0 0.0021615101792383418 -0.038258087239396679 0 0.0028519929032693862 -0.038278690721829781 0 0.0011972556066021799 -0.037892232569793842 0 0.0020404797072337789 -0.037754016657650075 0 0.0021615101792383418 -0.038258087239396679 0 0.0027447964597839083 -0.037853572026245376 0 0.0020404797072337789 -0.037754016657650075 0 0.0021615101792383418 -0.038258087239396679 0 0.0023282351077782851 -0.037378255988503216 0 0.0027447964597839083 -0.037853572026245376 0 0.0020404797072337789 -0.037754016657650075 0 0.0023282351077782851 -0.037378255988503216 0 0.001685005046475892 -0.037341993378718089 0 0.0020404797072337789 -0.037754016657650075 0 0.0011972556066021799 -0.037892232569793842 0 0.0021615101792383418 -0.038258087239396679 0 0.0018702364933734594 -0.038678343059957335 0 0.0018702364933734594 -0.038678343059957335 0 0.0024398913018806151 -0.039003118916436146 0 0.0025520454583449338 -0.038572602696649444 0 0.0021615101792383418 -0.038258087239396679 0 0.0018702364933734594 -0.038678343059957335 0 0.0025520454583449338 -0.038572602696649444 0 0.0043792372801369521 -0.029874799890789647 0 0.0044467332706103774 -0.029816892984171305 0 0.0044225149835230041 -0.029901574887105348 0 0.0054738771818487195 -0.031843107886488704 0 0.004792715484809076 -0.030789564362950439 0 0.0047358041953010372 -0.03124915671671314 0 0.0044467332706103774 -0.029816892984171305 0 0.0043936842103060756 -0.029928888298258037 0 0.0044225149835230041 -0.029901574887105348 0 0.0036193510568829435 -0.033578346260944504 0 0.0045346211403406193 -0.0299971807211716 0 0.0036193510568829435 -0.033578346260944504 0 0.0035953252662838269 -0.035151375861249383 0 0.0043936842103060756 -0.029928888298258037 0 0.0044225149835230041 -0.029901574887105348 0 0.0044211951128249483 -0.029893746690814817 0 0.0044100700618792945 -0.029905015507340729 0 0.0044225149835230041 -0.029901574887105348 0 0.0044609052297235911 -0.029881337555066813 0 0.002884085054987801 -0.039305576084588664 0 0.0024398913018806151 -0.039003118916436146 0 0.0025520454583449338 -0.038572602696649444 0 0.0030393805479678902 -0.037089098975380319 0 0.0027704056797623121 -0.039482429819225319 0 0.0031500665103697408 -0.039562944387091445 0 0.003140235250330975 -0.03897362004692502 0 0.0025520454583449338 -0.038572602696649444 0 0.004792715484809076 -0.030789564362950439 0 0.0040413263077623092 -0.030662036367425795 0 0.0047358041953010372 -0.03124915671671314 0 0.0030393805479678902 -0.037089098975380319 0 0.0035953252662838269 -0.035151375861249383 0 0.003140235250330975 -0.03897362004692502 0 0.0030400193008931309 -0.038595014622031576 0 0.0025520454583449338 -0.038572602696649444 0 0.0021615101792383418 -0.038258087239396679 0 0.0025520454583449338 -0.038572602696649444 0 0.0028519929032693862 -0.038278690721829781 0 0.0030400193008931309 -0.038595014622031576 0 0.0025520454583449338 -0.038572602696649444 0 0.0028519929032693862 -0.038278690721829781 0 0.0030400193008931309 -0.038595014622031576 0 0.0028519929032693862 -0.038278690721829781 0 0.0032202366738347072 -0.038422164754526547 0 0.0032252979470060814 -0.038095851355984374 0 0.0032202366738347072 -0.038422164754526547 0 0.0037218980147967467 -0.038455882282136623 0 0.0032202366738347072 -0.038422164754526547 0 0.0037218980147967467 -0.038455882282136623 0 0.0034301579086603059 -0.038744027902329288 0 0.0032252979470060814 -0.038095851355984374 0 0.0028519929032693862 -0.038278690721829781 0 0.0032202366738347072 -0.038422164754526547 0 0.0037218980147967467 -0.038455882282136623 0 0.0034301579086603059 -0.038744027902329288 0 0.0038930393107534031 -0.038972936316135812 0 0.0030400193008931309 -0.038595014622031576 0 0.0032202366738347072 -0.038422164754526547 0 0.0034301579086603059 -0.038744027902329288 0 0.003140235250330975 -0.03897362004692502 0 0.0030400193008931309 -0.038595014622031576 0 0.0034301579086603059 -0.038744027902329288 0 0.0037218980147967467 -0.038455882282136623 0 0.0044322294922710566 -0.038486805174260466 0 0.0041509577552657374 -0.038746940979914893 0 0.003638991816688798 -0.038016940744505442 0 0.0037218980147967467 -0.038455882282136623 0 0.0044322294922710566 -0.038486805174260466 0 0.0037218980147967467 -0.038455882282136623 0 0.0041509577552657374 -0.038746940979914893 0 0.0038930393107534031 -0.038972936316135812 0 0.0044322294922710566 -0.038486805174260466 0 0.0045432993832484119 -0.039051567454682724 0 0.0052085582836325249 -0.038499194228299241 0 0.0044322294922710566 -0.038486805174260466 0 0.0041509577552657374 -0.038746940979914893 0 0.0045432993832484119 -0.039051567454682724 0 0.0045432993832484119 -0.039051567454682724 0 0.0040527597352304793 -0.039485587551425089 0 0.0046891788151442113 -0.039841679861364138 0 0.0041509577552657374 -0.038746940979914893 0 0.0045432993832484119 -0.039051567454682724 0 0.0038930393107534031 -0.038972936316135812 0 0.0045432993832484119 -0.039051567454682724 0 0.0040527597352304793 -0.039485587551425089 0 0.0038930393107534031 -0.038972936316135812 0 0.003140235250330975 -0.03897362004692502 0 0.0034301579086603059 -0.038744027902329288 0 0.0035272541793329379 -0.039315163541816564 0 0.0034301579086603059 -0.038744027902329288 0 0.0038930393107534031 -0.038972936316135812 0 0.0035272541793329379 -0.039315163541816564 0 0.0040527597352304793 -0.039485587551425089 0 0.0035272541793329379 -0.039315163541816564 0 0.0037322929378109577 -0.039590952987018119 0 0.0040527597352304793 -0.039485587551425089 0 0.0038930393107534031 -0.038972936316135812 0 0.0035272541793329379 -0.039315163541816564 0 0.0035272541793329379 -0.039315163541816564 0 0.0034403518115947926 -0.03971476643183882 0 0.0037322929378109577 -0.039590952987018119 0 0.0031500665103697408 -0.039562944387091445 0 0.0035272541793329379 -0.039315163541816564 0 0.0034403518115947926 -0.03971476643183882 0 0.0031500665103697408 -0.039562944387091445 0 0.003140235250330975 -0.03897362004692502 0 0.0035272541793329379 -0.039315163541816564 0 0.0030393805479678902 -0.037089098975380319 0 0.0038113916066372724 -0.038445450944898985 0 0.0030393805479678902 -0.037089098975380319 0 0.0037300775524157408 -0.035130010577300072 0 0.0040413263077623092 -0.030662036367425795 0 0.0038078402554495728 -0.029770704768049217 0 0.0041421566029724577 -0.029846229425253855 0 0.0031990510617827014 -0.039556502677924148 0 0.0034403518115947926 -0.03971476643183882 0 0.0036353743939197226 -0.040269298572586411 0 0.0034403518115947926 -0.03971476643183882 0 0.0037322929378109577 -0.039590952987018119 0 0.0039219834336566865 -0.039919125320126578 0 0.0040527597352304793 -0.039485587551425089 0 0.0037322929378109577 -0.039590952987018119 0 0.0039219834336566865 -0.039919125320126578 0 0.0034403518115947926 -0.03971476643183882 0 0.0039219834336566865 -0.039919125320126578 0 0.0036353743939197226 -0.040269298572586411 0 0.0040527597352304793 -0.039485587551425089 0 0.0039219834336566865 -0.039919125320126578 0 0.0046891788151442113 -0.039841679861364138 0 0.0039219834336566865 -0.039919125320126578 0 0.0046891788151442113 -0.039841679861364138 0 0.0043201429767505154 -0.040448924646020977 0 0.0046891788151442113 -0.039841679861364138 0 0.0043201429767505154 -0.040448924646020977 0 0.0049695729360087109 -0.04044382794156761 0 0.0043201429767505154 -0.040448924646020977 0 0.0040524190559521282 -0.041014935015492776 0 0.0045860244030325849 -0.041068082396319205 0 0.0043201429767505154 -0.040448924646020977 0 0.0049695729360087109 -0.04044382794156761 0 0.0045860244030325849 -0.041068082396319205 0 0.0038078402554495728 -0.029770704768049217 0 0.0038813903210801553 -0.029569915430000118 0 0.0037458645322503512 -0.02944673537532299 0 0.0037300775524157408 -0.035130010577300072 0 0.00489907639385391 -0.032543503553087764 0 0.0043201429767505154 -0.040448924646020977 0 0.0036353743939197226 -0.040269298572586411 0 0.0040524190559521282 -0.041014935015492776 0 0.0038078402554495728 -0.029770704768049217 0 0.0039425895936686713 -0.029638468611129953 0 0.0041421566029724577 -0.029846229425253855 0 0.0038078402554495728 -0.029770704768049217 0 0.0039425895936686713 -0.029638468611129953 0 0.0038813903210801553 -0.029569915430000118 0 0.0039219834336566865 -0.039919125320126578 0 0.0043201429767505154 -0.040448924646020977 0 0.0036353743939197226 -0.040269298572586411 0 0.0038813903210801553 -0.029569915430000118 0 0.0039960197060422697 -0.029509083260581392 0 0.0037458645322503512 -0.02944673537532299 0 0.0039425895936686713 -0.029638468611129953 0 0.0039960197060422697 -0.029509083260581392 0 0.0040734961379606735 -0.029586455780162103 0 0.0039425895936686713 -0.029638468611129953 0 0.0038813903210801553 -0.029569915430000118 0 0.0039960197060422697 -0.029509083260581392 0 0.0039960197060422697 -0.029509083260581392 0 0.0040734961379606735 -0.029586455780162103 0 0.0041792149046446141 -0.029516143101390085 0 0.0041792149046446141 -0.029516143101390085 0 0.004455135505671161 -0.029324407354267185 0 0.0040928542149657708 -0.029409951204099071 0 0.0039960197060422697 -0.029509083260581392 0 0.0041792149046446141 -0.029516143101390085 0 0.0040928542149657708 -0.029409951204099071 0 0.0040734961379606735 -0.029586455780162103 0 0.0041928061480053565 -0.029656938449461663 0 0.0041792149046446141 -0.029516143101390085 0 0.0040734961379606735 -0.029586455780162103 0 0.0041928061480053565 -0.029656938449461663 0 0.0041421566029724577 -0.029846229425253855 0 0.0039425895936686713 -0.029638468611129953 0 0.0040734961379606735 -0.029586455780162103 0 0.0041421566029724577 -0.029846229425253855 0 0.0042793855111531529 -0.029755946570818845 0 0.0041928061480053565 -0.029656938449461663 0 0.0041421566029724577 -0.029846229425253855 0 0.0041928061480053565 -0.029656938449461663 0 0.0042715080689219101 -0.02957554950321693 0 0.0041792149046446141 -0.029516143101390085 0 0.0042793855111531529 -0.029755946570818845 0 0.0041928061480053565 -0.029656938449461663 0 0.0042715080689219101 -0.02957554950321693 0 0.0042715080689219101 -0.02957554950321693 0 0.0041792149046446141 -0.029516143101390085 0 0.004455135505671161 -0.029324407354267185 0 0.004455135505671161 -0.029324407354267185 0 0.004674172258491649 -0.029765936482963731 0 0.0042225528610310937 -0.028013313065474662 0 0.004455135505671161 -0.029324407354267185 0 0.004674172258491649 -0.029765936482963731 0 0.0044877932831598154 -0.029741264713876038 0 0.004674172258491649 -0.029765936482963731 0 0.0044877932831598154 -0.029741264713876038 0 0.0044824450909645118 -0.029829952444090254 0 0.004455135505671161 -0.029324407354267185 0 0.0044877932831598154 -0.029741264713876038 0 0.0043612025238298838 -0.029668252760301939 0 0.0042715080689219101 -0.02957554950321693 0 0.004455135505671161 -0.029324407354267185 0 0.0043612025238298838 -0.029668252760301939 0 0.0044877932831598154 -0.029741264713876038 0 0.0043612025238298838 -0.029668252760301939 0 0.0043926032623449809 -0.029814020580946444 0 0.0042793855111531529 -0.029755946570818845 0 0.0042715080689219101 -0.02957554950321693 0 0.0043612025238298838 -0.029668252760301939 0 0.0042793855111531529 -0.029755946570818845 0 0.0043926032623449809 -0.029814020580946444 0 0.0043285869713090485 -0.029854193678795288 0 0.0042793855111531529 -0.029755946570818845 0 0.0043612025238298838 -0.029668252760301939 0 0.0043926032623449809 -0.029814020580946444 0 0.0043926032623449809 -0.029814020580946444 0 0.0044824450909645118 -0.029829952444090254 0 0.0044211951128249483 -0.029893746690814817 0 0.0043926032623449809 -0.029814020580946444 0 0.0044211951128249483 -0.029893746690814817 0 0.0043285869713090485 -0.029854193678795288 0 0.004674172258491649 -0.029765936482963731 0 0.0044824450909645118 -0.029829952444090254 0 0.0044609052297235911 -0.029881337555066813 0 0.0044877932831598154 -0.029741264713876038 0 0.0043926032623449809 -0.029814020580946444 0 0.0044824450909645118 -0.029829952444090254 0 0.0044225149835230041 -0.029901574887105348 0 0.0044609052297235911 -0.029881337555066813 0 0.0044211951128249483 -0.029893746690814817 0 0.0044824450909645118 -0.029829952444090254 0 0.0044609052297235911 -0.029881337555066813 0 0.0044211951128249483 -0.029893746690814817 0 0.0043936842103060756 -0.029928888298258037 0 0.0044211951128249483 -0.029893746690814817 0 0.0043285869713090485 -0.029854193678795288 0 0.0045346211403406193 -0.0299971807211716 0 0.0042349711185607018 -0.029981720935810804 0 0.004792715484809076 -0.030789564362950439 0 0.0040413263077623092 -0.030662036367425795 0 0.0041421566029724577 -0.029846229425253855 0 0.0043936842103060756 -0.029928888298258037 0 0.0041421566029724577 -0.029846229425253855 0 0.0043285869713090485 -0.029854193678795288 0 0.0042793855111531529 -0.029755946570818845 0 0.0041421566029724577 -0.029846229425253855 0 0.0043285869713090485 -0.029854193678795288 0 0.016804660734437427 -0.028398583070427749 0 0.016200290530323607 -0.028352855254089739 0 0.016736635387358655 -0.02803503474874941 0 0.016804660734437427 -0.028398583070427749 0 0.01640905854605873 -0.029077699465034888 0 0.016200290530323607 -0.028352855254089739 0 0.016364737014169628 -0.026852262711857436 0 0.017109795985023955 -0.026291772584648605 0 0.0165449736065609 -0.02638096175477703 0 0.016782184284965355 -0.026468457876500803 0 0.016724539634408189 -0.026459138996565629 0 0.017239984693191629 -0.026833653067336122 0 0.017615854846014366 -0.02629841785721708 0 0.016782184284965355 -0.026468457876500803 0 0.017038487817932442 -0.027745540824624229 0 0.016364737014169628 -0.026852262711857436 0 0.01640905854605873 -0.029077699465034888 0 0.016200290530323607 -0.028352855254089739 0 0.015710107530087336 -0.029258061883463825 0 0.0054401717761510598 -0.040027853392451677 0 0.0062706399655103329 -0.039777556233706587 0 0.0057516450190584845 -0.040869950852504097 0 0.016364737014169628 -0.026852262711857436 0 0.009231278794159541 -0.033084264275545228 0 0.011378252415906266 -0.034495760427175379 0 0.009231278794159541 -0.033084264275545228 0 0.0049695729360087109 -0.04044382794156761 0 0.0045860244030325849 -0.041068082396319205 0 0.0057516450190584845 -0.040869950852504097 0 0.0049695729360087109 -0.04044382794156761 0 0.0054401717761510598 -0.040027853392451677 0 0.0057516450190584845 -0.040869950852504097 0 0.0046891788151442113 -0.039841679861364138 0 0.0054401717761510598 -0.040027853392451677 0 0.0054005796304996065 -0.039284566451696153 0 0.0046891788151442113 -0.039841679861364138 0 0.0049695729360087109 -0.04044382794156761 0 0.0054401717761510598 -0.040027853392451677 0 0.0054401717761510598 -0.040027853392451677 0 0.0062706399655103329 -0.039777556233706587 0 0.0054005796304996065 -0.039284566451696153 0 0.0062706399655103329 -0.039777556233706587 0 0.0054005796304996065 -0.039284566451696153 0 0.0060342518920908058 -0.03857231794667678 0 0.0045432993832484119 -0.039051567454682724 0 0.0054005796304996065 -0.039284566451696153 0 0.0052085582836325249 -0.038499194228299241 0 0.0045432993832484119 -0.039051567454682724 0 0.0046891788151442113 -0.039841679861364138 0 0.0054005796304996065 -0.039284566451696153 0 0.0052085582836325249 -0.038499194228299241 0 0.0060342518920908058 -0.03857231794667678 0 0.0053968571382215832 -0.037743409556124735 0 0.0054005796304996065 -0.039284566451696153 0 0.0052085582836325249 -0.038499194228299241 0 0.0060342518920908058 -0.03857231794667678 0 0.0047304952602109217 -0.03796593633745441 0 0.0044322294922710566 -0.038486805174260466 0 0.0052085582836325249 -0.038499194228299241 0 0.0060342518920908058 -0.03857231794667678 0 0.0069118957932163818 -0.038652028464467234 0 0.0067510922387017478 -0.037947023909306911 0 0.016200290530323607 -0.028352855254089739 0 0.016749983930087895 -0.028037409834603108 0 0.016736635387358655 -0.02803503474874941 0 0.011378252415906266 -0.034495760427175379 0 0.011943834306839122 -0.033121955662904788 0 0.0062706399655103329 -0.039777556233706587 0 0.0060342518920908058 -0.03857231794667678 0 0.0069118957932163818 -0.038652028464467234 0 0.016804660734437427 -0.028398583070427749 0 0.016736635387358655 -0.02803503474874941 0 0.016778228792466696 -0.027718208713236988 0 0.017038487817932442 -0.027745540824624229 0 0.016792221205003791 -0.027715308614218878 0 0.016736635387358655 -0.02803503474874941 0 0.016755328456006913 -0.028033957360167384 0 0.016778228792466696 -0.027718208713236988 0 0.016749983930087895 -0.028037409834603108 0 0.016736635387358655 -0.02803503474874941 0 0.016755328456006913 -0.028033957360167384 0 0.016749983930087895 -0.028037409834603108 0 0.016755328456006913 -0.028033957360167384 0 0.016720353177073061 -0.02831734682368112 0 0.016755328456006913 -0.028033957360167384 0 0.016720353177073061 -0.02831734682368112 0 0.016563115026433036 -0.028223959567686616 0 0.016720353177073061 -0.02831734682368112 0 0.016897879057735994 -0.028739984228498591 0 0.016469572461348305 -0.028656079242798595 0 0.016749983930087895 -0.028037409834603108 0 0.016720353177073061 -0.02831734682368112 0 0.016897879057735994 -0.028739984228498591 0 0.010137051686812908 -0.034620051158108636 0 0.011526937041339646 -0.033794993282058219 0 0.0069118957932163818 -0.038652028464467234 0 0.0075049065660110241 -0.03757012028811163 0 0.0067510922387017478 -0.037947023909306911 0 0.0069118957932163818 -0.038652028464467234 0 0.0075049065660110241 -0.03757012028811163 0 0.007663424542174513 -0.037510259232503569 0 0.011943834306839122 -0.033121955662904788 0 0.011526937041339646 -0.033794993282058219 0 0.0067510922387017478 -0.037947023909306911 0 0.0067048247083485897 -0.037598330763780025 0 0.0071109297480789887 -0.037519257745411171 0 0.0067510922387017478 -0.037947023909306911 0 0.0067048247083485897 -0.037598330763780025 0 0.0062512155159573143 -0.037748109286345415 0 0.0075049065660110241 -0.03757012028811163 0 0.0067510922387017478 -0.037947023909306911 0 0.0071109297480789887 -0.037519257745411171 0 0.0075049065660110241 -0.03757012028811163 0 0.0071109297480789887 -0.037519257745411171 0 0.0075365663712332965 -0.037395373371530462 0 0.0071109297480789887 -0.037519257745411171 0 0.007275308100717792 -0.037148747461248147 0 0.0075365663712332965 -0.037395373371530462 0 0.0071109297480789887 -0.037519257745411171 0 0.007275308100717792 -0.037148747461248147 0 0.0069229372594400047 -0.037261657426152159 0 0.007275308100717792 -0.037148747461248147 0 0.0077720495311518617 -0.037047693721252183 0 0.0075365663712332965 -0.037395373371530462 0 0.0069229372594400047 -0.037261657426152159 0 0.0068787206418150235 -0.03677975528249567 0 0.0064768997560532204 -0.037331622768610934 0 0.0067048247083485897 -0.037598330763780025 0 0.0069229372594400047 -0.037261657426152159 0 0.0064768997560532204 -0.037331622768610934 0 0.0067048247083485897 -0.037598330763780025 0 0.0071109297480789887 -0.037519257745411171 0 0.0069229372594400047 -0.037261657426152159 0 0.007275308100717792 -0.037148747461248147 0 0.0069229372594400047 -0.037261657426152159 0 0.0068787206418150235 -0.03677975528249567 0 0.007275308100717792 -0.037148747461248147 0 0.0068787206418150235 -0.03677975528249567 0 0.0074612086143416335 -0.036840448013478785 0 0.007275308100717792 -0.037148747461248147 0 0.0074612086143416335 -0.036840448013478785 0 0.0077720495311518617 -0.037047693721252183 0 0.011526937041339646 -0.033794993282058219 0 0.012997515227217166 -0.033068047710920916 0 0.0077720495311518617 -0.037047693721252183 0 0.0078422125897090449 -0.037437843119092207 0 0.0083402947864672262 -0.036756904953925702 0 0.0074612086143416335 -0.036840448013478785 0 0.0077720495311518617 -0.037047693721252183 0 0.0078938336713699955 -0.036675698148707365 0 0.0077720495311518617 -0.037047693721252183 0 0.0083402947864672262 -0.036756904953925702 0 0.0078938336713699955 -0.036675698148707365 0 0.0078422125897090449 -0.037437843119092207 0 0.0077606637094914466 -0.037616967078482735 0 0.0093915526750854867 -0.037162269167831934 0 0.0078422125897090449 -0.037437843119092207 0 0.0083402947864672262 -0.036756904953925702 0 0.0093915526750854867 -0.037162269167831934 0 0.0075049065660110241 -0.03757012028811163 0 0.0075365663712332965 -0.037395373371530462 0 0.0077197136646135461 -0.037549560174468956 0 0.0078422125897090449 -0.037437843119092207 0 0.0075365663712332965 -0.037395373371530462 0 0.0077197136646135461 -0.037549560174468956 0 0.010780074285870292 -0.035173751045046588 0 0.011526937041339646 -0.033794993282058219 0 0.0077720495311518617 -0.037047693721252183 0 0.0078422125897090449 -0.037437843119092207 0 0.0075365663712332965 -0.037395373371530462 0 0.0047304952602109217 -0.03796593633745441 0 0.0053968571382215832 -0.037743409556124735 0 0.0049136922662160474 -0.036967669281450205 0 0.0047304952602109217 -0.03796593633745441 0 0.0052085582836325249 -0.038499194228299241 0 0.0053968571382215832 -0.037743409556124735 0 0.0060342518920908058 -0.03857231794667678 0 0.0067510922387017478 -0.037947023909306911 0 0.0062512155159573143 -0.037748109286345415 0 0.0060342518920908058 -0.03857231794667678 0 0.0053968571382215832 -0.037743409556124735 0 0.0062512155159573143 -0.037748109286345415 0 0.0053968571382215832 -0.037743409556124735 0 0.0062512155159573143 -0.037748109286345415 0 0.0059721136922509513 -0.037069291851056646 0 0.0067048247083485897 -0.037598330763780025 0 0.0062512155159573143 -0.037748109286345415 0 0.0064768997560532204 -0.037331622768610934 0 0.0062512155159573143 -0.037748109286345415 0 0.0064768997560532204 -0.037331622768610934 0 0.0059721136922509513 -0.037069291851056646 0 0.0068787206418150235 -0.03677975528249567 0 0.0064768997560532204 -0.037331622768610934 0 0.0059721136922509513 -0.037069291851056646 0 0.0059721136922509513 -0.037069291851056646 0 0.0049136922662160474 -0.036967669281450205 0 0.0060512866976277242 -0.036099707178601108 0 0.0053968571382215832 -0.037743409556124735 0 0.0059721136922509513 -0.037069291851056646 0 0.0049136922662160474 -0.036967669281450205 0 0.0044246742624414609 -0.037392212480336084 0 0.0044441697224620585 -0.036255926518960417 0 0.0057708003348287979 -0.036371084571226953 0 0.0046615907091849479 -0.037193818873198552 0 0.0059260650188131484 -0.03621206310261868 0 0.0068787206418150235 -0.03677975528249567 0 0.0059721136922509513 -0.037069291851056646 0 0.0060512866976277242 -0.036099707178601108 0 0.0044441697224620585 -0.036255926518960417 0 0.0057708003348287979 -0.036371084571226953 0 0.0061902395515369682 -0.034999939086188259 0 0.0059260650188131484 -0.03621206310261868 0 0.0070814514905946464 -0.035220592080287418 0 0.0057708003348287979 -0.036371084571226953 0 0.0061902395515369682 -0.034999939086188259 0 0.0071611289862725854 -0.035164704967544848 0 0.0042023784013957661 -0.034999984554456812 0 0.0044441697224620585 -0.036255926518960417 0 0.0061902395515369682 -0.034999939086188259 0 0.0081111317632946676 -0.036245881674540952 0 0.0078003779656894952 -0.035669671644796307 0 0.009061279735336214 -0.035932968724625904 0 0.0081111317632946676 -0.036245881674540952 0 0.0075235684182147506 -0.03639392405467743 0 0.0078003779656894952 -0.035669671644796307 0 0.0081111317632946676 -0.036245881674540952 0 0.0083402947864672262 -0.036756904953925702 0 0.009061279735336214 -0.035932968724625904 0 0.0081111317632946676 -0.036245881674540952 0 0.0078938336713699955 -0.036675698148707365 0 0.0075235684182147506 -0.03639392405467743 0 0.0074612086143416335 -0.036840448013478785 0 0.0078938336713699955 -0.036675698148707365 0 0.0075235684182147506 -0.03639392405467743 0 0.0081111317632946676 -0.036245881674540952 0 0.0083402947864672262 -0.036756904953925702 0 0.0078938336713699955 -0.036675698148707365 0 0.0068787206418150235 -0.03677975528249567 0 0.0075235684182147506 -0.03639392405467743 0 0.0070687813396497906 -0.036015585227032174 0 0.0068787206418150235 -0.03677975528249567 0 0.0060512866976277242 -0.036099707178601108 0 0.0070687813396497906 -0.036015585227032174 0 0.0068787206418150235 -0.03677975528249567 0 0.0074612086143416335 -0.036840448013478785 0 0.0075235684182147506 -0.03639392405467743 0 0.0075235684182147506 -0.03639392405467743 0 0.0070687813396497906 -0.036015585227032174 0 0.0078003779656894952 -0.035669671644796307 0 0.0070687813396497906 -0.036015585227032174 0 0.0071611289862725854 -0.035164704967544848 0 0.0078003779656894952 -0.035669671644796307 0 0.0060512866976277242 -0.036099707178601108 0 0.0070687813396497906 -0.036015585227032174 0 0.0071611289862725854 -0.035164704967544848 0 0.0061902395515369682 -0.034999939086188259 0 0.0071611289862725854 -0.035164704967544848 0 0.0081781539033419105 -0.034999843345104711 0 0.0071611289862725854 -0.035164704967544848 0 0.0081781539033419105 -0.034999843345104711 0 0.0078003779656894952 -0.035669671644796307 0 0.0081781539033419105 -0.034999843345104711 0 0.0078003779656894952 -0.035669671644796307 0 0.009061279735336214 -0.035932968724625904 0 0.0081781539033419105 -0.034999843345104711 0 0.009061279735336214 -0.035932968724625904 0 0.010165954820415598 -0.034999838027981886 0 0.0083402947864672262 -0.036756904953925702 0 0.009061279735336214 -0.035932968724625904 0 0.0093915526750854867 -0.037162269167831934 0 0.009061279735336214 -0.035932968724625904 0 0.010984960787434528 -0.036585065527364395 0 0.0093915526750854867 -0.037162269167831934 0 0.013076346677306996 -0.033522986191451984 0 0.012997515227217166 -0.033068047710920916 0 0.009061279735336214 -0.035932968724625904 0 0.010165954820415598 -0.034999838027981886 0 0.010984960787434528 -0.036585065527364395 0 0.010165954820415598 -0.034999838027981886 0 0.01215384893861414 -0.03499999632993394 0 0.010984960787434528 -0.036585065527364395 0 0.012150588325298375 -0.035005374681074009 0 0.013076346677306996 -0.033522986191451984 0 0.01215423139264697 -0.035000092000351417 0 0.012236147904293837 -0.035420110219635349 0 0.011539113840003123 -0.036210729681346213 0 0.013982053264151412 -0.0340682147532285 0 0.014921711431901062 -0.035311585736166273 0 0.012801561105278268 -0.035378588581239441 0 0.01215423139264697 -0.035000092000351417 0 0.013495012957857478 -0.034999882505494483 0 0.012801561105278268 -0.035378588581239441 0 0.012370135353033527 -0.036019892942751486 0 0.013583594405749556 -0.035548664404147806 0 0.012801561105278268 -0.035378588581239441 0 0.01215423139264697 -0.035000092000351417 0 0.012236147904293837 -0.035420110219635349 0 0.013230498524788244 -0.035380138236853938 0 0.013982053264151412 -0.0340682147532285 0 0.012801561105278268 -0.035378588581239441 0 0.012236147904293837 -0.035420110219635349 0 0.012370135353033527 -0.036019892942751486 0 0.017090775520059592 -0.0347610504356137 0 0.017001280278493406 -0.033458978437420323 0 0.016395749689868521 -0.034288686870035119 0 0.013982053264151412 -0.0340682147532285 0 0.015663847092820888 -0.031419815103038949 0 0.012236147904293837 -0.035420110219635349 0 0.012335781331304023 -0.035801176852410417 0 0.011539113840003123 -0.036210729681346213 0 0.013982053264151412 -0.0340682147532285 0 0.013076346677306996 -0.033522986191451984 0 0.014428084284457092 -0.03110032712851904 0 0.015440402045369495 -0.030604446020718962 0 0.015122107295503635 -0.029616280619245001 0 0.014428084284457092 -0.03110032712851904 0 0.015122107295503635 -0.029616280619245001 0 0.014123985445060584 -0.029561566128002016 0 0.014123985445060584 -0.029561566128002016 0 0.014596783921993055 -0.028703632082483065 0 0.01384069282345448 -0.028111648259649478 0 0.015663847092820888 -0.031419815103038949 0 0.016261133314755143 -0.029382865359559064 0 0.015122107295503635 -0.029616280619245001 0 0.014123985445060584 -0.029561566128002016 0 0.014596783921993055 -0.028703632082483065 0 0.015122107295503635 -0.029616280619245001 0 0.014596783921993055 -0.028703632082483065 0 0.015371149786863998 -0.028635542107067598 0 0.015371149786863998 -0.028635542107067598 0 0.016066281054541831 -0.028550436844779828 0 0.016128201881653145 -0.029384827105636932 0 0.015122107295503635 -0.029616280619245001 0 0.015371149786863998 -0.028635542107067598 0 0.016128201881653145 -0.029384827105636932 0 0.016468353284911651 -0.028365320264552317 0 0.016310553185178236 -0.028612122921753087 0 0.016720353177073061 -0.02831734682368112 0 0.016469572461348305 -0.028656079242798595 0 0.016563115026433036 -0.028223959567686616 0 0.016066281054541831 -0.028550436844779828 0 0.016128201881653145 -0.029384827105636932 0 0.016563115026433036 -0.028223959567686616 0 0.016469572461348305 -0.028656079242798595 0 0.015844420749159434 -0.028818670895511486 0 0.016563115026433036 -0.028223959567686616 0 0.016897879057735994 -0.028739984228498591 0 0.016469572461348305 -0.028656079242798595 0 0.016248729914790174 -0.029278933150119563 0 0.016469572461348305 -0.028656079242798595 0 0.016248729914790174 -0.029278933150119563 0 0.015844420749159434 -0.028818670895511486 0 0.015440402045369495 -0.030604446020718962 0 0.015122107295503635 -0.029616280619245001 0 0.016128201881653145 -0.029384827105636932 0 0.015134097176171576 -0.029888747541198187 0 0.016248729914790174 -0.029278933150119563 0 0.015844420749159434 -0.028818670895511486 0 0.013076346677306996 -0.033522986191451984 0 0.016468353284911651 -0.028365320264552317 0 0.015331343187173703 -0.034746428940931044 0 0.015197173910256601 -0.034660468239373354 0 0.014991715032759749 -0.034582661855158944 0 0.015260091148319357 -0.034521055642362387 0 0.015197173910256601 -0.034660468239373354 0 0.015237513901360036 -0.034593838686671367 0 0.015260091148319357 -0.034521055642362387 0 0.015331343187173703 -0.034746428940931044 0 0.015197173910256601 -0.034660468239373354 0 0.015772663391038597 -0.03521009821502432 0 0.016457833738657106 -0.035165168819472771 0 0.016665437015955176 -0.034999214176573701 0 0.01569576981784002 -0.035219252815128332 0 0.017812714370084696 -0.035757368139623727 0 0.015331343187173703 -0.034746428940931044 0 0.01569576981784002 -0.035219252815128332 0 0.014991715032759749 -0.034582661855158944 0 0.016665437015955176 -0.034999214176573701 0 0.01569576981784002 -0.035219252815128332 0 0.014839273279913478 -0.035000418149936881 0 0.01569576981784002 -0.035219252815128332 0 0.015443192903186513 -0.034729317043164308 0 0.015333365274849985 -0.034933024293930547 0 0.015331343187173703 -0.034746428940931044 0 0.01569576981784002 -0.035219252815128332 0 0.015443192903186513 -0.034729317043164308 0 0.015260091148319357 -0.034521055642362387 0 0.015331343187173703 -0.034746428940931044 0 0.015443192903186513 -0.034729317043164308 0 0.015260091148319357 -0.034521055642362387 0 0.015443192903186513 -0.034729317043164308 0 0.015301696969407258 -0.034280840033121096 0 0.015443192903186513 -0.034729317043164308 0 0.015666963132958935 -0.034416708114766763 0 0.015301696969407258 -0.034280840033121096 0 0.015666963132958935 -0.034416708114766763 0 0.015333365274849985 -0.034933024293930547 0 0.016138293539793576 -0.035086750542426846 0 0.015443192903186513 -0.034729317043164308 0 0.015666963132958935 -0.034416708114766763 0 0.015333365274849985 -0.034933024293930547 0 0.01569576981784002 -0.035219252815128332 0 0.014839273279913478 -0.035000418149936881 0 0.015333365274849985 -0.034933024293930547 0 0.014839273279913478 -0.035000418149936881 0 0.015333365274849985 -0.034933024293930547 0 0.016138293539793576 -0.035086750542426846 0 0.014836411266539876 -0.035000102330894886 0 0.014921711431901062 -0.035311585736166273 0 0.014836308281974322 -0.035000053059321391 0 0.013495012957857478 -0.034999882505494483 0 0.013583594405749556 -0.035548664404147806 0 0.012801561105278268 -0.035378588581239441 0 0.013495012957857478 -0.034999882505494483 0 0.013583594405749556 -0.035548664404147806 0 0.017090775520059592 -0.0347610504356137 0 0.016138293539793576 -0.035086750542426846 0 0.016395749689868521 -0.034288686870035119 0 0.015666963132958935 -0.034416708114766763 0 0.016138293539793576 -0.035086750542426846 0 0.016395749689868521 -0.034288686870035119 0 0.015666963132958935 -0.034416708114766763 0 0.016395749689868521 -0.034288686870035119 0 0.016061089453861713 -0.0336187901877835 0 0.017001280278493406 -0.033458978437420323 0 0.016395749689868521 -0.034288686870035119 0 0.016061089453861713 -0.0336187901877835 0 0.017001280278493406 -0.033458978437420323 0 0.016037248453817328 -0.032305685053376595 0 0.016813288718239325 -0.03200408527712173 0 0.017001280278493406 -0.033458978437420323 0 0.016061089453861713 -0.0336187901877835 0 0.016037248453817328 -0.032305685053376595 0 0.015111431607652544 -0.032132028797977122 0 0.016340108393282975 -0.031681669385771966 0 0.015633973273756614 -0.033140436716467978 0 0.015080514498073665 -0.032144890005773329 0 0.016037248453817328 -0.032305685053376595 0 0.015633973273756614 -0.033140436716467978 0 0.016061089453861713 -0.0336187901877835 0 0.016037248453817328 -0.032305685053376595 0 0.015633973273756614 -0.033140436716467978 0 0.015543384604800713 -0.033919885628808454 0 0.015085653512447424 -0.03388792866983014 0 0.015633973273756614 -0.033140436716467978 0 0.016061089453861713 -0.0336187901877835 0 0.015543384604800713 -0.033919885628808454 0 0.015666963132958935 -0.034416708114766763 0 0.016061089453861713 -0.0336187901877835 0 0.015543384604800713 -0.033919885628808454 0 0.015666963132958935 -0.034416708114766763 0 0.015543384604800713 -0.033919885628808454 0 0.015301696969407258 -0.034280840033121096 0 0.015260091148319357 -0.034521055642362387 0 0.015301696969407258 -0.034280840033121096 0 0.015209020971775955 -0.034244599866759477 0 0.015301696969407258 -0.034280840033121096 0 0.015085653512447424 -0.03388792866983014 0 0.015209020971775955 -0.034244599866759477 0 0.015543384604800713 -0.033919885628808454 0 0.015301696969407258 -0.034280840033121096 0 0.015085653512447424 -0.03388792866983014 0 0.015633973273756614 -0.033140436716467978 0 0.015085653512447424 -0.03388792866983014 0 0.015080514498073665 -0.032144890005773329 0 0.015080514498073665 -0.032144890005773329 0 0.013076089746100193 -0.031695350178577601 0 0.014192916229997873 -0.030712474214890654 0 0.01503847046635865 -0.033835002536536388 0 0.014229624259424719 -0.032959990883969281 0 0.015085653512447424 -0.03388792866983014 0 0.015080514498073665 -0.032144890005773329 0 0.013076089746100193 -0.031695350178577601 0 0.015282645296215822 -0.034238809189385426 0 0.015246077230362885 -0.034304547557710334 0 0.015158095457335952 -0.034253805866335384 0 0.015282645296215822 -0.034238809189385426 0 0.015246077230362885 -0.034304547557710334 0 0.015209020971775955 -0.034244599866759477 0 0.015085653512447424 -0.03388792866983014 0 0.015282645296215822 -0.034238809189385426 0 0.015209020971775955 -0.034244599866759477 0 0.015246077230362885 -0.034304547557710334 0 0.015209020971775955 -0.034244599866759477 0 0.015240758189794347 -0.034443434962104426 0 0.015209020971775955 -0.034244599866759477 0 0.015237513901360036 -0.034593838686671367 0 0.015240758189794347 -0.034443434962104426 0 0.015260091148319357 -0.034521055642362387 0 0.015209020971775955 -0.034244599866759477 0 0.015237513901360036 -0.034593838686671367 0 0.013431865401790281 -0.029338737365697556 0 0.013424057398889964 -0.027486553004829758 0 0.012134617819529269 -0.027840344033357542 0 0.013431865401790281 -0.029338737365697556 0 0.014658281808334747 -0.027959537831804489 0 0.013424057398889964 -0.027486553004829758 0 0.013076089746100193 -0.031695350178577601 0 0.013431865401790281 -0.029338737365697556 0 0.011778362430553083 -0.029725680551749185 0 0.013076089746100193 -0.031695350178577601 0 0.013431865401790281 -0.029338737365697556 0 0.014192916229997873 -0.030712474214890654 0 0.013431865401790281 -0.029338737365697556 0 0.014192916229997873 -0.030712474214890654 0 0.015205869547842876 -0.029815070350484581 0 0.015080514498073665 -0.032144890005773329 0 0.014192916229997873 -0.030712474214890654 0 0.015205869547842876 -0.029815070350484581 0 0.013431865401790281 -0.029338737365697556 0 0.015205869547842876 -0.029815070350484581 0 0.014658281808334747 -0.027959537831804489 0 0.015205869547842876 -0.029815070350484581 0 0.016077573117261944 -0.028125731245256913 0 0.014658281808334747 -0.027959537831804489 0 0.015205869547842876 -0.029815070350484581 0 0.016077573117261944 -0.028125731245256913 0 0.016818512472451107 -0.029545750149117853 0 0.015080514498073665 -0.032144890005773329 0 0.015205869547842876 -0.029815070350484581 0 0.016586022476736528 -0.031017154324984884 0 0.015205869547842876 -0.029815070350484581 0 0.016586022476736528 -0.031017154324984884 0 0.016818512472451107 -0.029545750149117853 0 0.016586022476736528 -0.031017154324984884 0 0.018085789309760011 -0.030253195538719985 0 0.016818512472451107 -0.029545750149117853 0 0.016340108393282975 -0.031681669385771966 0 0.016261133314755143 -0.029382865359559064 0 0.016261133314755143 -0.029382865359559064 0 0.017002437995882722 -0.027415435635198836 0 0.018085789309760011 -0.030253195538719985 0 0.016818512472451107 -0.029545750149117853 0 0.01749787233728967 -0.028356645922147761 0 0.016077573117261944 -0.028125731245256913 0 0.016818512472451107 -0.029545750149117853 0 0.01749787233728967 -0.028356645922147761 0 0.016077573117261944 -0.028125731245256913 0 0.01749787233728967 -0.028356645922147761 0 0.016538653068314198 -0.026565201573442287 0 0.017002437995882722 -0.027415435635198836 0 0.01664258594326673 -0.026730480521529591 0 0.016512146349459758 -0.026704215781061039 0 0.016538653068314198 -0.026565201573442287 0 0.016582272318657446 -0.026627470947740695 0 0.015568172914831037 -0.026753248866341402 0 0.014424630008791859 -0.026154019100147623 0 0.015974228478065962 -0.025130921687565387 0 0.016538653068314198 -0.026565201573442287 0 0.015568172914831037 -0.026753248866341402 0 0.015974228478065962 -0.025130921687565387 0 0.016077573117261944 -0.028125731245256913 0 0.015568172914831037 -0.026753248866341402 0 0.014658281808334747 -0.027959537831804489 0 0.016077573117261944 -0.028125731245256913 0 0.016538653068314198 -0.026565201573442287 0 0.015568172914831037 -0.026753248866341402 0 0.014658281808334747 -0.027959537831804489 0 0.014424630008791859 -0.026154019100147623 0 0.013424057398889964 -0.027486553004829758 0 0.015568172914831037 -0.026753248866341402 0 0.014658281808334747 -0.027959537831804489 0 0.014424630008791859 -0.026154019100147623 0 0.013381175766905765 -0.025337878894317139 0 0.012721340454422803 -0.026281094356921563 0 0.012582554478017984 -0.024307569997405798 0 0.014424630008791859 -0.026154019100147623 0 0.013381175766905765 -0.025337878894317139 0 0.012721340454422803 -0.026281094356921563 0 0.014424630008791859 -0.026154019100147623 0 0.012721340454422803 -0.026281094356921563 0 0.013424057398889964 -0.027486553004829758 0 0.012721340454422803 -0.026281094356921563 0 0.013424057398889964 -0.027486553004829758 0 0.012134617819529269 -0.027840344033357542 0 0.016471469997195412 -0.027107742457739052 0 0.016119215720691676 -0.028008197302354151 0 0.015092628701520521 -0.027609982223756688 0 0.016489268157226199 -0.027129274157648275 0 0.015690604295011668 -0.026989093037250174 0 0.016471469997195412 -0.027107742457739052 0 0.016574898468001632 -0.026770505833582141 0 0.016558882222591678 -0.026751293320933053 0 0.016471469997195412 -0.027107742457739052 0 0.016778228792466696 -0.027718208713236988 0 0.016735647502524886 -0.026879898623896784 0 0.016471469997195412 -0.027107742457739052 0 0.016778228792466696 -0.027718208713236988 0 0.016119215720691676 -0.028008197302354151 0 0.016778228792466696 -0.027718208713236988 0 0.016563115026433036 -0.028223959567686616 0 0.016119215720691676 -0.028008197302354151 0 0.016755328456006913 -0.028033957360167384 0 0.016778228792466696 -0.027718208713236988 0 0.016563115026433036 -0.028223959567686616 0 0.016066281054541831 -0.028550436844779828 0 0.016563115026433036 -0.028223959567686616 0 0.016119215720691676 -0.028008197302354151 0 0.015371149786863998 -0.028635542107067598 0 0.016066281054541831 -0.028550436844779828 0 0.016119215720691676 -0.028008197302354151 0 0.015371149786863998 -0.028635542107067598 0 0.016119215720691676 -0.028008197302354151 0 0.015092628701520521 -0.027609982223756688 0 0.014596783921993055 -0.028703632082483065 0 0.015371149786863998 -0.028635542107067598 0 0.015092628701520521 -0.027609982223756688 0 0.016261133314755143 -0.029382865359559064 0 0.015690604295011668 -0.026989093037250174 0 0.014596783921993055 -0.028703632082483065 0 0.01384069282345448 -0.028111648259649478 0 0.015092628701520521 -0.027609982223756688 0 0.016512146349459758 -0.026704215781061039 0 0.016574898468001632 -0.026770505833582141 0 0.016582272318657446 -0.026627470947740695 0 0.016512182363971159 -0.026797309341584894 0 0.016512146349459758 -0.026704215781061039 0 0.016574898468001632 -0.026770505833582141 0 0.016558882222591678 -0.026751293320933053 0 0.016582272318657446 -0.026627470947740695 0 0.016639008292372151 -0.026494899933137608 0 0.016574898468001632 -0.026770505833582141 0 0.016558882222591678 -0.026751293320933053 0 0.016582272318657446 -0.026627470947740695 0 0.016582272318657446 -0.026627470947740695 0 0.016639008292372151 -0.026494899933137608 0 0.016684573864807817 -0.026009466963863616 0 0.016538653068314198 -0.026565201573442287 0 0.016582272318657446 -0.026627470947740695 0 0.016684573864807817 -0.026009466963863616 0 0.016610313573841712 -0.026658751833999503 0 0.016782184284965355 -0.026468457876500803 0 0.016675049018813632 -0.026340756157472056 0 0.016639008292372151 -0.026494899933137608 0 0.016610313573841712 -0.026658751833999503 0 0.016675049018813632 -0.026340756157472056 0 0.016558882222591678 -0.026751293320933053 0 0.016639008292372151 -0.026494899933137608 0 0.016610313573841712 -0.026658751833999503 0 0.016471469997195412 -0.027107742457739052 0 0.016558882222591678 -0.026751293320933053 0 0.016610313573841712 -0.026658751833999503 0 0.016610313573841712 -0.026658751833999503 0 0.016735647502524886 -0.026879898623896784 0 0.016782184284965355 -0.026468457876500803 0 0.017239984693191629 -0.026833653067336122 0 0.016778228792466696 -0.027718208713236988 0 0.016735647502524886 -0.026879898623896784 0 0.017239984693191629 -0.026833653067336122 0 0.016735647502524886 -0.026879898623896784 0 0.016782184284965355 -0.026468457876500803 0 0.016471469997195412 -0.027107742457739052 0 0.016610313573841712 -0.026658751833999503 0 0.016735647502524886 -0.026879898623896784 0 0.016782184284965355 -0.026468457876500803 0 0.016675049018813632 -0.026340756157472056 0 0.016724539634408189 -0.026459138996565629 0 0.014152842896587171 -0.023737436155291138 0 0.01375942204059909 -0.023468929766176337 0 0.01038410608098822 -0.021127023106111961 0 0.011820862353566788 -0.021109293121256773 0 0.010272101569181872 -0.020630193233434794 0 0.01043038756656452 -0.021165894357596981 0 0.010934919957528681 -0.021798906627994545 0 0.01038410608098822 -0.021127023106111961 0 0.011385898999235771 -0.021729808100278938 0 0.011506475810420851 -0.022852464946372778 0 0.01038410608098822 -0.021127023106111961 0 0.010350726748437433 -0.0206246827381701 0 0.010330095560406493 -0.020809155953697343 0 0.01038410608098822 -0.021127023106111961 0 0.011385898999235771 -0.021729808100278938 0 0.011820862353566788 -0.021109293121256773 0 0.011385898999235771 -0.021729808100278938 0 0.011820862353566788 -0.021109293121256773 0 0.012647109800888871 -0.022529695515498972 0 0.016639008292372151 -0.026494899933137608 0 0.016675049018813632 -0.026340756157472056 0 0.016684573864807817 -0.026009466963863616 0 0.014152842896587171 -0.023737436155291138 0 0.014906043657430411 -0.023916800945135406 0 0.013233479082016828 -0.021863079258238362 0 0.012647109800888871 -0.022529695515498972 0 0.01373028262178847 -0.022743851232972574 0 0.011820862353566788 -0.021109293121256773 0 0.013233479082016828 -0.021863079258238362 0 0.012647109800888871 -0.022529695515498972 0 0.012647109800888871 -0.022529695515498972 0 0.012439560449291481 -0.023758498127500187 0 0.011506475810420851 -0.022852464946372778 0 0.012647109800888871 -0.022529695515498972 0 0.01373028262178847 -0.022743851232972574 0 0.013495868418946162 -0.023307609471502722 0 0.011832075138270845 -0.02172650597091751 0 0.013048792280777039 -0.022643614404968714 0 0.012647109800888871 -0.022529695515498972 0 0.012439560449291481 -0.023758498127500187 0 0.013495868418946162 -0.023307609471502722 0 0.012392952584461169 -0.02172170231896535 0 0.012395608730781714 -0.021721619968143258 0 0.012434037688229361 -0.021722364690009259 0 0.012392952584461169 -0.02172170231896535 0 0.012434037688229361 -0.021722364690009259 0 0.012330912238950095 -0.021719326868326234 0 0.011832075138270845 -0.02172650597091751 0 0.011487412886448395 -0.021602651658958 0 0.010390031316066001 -0.020632350816506613 0 0.010350726748437433 -0.0206246827381701 0 0.010536939540906919 -0.020609846917385946 0 0.010734312045226239 -0.020540357654649129 0 0.010350726748437433 -0.0206246827381701 0 0.010536939540906919 -0.020609846917385946 0 0.010768528205358582 -0.020527405764403716 0 0.010734312045226239 -0.020540357654649129 0 0.010350726748437433 -0.0206246827381701 0 0.011832075138270845 -0.02172650597091751 0 0.010934919957528681 -0.021798906627994545 0 0.010390031316066001 -0.020632350816506613 0 0.01030664209122314 -0.020708959803137892 0 0.010350726748437433 -0.0206246827381701 0 0.010390031316066001 -0.020632350816506613 0 0.01030664209122314 -0.020708959803137892 0 0.010185054179869471 -0.020754151389497443 0 0.01030664209122314 -0.020708959803137892 0 0.010350726748437433 -0.0206246827381701 0 0.010330095560406493 -0.020809155953697343 0 0.011385898999235771 -0.021729808100278938 0 0.012647109800888871 -0.022529695515498972 0 0.011506475810420851 -0.022852464946372778 0 0.013619817570619443 -0.024146096252846885 0 0.013203175131034788 -0.022843872451258556 0 0.012582554478017984 -0.024307569997405798 0 0.013203175131034788 -0.022843872451258556 0 0.012582554478017984 -0.024307569997405798 0 0.01230516501612924 -0.022971406346343367 0 0.013381175766905765 -0.025337878894317139 0 0.013619817570619443 -0.024146096252846885 0 0.012582554478017984 -0.024307569997405798 0 0.014424630008791859 -0.026154019100147623 0 0.013381175766905765 -0.025337878894317139 0 0.013619817570619443 -0.024146096252846885 0 0.014424630008791859 -0.026154019100147623 0 0.013619817570619443 -0.024146096252846885 0 0.015974228478065962 -0.025130921687565387 0 0.013599335788264924 -0.024102240304310234 0 0.014814719235528727 -0.023984526003240903 0 0.013619817570619443 -0.024146096252846885 0 0.013882223959278506 -0.023158321173854954 0 0.013203175131034788 -0.022843872451258556 0 0.013619817570619443 -0.024146096252846885 0 0.013882223959278506 -0.023158321173854954 0 0.013937401477312176 -0.022801322745291067 0 0.013882223959278506 -0.023158321173854954 0 0.013937401477312176 -0.022801322745291067 0 0.01373028262178847 -0.022743851232972574 0 0.014906043657430411 -0.023916800945135406 0 0.014814719235528727 -0.023984526003240903 0 0.016538653068314198 -0.026565201573442287 0 0.016684573864807817 -0.026009466963863616 0 0.015974228478065962 -0.025130921687565387 0 0.013233479082016828 -0.021863079258238362 0 0.013937401477312176 -0.022801322745291067 0 0.01373028262178847 -0.022743851232972574 0 0.013048792280777039 -0.022643614404968714 0 0.013354178200777852 -0.022490794534113134 0 0.01373028262178847 -0.022743851232972574 0 0.013495868418946162 -0.023307609471502722 0 0.013957960907178935 -0.022931378698070718 0 0.012434037688229361 -0.021722364690009259 0 0.012903061664956698 -0.021987695802297189 0 0.012588632926577251 -0.021799845682506799 0 0.012434037688229361 -0.021722364690009259 0 0.012588632926577251 -0.021799845682506799 0 0.012330912238950095 -0.021719326868326234 0 0.012903061664956698 -0.021987695802297189 0 0.012968567697071408 -0.022012371759969489 0 0.012588632926577251 -0.021799845682506799 0 0.013882223959278506 -0.023158321173854954 0 0.01373028262178847 -0.022743851232972574 0 0.013957960907178935 -0.022931378698070718 0 0.013882223959278506 -0.023158321173854954 0 0.013957960907178935 -0.022931378698070718 0 0.013203175131034788 -0.022843872451258556 0 0.013354178200777852 -0.022490794534113134 0 0.013157178038491155 -0.022807607012651093 0 0.012903061664956698 -0.021987695802297189 0 0.012968567697071408 -0.022012371759969489 0 0.013203175131034788 -0.022843872451258556 0 0.012968567697071408 -0.022012371759969489 0 0.012728832309196964 -0.022167354074421535 0 0.013203175131034788 -0.022843872451258556 0 0.012968567697071408 -0.022012371759969489 0 0.012728832309196964 -0.022167354074421535 0 0.012845084193587266 -0.021896171450322563 0 0.012728832309196964 -0.022167354074421535 0 0.013203175131034788 -0.022843872451258556 0 0.01230516501612924 -0.022971406346343367 0 0.012794615691810634 -0.021739687531184566 0 0.012845084193587266 -0.021896171450322563 0 0.012549697824680841 -0.02180302564698287 0 0.012728832309196964 -0.022167354074421535 0 0.012845084193587266 -0.021896171450322563 0 0.012549697824680841 -0.02180302564698287 0 0.012794615691810634 -0.021739687531184566 0 0.012845084193587266 -0.021896171450322563 0 0.012806350872319204 -0.021950040711580795 0 0.012968567697071408 -0.022012371759969489 0 0.012845084193587266 -0.021896171450322563 0 0.012806350872319204 -0.021950040711580795 0 0.012569013317161721 -0.021503048929617952 0 0.012398185888335411 -0.021565654476464618 0 0.012392062300447976 -0.021254943884290861 0 0.011975649804289631 -0.021190686098602668 0 0.012148589437788277 -0.0213943804433274 0 0.011975649804289631 -0.021190686098602668 0 0.011958852478262852 -0.021249967533735332 0 0.011927201687136719 -0.021314635536987477 0 0.012968567697071408 -0.022012371759969489 0 0.012806350872319204 -0.021950040711580795 0 0.012588632926577251 -0.021799845682506799 0 0.012398185888335411 -0.021565654476464618 0 0.012186349346251008 -0.02157495176614058 0 0.012806350872319204 -0.021950040711580795 0 0.012588632926577251 -0.021799845682506799 0 0.012135772083472579 -0.021572719021273782 0 0.012588632926577251 -0.021799845682506799 0 0.012330912238950095 -0.021719326868326234 0 0.012135772083472579 -0.021572719021273782 0 0.011958852478262852 -0.021249967533735332 0 0.012135772083472579 -0.021572719021273782 0 0.011950816733248845 -0.021193468020476162 0 0.011975649804289631 -0.021190686098602668 0 0.011958852478262852 -0.021249967533735332 0 0.012135772083472579 -0.021572719021273782 0 0.011958852478262852 -0.021249967533735332 0 0.011811874378478915 -0.02125442598360228 0 0.011950816733248845 -0.021193468020476162 0 0.011811874378478915 -0.02125442598360228 0 0.011927201687136719 -0.021314635536987477 0 0.011555562446869819 -0.021389413667278288 0 0.011958852478262852 -0.021249967533735332 0 0.011811874378478915 -0.02125442598360228 0 0.011927201687136719 -0.021314635536987477 0 0.011927201687136719 -0.021314635536987477 0 0.01196301463145546 -0.021584289981893618 0 0.011555562446869819 -0.021389413667278288 0 0.01196301463145546 -0.021584289981893618 0 0.011555562446869819 -0.021389413667278288 0 0.011493899621767476 -0.02190954121248137 0 0.011927201687136719 -0.021314635536987477 0 0.01196301463145546 -0.021584289981893618 0 0.012148589437788277 -0.0213943804433274 0 0.011975649804289631 -0.021190686098602668 0 0.011927201687136719 -0.021314635536987477 0 0.012148589437788277 -0.0213943804433274 0 0.012392062300447976 -0.021254943884290861 0 0.012148589437788277 -0.0213943804433274 0 0.012365929236272518 -0.021459280251515073 0 0.012148589437788277 -0.0213943804433274 0 0.012287689808452915 -0.021596707939658767 0 0.012365929236272518 -0.021459280251515073 0 0.01196301463145546 -0.021584289981893618 0 0.012148589437788277 -0.0213943804433274 0 0.012287689808452915 -0.021596707939658767 0 0.012287689808452915 -0.021596707939658767 0 0.012462374298501677 -0.021570857838014976 0 0.012365929236272518 -0.021459280251515073 0 0.012462374298501677 -0.021570857838014976 0 0.012365929236272518 -0.021459280251515073 0 0.012516625041117665 -0.021475961613130191 0 0.012392062300447976 -0.021254943884290861 0 0.012365929236272518 -0.021459280251515073 0 0.012516625041117665 -0.021475961613130191 0 0.010856382307466444 -0.020836211194123412 0 0.011094980611134439 -0.021057269473341647 0 0.010631704665384791 -0.020992061418349653 0 0.010594303370257779 -0.020689649031343561 0 0.010856382307466444 -0.020836211194123412 0 0.010631704665384791 -0.020992061418349653 0 0.010350739000254251 -0.0206840949509507 0 0.010594303370257779 -0.020689649031343561 0 0.010631704665384791 -0.020992061418349653 0 0.010350739000254251 -0.0206840949509507 0 0.010631704665384791 -0.020992061418349653 0 0.010131352175251851 -0.020827907356594188 0 0.010390031316066001 -0.020632350816506613 0 0.010350739000254251 -0.0206840949509507 0 0.010594303370257779 -0.020689649031343561 0 0.010390031316066001 -0.020632350816506613 0 0.010536939540906919 -0.020609846917385946 0 0.010594303370257779 -0.020689649031343561 0 0.010734312045226239 -0.020540357654649129 0 0.010536939540906919 -0.020609846917385946 0 0.010594303370257779 -0.020689649031343561 0 0.010852783407279997 -0.020470271112646925 0 0.010734312045226239 -0.020540357654649129 0 0.010951983294406525 -0.020633354400051609 0 0.010594303370257779 -0.020689649031343561 0 0.010951983294406525 -0.020633354400051609 0 0.010856382307466444 -0.020836211194123412 0 0.010734312045226239 -0.020540357654649129 0 0.010594303370257779 -0.020689649031343561 0 0.010951983294406525 -0.020633354400051609 0 0.011832075138270845 -0.02172650597091751 0 0.011784551959758695 -0.021078136934133192 0 0.012392952584461169 -0.02172170231896535 0 0.012395608730781714 -0.021721619968143258 0 0.012429557132816968 -0.021650779608670467 0 0.010852783407279997 -0.020470271112646925 0 0.010951983294406525 -0.020633354400051609 0 0.011301801588969977 -0.020614493250143091 0 0.010951983294406525 -0.020633354400051609 0 0.011301801588969977 -0.020614493250143091 0 0.011094333791249055 -0.020817365884311385 0 0.010951983294406525 -0.020633354400051609 0 0.010856382307466444 -0.020836211194123412 0 0.011094333791249055 -0.020817365884311385 0 0.012392952584461169 -0.02172170231896535 0 0.012330912238950095 -0.021719326868326234 0 0.012429557132816968 -0.021650779608670467 0 0.012429557132816968 -0.021650779608670467 0 0.012135772083472579 -0.021572719021273782 0 0.011950816733248845 -0.021193468020476162 0 0.012330912238950095 -0.021719326868326234 0 0.012429557132816968 -0.021650779608670467 0 0.012135772083472579 -0.021572719021273782 0 0.011784551959758695 -0.021078136934133192 0 0.011967488619332096 -0.021224723181414652 0 0.011301801588969977 -0.020614493250143091 0 0.011950816733248845 -0.021193468020476162 0 0.011378766769372413 -0.021022234981976085 0 0.011950816733248845 -0.021193468020476162 0 0.011378766769372413 -0.021022234981976085 0 0.011509162220859464 -0.021231252271006879 0 0.011378766769372413 -0.021022234981976085 0 0.011094980611134439 -0.021057269473341647 0 0.011509162220859464 -0.021231252271006879 0 0.011811874378478915 -0.02125442598360228 0 0.011950816733248845 -0.021193468020476162 0 0.011509162220859464 -0.021231252271006879 0 0.010856382307466444 -0.020836211194123412 0 0.011094333791249055 -0.020817365884311385 0 0.011094980611134439 -0.021057269473341647 0 0.011301801588969977 -0.020614493250143091 0 0.011378766769372413 -0.021022234981976085 0 0.011094333791249055 -0.020817365884311385 0 0.011378766769372413 -0.021022234981976085 0 0.011094333791249055 -0.020817365884311385 0 0.011094980611134439 -0.021057269473341647 0 0.011094980611134439 -0.021057269473341647 0 0.011038539875246715 -0.021269002153644658 0 0.011509162220859464 -0.021231252271006879 0 0.011094980611134439 -0.021057269473341647 0 0.011038539875246715 -0.021269002153644658 0 0.010631704665384791 -0.020992061418349653 0 0.011038539875246715 -0.021269002153644658 0 0.011509162220859464 -0.021231252271006879 0 0.011555562446869819 -0.021389413667278288 0 0.011811874378478915 -0.02125442598360228 0 0.011509162220859464 -0.021231252271006879 0 0.011555562446869819 -0.021389413667278288 0 0.011038539875246715 -0.021269002153644658 0 0.011555562446869819 -0.021389413667278288 0 0.010882587419663413 -0.021530460685763596 0 0.011038539875246715 -0.021269002153644658 0 0.010662358461668436 -0.021335426865575925 0 0.010882587419663413 -0.021530460685763596 0 0.011038539875246715 -0.021269002153644658 0 0.010662358461668436 -0.021335426865575925 0 0.010631704665384791 -0.020992061418349653 0 0.010662358461668436 -0.021335426865575925 0 0.010631704665384791 -0.020992061418349653 0 0.010275257515243094 -0.021247093756052157 0 0.010631704665384791 -0.020992061418349653 0 0.010275257515243094 -0.021247093756052157 0 0.010131352175251851 -0.020827907356594188 0 0.010662358461668436 -0.021335426865575925 0 0.010275257515243094 -0.021247093756052157 0 0.010527344221060421 -0.021512371386174206 0 0.010275257515243094 -0.021247093756052157 0 0.0099542430733395217 -0.021326597733996169 0 0.0097621062172364159 -0.021079669793562468 0 0.0099542430733395217 -0.021326597733996169 0 0.0097621062172364159 -0.021079669793562468 0 0.0096674100237783521 -0.021442208956365887 0 0.0097621062172364159 -0.021079669793562468 0 0.0097099684304102346 -0.020629363219044412 0 0.0091907047372531379 -0.020875748607320287 0 0.0097621062172364159 -0.021079669793562468 0 0.010131352175251851 -0.020827907356594188 0 0.0097099684304102346 -0.020629363219044412 0 0.010275257515243094 -0.021247093756052157 0 0.0097621062172364159 -0.021079669793562468 0 0.010131352175251851 -0.020827907356594188 0 0.010350739000254251 -0.0206840949509507 0 0.010131352175251851 -0.020827907356594188 0 0.0099593795765151732 -0.020360212709367817 0 0.010131352175251851 -0.020827907356594188 0 0.0097099684304102346 -0.020629363219044412 0 0.0099593795765151732 -0.020360212709367817 0 0.0097099684304102346 -0.020629363219044412 0 0.0099593795765151732 -0.020360212709367817 0 0.0091641562706070382 -0.02016115135430923 0 0.0099752022959544596 -0.020659843371384091 0 0.0093187237044026865 -0.020603031983410593 0 0.010390031316066001 -0.020632350816506613 0 0.010350739000254251 -0.0206840949509507 0 0.0099593795765151732 -0.020360212709367817 0 0.010341146472432321 -0.020636733948716564 0 0.0099752022959544596 -0.020659843371384091 0 0.0091865193927935795 -0.020872782894954707 0 0.0093458926380456699 -0.020828351999958066 0 0.0091137172803961372 -0.020706239127900327 0 0.0091865193927935795 -0.020872782894954707 0 0.0093458926380456699 -0.020828351999958066 0 0.0094988094365837192 -0.021035865170928109 0 0.010042876393830141 -0.020972276808219226 0 0.0094988094365837192 -0.021035865170928109 0 0.0095790392681764317 -0.020829468041961993 0 0.0093458926380456699 -0.020828351999958066 0 0.0094988094365837192 -0.021035865170928109 0 0.0095790392681764317 -0.020829468041961993 0 0.0097099684304102346 -0.020629363219044412 0 0.0091641562706070382 -0.02016115135430923 0 0.0091907047372531379 -0.020875748607320287 0 0.0091641562706070382 -0.02016115135430923 0 0.0080389046743854341 -0.020371284567341483 0 0.0077723577132492736 -0.020251065514052737 0 0.0093187237044026865 -0.020603031983410593 0 0.0083589159616895264 -0.020548345999786714 0 0.0091865193927935795 -0.020872782894954707 0 0.0094988094365837192 -0.021035865170928109 0 0.0089588554687242035 -0.020890283558166904 0 0.0091641562706070382 -0.02016115135430923 0 0.0091907047372531379 -0.020875748607320287 0 0.0080389046743854341 -0.020371284567341483 0 0.0091907047372531379 -0.020875748607320287 0 0.0087652995461211785 -0.021221642470573343 0 0.0080389046743854341 -0.020371284567341483 0 0.0080931955702920767 -0.020674842777302502 0 0.0080551022239819855 -0.020438704716060935 0 0.0097621062172364159 -0.021079669793562468 0 0.0092753637278881612 -0.021353427091218933 0 0.0096674100237783521 -0.021442208956365887 0 0.0097621062172364159 -0.021079669793562468 0 0.0091907047372531379 -0.020875748607320287 0 0.0092753637278881612 -0.021353427091218933 0 0.0080931955702920767 -0.020674842777302502 0 0.0086444704779113039 -0.021939356238720328 0 0.0092753637278881612 -0.021353427091218933 0 0.0087652995461211785 -0.021221642470573343 0 0.0092248898492349393 -0.021539343083639223 0 0.0091907047372531379 -0.020875748607320287 0 0.0092753637278881612 -0.021353427091218933 0 0.0087652995461211785 -0.021221642470573343 0 0.0071659329250726581 -0.020660145362313115 0 0.0075327834204265923 -0.020572639378942856 0 0.0074411545815476574 -0.020665130022475144 0 0.007550539884655612 -0.020649931402181604 0 0.0075327834204265923 -0.020572639378942856 0 0.0074411545815476574 -0.020665130022475144 0 0.0071659329250726581 -0.020660145362313115 0 0.0071642153976987054 -0.020584390752104571 0 0.0075327834204265923 -0.020572639378942856 0 0.0071642153976987054 -0.020584390752104571 0 0.0075327834204265923 -0.020572639378942856 0 0.0070596391509703347 -0.0204859758081735 0 0.0075327834204265923 -0.020572639378942856 0 0.0070596391509703347 -0.0204859758081735 0 0.0077723577132492736 -0.020251065514052737 0 0.007550539884655612 -0.020649931402181604 0 0.0075327834204265923 -0.020572639378942856 0 0.0080389046743854341 -0.020371284567341483 0 0.00031247348594936301 -0.012354229635155417 0 0.00040442330067361936 -0.01224235901400955 0 0.00063286250100205201 -0.012366609376522229 0 0.00040442330067361936 -0.01224235901400955 0 0.00063286250100205201 -0.012366609376522229 0 0.00082628141169521047 -0.012216569600889309 0 0.0014029947972804238 -0.01234408077291088 0 0.00063286250100205201 -0.012366609376522229 0 0.00082628141169521047 -0.012216569600889309 0 0.0071659329250726581 -0.020660145362313115 0 0.0071642153976987054 -0.020584390752104571 0 0.0066186148793589139 -0.020602200588463074 0 0.004315696463039401 -0.016537661499931681 0 0.0037332506571114434 -0.016402799723297525 0 0.0066186148793589139 -0.020602200588463074 0 0.0065199275256514182 -0.020155397196343718 0 0.0070596391509703347 -0.0204859758081735 0 0.0071642153976987054 -0.020584390752104571 0 0.0066186148793589139 -0.020602200588463074 0 0.0070596391509703347 -0.0204859758081735 0 0.00040442330067361936 -0.01224235901400955 0 0.00038749513106185523 -0.012059422063002404 0 0.00082628141169521047 -0.012216569600889309 0 0.0056331252006250766 -0.020027497863565124 0 0.0066186148793589139 -0.020602200588463074 0 0.0065199275256514182 -0.020155397196343718 0 0.0056331252006250766 -0.020027497863565124 0 0.0065199275256514182 -0.020155397196343718 0 0.0063572833006266451 -0.019661596033456148 0 0.0029040606282277875 -0.015991611932742095 0 0.0037332506571114434 -0.016402799723297525 0 0.0065199275256514182 -0.020155397196343718 0 0.0069471496930636738 -0.01987738900844303 0 0.0063572833006266451 -0.019661596033456148 0 0.0065199275256514182 -0.020155397196343718 0 0.0070596391509703347 -0.0204859758081735 0 0.0069471496930636738 -0.01987738900844303 0 0.0070596391509703347 -0.0204859758081735 0 0.0069471496930636738 -0.01987738900844303 0 0.0074913305300694883 -0.020123253068989488 0 0.0069471496930636738 -0.01987738900844303 0 0.0066993845783971549 -0.019143818063992551 0 0.0077099334233702646 -0.019358717076022307 0 0.0066993845783971549 -0.019143818063992551 0 0.0077099334233702646 -0.019358717076022307 0 0.0072596417028638113 -0.018533150290603838 0 0.0069471496930636738 -0.01987738900844303 0 0.0066993845783971549 -0.019143818063992551 0 0.0063572833006266451 -0.019661596033456148 0 0.0066993845783971549 -0.019143818063992551 0 0.0058953862878164094 -0.019126183357682066 0 0.0063572833006266451 -0.019661596033456148 0 0.0056331252006250766 -0.020027497863565124 0 0.0058953862878164094 -0.019126183357682066 0 0.0063572833006266451 -0.019661596033456148 0 0.0075327834204265923 -0.020572639378942856 0 0.0080389046743854341 -0.020371284567341483 0 0.0077723577132492736 -0.020251065514052737 0 0.0089588554687242035 -0.020890283558166904 0 0.0083611592931732686 -0.020575203973952929 0 0.0087086068835191526 -0.020661643515356851 0 0.0089588554687242035 -0.020890283558166904 0 0.0087086068835191526 -0.020661643515356851 0 0.0089445663972828153 -0.020768639733229927 0 0.0091865193927935795 -0.020872782894954707 0 0.0089588554687242035 -0.020890283558166904 0 0.0089445663972828153 -0.020768639733229927 0 0.0070596391509703347 -0.0204859758081735 0 0.0089588554687242035 -0.020890283558166904 0 0.0083611592931732686 -0.020575203973952929 0 0.0071992749300202096 -0.020530005081844768 0 0.0083589159616895264 -0.020548345999786714 0 0.0070596391509703347 -0.0204859758081735 0 0.0074913305300694883 -0.020123253068989488 0 0.0083611592931732686 -0.020575203973952929 0 0.0074913305300694883 -0.020123253068989488 0 0.0083611592931732686 -0.020575203973952929 0 0.0077099334233702646 -0.019358717076022307 0 0.0083611592931732686 -0.020575203973952929 0 0.0087912591237532273 -0.020709183941164569 0 0.0087086068835191526 -0.020661643515356851 0 0.0083880059750056201 -0.020527198089449174 0 0.0082067506600621426 -0.020079314828453848 0 0.0069471496930636738 -0.01987738900844303 0 0.0074913305300694883 -0.020123253068989488 0 0.0077099334233702646 -0.019358717076022307 0 0.0087912591237532273 -0.020709183941164569 0 0.0088880260719198419 -0.020723840478759185 0 0.0088797502498110473 -0.020680912505095427 0 0.0091865193927935795 -0.020872782894954707 0 0.0088880260719198419 -0.020723840478759185 0 0.0091137172803961372 -0.020706239127900327 0 0.0087912591237532273 -0.020709183941164569 0 0.0088880260719198419 -0.020723840478759185 0 0.0087086068835191526 -0.020661643515356851 0 0.0088880260719198419 -0.020723840478759185 0 0.0087086068835191526 -0.020661643515356851 0 0.0089445663972828153 -0.020768639733229927 0 0.0091865193927935795 -0.020872782894954707 0 0.0088880260719198419 -0.020723840478759185 0 0.0089445663972828153 -0.020768639733229927 0 0.0089998210139947861 -0.020634453891376404 0 0.0088797502498110473 -0.020680912505095427 0 0.0088896037617696572 -0.020557760475141511 0 0.0091137172803961372 -0.020706239127900327 0 0.0089998210139947861 -0.020634453891376404 0 0.0088797502498110473 -0.020680912505095427 0 0.0088880260719198419 -0.020723840478759185 0 0.0091137172803961372 -0.020706239127900327 0 0.0088797502498110473 -0.020680912505095427 0 0.0091137172803961372 -0.020706239127900327 0 0.0091382849916168442 -0.020626660802428497 0 0.0089998210139947861 -0.020634453891376404 0 0.0088797502498110473 -0.020680912505095427 0 0.00876625623300566 -0.020659535882371131 0 0.0088896037617696572 -0.020557760475141511 0 0.0087912591237532273 -0.020709183941164569 0 0.0088797502498110473 -0.020680912505095427 0 0.00876625623300566 -0.020659535882371131 0 0.0082067506600621426 -0.020079314828453848 0 0.0061501922910497777 -0.020532183782391647 0 0.0061501922910497777 -0.020532183782391647 0 0.0051319218608502342 -0.023351307117648254 0 0.001936965945372639 -0.025554052545875956 0 0.0037710933235631495 -0.026093625430613398 0 0.0025278355792153545 -0.026836240591739967 0 0.0030256713444822307 -0.024349790921099873 0 0.001936965945372639 -0.025554052545875956 0 0.0037710933235631495 -0.026093625430613398 0 0.001936965945372639 -0.025554052545875956 0 0.0017560776848758325 -0.026647035624905637 0 0.0025278355792153545 -0.026836240591739967 0 0.001936965945372639 -0.025554052545875956 0 0.00090263208402052762 -0.026717330921052999 0 0.0017560776848758325 -0.026647035624905637 0 0.0051319218608502342 -0.023351307117648254 0 0.0064700432582014541 -0.02397106477920169 0 0.0088896037617696572 -0.020557760475141511 0 0.0090570683852417514 -0.020548542548080157 0 0.0090917369387780011 -0.020374924134113497 0 0.0091634793574730932 -0.02047175355918127 0 0.0090570683852417514 -0.020548542548080157 0 0.0092199008264737242 -0.020571165115299602 0 0.0091634793574730932 -0.02047175355918127 0 0.0090570683852417514 -0.020548542548080157 0 0.0090917369387780011 -0.020374924134113497 0 0.0091382849916168442 -0.020626660802428497 0 0.0090570683852417514 -0.020548542548080157 0 0.0092199008264737242 -0.020571165115299602 0 0.0091382849916168442 -0.020626660802428497 0 0.0089998210139947861 -0.020634453891376404 0 0.0090570683852417514 -0.020548542548080157 0 0.0089998210139947861 -0.020634453891376404 0 0.0088896037617696572 -0.020557760475141511 0 0.0090570683852417514 -0.020548542548080157 0 0.0066993845783971549 -0.019143818063992551 0 0.0058953862878164094 -0.019126183357682066 0 0.0062633361326722278 -0.018512701514547574 0 0.0053979574341072702 -0.018412876115752121 0 0.0058953862878164094 -0.019126183357682066 0 0.0062633361326722278 -0.018512701514547574 0 0.0066993845783971549 -0.019143818063992551 0 0.0070244299596132773 -0.018757387874376193 0 0.0062633361326722278 -0.018512701514547574 0 0.0071863782976090366 -0.018748853914635988 0 0.0061501922910497777 -0.020532183782391647 0 0.0061501922910497777 -0.020532183782391647 0 0.0052650682186614348 -0.021859641086685071 0 0.0070244299596132773 -0.018757387874376193 0 0.0062633361326722278 -0.018512701514547574 0 0.0065686665322727536 -0.01793641586585509 0 0.0062633361326722278 -0.018512701514547574 0 0.0065686665322727536 -0.01793641586585509 0 0.0058699552857917987 -0.017913299251100731 0 0.0053979574341072702 -0.018412876115752121 0 0.0062633361326722278 -0.018512701514547574 0 0.0058699552857917987 -0.017913299251100731 0 0.0065686665322727536 -0.01793641586585509 0 0.0058699552857917987 -0.017913299251100731 0 0.006120602256636196 -0.017131601968330603 0 0.0049735219194987461 -0.017601286494661826 0 0.0058699552857917987 -0.017913299251100731 0 0.006120602256636196 -0.017131601968330603 0 0.0052650682186614348 -0.021859641086685071 0 0.0025028114148629046 -0.024816811307551284 0 0.0037710933235631495 -0.026093625430613398 0 0.0032978148864591852 -0.02750923765450039 0 0.0025278355792153545 -0.026836240591739967 0 0.0037710933235631495 -0.026093625430613398 0 0.0032978148864591852 -0.02750923765450039 0 0.0044386952024350144 -0.027821125707832579 0 0.0032978148864591852 -0.02750923765450039 0 0.0031046167782863296 -0.027888386837631826 0 0.0026720021224249128 -0.027684453524118541 0 0.004455135505671161 -0.029324407354267185 0 0.004052282099010744 -0.029388557871805058 0 0.0040928542149657708 -0.029409951204099071 0 0.004455135505671161 -0.029324407354267185 0 0.0031232727177113403 -0.028337918816455001 0 0.0037576010763544598 -0.028192313020789544 0 0.0045830099674014722 -0.029312240278248584 0 0.0032076371125784368 -0.028975987225434728 0 0.0033302780121722141 -0.02799634269845467 0 0.0031232727177113403 -0.028337918816455001 0 0.0037576010763544598 -0.028192313020789544 0 0.0032978148864591852 -0.02750923765450039 0 0.0031046167782863296 -0.027888386837631826 0 0.0033302780121722141 -0.02799634269845467 0 0.0032978148864591852 -0.02750923765450039 0 0.0033302780121722141 -0.02799634269845467 0 0.0037576010763544598 -0.028192313020789544 0 0.0031046167782863296 -0.027888386837631826 0 0.0033302780121722141 -0.02799634269845467 0 0.0031232727177113403 -0.028337918816455001 0 0.0032978148864591852 -0.02750923765450039 0 0.0037576010763544598 -0.028192313020789544 0 0.0044386952024350144 -0.027821125707832579 0 0.0031155474342580906 -0.026488799632582272 0 0.0025028114148629046 -0.024816811307551284 0 0.004455135505671161 -0.029324407354267185 0 0.0037576010763544598 -0.028192313020789544 0 0.0042225528610310937 -0.028013313065474662 0 0.00039955225990824213 -0.028527092359389793 0 0.0025028114148629046 -0.024816811307551284 0 -0.0030141997631966517 -0.025915457227639417 0 -0.003172888287505859 -0.02685984161694244 0 -0.0041485415286240503 -0.024794928230065863 0 -0.0030141997631966517 -0.025915457227639417 0 -0.0031149658206963333 -0.024971394784384482 0 -0.0041485415286240503 -0.024794928230065863 0 0.0011569154440481107 -0.027277402111505429 0 0.0017560776848758325 -0.026647035624905637 0 0.0020764160665418504 -0.02738525802050595 0 0.0061314484070639228 -0.028501232839111448 0 0.0061682021921924332 -0.028514069809117901 0 0.0061646175218835631 -0.028468922326693714 0 0.0046593005108788287 -0.026939322622430668 0 0.0072070888697931814 -0.02505584707195109 0 0.0058122798271647005 -0.025741388204034221 0 0.0057573081950698709 -0.025609852810297831 0 0.0056987026389818266 -0.025674967451696912 0 0.0046593005108788287 -0.026939322622430668 0 0.0064700432582014541 -0.02397106477920169 0 0.0090849629304330798 -0.020328658112661487 0 0.009154951170912879 -0.020253122006227409 0 0.0092397987145984226 -0.020390614518633922 0 0.0064700432582014541 -0.02397106477920169 0 0.0072070888697931814 -0.02505584707195109 0 0.0072514585119994269 -0.021430511349252144 0 0.0064700432582014541 -0.02397106477920169 0 0.0091634793574730932 -0.02047175355918127 0 0.0090849629304330798 -0.020328658112661487 0 0.0092397987145984226 -0.020390614518633922 0 0.0011569154440481107 -0.027277402111505429 0 0.00090263208402052762 -0.026717330921052999 0 0.0017560776848758325 -0.026647035624905637 0 0.0017560776848758325 -0.026647035624905637 0 0.0025278355792153545 -0.026836240591739967 0 0.0020764160665418504 -0.02738525802050595 0 0.0031232727177113403 -0.028337918816455001 0 0.0011569154440481107 -0.027277402111505429 0 0.0020764160665418504 -0.02738525802050595 0 0.0032978148864591852 -0.02750923765450039 0 0.0025278355792153545 -0.026836240591739967 0 0.0026720021224249128 -0.027684453524118541 0 0.0025278355792153545 -0.026836240591739967 0 0.0020764160665418504 -0.02738525802050595 0 0.0026720021224249128 -0.027684453524118541 0 0.004052282099010744 -0.029388557871805058 0 0.0038987236442055155 -0.029267726629401757 0 0.0039793195143535097 -0.029376391292975517 0 0.0036520301339071398 -0.029158281235961273 0 0.00489907639385391 -0.032543503553087764 0 0.0032076371125784368 -0.028975987225434728 0 0.0046593005108788287 -0.026939322622430668 0 0.0040928542149657708 -0.029409951204099071 0 0.0039793195143535097 -0.029376391292975517 0 0.0039393585731675911 -0.0294116670689611 0 0.0039960197060422697 -0.029509083260581392 0 0.0040928542149657708 -0.029409951204099071 0 0.0037458645322503512 -0.02944673537532299 0 0.0031046167782863296 -0.027888386837631826 0 0.0031232727177113403 -0.028337918816455001 0 0.0026720021224249128 -0.027684453524118541 0 0.0031232727177113403 -0.028337918816455001 0 0.0020764160665418504 -0.02738525802050595 0 0.0026720021224249128 -0.027684453524118541 0 0.004052282099010744 -0.029388557871805058 0 0.0040928542149657708 -0.029409951204099071 0 0.0039793195143535097 -0.029376391292975517 0 0.0039793195143535097 -0.029376391292975517 0 0.0039393585731675911 -0.0294116670689611 0 0.0039323759163444154 -0.029393683858438487 0 0.0042597255205229041 -0.03022204351383638 0 0.0049000601788610296 -0.030566944196907909 0 0.00489907639385391 -0.032543503553087764 0 0.0047667143058301468 -0.033400368583593659 0 0.0049000601788610296 -0.030566944196907909 0 0.0047667143058301468 -0.033400368583593659 0 0.0044313799176401453 -0.032532279398883479 0 0.0044832569592444917 -0.032641597057927962 0 0.0049508067811506852 -0.032558992089499139 0 0.00489907639385391 -0.032543503553087764 0 0.0049000601788610296 -0.030566944196907909 0 0.0046593005108788287 -0.026939322622430668 0 0.0049000601788610296 -0.030566944196907909 0 0.0061314484070639228 -0.028501232839111448 0 0.0060916535934811174 -0.028450106806778234 0 0.0061646175218835631 -0.028468922326693714 0 0.0038987236442055155 -0.029267726629401757 0 0.0039793195143535097 -0.029376391292975517 0 0.0039367545171378185 -0.029381375816298315 0 0.0060916535934811174 -0.028450106806778234 0 0.0061646175218835631 -0.028468922326693714 0 0.0061516398683529776 -0.028435553915819763 0 0.0072070888697931814 -0.02505584707195109 0 0.0077832316150969168 -0.028290152336997706 0 0.0061646175218835631 -0.028468922326693714 0 0.0061516398683529776 -0.028435553915819763 0 0.0062702277032198892 -0.028434538599013768 0 0.0047527791945676089 -0.031650434907531888 0 0.0084670829472653295 -0.031770793967536487 0 0.0087482441424654167 -0.031468369883720017 0 0.0076265733414544257 -0.026175320517214468 0 0.0081119943395939319 -0.023852750170674314 0 0.0072622480794127262 -0.026160858901497278 0 0.0047527791945676089 -0.031650434907531888 0 0.0087482441424654167 -0.031468369883720017 0 0.009631890472752893 -0.030694851016508304 0 0.0061682021921924332 -0.028514069809117901 0 0.0061646175218835631 -0.028468922326693714 0 0.0062702277032198892 -0.028434538599013768 0 0.0047667143058301468 -0.033400368583593659 0 0.009231278794159541 -0.033084264275545228 0 0.0047667143058301468 -0.033400368583593659 0 0.0077832316150969168 -0.028290152336997706 0 0.0077832316150969168 -0.028290152336997706 0 0.0076801793565361726 -0.028578878894143941 0 0.009763490275503715 -0.020571020529873082 0 0.009586443711972318 -0.02064442155161849 0 0.0095546132169621809 -0.021496571104172212 0 0.0088260315995705961 -0.021276864529236189 0 0.0092275822278400921 -0.026715909574140759 0 0.009213794400758599 -0.024437632617158207 0 0.0076265733414544257 -0.026175320517214468 0 0.0081119943395939319 -0.023852750170674314 0 0.0096274365688897457 -0.020540615379858546 0 0.009586443711972318 -0.02064442155161849 0 0.0096216113563774904 -0.020604912883040696 0 0.0096274365688897457 -0.020540615379858546 0 0.009763490275503715 -0.020571020529873082 0 0.009586443711972318 -0.02064442155161849 0 0.0089761947426909433 -0.021249908265572957 0 0.0088260315995705961 -0.021276864529236189 0 0.009154951170912879 -0.020253122006227409 0 0.0094300665459498504 -0.020372570898573351 0 0.0092397987145984226 -0.020390614518633922 0 0.0072070888697931814 -0.02505584707195109 0 0.0088260315995705961 -0.021276864529236189 0 0.0091287402855269751 -0.019803961505039304 0 0.01200862318136078 -0.024159610480410924 0 0.009586443711972318 -0.02064442155161849 0 0.0098992521679916248 -0.020539373196619554 0 0.0098601502416183623 -0.020655056854630177 0 0.0097144568360561009 -0.020652521016543447 0 0.009586443711972318 -0.02064442155161849 0 0.0098601502416183623 -0.020655056854630177 0 0.0097144568360561009 -0.020652521016543447 0 0.0098601502416183623 -0.020655056854630177 0 0.0098421750607865545 -0.020681991073069676 0 0.0097144568360561009 -0.020652521016543447 0 0.009586443711972318 -0.02064442155161849 0 0.0096216113563774904 -0.020604912883040696 0 0.014539498533136989 -0.026443989882989842 0 0.0097016291632852272 -0.027367874762928263 0 0.012687351055966748 -0.028935780979093429 0 0.009586443711972318 -0.02064442155161849 0 0.0095546132169621809 -0.021496571104172212 0 0.0090446730024409915 -0.021490513068408705 0 0.0084704128711955793 -0.031761267839105108 0 0.0087482441424654167 -0.031468369883720017 0 0.0092152195234823705 -0.031794560742868336 0 0.0077832316150969168 -0.028290152336997706 0 0.0092275822278400921 -0.026715909574140759 0 0.0092275822278400921 -0.026715909574140759 0 0.009231278794159541 -0.033084264275545228 0 0.0087482441424654167 -0.031468369883720017 0 0.0092152195234823705 -0.031794560742868336 0 0.009631890472752893 -0.030694851016508304 0 0.0091576412146891235 -0.028801971648686281 0 0.0097016291632852272 -0.027367874762928263 0 0.012687351055966748 -0.028935780979093429 0 0.0092275822278400921 -0.026715909574140759 0 0.01200862318136078 -0.024159610480410924 0 0.01200862318136078 -0.024159610480410924 0 0.01375942204059909 -0.023468929766176337 0 0.016364737014169628 -0.026852262711857436 0 0.01200862318136078 -0.024159610480410924 0 0.0098992521679916248 -0.020539373196619554 0 0.010071794245378463 -0.020694499048204834 0 0.0098601502416183623 -0.020655056854630177 0 0.0098992521679916248 -0.020539373196619554 0 0.010071794245378463 -0.020694499048204834 0 0.010272101569181872 -0.020630193233434794 0 0.0165449736065609 -0.02638096175477703 0 0.01645750795208822 -0.02645567084046694 0 0.016724539634408189 -0.026459138996565629 0 0.010071794245378463 -0.020694499048204834 0 0.010272101569181872 -0.020630193233434794 0 0.010218000160530935 -0.020841050535225499 0 0.01038410608098822 -0.021127023106111961 0 0.010272101569181872 -0.020630193233434794 0 0.010218000160530935 -0.020841050535225499 0 0.01038410608098822 -0.021127023106111961 0 0.010218000160530935 -0.020841050535225499 0 0.010211912653148112 -0.02083402835408733 0 0.010071794245378463 -0.020694499048204834 0 0.010218000160530935 -0.020841050535225499 0 0.010211912653148112 -0.02083402835408733 0 0.010211912653148112 -0.02083402835408733 0 0.010017185366857282 -0.020735321883377705 0 0.010147496898226719 -0.020749243978465063 0 0.01038410608098822 -0.021127023106111961 0 0.010211912653148112 -0.02083402835408733 0 0.010330095560406493 -0.020809155953697343 0 0.010071794245378463 -0.020694499048204834 0 0.0098601502416183623 -0.020655056854630177 0 0.010017185366857282 -0.020735321883377705 0 0.010071794245378463 -0.020694499048204834 0 0.010211912653148112 -0.02083402835408733 0 0.010017185366857282 -0.020735321883377705 0 0.0098601502416183623 -0.020655056854630177 0 0.010017185366857282 -0.020735321883377705 0 0.0098421750607865545 -0.020681991073069676 0 0.010017185366857282 -0.020735321883377705 0 0.0098421750607865545 -0.020681991073069676 0 0.0098928324306216328 -0.020707962598797279 0 0.010017185366857282 -0.020735321883377705 0 0.0098928324306216328 -0.020707962598797279 0 0.010147496898226719 -0.020749243978465063 0 0.0098928324306216328 -0.020707962598797279 0 0.010147496898226719 -0.020749243978465063 0 0.010008070114397662 -0.020757825715251928 0 0.010211912653148112 -0.02083402835408733 0 0.010330095560406493 -0.020809155953697343 0 0.010147496898226719 -0.020749243978465063 0 0.01030664209122314 -0.020708959803137892 0 0.010147496898226719 -0.020749243978465063 0 0.010185054179869471 -0.020754151389497443 0 0.01030664209122314 -0.020708959803137892 0 0.010330095560406493 -0.020809155953697343 0 0.010147496898226719 -0.020749243978465063 0 0.010390031316066001 -0.020632350816506613 0 0.010042876393830141 -0.020972276808219226 0 0.010185054179869471 -0.020754151389497443 0 0.010042876393830141 -0.020972276808219226 0 0.010185054179869471 -0.020754151389497443 0 0.010008070114397662 -0.020757825715251928 0 0.010147496898226719 -0.020749243978465063 0 0.010185054179869471 -0.020754151389497443 0 0.010008070114397662 -0.020757825715251928 0 0.010042876393830141 -0.020972276808219226 0 0.010008070114397662 -0.020757825715251928 0 0.0097399724612343731 -0.0207365735224407 0 0.010042876393830141 -0.020972276808219226 0 0.0097399724612343731 -0.0207365735224407 0 0.0095790392681764317 -0.020829468041961993 0 0.0098928324306216328 -0.020707962598797279 0 0.010008070114397662 -0.020757825715251928 0 0.0097399724612343731 -0.0207365735224407 0 0.0097399724612343731 -0.0207365735224407 0 0.0095670333687654929 -0.02068342851558232 0 0.0095790392681764317 -0.020829468041961993 0 0.0095670333687654929 -0.02068342851558232 0 0.0095790392681764317 -0.020829468041961993 0 0.009383215327518615 -0.020729911544408675 0 0.0093458926380456699 -0.020828351999958066 0 0.0095790392681764317 -0.020829468041961993 0 0.009383215327518615 -0.020729911544408675 0 0.0093458926380456699 -0.020828351999958066 0 0.0091137172803961372 -0.020706239127900327 0 0.009383215327518615 -0.020729911544408675 0 0.0091137172803961372 -0.020706239127900327 0 0.009383215327518615 -0.020729911544408675 0 0.0093407656323945785 -0.020644288722899262 0 0.0091137172803961372 -0.020706239127900327 0 0.0091382849916168442 -0.020626660802428497 0 0.0093407656323945785 -0.020644288722899262 0 0.0095670333687654929 -0.02068342851558232 0 0.009383215327518615 -0.020729911544408675 0 0.0093407656323945785 -0.020644288722899262 0 0.0093407656323945785 -0.020644288722899262 0 0.009384234592107854 -0.020551178598878971 0 0.0095535030460657065 -0.020603223117675519 0 0.0095670333687654929 -0.02068342851558232 0 0.0093407656323945785 -0.020644288722899262 0 0.0095535030460657065 -0.020603223117675519 0 0.0092199008264737242 -0.020571165115299602 0 0.0093407656323945785 -0.020644288722899262 0 0.009384234592107854 -0.020551178598878971 0 0.0091382849916168442 -0.020626660802428497 0 0.0092199008264737242 -0.020571165115299602 0 0.0093407656323945785 -0.020644288722899262 0 0.0091634793574730932 -0.02047175355918127 0 0.0092199008264737242 -0.020571165115299602 0 0.009384234592107854 -0.020551178598878971 0 0.0091634793574730932 -0.02047175355918127 0 0.0092397987145984226 -0.020390614518633922 0 0.009384234592107854 -0.020551178598878971 0 0.0094300665459498504 -0.020372570898573351 0 0.0092397987145984226 -0.020390614518633922 0 0.009384234592107854 -0.020551178598878971 0 0.0096274365688897457 -0.020540615379858546 0 0.009384234592107854 -0.020551178598878971 0 0.0095535030460657065 -0.020603223117675519 0 0.0096274365688897457 -0.020540615379858546 0 0.0095599341462302614 -0.020502294967224648 0 0.009384234592107854 -0.020551178598878971 0 0.0088260315995705961 -0.021276864529236189 0 0.0092628622356251272 -0.020504651654444456 0 0.0096274365688897457 -0.020540615379858546 0 0.0095535030460657065 -0.020603223117675519 0 0.0096216113563774904 -0.020604912883040696 0 0.0095535030460657065 -0.020603223117675519 0 0.0096216113563774904 -0.020604912883040696 0 0.009696292523996031 -0.02065396786053126 0 0.0097144568360561009 -0.020652521016543447 0 0.0096216113563774904 -0.020604912883040696 0 0.009696292523996031 -0.02065396786053126 0 0.0097144568360561009 -0.020652521016543447 0 0.0098421750607865545 -0.020681991073069676 0 0.009696292523996031 -0.02065396786053126 0 0.0098421750607865545 -0.020681991073069676 0 0.0098928324306216328 -0.020707962598797279 0 0.009696292523996031 -0.02065396786053126 0 0.0098928324306216328 -0.020707962598797279 0 0.0097399724612343731 -0.0207365735224407 0 0.009696292523996031 -0.02065396786053126 0 0.0097399724612343731 -0.0207365735224407 0 0.0095670333687654929 -0.02068342851558232 0 0.009696292523996031 -0.02065396786053126 0 0.0095670333687654929 -0.02068342851558232 0 0.0095535030460657065 -0.020603223117675519 0 0.009696292523996031 -0.02065396786053126 0 0.036081264666450501 -0.027289098276471382 0 0.034998535471923248 -0.029523395285057517 0 0.034999484293058249 -0.025481768731817726 0 0.036081264666450501 -0.027289098276471382 0 0.037337534896442662 -0.025872743757722565 0 0.03633511842529244 -0.025851752823339316 0 0.037352186142354638 -0.02739564787544245 0 0.037330156393839256 -0.025906438827104354 0 0.036081264666450501 -0.027289098276471382 0 0.037499760304735577 -0.027869769708133416 0 0.037337534896442662 -0.025872743757722565 0 0.037648612961291912 -0.026240496878224929 0 0.037274613697723266 -0.026693426658835773 0 0.037337534896442662 -0.025872743757722565 0 0.037648612961291912 -0.026240496878224929 0 0.037274613697723266 -0.026693426658835773 0 0.037755083691661528 -0.02692289287851627 0 0.036081264666450501 -0.027289098276471382 0 0.037499760304735577 -0.027869769708133416 0 0.03609344674539261 -0.029341026581645637 0 0.037499760304735577 -0.027869769708133416 0 0.037405401626082448 -0.029847113304156247 0 0.03609344674539261 -0.029341026581645637 0 0.037282942142785637 -0.027444144910056017 0 0.037600085135090541 -0.027493148732042894 0 0.037755083691661528 -0.02692289287851627 0 0.037352186142354638 -0.02739564787544245 0 0.037638543584012606 -0.028020114702134086 0 0.037274613697723266 -0.026693426658835773 0 0.037282942142785637 -0.027444144910056017 0 0.037755083691661528 -0.02692289287851627 0 0.037405401626082448 -0.029847113304156247 0 0.036231319085608053 -0.031022607371671021 0 0.037440707468597796 -0.032464391012112598 0 0.037638543584012606 -0.028020114702134086 0 0.034665182472293575 -0.033132631925780018 0 0.037282942142785637 -0.027444144910056017 0 0.037491466160472713 -0.027687670480114994 0 0.037396392467909656 -0.027897530021222316 0 0.037282942142785637 -0.027444144910056017 0 0.037491466160472713 -0.027687670480114994 0 0.037600085135090541 -0.027493148732042894 0 0.037405401626082448 -0.029847113304156247 0 0.036231319085608053 -0.031022607371671021 0 0.03609344674539261 -0.029341026581645637 0 0.03609344674539261 -0.029341026581645637 0 0.034998535471923248 -0.029523395285057517 0 0.035374112014084733 -0.031352779666242191 0 0.036231319085608053 -0.031022607371671021 0 0.03609344674539261 -0.029341026581645637 0 0.035374112014084733 -0.031352779666242191 0 0.036081264666450501 -0.027289098276471382 0 0.03609344674539261 -0.029341026581645637 0 0.034998535471923248 -0.029523395285057517 0 0.034998535471923248 -0.029523395285057517 0 0.035374112014084733 -0.031352779666242191 0 0.03447809742477996 -0.03416324588698761 0 0.034998535471923248 -0.029523395285057517 0 0.03499626676413601 -0.034999221269573007 0 0.03447809742477996 -0.03416324588698761 0 0.035374112014084733 -0.031352779666242191 0 0.03447809742477996 -0.03416324588698761 0 0.035489918868599438 -0.032546171084494993 0 0.03499626676413601 -0.034999221269573007 0 0.03447809742477996 -0.03416324588698761 0 0.030864544309699187 -0.034996653372603263 0 0.03447809742477996 -0.03416324588698761 0 0.033576932699780994 -0.034050455146555796 0 0.034602174954897542 -0.033486883988072771 0 0.03447809742477996 -0.03416324588698761 0 0.030864544309699187 -0.034996653372603263 0 0.033576932699780994 -0.034050455146555796 0 0.030853802385539888 -0.034999990588986202 0 0.030994772420613513 -0.036639872386420302 0 0.029962957660103706 -0.036187628590072553 0 0.030854497451337018 -0.034998817235034015 0 0.032073690999054306 -0.035692819802388476 0 0.033576932699780994 -0.034050455146555796 0 0.034602174954897542 -0.033486883988072771 0 0.035098613581861129 -0.033079425227950078 0 0.032073690999054306 -0.035692819802388476 0 0.034665182472293575 -0.033132631925780018 0 0.030994772420613513 -0.036639872386420302 0 0.03119499426801374 -0.038144284926851145 0 0.03048875619610945 -0.037333010970713031 0 0.03119499426801374 -0.038144284926851145 0 0.0304915395160428 -0.038155689328044279 0 0.03048875619610945 -0.037333010970713031 0 0.03447809742477996 -0.03416324588698761 0 0.034602174954897542 -0.033486883988072771 0 0.035489918868599438 -0.032546171084494993 0 0.034602174954897542 -0.033486883988072771 0 0.035489918868599438 -0.032546171084494993 0 0.035098613581861129 -0.033079425227950078 0 0.035982338415609529 -0.032681919774302855 0 0.034665182472293575 -0.033132631925780018 0 0.036231319085608053 -0.031022607371671021 0 0.035489918868599438 -0.032546171084494993 0 0.037440707468597796 -0.032464391012112598 0 0.036231319085608053 -0.031022607371671021 0 0.035374112014084733 -0.031352779666242191 0 0.035489918868599438 -0.032546171084494993 0 0.037396392467909656 -0.027897530021222316 0 0.037583773997739781 -0.027781929629431511 0 0.037640781250937193 -0.0278776467074251 0 0.034665182472293575 -0.033132631925780018 0 0.03348582804291355 -0.03386528760736137 0 0.037491466160472713 -0.027687670480114994 0 0.037396392467909656 -0.027897530021222316 0 0.037583773997739781 -0.027781929629431511 0 0.037229274695108595 -0.027794756048761055 0 0.037722202242481857 -0.027721979489856292 0 0.036379036390046887 -0.027486254051127784 0 0.03348582804291355 -0.03386528760736137 0 0.032751954388377663 -0.03280715644030973 0 0.037504272757920398 -0.027764931340390958 0 0.037229274695108595 -0.027794756048761055 0 0.037722202242481857 -0.027721979489856292 0 0.037491466160472713 -0.027687670480114994 0 0.037583773997739781 -0.027781929629431511 0 0.037504272757920398 -0.027764931340390958 0 0.037583773997739781 -0.027781929629431511 0 0.037504272757920398 -0.027764931340390958 0 0.037722202242481857 -0.027721979489856292 0 0.033771277370788763 -0.032038292332995356 0 0.03348582804291355 -0.03386528760736137 0 0.037229274695108595 -0.027794756048761055 0 0.036379036390046887 -0.027486254051127784 0 0.03647493874323969 -0.029717588020229006 0 0.028935797526074784 -0.038214922570525924 0 0.029431690601920631 -0.037124865870657886 0 0.028044100090140082 -0.037258029631707761 0 0.03348582804291355 -0.03386528760736137 0 0.029424518099011969 -0.03760442610708737 0 0.030348456598575341 -0.038185630650008844 0 0.028935797526074784 -0.038214922570525924 0 0.029431690601920631 -0.037124865870657886 0 0.0304915395160428 -0.038155689328044279 0 0.029608549405655073 -0.037179619393478087 0 0.03048875619610945 -0.037333010970713031 0 0.030994772420613513 -0.036639872386420302 0 0.03048875619610945 -0.037333010970713031 0 0.029962957660103706 -0.036187628590072553 0 0.029608549405655073 -0.037179619393478087 0 0.03048875619610945 -0.037333010970713031 0 0.029962957660103706 -0.036187628590072553 0 0.029431690601920631 -0.037124865870657886 0 0.028524271385064904 -0.036064406449718665 0 0.028044100090140082 -0.037258029631707761 0 0.029424518099011969 -0.03760442610708737 0 0.028568054998771446 -0.03603194809510879 0 0.029608549405655073 -0.037179619393478087 0 0.029962957660103706 -0.036187628590072553 0 0.028645707297900079 -0.036133730346574182 0 0.028645707297900079 -0.036133730346574182 0 0.02925311263238484 -0.034999947354753806 0 0.027652071365347503 -0.034999999259030898 0 0.029962957660103706 -0.036187628590072553 0 0.028645707297900079 -0.036133730346574182 0 0.02925311263238484 -0.034999947354753806 0 0.030853802385539888 -0.034999990588986202 0 0.029962957660103706 -0.036187628590072553 0 0.02925311263238484 -0.034999947354753806 0 0.026382141199007374 -0.03573595672461307 0 0.027651902069469325 -0.034999935291691486 0 0.027047873934813546 -0.036380984701151309 0 0.026382141199007374 -0.03573595672461307 0 0.027651902069469325 -0.034999935291691486 0 0.025821304605439434 -0.034999887343313794 0 0.028524271385064904 -0.036064406449718665 0 0.027651902069469325 -0.034999935291691486 0 0.027047873934813546 -0.036380984701151309 0 0.028568054998771446 -0.03603194809510879 0 0.027652292097893293 -0.035000299166335194 0 0.028524271385064904 -0.036064406449718665 0 0.027047873934813546 -0.036380984701151309 0 0.028044100090140082 -0.037258029631707761 0 0.026382141199007374 -0.03573595672461307 0 0.027047873934813546 -0.036380984701151309 0 0.025520159703165974 -0.03611653492142871 0 0.027047873934813546 -0.036380984701151309 0 0.026862960809835482 -0.03749728668388861 0 0.028044100090140082 -0.037258029631707761 0 0.027047873934813546 -0.036380984701151309 0 0.026862960809835482 -0.03749728668388861 0 0.02584781861267384 -0.037187129370896341 0 0.028935797526074784 -0.038214922570525924 0 0.028044100090140082 -0.037258029631707761 0 0.027522583739028234 -0.038231409727072278 0 0.026862960809835482 -0.03749728668388861 0 0.028044100090140082 -0.037258029631707761 0 0.027522583739028234 -0.038231409727072278 0 0.036379036390046887 -0.027486254051127784 0 0.034095848075995805 -0.027504417412750518 0 0.035184400139271099 -0.028590889648534339 0 0.032751954388377663 -0.03280715644030973 0 0.030720968414083342 -0.03286097841272323 0 0.034095848075995805 -0.027504417412750518 0 0.03403212829896219 -0.028342385231888794 0 0.035184400139271099 -0.028590889648534339 0 0.034095848075995805 -0.027504417412750518 0 0.03403212829896219 -0.028342385231888794 0 0.032720795336598073 -0.027668856503032517 0 0.030720968414083342 -0.03286097841272323 0 0.029685149248624434 -0.033190323387256346 0 0.034095848075995805 -0.027504417412750518 0 0.032720795336598073 -0.027668856503032517 0 0.032342894676868322 -0.027648771545838228 0 0.03403212829896219 -0.028342385231888794 0 0.032720795336598073 -0.027668856503032517 0 0.034229905174714789 -0.029609828237985671 0 0.026862960809835482 -0.03749728668388861 0 0.027522583739028234 -0.038231409727072278 0 0.026131417167549242 -0.038228762473257773 0 0.032720795336598073 -0.027668856503032517 0 0.032558437087125032 -0.027749892808088386 0 0.032244847714516391 -0.027763227422796976 0 0.032671109742965894 -0.027488368735302016 0 0.033207148970058165 -0.029258110189967931 0 0.032558437087125032 -0.027749892808088386 0 0.032342107737980151 -0.027402124604132966 0 0.032460669869619423 -0.027017776692948806 0 0.03275438986049415 -0.027400662578396916 0 0.03244123244190026 -0.027442614928860513 0 0.032558437087125032 -0.027749892808088386 0 0.032342107737980151 -0.027402124604132966 0 0.032244847714516391 -0.027763227422796976 0 0.032545551656404548 -0.028744856703848926 0 0.032460669869619423 -0.027017776692948806 0 0.032843753970458058 -0.027004630520869998 0 0.032342107737980151 -0.027402124604132966 0 0.032068954001047464 -0.02721100194575319 0 0.032256937688371165 -0.027136161832355496 0 0.032342107737980151 -0.027402124604132966 0 0.032460669869619423 -0.027017776692948806 0 0.032256937688371165 -0.027136161832355496 0 0.032068954001047464 -0.02721100194575319 0 0.032244847714516391 -0.027763227422796976 0 0.031430067509660729 -0.027017915235051818 0 0.033207148970058165 -0.029258110189967931 0 0.034613402099894747 -0.026010016326276884 0 0.032342107737980151 -0.027402124604132966 0 0.032068954001047464 -0.02721100194575319 0 0.032244847714516391 -0.027763227422796976 0 0.034229905174714789 -0.029609828237985671 0 0.035184400139271099 -0.028590889648534339 0 0.03647493874323969 -0.029717588020229006 0 0.03403212829896219 -0.028342385231888794 0 0.034229905174714789 -0.029609828237985671 0 0.035184400139271099 -0.028590889648534339 0 0.036379036390046887 -0.027486254051127784 0 0.035184400139271099 -0.028590889648534339 0 0.03647493874323969 -0.029717588020229006 0 0.037312255577637586 -0.027644535452489152 0 0.037327997252374137 -0.029091891545171507 0 0.037504272757920398 -0.027764931340390958 0 0.037229274695108595 -0.027794756048761055 0 0.038010688214925849 -0.02749309320274761 0 0.037504272757920398 -0.027764931340390958 0 0.038010688214925849 -0.02749309320274761 0 0.037600085135090541 -0.027493148732042894 0 0.037491466160472713 -0.027687670480114994 0 0.037504272757920398 -0.027764931340390958 0 0.037600085135090541 -0.027493148732042894 0 0.038010688214925849 -0.02749309320274761 0 0.037600085135090541 -0.027493148732042894 0 0.037755083691661528 -0.02692289287851627 0 0.034229905174714789 -0.029609828237985671 0 0.03647493874323969 -0.029717588020229006 0 0.035725659516421905 -0.031571115218432026 0 0.038010688214925849 -0.02749309320274761 0 0.038384043607837925 -0.026853223079705502 0 0.037755083691661528 -0.02692289287851627 0 0.037327997252374137 -0.029091891545171507 0 0.034613402099894747 -0.026010016326276884 0 0.034613402099894747 -0.026010016326276884 0 0.035842588054963938 -0.021870253219466257 0 0.038384043607837925 -0.026853223079705502 0 0.037755083691661528 -0.02692289287851627 0 0.038126038457269154 -0.026106258256652581 0 0.037648612961291912 -0.026240496878224929 0 0.037755083691661528 -0.02692289287851627 0 0.038126038457269154 -0.026106258256652581 0 0.033098274088957026 -0.018614023430227358 0 0.03342953631197549 -0.018876284367660503 0 0.032875231089200471 -0.018932935786743647 0 0.031678866224794731 -0.025861816342827745 0 0.03202922062110828 -0.026443345611773281 0 0.032498481534790805 -0.025821853704146715 0 0.031430067509660729 -0.027017915235051818 0 0.031678866224794731 -0.025861816342827745 0 0.03202922062110828 -0.026443345611773281 0 0.034613402099894747 -0.026010016326276884 0 0.032409138533864609 -0.021849133760110741 0 0.032498481534790805 -0.025821853704146715 0 0.032380502416812604 -0.026641360685403896 0 0.032843753970458058 -0.027004630520869998 0 0.03202922062110828 -0.026443345611773281 0 0.032498481534790805 -0.025821853704146715 0 0.032380502416812604 -0.026641360685403896 0 0.02765454126016563 -0.027773688888325494 0 0.028104868462331879 -0.028624934267236217 0 0.02311204183614516 -0.028207370360458721 0 0.023388485825506594 -0.030430665961776883 0 0.023871059654538215 -0.029443986479380176 0 0.032380502416812604 -0.026641360685403896 0 0.032460669869619423 -0.027017776692948806 0 0.032140692524091179 -0.026895068149567269 0 0.03202922062110828 -0.026443345611773281 0 0.032380502416812604 -0.026641360685403896 0 0.032140692524091179 -0.026895068149567269 0 0.032380502416812604 -0.026641360685403896 0 0.032460669869619423 -0.027017776692948806 0 0.032843753970458058 -0.027004630520869998 0 0.032460669869619423 -0.027017776692948806 0 0.032256937688371165 -0.027136161832355496 0 0.032140692524091179 -0.026895068149567269 0 0.032068954001047464 -0.02721100194575319 0 0.032256937688371165 -0.027136161832355496 0 0.032140692524091179 -0.026895068149567269 0 0.031430067509660729 -0.027017915235051818 0 0.03202922062110828 -0.026443345611773281 0 0.032140692524091179 -0.026895068149567269 0 0.032068954001047464 -0.02721100194575319 0 0.031430067509660729 -0.027017915235051818 0 0.032140692524091179 -0.026895068149567269 0 0.025161084435487951 -0.029724959949952601 0 0.025969280232134129 -0.03053365391862015 0 0.026641680421287034 -0.031003029303408303 0 0.024845821629971104 -0.028935843836693509 0 0.025427788728170538 -0.028996900636821223 0 0.025634705623808474 -0.029633557091708777 0 0.025183436697848241 -0.029313248014775861 0 0.024148861869834039 -0.031514287942986843 0 0.025161084435487951 -0.029724959949952601 0 0.024950151680131569 -0.030387652341418658 0 0.02439881688768912 -0.029758064011170218 0 0.025161084435487951 -0.029724959949952601 0 0.025969280232134129 -0.03053365391862015 0 0.024950151680131569 -0.030387652341418658 0 0.024845821629971104 -0.028935843836693509 0 0.025427788728170538 -0.028996900636821223 0 0.025212102500672965 -0.028537458827597582 0 0.025969280232134129 -0.03053365391862015 0 0.025233841366675745 -0.030952228046554429 0 0.025693252719211468 -0.031333561894183744 0 0.025969280232134129 -0.03053365391862015 0 0.026275539118853244 -0.031250287464950281 0 0.025693252719211468 -0.031333561894183744 0 0.025969280232134129 -0.03053365391862015 0 0.025233841366675745 -0.030952228046554429 0 0.024950151680131569 -0.030387652341418658 0 0.025233841366675745 -0.030952228046554429 0 0.024950151680131569 -0.030387652341418658 0 0.024658218046114462 -0.030970624511936454 0 0.024658218046114462 -0.030970624511936454 0 0.024125128244557818 -0.030947145153492683 0 0.024336269781061085 -0.030424803406136749 0 0.024125128244557818 -0.030947145153492683 0 0.024336269781061085 -0.030424803406136749 0 0.023988162840886087 -0.030158620901933841 0 0.024950151680131569 -0.030387652341418658 0 0.024658218046114462 -0.030970624511936454 0 0.024336269781061085 -0.030424803406136749 0 0.024125128244557818 -0.030947145153492683 0 0.023388485825506594 -0.030430665961776883 0 0.023988162840886087 -0.030158620901933841 0 0.023388485825506594 -0.030430665961776883 0 0.023988162840886087 -0.030158620901933841 0 0.023871059654538215 -0.029443986479380176 0 0.023988162840886087 -0.030158620901933841 0 0.02439881688768912 -0.029758064011170218 0 0.023871059654538215 -0.029443986479380176 0 0.024950151680131569 -0.030387652341418658 0 0.024336269781061085 -0.030424803406136749 0 0.02439881688768912 -0.029758064011170218 0 0.024336269781061085 -0.030424803406136749 0 0.023988162840886087 -0.030158620901933841 0 0.02439881688768912 -0.029758064011170218 0 0.025161084435487951 -0.029724959949952601 0 0.02439881688768912 -0.029758064011170218 0 0.023929174917584586 -0.028385684409865598 0 0.023929174917584586 -0.028385684409865598 0 0.024860678288761109 -0.028163685698057887 0 0.024358635891944373 -0.027691453610959791 0 0.024845821629971104 -0.028935843836693509 0 0.023929174917584586 -0.028385684409865598 0 0.024860678288761109 -0.028163685698057887 0 0.025183436697848241 -0.029313248014775861 0 0.02393556567780477 -0.028426610718571658 0 0.02439881688768912 -0.029758064011170218 0 0.023871059654538215 -0.029443986479380176 0 0.023929174917584586 -0.028385684409865598 0 0.02311204183614516 -0.028207370360458721 0 0.023871059654538215 -0.029443986479380176 0 0.023929174917584586 -0.028385684409865598 0 0.024860678288761109 -0.028163685698057887 0 0.025212102500672965 -0.028537458827597582 0 0.025703357374805936 -0.028160588157463154 0 0.024845821629971104 -0.028935843836693509 0 0.024860678288761109 -0.028163685698057887 0 0.025212102500672965 -0.028537458827597582 0 0.0089455562108255345 -0.026640046933120325 0 0.009908845599247847 -0.026632505584663367 0 0.010213048487556961 -0.028083279606229247 0 0.025427788728170538 -0.028996900636821223 0 0.025212102500672965 -0.028537458827597582 0 0.025703357374805936 -0.028160588157463154 0 0.0098495695934356781 -0.028300143410915572 0 0.010903394983562704 -0.026423004997044114 0 0.009908845599247847 -0.026632505584663367 0 0.010213048487556961 -0.028083279606229247 0 0.01093527062743917 -0.026267315766837676 0 0.011428713079148636 -0.027764978743415228 0 0.010095159101656719 -0.028463910254341515 0 0.01093527062743917 -0.026267315766837676 0 0.011428713079148636 -0.027764978743415228 0 0.01093527062743917 -0.026267315766837676 0 0.011736301332178985 -0.026227070776503419 0 0.010095159101656719 -0.028463910254341515 0 0.010973899482569459 -0.029991187864141781 0 0.0092614053175393406 -0.030656027781101169 0 0.011428713079148636 -0.027764978743415228 0 0.011950832069036169 -0.029300023307187922 0 0.010095159101656719 -0.028463910254341515 0 0.011950832069036169 -0.029300023307187922 0 0.010095159101656719 -0.028463910254341515 0 0.010973899482569459 -0.029991187864141781 0 0.011950832069036169 -0.029300023307187922 0 0.010973899482569459 -0.029991187864141781 0 0.011963054263890081 -0.030525239509435229 0 0.017046734979892782 -0.02704367200404385 0 0.020137460219001351 -0.03118482021004234 0 0.0098495695934356781 -0.028300143410915572 0 0.017392923552095835 -0.032730313375893556 0 0.010213048487556961 -0.028083279606229247 0 0.0092956674847913326 -0.029893812934027222 0 0.0095015473997986846 -0.030059708895248068 0 0.0089455562108255345 -0.026640046933120325 0 0.010213048487556961 -0.028083279606229247 0 0.0092956674847913326 -0.029893812934027222 0 0.025427788728170538 -0.028996900636821223 0 0.025703357374805936 -0.028160588157463154 0 0.025747491568213914 -0.029738365476059802 0 0.025427788728170538 -0.028996900636821223 0 0.025634705623808474 -0.029633557091708777 0 0.025747491568213914 -0.029738365476059802 0 0.025729432870514171 -0.03144851578461625 0 0.024148861869834039 -0.031514287942986843 0 0.025969280232134129 -0.03053365391862015 0 0.026731618382193789 -0.031020345511072134 0 0.026275539118853244 -0.031250287464950281 0 0.026275539118853244 -0.031250287464950281 0 0.026520091534901102 -0.031589216391660506 0 0.026708113599777806 -0.031342692521104117 0 0.026731618382193789 -0.031020345511072134 0 0.026275539118853244 -0.031250287464950281 0 0.026708113599777806 -0.031342692521104117 0 0.026275539118853244 -0.031250287464950281 0 0.026520091534901102 -0.031589216391660506 0 0.026052448733082392 -0.03184806804198944 0 0.026520091534901102 -0.031589216391660506 0 0.027039499756105683 -0.031742512866764445 0 0.026495297430278321 -0.031923743803941015 0 0.026520091534901102 -0.031589216391660506 0 0.026495297430278321 -0.031923743803941015 0 0.026052448733082392 -0.03184806804198944 0 0.026520091534901102 -0.031589216391660506 0 0.027039499756105683 -0.031742512866764445 0 0.026708113599777806 -0.031342692521104117 0 0.021484733973907523 -0.035181499532813867 0 0.020137460219001351 -0.03118482021004234 0 0.027039499756105683 -0.031742512866764445 0 0.026708113599777806 -0.031342692521104117 0 0.026977258596188748 -0.031216806462880074 0 0.020697732721998423 -0.034376700507624529 0 0.020456208706457348 -0.030990414831412211 0 0.021693914125436902 -0.032005389100226822 0 0.020137460219001351 -0.03118482021004234 0 0.017392923552095835 -0.032730313375893556 0 0.026731618382193789 -0.031020345511072134 0 0.026708113599777806 -0.031342692521104117 0 0.026977258596188748 -0.031216806462880074 0 0.024148861869834039 -0.031514287942986843 0 0.020137460219001351 -0.03118482021004234 0 0.021484733973907523 -0.035181499532813867 0 0.017392923552095835 -0.032730313375893556 0 0.017392923552095835 -0.032730313375893556 0 0.020789149519726505 -0.039034910694171233 0 0.02306743179361484 -0.041757218550864894 0 0.022850534401772874 -0.041044200121891583 0 0.022194967434947664 -0.041112490803309198 0 0.023160626888011387 -0.041548333685608133 0 0.02306743179361484 -0.041757218550864894 0 0.022850534401772874 -0.041044200121891583 0 0.027039499756105683 -0.031742512866764445 0 0.02630460484352708 -0.032548625826449927 0 0.026495297430278321 -0.031923743803941015 0 0.02630460484352708 -0.032548625826449927 0 0.026495297430278321 -0.031923743803941015 0 0.026052448733082392 -0.03184806804198944 0 0.0092614053175393406 -0.030656027781101169 0 0.011404275751635579 -0.031826386544669787 0 0.011633620530023139 -0.032129497521845032 0 0.0092614053175393406 -0.030656027781101169 0 0.011146043261198052 -0.030891623079876005 0 0.011404275751635579 -0.031826386544669787 0 0.017392923552095835 -0.032730313375893556 0 0.013786667813020672 -0.033404218681617588 0 0.016739947066034575 -0.034654172716391443 0 0.017355079825739677 -0.035279467828497113 0 0.017637707392191646 -0.035358175024786422 0 0.011146043261198052 -0.030891623079876005 0 0.011963054263890081 -0.030525239509435229 0 0.012113072536312573 -0.031519996331340776 0 0.010973899482569459 -0.029991187864141781 0 0.011146043261198052 -0.030891623079876005 0 0.011963054263890081 -0.030525239509435229 0 0.010973899482569459 -0.029991187864141781 0 0.0092614053175393406 -0.030656027781101169 0 0.011146043261198052 -0.030891623079876005 0 0.011146043261198052 -0.030891623079876005 0 0.011404275751635579 -0.031826386544669787 0 0.012113072536312573 -0.031519996331340776 0 0.013243369408980705 -0.032825093752751257 0 0.013786667813020672 -0.033404218681617588 0 0.011404275751635579 -0.031826386544669787 0 0.011635882292107064 -0.032126139296770634 0 0.012113072536312573 -0.031519996331340776 0 0.022194967434947664 -0.041112490803309198 0 0.022114589241096123 -0.039891851590982241 0 0.021121663503251283 -0.040410095162001398 0 0.022194967434947664 -0.041112490803309198 0 0.02259871293702875 -0.040477675292126564 0 0.022114589241096123 -0.039891851590982241 0 0.017355079825739677 -0.035279467828497113 0 0.017637707392191646 -0.035358175024786422 0 0.017971227667404513 -0.035891770104689288 0 0.020789149519726505 -0.039034910694171233 0 0.017623084595552969 -0.036531138311065636 0 0.022850534401772874 -0.041044200121891583 0 0.022194967434947664 -0.041112490803309198 0 0.02259871293702875 -0.040477675292126564 0 0.02259871293702875 -0.040477675292126564 0 0.02322290096136518 -0.039962312587524244 0 0.022114589241096123 -0.039891851590982241 0 0.022114589241096123 -0.039891851590982241 0 0.021452678758389972 -0.03973205453944316 0 0.021121663503251283 -0.040410095162001398 0 0.021484733973907523 -0.035181499532813867 0 0.023838749956118139 -0.039130141501352272 0 0.022850534401772874 -0.041044200121891583 0 0.02259871293702875 -0.040477675292126564 0 0.02322290096136518 -0.039962312587524244 0 0.027039499756105683 -0.031742512866764445 0 0.02630460484352708 -0.032548625826449927 0 0.02600698293876404 -0.034139774531087651 0 0.023160626888011387 -0.041548333685608133 0 0.022850534401772874 -0.041044200121891583 0 0.02322290096136518 -0.039962312587524244 0 0.021484733973907523 -0.035181499532813867 0 0.025515179236364139 -0.03498763286404722 0 0.02397977207530743 -0.036944984384018449 0 0.023981189168814917 -0.036552614532790809 0 0.024173293740527461 -0.036616723470221491 0 0.02600698293876404 -0.034139774531087651 0 0.025228280430732622 -0.033678858911295351 0 0.025640486763152864 -0.033186749831364271 0 0.02600698293876404 -0.034139774531087651 0 0.024665765930727696 -0.034226704179059528 0 0.024580537308506522 -0.034850209894405404 0 0.024665765930727696 -0.034226704179059528 0 0.025228280430732622 -0.033678858911295351 0 0.024643354125701056 -0.03336034462510433 0 0.02600698293876404 -0.034139774531087651 0 0.024665765930727696 -0.034226704179059528 0 0.025228280430732622 -0.033678858911295351 0 0.025228280430732622 -0.033678858911295351 0 0.025051853306642155 -0.033063187693851658 0 0.025640486763152864 -0.033186749831364271 0 0.025228280430732622 -0.033678858911295351 0 0.024643354125701056 -0.03336034462510433 0 0.025051853306642155 -0.033063187693851658 0 0.024643354125701056 -0.03336034462510433 0 0.025051853306642155 -0.033063187693851658 0 0.024504197654928062 -0.032733666862458884 0 0.02630460484352708 -0.032548625826449927 0 0.02600698293876404 -0.034139774531087651 0 0.025640486763152864 -0.033186749831364271 0 0.025051853306642155 -0.033063187693851658 0 0.025640486763152864 -0.033186749831364271 0 0.025630291375835893 -0.032524558016321967 0 0.02630460484352708 -0.032548625826449927 0 0.025640486763152864 -0.033186749831364271 0 0.025630291375835893 -0.032524558016321967 0 0.02630460484352708 -0.032548625826449927 0 0.025630291375835893 -0.032524558016321967 0 0.026052448733082392 -0.03184806804198944 0 0.025630291375835893 -0.032524558016321967 0 0.026052448733082392 -0.03184806804198944 0 0.025541046833635846 -0.031884884328816469 0 0.025051853306642155 -0.033063187693851658 0 0.025630291375835893 -0.032524558016321967 0 0.02490323979772685 -0.032258596772645039 0 0.025051853306642155 -0.033063187693851658 0 0.02490323979772685 -0.032258596772645039 0 0.024504197654928062 -0.032733666862458884 0 0.025630291375835893 -0.032524558016321967 0 0.02490323979772685 -0.032258596772645039 0 0.025541046833635846 -0.031884884328816469 0 0.02490323979772685 -0.032258596772645039 0 0.025092451375791663 -0.031579220053529901 0 0.025541046833635846 -0.031884884328816469 0 0.025092451375791663 -0.031579220053529901 0 0.025693252719211468 -0.031333561894183744 0 0.025541046833635846 -0.031884884328816469 0 0.02490323979772685 -0.032258596772645039 0 0.025092451375791663 -0.031579220053529901 0 0.024477976168116061 -0.031590029755160821 0 0.024658218046114462 -0.030970624511936454 0 0.025092451375791663 -0.031579220053529901 0 0.024477976168116061 -0.031590029755160821 0 0.025233841366675745 -0.030952228046554429 0 0.024658218046114462 -0.030970624511936454 0 0.025092451375791663 -0.031579220053529901 0 0.025233841366675745 -0.030952228046554429 0 0.025092451375791663 -0.031579220053529901 0 0.025693252719211468 -0.031333561894183744 0 0.026275539118853244 -0.031250287464950281 0 0.025693252719211468 -0.031333561894183744 0 0.026052448733082392 -0.03184806804198944 0 0.025693252719211468 -0.031333561894183744 0 0.026052448733082392 -0.03184806804198944 0 0.025541046833635846 -0.031884884328816469 0 0.032545551656404548 -0.028744856703848926 0 0.032843753970458058 -0.027004630520869998 0 0.033224636577742384 -0.02874478368545284 0 0.028104868462331879 -0.028624934267236217 0 0.028668306903405959 -0.030773316507265135 0 0.023388485825506594 -0.030430665961776883 0 0.024190759675862022 -0.031840747299983693 0 0.023838016915089043 -0.033039713432675144 0 0.024125128244557818 -0.030947145153492683 0 0.023388485825506594 -0.030430665961776883 0 0.024190759675862022 -0.031840747299983693 0 0.024125128244557818 -0.030947145153492683 0 0.024477976168116061 -0.031590029755160821 0 0.024190759675862022 -0.031840747299983693 0 0.024658218046114462 -0.030970624511936454 0 0.024125128244557818 -0.030947145153492683 0 0.024477976168116061 -0.031590029755160821 0 0.02490323979772685 -0.032258596772645039 0 0.024190759675862022 -0.031840747299983693 0 0.024504197654928062 -0.032733666862458884 0 0.024190759675862022 -0.031840747299983693 0 0.023838016915089043 -0.033039713432675144 0 0.024504197654928062 -0.032733666862458884 0 0.02490323979772685 -0.032258596772645039 0 0.024477976168116061 -0.031590029755160821 0 0.024190759675862022 -0.031840747299983693 0 0.03275438986049415 -0.027400662578396916 0 0.029685149248624434 -0.033190323387256346 0 0.032545551656404548 -0.028744856703848926 0 0.033224636577742384 -0.02874478368545284 0 0.032813270416797581 -0.030565254780784971 0 0.028668306903405959 -0.030773316507265135 0 0.027756140354799449 -0.034096620815312444 0 0.024665765930727696 -0.034226704179059528 0 0.023838016915089043 -0.033039713432675144 0 0.024580537308506522 -0.034850209894405404 0 0.024665765930727696 -0.034226704179059528 0 0.024643354125701056 -0.03336034462510433 0 0.023838016915089043 -0.033039713432675144 0 0.024643354125701056 -0.03336034462510433 0 0.023838016915089043 -0.033039713432675144 0 0.024504197654928062 -0.032733666862458884 0 0.033224636577742384 -0.02874478368545284 0 0.032813270416797581 -0.030565254780784971 0 0.033721522375219484 -0.030578947860638001 0 0.032720795336598073 -0.027668856503032517 0 0.032558437087125032 -0.027749892808088386 0 0.032342894676868322 -0.027648771545838228 0 0.023838016915089043 -0.033039713432675144 0 0.024580537308506522 -0.034850209894405404 0 0.024353832099539199 -0.035687136200106544 0 0.029685149248624434 -0.033190323387256346 0 0.027756140354799449 -0.034096620815312444 0 0.025880816288828188 -0.037885881224931799 0 0.025247336568113527 -0.037895987411487822 0 0.025555508157339368 -0.03752691692467347 0 0.024173293740527461 -0.036616723470221491 0 0.024434751882111642 -0.036053771693607094 0 0.024114421628557738 -0.036309143844637029 0 0.025515179236364139 -0.03498763286404722 0 0.024430171217034204 -0.0361564051552445 0 0.02600698293876404 -0.034139774531087651 0 0.024528476234974415 -0.035679378725019882 0 0.024434751882111642 -0.036053771693607094 0 0.02600698293876404 -0.034139774531087651 0 0.024580537308506522 -0.034850209894405404 0 0.024528476234974415 -0.035679378725019882 0 0.024580537308506522 -0.034850209894405404 0 0.024528476234974415 -0.035679378725019882 0 0.024353832099539199 -0.035687136200106544 0 0.027270400160867545 -0.034163937952971513 0 0.027756140354799449 -0.034096620815312444 0 0.024528476234974415 -0.035679378725019882 0 0.024467566977174709 -0.035886658123503959 0 0.024434751882111642 -0.036053771693607094 0 0.024467566977174709 -0.035886658123503959 0 0.024434751882111642 -0.036053771693607094 0 0.024253691424927962 -0.036151845377924874 0 0.027756140354799449 -0.034096620815312444 0 0.024281138499291224 -0.036898436937034068 0 0.025247336568113527 -0.037895987411487822 0 0.025555508157339368 -0.03752691692467347 0 0.024747711274201382 -0.036760096334896263 0 0.024183901958616996 -0.036145185520234789 0 0.024434751882111642 -0.036053771693607094 0 0.024253691424927962 -0.036151845377924874 0 0.024183901958616996 -0.036145185520234789 0 0.024434751882111642 -0.036053771693607094 0 0.024114421628557738 -0.036309143844637029 0 0.025685174478900598 -0.037060155620184852 0 0.025555508157339368 -0.03752691692467347 0 0.024747711274201382 -0.036760096334896263 0 0.026862960809835482 -0.03749728668388861 0 0.026131417167549242 -0.038228762473257773 0 0.02584781861267384 -0.037187129370896341 0 0.029685149248624434 -0.033190323387256346 0 0.025914517799637046 -0.03777631024393395 0 0.025880816288828188 -0.037885881224931799 0 0.025685174478900598 -0.037060155620184852 0 0.025555508157339368 -0.03752691692467347 0 0.027047873934813546 -0.036380984701151309 0 0.02584781861267384 -0.037187129370896341 0 0.025520159703165974 -0.03611653492142871 0 0.025685174478900598 -0.037060155620184852 0 0.025520159703165974 -0.03611653492142871 0 0.024747711274201382 -0.036760096334896263 0 0.025914517799637046 -0.03777631024393395 0 0.025504708464638613 -0.035998037596519865 0 0.024281138499291224 -0.036898436937034068 0 0.024099162335087743 -0.035201102636304687 0 0.024747711274201382 -0.036760096334896263 0 0.024793821150834509 -0.035923580709388343 0 0.024049699261602928 -0.035312802135072124 0 0.025520159703165974 -0.03611653492142871 0 0.024747711274201382 -0.036760096334896263 0 0.024793821150834509 -0.035923580709388343 0 0.025520159703165974 -0.03611653492142871 0 0.024830490225156619 -0.035495595014994046 0 0.024793821150834509 -0.035923580709388343 0 0.024830490225156619 -0.035495595014994046 0 0.025821304605439434 -0.034999887343313794 0 0.023990439870445683 -0.035000034383511319 0 0.024830490225156619 -0.035495595014994046 0 0.024793821150834509 -0.035923580709388343 0 0.024049699261602928 -0.035312802135072124 0 0.024830490225156619 -0.035495595014994046 0 0.024049699261602928 -0.035312802135072124 0 0.023990439870445683 -0.035000034383511319 0 0.026382141199007374 -0.03573595672461307 0 0.025520159703165974 -0.03611653492142871 0 0.025821304605439434 -0.034999887343313794 0 0.025520159703165974 -0.03611653492142871 0 0.024830490225156619 -0.035495595014994046 0 0.025821304605439434 -0.034999887343313794 0 0.022288879028797656 -0.035776612701834867 0 0.022159367724069474 -0.034999514686943775 0 0.023365752734116094 -0.035822496080023344 0 0.022288879028797656 -0.035776612701834867 0 0.022159367724069474 -0.034999514686943775 0 0.021434192481216547 -0.035648668814835763 0 0.022159367724069474 -0.034999514686943775 0 0.023990439870445683 -0.035000034383511319 0 0.023365752734116094 -0.035822496080023344 0 0.024049699261602928 -0.035312802135072124 0 0.023990439870445683 -0.035000034383511319 0 0.023365752734116094 -0.035822496080023344 0 0.023414705187622623 -0.035945215488415838 0 0.023544792854277821 -0.036831001069363836 0 0.024253691424927962 -0.036151845377924874 0 0.024049699261602928 -0.035312802135072124 0 0.023365752734116094 -0.035822496080023344 0 0.024253691424927962 -0.036151845377924874 0 0.023365752734116094 -0.035822496080023344 0 0.023898426873789444 -0.036184407196343964 0 0.023365752734116094 -0.035822496080023344 0 0.02221140264112131 -0.03691076793384062 0 0.023316407870015706 -0.0379620647812932 0 0.022288879028797656 -0.035776612701834867 0 0.023365752734116094 -0.035822496080023344 0 0.02221140264112131 -0.03691076793384062 0 0.022288879028797656 -0.035776612701834867 0 0.02221140264112131 -0.03691076793384062 0 0.021434192481216547 -0.035648668814835763 0 0.02221140264112131 -0.03691076793384062 0 0.021588981472909295 -0.037801366073064398 0 0.023316407870015706 -0.0379620647812932 0 0.021588981472909295 -0.037801366073064398 0 0.023316407870015706 -0.0379620647812932 0 0.021727543617200192 -0.038817419731886356 0 0.024183901958616996 -0.036145185520234789 0 0.024253691424927962 -0.036151845377924874 0 0.023898426873789444 -0.036184407196343964 0 0.024183901958616996 -0.036145185520234789 0 0.023898426873789444 -0.036184407196343964 0 0.024114421628557738 -0.036309143844637029 0 0.023838749956118139 -0.039130141501352272 0 0.023544792854277821 -0.036831001069363836 0 0.023981189168814917 -0.036552614532790809 0 0.023898426873789444 -0.036184407196343964 0 0.024114421628557738 -0.036309143844637029 0 0.02322290096136518 -0.039962312587524244 0 0.023316407870015706 -0.0379620647812932 0 0.022114589241096123 -0.039891851590982241 0 0.023981189168814917 -0.036552614532790809 0 0.024173293740527461 -0.036616723470221491 0 0.024114421628557738 -0.036309143844637029 0 0.023316407870015706 -0.0379620647812932 0 0.021727543617200192 -0.038817419731886356 0 0.022114589241096123 -0.039891851590982241 0 0.021727543617200192 -0.038817419731886356 0 0.022114589241096123 -0.039891851590982241 0 0.021452678758389972 -0.03973205453944316 0 0.014997107700562201 -0.033969846719264278 0 0.017623084595552969 -0.036531138311065636 0 0.017961328636571367 -0.037164476166902168 0 0.017623084595552969 -0.036531138311065636 0 0.020890291459152902 -0.039481733738965206 0 0.019856656888795812 -0.039211547760648814 0 0.021121663503251283 -0.040410095162001398 0 0.021452678758389972 -0.03973205453944316 0 0.020890291459152902 -0.039481733738965206 0 0.021121663503251283 -0.040410095162001398 0 0.01580304373329746 -0.034663786275172186 0 0.015768399920306753 -0.034696068542149315 0 0.015859738496128518 -0.034727730772614721 0 0.021727543617200192 -0.038817419731886356 0 0.021452678758389972 -0.03973205453944316 0 0.020890291459152902 -0.039481733738965206 0 0.020890291459152902 -0.039481733738965206 0 0.020415248379210348 -0.038990564218134773 0 0.020737991671833014 -0.038510789708121503 0 0.020890291459152902 -0.039481733738965206 0 0.020415248379210348 -0.038990564218134773 0 0.019856656888795812 -0.039211547760648814 0 0.02017962307371202 -0.038742356991756315 0 0.020415248379210348 -0.038990564218134773 0 0.019856656888795812 -0.039211547760648814 0 0.02017962307371202 -0.038742356991756315 0 0.020415248379210348 -0.038990564218134773 0 0.020737991671833014 -0.038510789708121503 0 0.021727543617200192 -0.038817419731886356 0 0.020890291459152902 -0.039481733738965206 0 0.020737991671833014 -0.038510789708121503 0 0.016061463973193791 -0.034601844752661336 0 0.014823430411075558 -0.033965850684291303 0 0.01580304373329746 -0.034663786275172186 0 0.016147813468632512 -0.034594021349758197 0 0.01571180179745623 -0.034479987590728144 0 0.016147813468632512 -0.034594021349758197 0 0.015286644199277879 -0.033388710075329765 0 0.01404520771887584 -0.033585253769100917 0 0.015768399920306753 -0.034696068542149315 0 0.015886828430120754 -0.034750141538438271 0 0.01597567757719363 -0.034885083498372799 0 0.01580304373329746 -0.034663786275172186 0 0.015768399920306753 -0.034696068542149315 0 0.015886828430120754 -0.034750141538438271 0 0.01580304373329746 -0.034663786275172186 0 0.015886828430120754 -0.034750141538438271 0 0.016147813468632512 -0.034594021349758197 0 0.015886828430120754 -0.034750141538438271 0 0.01597567757719363 -0.034885083498372799 0 0.016147813468632512 -0.034594021349758197 0 0.015768399920306753 -0.034696068542149315 0 0.01597567757719363 -0.034885083498372799 0 0.016114565554717162 -0.035191408663219174 0 0.019856656888795812 -0.039211547760648814 0 0.019628005429736351 -0.038135006795541271 0 0.018084807092114276 -0.037632027987685161 0 0.017961328636571367 -0.037164476166902168 0 0.017055879692040844 -0.036278308837199409 0 0.02017962307371202 -0.038742356991756315 0 0.019856656888795812 -0.039211547760648814 0 0.019628005429736351 -0.038135006795541271 0 0.019628005429736351 -0.038135006795541271 0 0.019510021065427312 -0.037228133841731403 0 0.018084807092114276 -0.037632027987685161 0 0.021588981472909295 -0.037801366073064398 0 0.021727543617200192 -0.038817419731886356 0 0.020737991671833014 -0.038510789708121503 0 0.02017962307371202 -0.038742356991756315 0 0.019628005429736351 -0.038135006795541271 0 0.020737991671833014 -0.038510789708121503 0 0.019628005429736351 -0.038135006795541271 0 0.020737991671833014 -0.038510789708121503 0 0.020653220697049446 -0.037446595097531239 0 0.019628005429736351 -0.038135006795541271 0 0.019510021065427312 -0.037228133841731403 0 0.020653220697049446 -0.037446595097531239 0 0.02221140264112131 -0.03691076793384062 0 0.021588981472909295 -0.037801366073064398 0 0.020653220697049446 -0.037446595097531239 0 0.021588981472909295 -0.037801366073064398 0 0.020737991671833014 -0.038510789708121503 0 0.020653220697049446 -0.037446595097531239 0 0.020644549475293587 -0.036538449156871836 0 0.019183736534929233 -0.03618297509220935 0 0.021434192481216547 -0.035648668814835763 0 0.02221140264112131 -0.03691076793384062 0 0.020653220697049446 -0.037446595097531239 0 0.020644549475293587 -0.036538449156871836 0 0.02221140264112131 -0.03691076793384062 0 0.020644549475293587 -0.036538449156871836 0 0.021434192481216547 -0.035648668814835763 0 0.019510021065427312 -0.037228133841731403 0 0.020653220697049446 -0.037446595097531239 0 0.020644549475293587 -0.036538449156871836 0 0.019510021065427312 -0.037228133841731403 0 0.018084807092114276 -0.037632027987685161 0 0.019183736534929233 -0.03618297509220935 0 0.019183736534929233 -0.03618297509220935 0 0.017548612682753428 -0.034525492780890836 0 0.021434192481216547 -0.035648668814835763 0 0.019510021065427312 -0.037228133841731403 0 0.020644549475293587 -0.036538449156871836 0 0.019183736534929233 -0.03618297509220935 0 0.018084807092114276 -0.037632027987685161 0 0.017746343646575787 -0.035852122492720996 0 0.019183736534929233 -0.03618297509220935 0 0.017746343646575787 -0.035852122492720996 0 0.019183736534929233 -0.03618297509220935 0 0.017548612682753428 -0.034525492780890836 0 0.020328679771879476 -0.034999930826012444 0 0.01972863481947526 -0.035809583541287909 0 0.021434192481216547 -0.035648668814835763 0 0.01865254497942621 -0.035215274812917738 0 0.021218218376924485 -0.035572042467120139 0 0.022159367724069474 -0.034999514686943775 0 0.020328679771879476 -0.034999930826012444 0 0.021434192481216547 -0.035648668814835763 0 0.016665437015955176 -0.034999214176573701 0 0.018498391974652157 -0.035000181315979151 0 0.017812714370084696 -0.035757368139623727 0 0.017548612682753428 -0.034525492780890836 0 0.014991715032759749 -0.034582661855158944 0 0.015977266560348966 -0.034954231999878634 0 0.01972863481947526 -0.035809583541287909 0 0.018498391974652157 -0.035000181315979151 0 0.017812714370084696 -0.035757368139623727 0 0.01865254497942621 -0.035215274812917738 0 0.016457833738657106 -0.035165168819472771 0 0.020328679771879476 -0.034999930826012444 0 0.01972863481947526 -0.035809583541287909 0 0.018498391974652157 -0.035000181315979151 0 0.017055879692040844 -0.036278308837199409 0 0.016290623692434784 -0.035224535450551285 0 0.018084807092114276 -0.037632027987685161 0 0.017746343646575787 -0.035852122492720996 0 0.016214313902352673 -0.035073884005970737 0 0.015919866028502289 -0.034941380966150085 0 0.015701549977978187 -0.034696573172444345 0 0.017548612682753428 -0.034525492780890836 0 0.015977266560348966 -0.034954231999878634 0 0.016214313902352673 -0.035073884005970737 0 0.015977266560348966 -0.034954231999878634 0 0.016214313902352673 -0.035073884005970737 0 0.016211904567442176 -0.035129180931053501 0 0.016114565554717162 -0.035191408663219174 0 0.016214313902352673 -0.035073884005970737 0 0.016211904567442176 -0.035129180931053501 0 0.015977266560348966 -0.034954231999878634 0 0.015340226958916564 -0.034713889248779398 0 0.015044118498621226 -0.034522972885503621 0 0.015977266560348966 -0.034954231999878634 0 0.016211904567442176 -0.035129180931053501 0 0.016360809350119083 -0.035228757285881498 0 0.017746343646575787 -0.035852122492720996 0 0.017548612682753428 -0.034525492780890836 0 0.016214313902352673 -0.035073884005970737 0 0.014991715032759749 -0.034582661855158944 0 0.015977266560348966 -0.034954231999878634 0 0.015292243640204397 -0.034770344207503419 0 0.015977266560348966 -0.034954231999878634 0 0.015340226958916564 -0.034713889248779398 0 0.015292243640204397 -0.034770344207503419 0 0.015197173910256601 -0.034660468239373354 0 0.014991715032759749 -0.034582661855158944 0 0.015292243640204397 -0.034770344207503419 0 0.015197173910256601 -0.034660468239373354 0 0.015292243640204397 -0.034770344207503419 0 0.015237513901360036 -0.034593838686671367 0 0.015340226958916564 -0.034713889248779398 0 0.015292243640204397 -0.034770344207503419 0 0.015237513901360036 -0.034593838686671367 0 0.015340226958916564 -0.034713889248779398 0 0.015237513901360036 -0.034593838686671367 0 0.015240758189794347 -0.034443434962104426 0 0.015340226958916564 -0.034713889248779398 0 0.015240758189794347 -0.034443434962104426 0 0.015044118498621226 -0.034522972885503621 0 0.015240758189794347 -0.034443434962104426 0 0.015044118498621226 -0.034522972885503621 0 0.015158095457335952 -0.034253805866335384 0 0.01597567757719363 -0.034885083498372799 0 0.016114565554717162 -0.035191408663219174 0 0.016360809350119083 -0.035228757285881498 0 0.01597567757719363 -0.034885083498372799 0 0.016360809350119083 -0.035228757285881498 0 0.016147813468632512 -0.034594021349758197 0 0.016114565554717162 -0.035191408663219174 0 0.016211904567442176 -0.035129180931053501 0 0.016360809350119083 -0.035228757285881498 0 0.015701549977978187 -0.034696573172444345 0 0.015958933980185223 -0.034291718165170064 0 0.015044118498621226 -0.034522972885503621 0 0.015158095457335952 -0.034253805866335384 0 0.014875524641000363 -0.03407753247288943 0 0.016360809350119083 -0.035228757285881498 0 0.016147813468632512 -0.034594021349758197 0 0.016509920168490025 -0.033627133969056332 0 0.016147813468632512 -0.034594021349758197 0 0.016509920168490025 -0.033627133969056332 0 0.015286644199277879 -0.033388710075329765 0 0.015246077230362885 -0.034304547557710334 0 0.015240758189794347 -0.034443434962104426 0 0.015158095457335952 -0.034253805866335384 0 0.015282645296215822 -0.034238809189385426 0 0.015158095457335952 -0.034253805866335384 0 0.015140890911002316 -0.033900664489473806 0 0.014229624259424719 -0.032959990883969281 0 0.013444477024393778 -0.031911326280263552 0 0.015158095457335952 -0.034253805866335384 0 0.015140890911002316 -0.033900664489473806 0 0.014875524641000363 -0.03407753247288943 0 0.011778362430553083 -0.029725680551749185 0 0.010682721584942621 -0.028039906211408887 0 0.012134617819529269 -0.027840344033357542 0 0.013431865401790281 -0.029338737365697556 0 0.011778362430553083 -0.029725680551749185 0 0.012134617819529269 -0.027840344033357542 0 0.013181039806543485 -0.030067170089614518 0 0.015958933980185223 -0.034291718165170064 0 0.013444477024393778 -0.031911326280263552 0 0.013181039806543485 -0.030067170089614518 0 0.015140890911002316 -0.033900664489473806 0 0.014758080857652489 -0.033489143267622382 0 0.014875524641000363 -0.03407753247288943 0 0.016342163862819697 -0.030709320103668763 0 0.016509920168490025 -0.033627133969056332 0 0.015340346944964925 -0.032300270343818181 0 0.016509920168490025 -0.033627133969056332 0 0.015286644199277879 -0.033388710075329765 0 0.015340346944964925 -0.032300270343818181 0 0.015286644199277879 -0.033388710075329765 0 0.01404520771887584 -0.033585253769100917 0 0.014373025227174829 -0.032548723395052111 0 0.015286644199277879 -0.033388710075329765 0 0.014373025227174829 -0.032548723395052111 0 0.015340346944964925 -0.032300270343818181 0 0.013786667813020672 -0.033404218681617588 0 0.014823430411075558 -0.033965850684291303 0 0.011635882292107064 -0.032126139296770634 0 0.01404520771887584 -0.033585253769100917 0 0.013254420335049449 -0.032216642954793762 0 0.01580304373329746 -0.034663786275172186 0 0.01571180179745623 -0.034479987590728144 0 0.015471068406004639 -0.034425011616751482 0 0.015319467670225056 -0.034224904538934495 0 0.01571180179745623 -0.034479987590728144 0 0.015471068406004639 -0.034425011616751482 0 0.01404520771887584 -0.033585253769100917 0 0.014373025227174829 -0.032548723395052111 0 0.013254420335049449 -0.032216642954793762 0 0.013786667813020672 -0.033404218681617588 0 0.017623084595552969 -0.036531138311065636 0 0.013254420335049449 -0.032216642954793762 0 0.012113072536312573 -0.031519996331340776 0 0.013108464995081741 -0.030513727770521807 0 0.011635882292107064 -0.032126139296770634 0 0.013254420335049449 -0.032216642954793762 0 0.012113072536312573 -0.031519996331340776 0 0.013254420335049449 -0.032216642954793762 0 0.013108464995081741 -0.030513727770521807 0 0.014531564283525285 -0.031060180355690591 0 0.011963054263890081 -0.030525239509435229 0 0.012113072536312573 -0.031519996331340776 0 0.013108464995081741 -0.030513727770521807 0 0.016342163862819697 -0.030709320103668763 0 0.015340346944964925 -0.032300270343818181 0 0.014531564283525285 -0.031060180355690591 0 0.014373025227174829 -0.032548723395052111 0 0.015340346944964925 -0.032300270343818181 0 0.014531564283525285 -0.031060180355690591 0 0.014373025227174829 -0.032548723395052111 0 0.013254420335049449 -0.032216642954793762 0 0.014531564283525285 -0.031060180355690591 0 0.010963623755076717 -0.027215607868388027 0 0.010211040578367697 -0.026202979261897196 0 0.010873127357339904 -0.026484020703350927 0 0.013181039806543485 -0.030067170089614518 0 0.012214649829358926 -0.027203685559347629 0 0.013108464995081741 -0.030513727770521807 0 0.014531564283525285 -0.031060180355690591 0 0.014135344011385099 -0.028519224997933419 0 0.016342163862819697 -0.030709320103668763 0 0.014531564283525285 -0.031060180355690591 0 0.014135344011385099 -0.028519224997933419 0 0.011428713079148636 -0.027764978743415228 0 0.011950832069036169 -0.029300023307187922 0 0.014135344011385099 -0.028519224997933419 0 0.011950832069036169 -0.029300023307187922 0 0.013108464995081741 -0.030513727770521807 0 0.014135344011385099 -0.028519224997933419 0 0.011950832069036169 -0.029300023307187922 0 0.011963054263890081 -0.030525239509435229 0 0.013108464995081741 -0.030513727770521807 0 0.010211040578367697 -0.026202979261897196 0 0.01012874081982414 -0.025346849772178846 0 0.0096242568376671347 -0.024960797003182305 0 0.011428713079148636 -0.027764978743415228 0 0.014135344011385099 -0.028519224997933419 0 0.011736301332178985 -0.026227070776503419 0 0.012214649829358926 -0.027203685559347629 0 0.010680017896977147 -0.025651265175991936 0 0.010211040578367697 -0.026202979261897196 0 0.01012874081982414 -0.025346849772178846 0 0.010851537946333452 -0.025472290598343685 0 0.010211040578367697 -0.026202979261897196 0 0.010851537946333452 -0.025472290598343685 0 0.010873127357339904 -0.026484020703350927 0 0.010851537946333452 -0.025472290598343685 0 0.011665115718442335 -0.025332962284014288 0 0.010873127357339904 -0.026484020703350927 0 0.011665115718442335 -0.025332962284014288 0 0.011738547820348125 -0.026636603116350802 0 0.010873127357339904 -0.026484020703350927 0 0.012721340454422803 -0.026281094356921563 0 0.011665115718442335 -0.025332962284014288 0 0.011738547820348125 -0.026636603116350802 0 0.012721340454422803 -0.026281094356921563 0 0.011665115718442335 -0.025332962284014288 0 0.012582554478017984 -0.024307569997405798 0 0.010682721584942621 -0.028039906211408887 0 0.012134617819529269 -0.027840344033357542 0 0.011738547820348125 -0.026636603116350802 0 0.012721340454422803 -0.026281094356921563 0 0.012134617819529269 -0.027840344033357542 0 0.011738547820348125 -0.026636603116350802 0 0.010682721584942621 -0.028039906211408887 0 0.011738547820348125 -0.026636603116350802 0 0.010873127357339904 -0.026484020703350927 0 0.013181039806543485 -0.030067170089614518 0 0.010836243291474562 -0.025830764380049775 0 0.011378628160264966 -0.024046460051207745 0 0.012582554478017984 -0.024307569997405798 0 0.01230516501612924 -0.022971406346343367 0 0.011665115718442335 -0.025332962284014288 0 0.011378628160264966 -0.024046460051207745 0 0.012582554478017984 -0.024307569997405798 0 0.010851537946333452 -0.025472290598343685 0 0.011665115718442335 -0.025332962284014288 0 0.011378628160264966 -0.024046460051207745 0 0.01012874081982414 -0.025346849772178846 0 0.010851537946333452 -0.025472290598343685 0 0.010450881179799915 -0.02479719707376914 0 0.010851537946333452 -0.025472290598343685 0 0.011378628160264966 -0.024046460051207745 0 0.010450881179799915 -0.02479719707376914 0 0.01012874081982414 -0.025346849772178846 0 0.0099695058759870468 -0.024817894030422054 0 0.0096242568376671347 -0.024960797003182305 0 0.0099695058759870468 -0.024817894030422054 0 0.0096935821804066211 -0.024534684440142795 0 0.0096242568376671347 -0.024960797003182305 0 0.01012874081982414 -0.025346849772178846 0 0.010450881179799915 -0.02479719707376914 0 0.0099695058759870468 -0.024817894030422054 0 0.010450881179799915 -0.02479719707376914 0 0.0099695058759870468 -0.024817894030422054 0 0.010026786195171484 -0.02436558035839978 0 0.010450881179799915 -0.02479719707376914 0 0.010026786195171484 -0.02436558035839978 0 0.010518255609962631 -0.023989551151833422 0 0.0099695058759870468 -0.024817894030422054 0 0.010026786195171484 -0.02436558035839978 0 0.0096935821804066211 -0.024534684440142795 0 0.010026786195171484 -0.02436558035839978 0 0.010518255609962631 -0.023989551151833422 0 0.0099785294073870875 -0.023623231966612937 0 0.010026786195171484 -0.02436558035839978 0 0.0099785294073870875 -0.023623231966612937 0 0.0096741361820321427 -0.0241964255160328 0 0.010026786195171484 -0.02436558035839978 0 0.0096741361820321427 -0.0241964255160328 0 0.0096935821804066211 -0.024534684440142795 0 0.011378628160264966 -0.024046460051207745 0 0.010450881179799915 -0.02479719707376914 0 0.010518255609962631 -0.023989551151833422 0 0.011378628160264966 -0.024046460051207745 0 0.010518255609962631 -0.023989551151833422 0 0.010831117394010282 -0.023128799369078395 0 0.010518255609962631 -0.023989551151833422 0 0.010831117394010282 -0.023128799369078395 0 0.0099785294073870875 -0.023623231966612937 0 0.010831117394010282 -0.023128799369078395 0 0.011213366237900528 -0.022204781591912581 0 0.01165864487304385 -0.022842657834366908 0 0.010023552714481828 -0.023542899399635792 0 0.009871373749936331 -0.022377296478961493 0 0.0099785294073870875 -0.023623231966612937 0 0.010168371288365083 -0.022720687472172714 0 0.0096044144366002025 -0.023343893432163927 0 0.010831117394010282 -0.023128799369078395 0 0.0099785294073870875 -0.023623231966612937 0 0.0098802585908329722 -0.022042304424463505 0 0.010831117394010282 -0.023128799369078395 0 0.0098802585908329722 -0.022042304424463505 0 0.011213366237900528 -0.022204781591912581 0 0.0098802585908329722 -0.022042304424463505 0 0.011213366237900528 -0.022204781591912581 0 0.010988861606885685 -0.021359390247007937 0 0.011213366237900528 -0.022204781591912581 0 0.012216160122091898 -0.022062085169923838 0 0.01165864487304385 -0.022842657834366908 0 0.011213366237900528 -0.022204781591912581 0 0.012216160122091898 -0.022062085169923838 0 0.010988861606885685 -0.021359390247007937 0 0.011378628160264966 -0.024046460051207745 0 0.010831117394010282 -0.023128799369078395 0 0.01165864487304385 -0.022842657834366908 0 0.011378628160264966 -0.024046460051207745 0 0.01165864487304385 -0.022842657834366908 0 0.01230516501612924 -0.022971406346343367 0 0.012216160122091898 -0.022062085169923838 0 0.01165864487304385 -0.022842657834366908 0 0.01230516501612924 -0.022971406346343367 0 0.012728832309196964 -0.022167354074421535 0 0.012216160122091898 -0.022062085169923838 0 0.01230516501612924 -0.022971406346343367 0 0.012728832309196964 -0.022167354074421535 0 0.012216160122091898 -0.022062085169923838 0 0.012549697824680841 -0.02180302564698287 0 0.012216160122091898 -0.022062085169923838 0 0.012549697824680841 -0.02180302564698287 0 0.012467083567695372 -0.021701846607811336 0 0.012216160122091898 -0.022062085169923838 0 0.012467083567695372 -0.021701846607811336 0 0.012516545661420665 -0.02162203062662749 0 0.012240682216707217 -0.022030797379403996 0 0.01175984850817135 -0.021498244314096564 0 0.012467083567695372 -0.021701846607811336 0 0.012543435592824037 -0.021607753496318508 0 0.012516545661420665 -0.02162203062662749 0 0.012467083567695372 -0.021701846607811336 0 0.012543435592824037 -0.021607753496318508 0 0.012577087844900504 -0.021535603322523248 0 0.012549697824680841 -0.02180302564698287 0 0.012467083567695372 -0.021701846607811336 0 0.012577087844900504 -0.021535603322523248 0 0.012549697824680841 -0.02180302564698287 0 0.012580679257674072 -0.021401434007883566 0 0.012578002640392943 -0.021492550415449424 0 0.012580679257674072 -0.021401434007883566 0 0.012578002640392943 -0.021492550415449424 0 0.012557431369927241 -0.02142937632331432 0 0.012543435592824037 -0.021607753496318508 0 0.012577087844900504 -0.021535603322523248 0 0.012610451939631732 -0.021548375202551699 0 0.012570189971860463 -0.021774464152410557 0 0.012579269915342311 -0.021486591186827008 0 0.012794615691810634 -0.021739687531184566 0 0.012549697824680841 -0.02180302564698287 0 0.012578002640392943 -0.021492550415449424 0 0.012392062300447976 -0.021254943884290861 0 0.012578002640392943 -0.021492550415449424 0 0.012557431369927241 -0.02142937632331432 0 0.012569013317161721 -0.021503048929617952 0 0.012561705635487702 -0.021488269084076365 0 0.012392062300447976 -0.021254943884290861 0 0.012516625041117665 -0.021475961613130191 0 0.012557431369927241 -0.02142937632331432 0 0.012516625041117665 -0.021475961613130191 0 0.012557431369927241 -0.02142937632331432 0 0.012645716917099937 -0.021504516077735372 0 0.012579269915342311 -0.021486591186827008 0 0.012796740196442905 -0.021579071289700498 0 0.012580679257674072 -0.021401434007883566 0 0.012645716917099937 -0.021504516077735372 0 0.012847522621918149 -0.021565756136575364 0 0.012580679257674072 -0.021401434007883566 0 0.012557431369927241 -0.02142937632331432 0 0.012645716917099937 -0.021504516077735372 0 0.012577087844900504 -0.021535603322523248 0 0.012689106131338869 -0.02152507373656545 0 0.012610451939631732 -0.021548375202551699 0 0.012645716917099937 -0.021504516077735372 0 0.012603315461980517 -0.021605756006766907 0 0.012847522621918149 -0.021565756136575364 0 0.012516625041117665 -0.021475961613130191 0 0.012645716917099937 -0.021504516077735372 0 0.012603315461980517 -0.021605756006766907 0 0.012462374298501677 -0.021570857838014976 0 0.012516625041117665 -0.021475961613130191 0 0.012603315461980517 -0.021605756006766907 0 0.013006280725658216 -0.021591814637881703 0 0.012810446399782365 -0.021507263034394111 0 0.012985851900207547 -0.021417135115115248 0 0.013006280725658216 -0.021591814637881703 0 0.012985851900207547 -0.021417135115115248 0 0.013209624852589577 -0.021518971017178982 0 0.012985851900207547 -0.021417135115115248 0 0.013209624852589577 -0.021518971017178982 0 0.013220717973551772 -0.02139939143270243 0 0.013006280725658216 -0.021591814637881703 0 0.013209624852589577 -0.021518971017178982 0 0.013319623125464383 -0.021669896809503458 0 0.013006280725658216 -0.021591814637881703 0 0.012743266402791911 -0.021585181578041256 0 0.012810446399782365 -0.021507263034394111 0 0.012810446399782365 -0.021507263034394111 0 0.012743607262166183 -0.021505470758896555 0 0.012814572321001028 -0.021479843277348108 0 0.012577087844900504 -0.021535603322523248 0 0.012743266402791911 -0.021585181578041256 0 0.012689106131338869 -0.02152507373656545 0 0.012810446399782365 -0.021507263034394111 0 0.012689106131338869 -0.02152507373656545 0 0.012743607262166183 -0.021505470758896555 0 0.012743266402791911 -0.021585181578041256 0 0.012810446399782365 -0.021507263034394111 0 0.012689106131338869 -0.02152507373656545 0 0.012689106131338869 -0.02152507373656545 0 0.012610451939631732 -0.021548375202551699 0 0.012668323182679521 -0.021531741594291665 0 0.012689106131338869 -0.02152507373656545 0 0.012743607262166183 -0.021505470758896555 0 0.012668323182679521 -0.021531741594291665 0 0.012743607262166183 -0.021505470758896555 0 0.01273478163931106 -0.021510637316899506 0 0.012668323182679521 -0.021531741594291665 0 0.01273478163931106 -0.021510637316899506 0 0.012792643725124125 -0.021492908064549197 0 0.012747421073795725 -0.021507052559033634 0 0.012792643725124125 -0.021492908064549197 0 0.012814636301034856 -0.021488534250391648 0 0.012747421073795725 -0.021507052559033634 0 0.012792643725124125 -0.021492908064549197 0 0.012814572321001028 -0.021479843277348108 0 0.012854738193283793 -0.02146614864556699 0 0.01273478163931106 -0.021510637316899506 0 0.012792643725124125 -0.021492908064549197 0 0.012814572321001028 -0.021479843277348108 0 0.012743607262166183 -0.021505470758896555 0 0.01273478163931106 -0.021510637316899506 0 0.012814572321001028 -0.021479843277348108 0 0.012810446399782365 -0.021507263034394111 0 0.012814572321001028 -0.021479843277348108 0 0.012985851900207547 -0.021417135115115248 0 0.012985851900207547 -0.021417135115115248 0 0.013003890945293464 -0.021127589827320419 0 0.01326348557405871 -0.021237024221661408 0 0.012985851900207547 -0.021417135115115248 0 0.012854738193283793 -0.02146614864556699 0 0.012821544830711488 -0.02147759969941165 0 0.012794794223314226 -0.02140509687382737 0 0.012661340889470784 -0.021340586828116837 0 0.012814572321001028 -0.021479843277348108 0 0.012985851900207547 -0.021417135115115248 0 0.012854738193283793 -0.02146614864556699 0 0.012661340889470784 -0.021340586828116837 0 0.013271078877133597 -0.020976531272826608 0 0.012792643725124125 -0.021492908064549197 0 0.012854738193283793 -0.02146614864556699 0 0.012814636301034856 -0.021488534250391648 0 0.012669514542857309 -0.021345596580157652 0 0.012661340889470784 -0.021340586828116837 0 0.012661340889470784 -0.021340586828116837 0 0.011330446156787933 -0.021214754196489667 0 0.012290864502712249 -0.021298870114563367 0 0.01228545447751541 -0.021111247384990935 0 0.012383471688451461 -0.021176343571986674 0 0.012666860814096697 -0.021537396743582241 0 0.012723040905567487 -0.021505123055666434 0 0.012516545661420665 -0.02162203062662749 0 0.012814636301034856 -0.021488534250391648 0 0.012747421073795725 -0.021507052559033634 0 0.012723040905567487 -0.021505123055666434 0 0.011330446156787933 -0.021214754196489667 0 0.013271078877133597 -0.020976531272826608 0 0.012747421073795725 -0.021507052559033634 0 0.012666860814096697 -0.021537396743582241 0 0.012723040905567487 -0.021505123055666434 0 0.01273478163931106 -0.021510637316899506 0 0.012747421073795725 -0.021507052559033634 0 0.012666860814096697 -0.021537396743582241 0 0.012610451939631732 -0.021548375202551699 0 0.012668323182679521 -0.021531741594291665 0 0.012599546607138575 -0.021572292449956856 0 0.01273478163931106 -0.021510637316899506 0 0.012666860814096697 -0.021537396743582241 0 0.012668323182679521 -0.021531741594291665 0 0.012666860814096697 -0.021537396743582241 0 0.012668323182679521 -0.021531741594291665 0 0.012599546607138575 -0.021572292449956856 0 0.012666860814096697 -0.021537396743582241 0 0.012599546607138575 -0.021572292449956856 0 0.012516545661420665 -0.02162203062662749 0 0.012543435592824037 -0.021607753496318508 0 0.012599546607138575 -0.021572292449956856 0 0.012516545661420665 -0.02162203062662749 0 0.012543435592824037 -0.021607753496318508 0 0.012610451939631732 -0.021548375202551699 0 0.012599546607138575 -0.021572292449956856 0 0.010168371288365083 -0.022720687472172714 0 0.010257916537358271 -0.021731398370542707 0 0.0098498422108802726 -0.022294434642456343 0 0.009871373749936331 -0.022377296478961493 0 0.011330446156787933 -0.021214754196489667 0 0.011330446156787933 -0.021214754196489667 0 0.01175984850817135 -0.021498244314096564 0 0.0098802585908329722 -0.022042304424463505 0 0.0098876639247478214 -0.02061335317422695 0 0.010988861606885685 -0.021359390247007937 0 0.018027224831354084 -0.021431507762925291 0 0.016032556352140979 -0.020591719378636592 0 0.0098498422108802726 -0.022294434642456343 0 0.0093978457713836481 -0.022284048628027252 0 0.0095671915959256604 -0.022749933812346249 0 0.0098498422108802726 -0.022294434642456343 0 0.0093978457713836481 -0.022284048628027252 0 0.0099358469060998426 -0.021850630907449434 0 0.026958348876715086 -0.020562248722320424 0 0.026754355660425989 -0.020496766750413904 0 0.026702236280958514 -0.020909168758757205 0 0.026958348876715086 -0.020562248722320424 0 0.026920231965250407 -0.020334359450415413 0 0.026754355660425989 -0.020496766750413904 0 0.026958348876715086 -0.020562248722320424 0 0.026920231965250407 -0.020334359450415413 0 0.027001470347749589 -0.020308923297129938 0 0.026920231965250407 -0.020334359450415413 0 0.02692751874815771 -0.02022890183438664 0 0.026754355660425989 -0.020496766750413904 0 0.027001470347749589 -0.020308923297129938 0 0.02696743710416865 -0.020219654304891352 0 0.027045740096437166 -0.020203687934350314 0 0.026920231965250407 -0.020334359450415413 0 0.027001470347749589 -0.020308923297129938 0 0.02696743710416865 -0.020219654304891352 0 0.026920231965250407 -0.020334359450415413 0 0.02696743710416865 -0.020219654304891352 0 0.02692751874815771 -0.02022890183438664 0 0.026958348876715086 -0.020562248722320424 0 0.027001470347749589 -0.020308923297129938 0 0.02707783370809699 -0.020320392162343989 0 0.0093978457713836481 -0.022284048628027252 0 0.0098623456496149692 -0.021686055405508654 0 0.0099358469060998426 -0.021850630907449434 0 0.0098600594219462861 -0.021686107486973815 0 0.0099358469060998426 -0.021850630907449434 0 0.00998093023072439 -0.021528280932775604 0 0.010257916537358271 -0.021731398370542707 0 0.0098498422108802726 -0.022294434642456343 0 0.0099358469060998426 -0.021850630907449434 0 0.010257916537358271 -0.021731398370542707 0 0.0099358469060998426 -0.021850630907449434 0 0.00998093023072439 -0.021528280932775604 0 0.016032556352140979 -0.020591719378636592 0 0.014400027404843127 -0.020218117166789118 0 0.027001470347749589 -0.020308923297129938 0 0.02707783370809699 -0.020320392162343989 0 0.027045740096437166 -0.020203687934350314 0 0.016032556352140979 -0.020591719378636592 0 0.021248868642003801 -0.020866867316901943 0 0.013271078877133597 -0.020976531272826608 0 0.021248868642003801 -0.020866867316901943 0 0.017311211888562779 -0.019568223429089416 0 0.016638512378382705 -0.020449383365319665 0 0.01850492570083704 -0.021722501419730547 0 0.016032556352140979 -0.020591719378636592 0 0.013271078877133597 -0.020976531272826608 0 0.013003890945293464 -0.021127589827320419 0 0.013257839955625737 -0.020837389210413032 0 0.013282726458745561 -0.021076881316892986 0 0.013257839955625737 -0.020837389210413032 0 0.013282726458745561 -0.021076881316892986 0 0.013513871103016797 -0.021030173211135362 0 0.013003890945293464 -0.021127589827320419 0 0.013282726458745561 -0.021076881316892986 0 0.01326348557405871 -0.021237024221661408 0 0.013454756003858374 -0.021248956238157118 0 0.013513871103016797 -0.021030173211135362 0 0.013774459083831968 -0.021476471206817425 0 0.012985851900207547 -0.021417135115115248 0 0.01326348557405871 -0.021237024221661408 0 0.013220717973551772 -0.02139939143270243 0 0.013282726458745561 -0.021076881316892986 0 0.01326348557405871 -0.021237024221661408 0 0.013454756003858374 -0.021248956238157118 0 0.01326348557405871 -0.021237024221661408 0 0.013220717973551772 -0.02139939143270243 0 0.013411061351245462 -0.021402047320452137 0 0.01326348557405871 -0.021237024221661408 0 0.013454756003858374 -0.021248956238157118 0 0.013411061351245462 -0.021402047320452137 0 0.013282726458745561 -0.021076881316892986 0 0.013454756003858374 -0.021248956238157118 0 0.013513871103016797 -0.021030173211135362 0 0.021248868642003801 -0.020866867316901943 0 0.020236424720245567 -0.020676690402868729 0 0.021248868642003801 -0.020866867316901943 0 0.028275596187074651 -0.020685608210299071 0 0.02696743710416865 -0.020219654304891352 0 0.027045740096437166 -0.020203687934350314 0 0.026942960562816393 -0.020013954287725531 0 0.026657345770786128 -0.019894978698333236 0 0.026942960562816393 -0.020013954287725531 0 0.02688683289682672 -0.020071107022033883 0 0.02696743710416865 -0.020219654304891352 0 0.026942960562816393 -0.020013954287725531 0 0.02692751874815771 -0.02022890183438664 0 0.02688683289682672 -0.020071107022033883 0 0.027049407403325842 -0.020063583104414778 0 0.027039041856702667 -0.020155996302553644 0 0.02688683289682672 -0.020071107022033883 0 0.027049407403325842 -0.020063583104414778 0 0.026974940304111714 -0.020007046468779426 0 0.026942960562816393 -0.020013954287725531 0 0.02688683289682672 -0.020071107022033883 0 0.026974940304111714 -0.020007046468779426 0 0.013774459083831968 -0.021476471206817425 0 0.013526917112356745 -0.021561718990722546 0 0.013873505790444468 -0.021644056980594371 0 0.013526917112356745 -0.021561718990722546 0 0.013209624852589577 -0.021518971017178982 0 0.013319623125464383 -0.021669896809503458 0 0.013526917112356745 -0.021561718990722546 0 0.013209624852589577 -0.021518971017178982 0 0.013411061351245462 -0.021402047320452137 0 0.013209624852589577 -0.021518971017178982 0 0.013220717973551772 -0.02139939143270243 0 0.013411061351245462 -0.021402047320452137 0 0.013454756003858374 -0.021248956238157118 0 0.013774459083831968 -0.021476471206817425 0 0.013411061351245462 -0.021402047320452137 0 0.013774459083831968 -0.021476471206817425 0 0.013526917112356745 -0.021561718990722546 0 0.013411061351245462 -0.021402047320452137 0 0.027424836990283277 -0.020010838435388163 0 0.02723088769890861 -0.020058754106239283 0 0.027054947284263987 -0.019943556196997985 0 0.027424836990283277 -0.020010838435388163 0 0.027446530931792126 -0.020064115554472173 0 0.02723088769890861 -0.020058754106239283 0 0.027446530931792126 -0.020064115554472173 0 0.02723088769890861 -0.020058754106239283 0 0.02727440568172115 -0.020122157240974332 0 0.02723088769890861 -0.020058754106239283 0 0.027049407403325842 -0.020063583104414778 0 0.02727440568172115 -0.020122157240974332 0 0.027049407403325842 -0.020063583104414778 0 0.026974940304111714 -0.020007046468779426 0 0.027054947284263987 -0.019943556196997985 0 0.02723088769890861 -0.020058754106239283 0 0.027049407403325842 -0.020063583104414778 0 0.027054947284263987 -0.019943556196997985 0 0.027054947284263987 -0.019943556196997985 0 0.026871438300779406 -0.020087683855161628 0 0.025809296975241737 -0.020491158461896062 0 0.026974940304111714 -0.020007046468779426 0 0.027054947284263987 -0.019943556196997985 0 0.026871438300779406 -0.020087683855161628 0 0.026942960562816393 -0.020013954287725531 0 0.026974940304111714 -0.020007046468779426 0 0.026871438300779406 -0.020087683855161628 0 0.026942960562816393 -0.020013954287725531 0 0.026871438300779406 -0.020087683855161628 0 0.02692751874815771 -0.02022890183438664 0 0.026969264319570637 -0.020041752389284222 0 0.026667596047087898 -0.020388387063274824 0 0.027054947284263987 -0.019943556196997985 0 0.027573678665181622 -0.020158290665220669 0 0.027577528411645319 -0.0200093154073375 0 0.027424836990283277 -0.020010838435388163 0 0.027054947284263987 -0.019943556196997985 0 0.027577528411645319 -0.0200093154073375 0 0.027573678665181622 -0.020158290665220669 0 0.027711745821252416 -0.020064715945696861 0 0.027577528411645319 -0.0200093154073375 0 0.025809296975241737 -0.020491158461896062 0 0.026583670185946491 -0.020624416796271909 0 0.02597622327784381 -0.02155239672406856 0 0.027573678665181622 -0.020158290665220669 0 0.027951608088469082 -0.020056423764819874 0 0.027711745821252416 -0.020064715945696861 0 0.026921251657132387 -0.02039132630960927 0 0.027140240967230559 -0.02078037796510462 0 0.02692751874815771 -0.02022890183438664 0 0.026583670185946491 -0.020624416796271909 0 0.027182555380810439 -0.021439779597557374 0 0.026871438300779406 -0.020087683855161628 0 0.02692751874815771 -0.02022890183438664 0 0.026583670185946491 -0.020624416796271909 0 0.026871438300779406 -0.020087683855161628 0 0.025809296975241737 -0.020491158461896062 0 0.026583670185946491 -0.020624416796271909 0 0.027182555380810439 -0.021439779597557374 0 0.026438315928779998 -0.022312098821486191 0 0.02597622327784381 -0.02155239672406856 0 0.026583670185946491 -0.020624416796271909 0 0.027182555380810439 -0.021439779597557374 0 0.02597622327784381 -0.02155239672406856 0 0.027140240967230559 -0.02078037796510462 0 0.022499936675170053 -0.023365419146260519 0 0.027182555380810439 -0.021439779597557374 0 0.026438315928779998 -0.022312098821486191 0 0.027386855114292851 -0.023174174829072591 0 0.026438315928779998 -0.022312098821486191 0 0.02597622327784381 -0.02155239672406856 0 0.025528360256158057 -0.022448004602026062 0 0.025809296975241737 -0.020491158461896062 0 0.02597622327784381 -0.02155239672406856 0 0.024579768629350841 -0.022093041283894325 0 0.026667596047087898 -0.020388387063274824 0 0.026330540461422188 -0.020776119814402232 0 0.027573678665181622 -0.020158290665220669 0 0.028005789034035233 -0.019460234344223743 0 0.027951608088469082 -0.020056423764819874 0 0.02597622327784381 -0.02155239672406856 0 0.024579768629350841 -0.022093041283894325 0 0.025528360256158057 -0.022448004602026062 0 0.024579768629350841 -0.022093041283894325 0 0.025528360256158057 -0.022448004602026062 0 0.024864051437805387 -0.023228547665471829 0 0.025528360256158057 -0.022448004602026062 0 0.02584017463041997 -0.023292100499721115 0 0.024864051437805387 -0.023228547665471829 0 0.02584017463041997 -0.023292100499721115 0 0.024864051437805387 -0.023228547665471829 0 0.024868446763858555 -0.02417015728624056 0 0.024864051437805387 -0.023228547665471829 0 0.024868446763858555 -0.02417015728624056 0 0.023446640111681797 -0.024179635641110669 0 0.02584017463041997 -0.023292100499721115 0 0.024868446763858555 -0.02417015728624056 0 0.025996028402128696 -0.025036388522346471 0 0.024868446763858555 -0.02417015728624056 0 0.024327963690577166 -0.025366740333690223 0 0.023446640111681797 -0.024179635641110669 0 0.024868446763858555 -0.02417015728624056 0 0.024327963690577166 -0.025366740333690223 0 0.025996028402128696 -0.025036388522346471 0 0.025842306055363161 -0.025439860723983857 0 0.022499936675170053 -0.023365419146260519 0 0.024777257152739585 -0.02606563158162473 0 0.025423715650054933 -0.025123223558072949 0 0.025572278965278739 -0.026551935677094306 0 0.02584017463041997 -0.023292100499721115 0 0.025996028402128696 -0.025036388522346471 0 0.027386855114292851 -0.023174174829072591 0 0.026438315928779998 -0.022312098821486191 0 0.02584017463041997 -0.023292100499721115 0 0.027386855114292851 -0.023174174829072591 0 0.026438315928779998 -0.022312098821486191 0 0.025528360256158057 -0.022448004602026062 0 0.02584017463041997 -0.023292100499721115 0 0.018027224831354084 -0.021431507762925291 0 0.022499936675170053 -0.023365419146260519 0 0.0093978457713836481 -0.022284048628027252 0 0.0089659090958973259 -0.022854952449252348 0 0.0095671915959256604 -0.022749933812346249 0 0.0089659090958973259 -0.022854952449252348 0 0.0095671915959256604 -0.022749933812346249 0 0.0096044144366002025 -0.023343893432163927 0 0.010168371288365083 -0.022720687472172714 0 0.0098498422108802726 -0.022294434642456343 0 0.0095671915959256604 -0.022749933812346249 0 0.010168371288365083 -0.022720687472172714 0 0.0095671915959256604 -0.022749933812346249 0 0.0096044144366002025 -0.023343893432163927 0 0.0089659090958973259 -0.022854952449252348 0 0.0092898532244133029 -0.023682203515952453 0 0.0088143760741781867 -0.023890445003743967 0 0.0089659090958973259 -0.022854952449252348 0 0.0096044144366002025 -0.023343893432163927 0 0.0092898532244133029 -0.023682203515952453 0 0.022499936675170053 -0.023365419146260519 0 0.016526544763125001 -0.025436063763716047 0 0.0088143760741781867 -0.023890445003743967 0 0.0093720401346214857 -0.024372394358692259 0 0.0095576692011494387 -0.02554975438114131 0 0.0092898532244133029 -0.023682203515952453 0 0.0088143760741781867 -0.023890445003743967 0 0.0093720401346214857 -0.024372394358692259 0 0.0096044144366002025 -0.023343893432163927 0 0.0092898532244133029 -0.023682203515952453 0 0.0096741361820321427 -0.0241964255160328 0 0.0099785294073870875 -0.023623231966612937 0 0.0096044144366002025 -0.023343893432163927 0 0.0096741361820321427 -0.0241964255160328 0 0.0093720401346214857 -0.024372394358692259 0 0.0096741361820321427 -0.0241964255160328 0 0.0096935821804066211 -0.024534684440142795 0 0.0092898532244133029 -0.023682203515952453 0 0.0093720401346214857 -0.024372394358692259 0 0.0096741361820321427 -0.0241964255160328 0 0.0093720401346214857 -0.024372394358692259 0 0.0096935821804066211 -0.024534684440142795 0 0.0096242568376671347 -0.024960797003182305 0 0.0094600279391909101 -0.024442712305436643 0 0.010680017896977147 -0.025651265175991936 0 0.0093720401346214857 -0.024372394358692259 0 0.01093527062743917 -0.026267315766837676 0 0.011736301332178985 -0.026227070776503419 0 0.009908845599247847 -0.026632505584663367 0 0.01093527062743917 -0.026267315766837676 0 0.0095576692011494387 -0.02554975438114131 0 0.0089455562108255345 -0.026640046933120325 0 0.0088143760741781867 -0.023890445003743967 0 0.0095576692011494387 -0.02554975438114131 0 0.0093720401346214857 -0.024372394358692259 0 0.01093527062743917 -0.026267315766837676 0 0.0095576692011494387 -0.02554975438114131 0 0.017046734979892782 -0.02704367200404385 0 0.016526544763125001 -0.025436063763716047 0 0.0089455562108255345 -0.026640046933120325 0 0.009908845599247847 -0.026632505584663367 0 0.0095576692011494387 -0.02554975438114131 0 0.025703357374805936 -0.028160588157463154 0 0.025572278965278739 -0.026551935677094306 0 0.024964049380947272 -0.027373919497220418 0 0.024860678288761109 -0.028163685698057887 0 0.025703357374805936 -0.028160588157463154 0 0.024964049380947272 -0.027373919497220418 0 0.024860678288761109 -0.028163685698057887 0 0.024964049380947272 -0.027373919497220418 0 0.024358635891944373 -0.027691453610959791 0 0.024964049380947272 -0.027373919497220418 0 0.024358635891944373 -0.027691453610959791 0 0.024164665703498171 -0.026891717049648038 0 0.023929174917584586 -0.028385684409865598 0 0.024358635891944373 -0.027691453610959791 0 0.023677473942148662 -0.027520981321513233 0 0.024358635891944373 -0.027691453610959791 0 0.024164665703498171 -0.026891717049648038 0 0.023677473942148662 -0.027520981321513233 0 0.024964049380947272 -0.027373919497220418 0 0.024164665703498171 -0.026891717049648038 0 0.024855773273363815 -0.026718268282305883 0 0.024327963690577166 -0.025366740333690223 0 0.025996028402128696 -0.025036388522346471 0 0.024164665703498171 -0.026891717049648038 0 0.024777257152739585 -0.02606563158162473 0 0.024164665703498171 -0.026891717049648038 0 0.024855773273363815 -0.026718268282305883 0 0.025842306055363161 -0.025439860723983857 0 0.024147911777191697 -0.026884758253374622 0 0.024777257152739585 -0.02606563158162473 0 0.025572278965278739 -0.026551935677094306 0 0.024855773273363815 -0.026718268282305883 0 0.025572278965278739 -0.026551935677094306 0 0.024964049380947272 -0.027373919497220418 0 0.024855773273363815 -0.026718268282305883 0 0.032513080751912955 -0.019449997929185857 0 0.03302332599899889 -0.01925965043466462 0 0.032909535137175483 -0.019710321751565948 0 0.024327963690577166 -0.025366740333690223 0 0.024164665703498171 -0.026891717049648038 0 0.02259277587547967 -0.026318948839236436 0 0.02765454126016563 -0.027773688888325494 0 0.029572786738576145 -0.021480959377654721 0 0.02311204183614516 -0.028207370360458721 0 0.02259277587547967 -0.026318948839236436 0 0.023677473942148662 -0.027520981321513233 0 0.024164665703498171 -0.026891717049648038 0 0.02259277587547967 -0.026318948839236436 0 0.023677473942148662 -0.027520981321513233 0 0.02311204183614516 -0.028207370360458721 0 0.023929174917584586 -0.028385684409865598 0 0.023677473942148662 -0.027520981321513233 0 0.032409138533864609 -0.021849133760110741 0 0.029572786738576145 -0.021480959377654721 0 0.031678866224794731 -0.025861816342827745 0 0.032498481534790805 -0.025821853704146715 0 0.032078546370695848 -0.02454128216743225 0 0.032875231089200471 -0.018932935786743647 0 0.032513080751912955 -0.019449997929185857 0 0.03302332599899889 -0.01925965043466462 0 0.03342953631197549 -0.018876284367660503 0 0.032875231089200471 -0.018932935786743647 0 0.03302332599899889 -0.01925965043466462 0 0.03342953631197549 -0.018876284367660503 0 0.03302332599899889 -0.01925965043466462 0 0.033471374358336102 -0.019226896241028482 0 0.03342953631197549 -0.018876284367660503 0 0.033471374358336102 -0.019226896241028482 0 0.034094648337032282 -0.019274121602864406 0 0.035842588054963938 -0.021870253219466257 0 0.036043539741385619 -0.022271926870339496 0 0.033342814193104031 -0.019568052117343179 0 0.0339252445323718 -0.020012376191824704 0 0.034094648337032282 -0.019274121602864406 0 0.033471374358336102 -0.019226896241028482 0 0.033342814193104031 -0.019568052117343179 0 0.034094648337032282 -0.019274121602864406 0 0.03302332599899889 -0.01925965043466462 0 0.033342814193104031 -0.019568052117343179 0 0.032909535137175483 -0.019710321751565948 0 0.03302332599899889 -0.01925965043466462 0 0.033471374358336102 -0.019226896241028482 0 0.033342814193104031 -0.019568052117343179 0 0.032909535137175483 -0.019710321751565948 0 0.033127936057301015 -0.020122220987097181 0 0.032579376406267103 -0.020204779551518628 0 0.033342814193104031 -0.019568052117343179 0 0.032909535137175483 -0.019710321751565948 0 0.033127936057301015 -0.020122220987097181 0 0.033342814193104031 -0.019568052117343179 0 0.033127936057301015 -0.020122220987097181 0 0.0339252445323718 -0.020012376191824704 0 0.033127936057301015 -0.020122220987097181 0 0.0339252445323718 -0.020012376191824704 0 0.033664279527411772 -0.020790270599351214 0 0.033127936057301015 -0.020122220987097181 0 0.032874391162655489 -0.020564921329109618 0 0.032579376406267103 -0.020204779551518628 0 0.033127936057301015 -0.020122220987097181 0 0.032874391162655489 -0.020564921329109618 0 0.033664279527411772 -0.020790270599351214 0 0.030894296668602963 -0.017602844868632537 0 0.030040518456323474 -0.019098213298849729 0 0.030778673150221519 -0.019864571828295086 0 0.030894296668602963 -0.017602844868632537 0 0.029299188674794498 -0.018505807417966966 0 0.030040518456323474 -0.019098213298849729 0 0.029851569523491956 -0.014973038548427338 0 0.030894296668602963 -0.017602844868632537 0 0.029041902029892201 -0.017016172272789419 0 0.032513080751912955 -0.019449997929185857 0 0.032909535137175483 -0.019710321751565948 0 0.032579376406267103 -0.020204779551518628 0 0.029572786738576145 -0.021480959377654721 0 0.031866239350109911 -0.018022684621721713 0 0.029572786738576145 -0.021480959377654721 0 0.025944958856180696 -0.0206017360220766 0 0.024327963690577166 -0.025366740333690223 0 0.02259277587547967 -0.026318948839236436 0 0.023446640111681797 -0.024179635641110669 0 0.024579768629350841 -0.022093041283894325 0 0.024864051437805387 -0.023228547665471829 0 0.023446640111681797 -0.024179635641110669 0 0.026330540461422188 -0.020776119814402232 0 0.025944958856180696 -0.0206017360220766 0 0.030894296668602963 -0.017602844868632537 0 0.029041902029892201 -0.017016172272789419 0 0.029299188674794498 -0.018505807417966966 0 0.028005789034035233 -0.019460234344223743 0 0.029041902029892201 -0.017016172272789419 0 0.029299188674794498 -0.018505807417966966 0 0.028005789034035233 -0.019460234344223743 0 0.029299188674794498 -0.018505807417966966 0 0.029367457773833629 -0.019714826751210422 0 0.028005789034035233 -0.019460234344223743 0 0.029367457773833629 -0.019714826751210422 0 0.027951608088469082 -0.020056423764819874 0 0.029367457773833629 -0.019714826751210422 0 0.027951608088469082 -0.020056423764819874 0 0.031710237694842061 -0.021678915251585208 0 0.029299188674794498 -0.018505807417966966 0 0.029367457773833629 -0.019714826751210422 0 0.030040518456323474 -0.019098213298849729 0 0.030894296668602963 -0.017602844868632537 0 0.030778673150221519 -0.019864571828295086 0 0.032325649396285468 -0.021126457391737057 0 0.031866239350109911 -0.018022684621721713 0 0.032334021200984261 -0.021439757327688068 0 0.029367457773833629 -0.019714826751210422 0 0.030778673150221519 -0.019864571828295086 0 0.031710237694842061 -0.021678915251585208 0 0.029367457773833629 -0.019714826751210422 0 0.030040518456323474 -0.019098213298849729 0 0.030778673150221519 -0.019864571828295086 0 0.030778673150221519 -0.019864571828295086 0 0.031710237694842061 -0.021678915251585208 0 0.032325649396285468 -0.021126457391737057 0 0.027696544821056768 -0.019948321009934135 0 0.02775451477832281 -0.019971102930846269 0 0.027714091480864386 -0.019947880248810813 0 0.027712878573556126 -0.019988285850956442 0 0.02775451477832281 -0.019971102930846269 0 0.027714091480864386 -0.019947880248810813 0 0.027696544821056768 -0.019948321009934135 0 0.027714091480864386 -0.019947880248810813 0 0.02776761863871928 -0.019933416335870074 0 0.028016783254028534 -0.020140325614653249 0 0.029810348165881944 -0.020763778505808777 0 0.027951608088469082 -0.020056423764819874 0 0.027696544821056768 -0.019948321009934135 0 0.02775451477832281 -0.019971102930846269 0 0.027951608088469082 -0.020056423764819874 0 0.027712878573556126 -0.019988285850956442 0 0.027711745821252416 -0.020064715945696861 0 0.027951608088469082 -0.020056423764819874 0 0.027712878573556126 -0.019988285850956442 0 0.02775451477832281 -0.019971102930846269 0 0.027712878573556126 -0.019988285850956442 0 0.027711745821252416 -0.020064715945696861 0 0.027577528411645319 -0.0200093154073375 0 0.027712878573556126 -0.019988285850956442 0 0.027577528411645319 -0.0200093154073375 0 0.027612701959032118 -0.019988120862352524 0 0.027712878573556126 -0.019988285850956442 0 0.027612701959032118 -0.019988120862352524 0 0.027714091480864386 -0.019947880248810813 0 0.027424836990283277 -0.020010838435388163 0 0.027577528411645319 -0.0200093154073375 0 0.027612701959032118 -0.019988120862352524 0 0.027714091480864386 -0.019947880248810813 0 0.027691653274439208 -0.01998477047483117 0 0.027758219784150433 -0.019957707679772944 0 0.027612701959032118 -0.019988120862352524 0 0.027714091480864386 -0.019947880248810813 0 0.027691653274439208 -0.01998477047483117 0 0.027691653274439208 -0.01998477047483117 0 0.02762144939789582 -0.020035702888324288 0 0.027744753138284201 -0.020008589283762861 0 0.027691653274439208 -0.01998477047483117 0 0.027758219784150433 -0.019957707679772944 0 0.027744753138284201 -0.020008589283762861 0 0.027446530931792126 -0.020064115554472173 0 0.027612701959032118 -0.019988120862352524 0 0.02762144939789582 -0.020035702888324288 0 0.027612701959032118 -0.019988120862352524 0 0.027691653274439208 -0.01998477047483117 0 0.02762144939789582 -0.020035702888324288 0 0.027424836990283277 -0.020010838435388163 0 0.027446530931792126 -0.020064115554472173 0 0.027612701959032118 -0.019988120862352524 0 0.027834476296227349 -0.019970555330058544 0 0.027941380662297746 -0.019942024425850084 0 0.027902447967014521 -0.019988701772957859 0 0.027834476296227349 -0.019970555330058544 0 0.027833753364396599 -0.019933977161167449 0 0.027941380662297746 -0.019942024425850084 0 0.027834476296227349 -0.019970555330058544 0 0.027758219784150433 -0.019957707679772944 0 0.027744753138284201 -0.020008589283762861 0 0.027834476296227349 -0.019970555330058544 0 0.027758219784150433 -0.019957707679772944 0 0.027833753364396599 -0.019933977161167449 0 0.02776761863871928 -0.019933416335870074 0 0.027833753364396599 -0.019933977161167449 0 0.027896471728728212 -0.019868499215365577 0 0.027758219784150433 -0.019957707679772944 0 0.02776761863871928 -0.019933416335870074 0 0.027833753364396599 -0.019933977161167449 0 0.027714091480864386 -0.019947880248810813 0 0.027758219784150433 -0.019957707679772944 0 0.02776761863871928 -0.019933416335870074 0 0.027833753364396599 -0.019933977161167449 0 0.027896471728728212 -0.019868499215365577 0 0.027941380662297746 -0.019942024425850084 0 0.033629073337846822 -0.021878409296907497 0 0.033358499301704363 -0.02116643404382617 0 0.034116131050261761 -0.021592359987398609 0 0.029810348165881944 -0.020763778505808777 0 0.030207518027137878 -0.020945401367417654 0 0.027696544821056768 -0.019948321009934135 0 0.02776761863871928 -0.019933416335870074 0 0.027896471728728212 -0.019868499215365577 0 0.033629073337846822 -0.021878409296907497 0 0.032325649396285468 -0.021126457391737057 0 0.033358499301704363 -0.02116643404382617 0 0.031710237694842061 -0.021678915251585208 0 0.033629073337846822 -0.021878409296907497 0 0.032325649396285468 -0.021126457391737057 0 0.032874391162655489 -0.020564921329109618 0 0.032579376406267103 -0.020204779551518628 0 0.032325649396285468 -0.021126457391737057 0 0.032874391162655489 -0.020564921329109618 0 0.032325649396285468 -0.021126457391737057 0 0.033358499301704363 -0.02116643404382617 0 0.032874391162655489 -0.020564921329109618 0 0.033358499301704363 -0.02116643404382617 0 0.033664279527411772 -0.020790270599351214 0 0.033358499301704363 -0.02116643404382617 0 0.033664279527411772 -0.020790270599351214 0 0.034116131050261761 -0.021592359987398609 0 0.033664279527411772 -0.020790270599351214 0 0.035004442358790216 -0.021415701563241005 0 0.034726441302298655 -0.02067757132140733 0 0.033749149238965069 -0.020837603762279906 0 0.034680642024254811 -0.021237147992509874 0 0.033664279527411772 -0.020790270599351214 0 0.034425914068926693 -0.021187418161229803 0 0.034116131050261761 -0.021592359987398609 0 0.035004442358790216 -0.021415701563241005 0 0.035977619400610741 -0.021093425219922343 0 0.036103973701391526 -0.021416575152550042 0 0.035004442358790216 -0.021415701563241005 0 0.036103973701391526 -0.021416575152550042 0 0.034726441302298655 -0.02067757132140733 0 0.034582857213463998 -0.02170083642990342 0 0.034828562641547996 -0.021777091235497734 0 0.035047484627723606 -0.021516051304553217 0 0.034680642024254811 -0.021237147992509874 0 0.035468352215644372 -0.02133758246202053 0 0.034425914068926693 -0.021187418161229803 0 0.034582857213463998 -0.02170083642990342 0 0.035047484627723606 -0.021516051304553217 0 0.034582857213463998 -0.02170083642990342 0 0.034828562641547996 -0.021777091235497734 0 0.034615519740828715 -0.021912791672780697 0 0.033629073337846822 -0.021878409296907497 0 0.034116131050261761 -0.021592359987398609 0 0.034614769294530064 -0.021980077520414948 0 0.034425914068926693 -0.021187418161229803 0 0.034582857213463998 -0.02170083642990342 0 0.034116131050261761 -0.021592359987398609 0 0.034582857213463998 -0.02170083642990342 0 0.034116131050261761 -0.021592359987398609 0 0.034614769294530064 -0.021980077520414948 0 0.030207518027137878 -0.020945401367417654 0 0.033842198632564033 -0.020104397501831954 0 0.027896471728728212 -0.019868499215365577 0 0.028064189372318211 -0.019880494170225572 0 0.027941380662297746 -0.019942024425850084 0 0.034287971970912663 -0.021779624503533011 0 0.033842198632564033 -0.020104397501831954 0 0.034828562641547996 -0.021777091235497734 0 0.034615519740828715 -0.021912791672780697 0 0.035055559761581319 -0.021859960729624865 0 0.033842198632564033 -0.020104397501831954 0 0.032719832038605207 -0.018719485200509613 0 0.037696836921535103 -0.019250721817264838 0 0.037593762950482661 -0.017730653427346959 0 0.036919821050716353 -0.018539546204416366 0 0.037593762950482661 -0.017730653427346959 0 0.036651445791030822 -0.017709142244080635 0 0.036919821050716353 -0.018539546204416366 0 0.028035465085686429 -0.01995424820192913 0 0.027941380662297746 -0.019942024425850084 0 0.027980299751530862 -0.019978333143999601 0 0.028064189372318211 -0.019880494170225572 0 0.028035465085686429 -0.01995424820192913 0 0.027941380662297746 -0.019942024425850084 0 0.035607354779843704 -0.01830994259206116 0 0.034999977142616052 -0.017778451890711165 0 0.035487249522655778 -0.018972570040775384 0 0.035607354779843704 -0.01830994259206116 0 0.035876411962194855 -0.017825982457589824 0 0.03606634583936702 -0.018665821584827106 0 0.035607354779843704 -0.01830994259206116 0 0.034999977142616052 -0.017778451890711165 0 0.035876411962194855 -0.017825982457589824 0 0.036639374444336778 -0.017767793745307431 0 0.036321470826635185 -0.019126943414724755 0 0.036651445791030822 -0.017709142244080635 0 0.036041716201088175 -0.018605838272353223 0 0.036919821050716353 -0.018539546204416366 0 0.035876411962194855 -0.017825982457589824 0 0.036651445791030822 -0.017709142244080635 0 0.03606634583936702 -0.018665821584827106 0 0.037696836921535103 -0.019250721817264838 0 0.036919821050716353 -0.018539546204416366 0 0.035931240801006091 -0.018770789002064327 0 0.033842198632564033 -0.020104397501831954 0 0.036143531645060047 -0.019970793409105174 0 0.034615519740828715 -0.021912791672780697 0 0.035055559761581319 -0.021859960729624865 0 0.035403552843856392 -0.022086612524402426 0 0.036041716201088175 -0.018605838272353223 0 0.036919821050716353 -0.018539546204416366 0 0.035931240801006091 -0.018770789002064327 0 0.034828562641547996 -0.021777091235497734 0 0.035055559761581319 -0.021859960729624865 0 0.035079075009113038 -0.021733701478513348 0 0.035055559761581319 -0.021859960729624865 0 0.035313320487216457 -0.021809676393899295 0 0.035079075009113038 -0.021733701478513348 0 0.035055559761581319 -0.021859960729624865 0 0.035313320487216457 -0.021809676393899295 0 0.035403552843856392 -0.022086612524402426 0 0.036143531645060047 -0.019970793409105174 0 0.035418950300559991 -0.020483307901389389 0 0.035951315225207094 -0.018850163623586914 0 0.035487249522655778 -0.018972570040775384 0 0.035441250921719916 -0.019638230539781316 0 0.035313320487216457 -0.021809676393899295 0 0.035403552843856392 -0.022086612524402426 0 0.035603107577661108 -0.021783263561098408 0 0.034999977142616052 -0.017778451890711165 0 0.035487249522655778 -0.018972570040775384 0 0.034999976236825714 -0.019419673196871632 0 0.03606634583936702 -0.018665821584827106 0 0.035951315225207094 -0.018850163623586914 0 0.035487249522655778 -0.018972570040775384 0 0.035607354779843704 -0.01830994259206116 0 0.03606634583936702 -0.018665821584827106 0 0.035487249522655778 -0.018972570040775384 0 0.036321470826635185 -0.019126943414724755 0 0.036143531645060047 -0.019970793409105174 0 0.035487249522655778 -0.018972570040775384 0 0.035441250921719916 -0.019638230539781316 0 0.034999976236825714 -0.019419673196871632 0 0.035418950300559991 -0.020483307901389389 0 0.034999983855776351 -0.019420686075085989 0 0.035449482652860194 -0.019646641944575147 0 0.034999998863595179 -0.019419720310851086 0 0.03499999964227718 -0.020313078694133926 0 0.035232702585969437 -0.020135346373937039 0 0.034999562525500405 -0.020314554687596784 0 0.035977619400610741 -0.021093425219922343 0 0.035418950300559991 -0.020483307901389389 0 0.035000393170010351 -0.0203129124108948 0 0.034999562525500405 -0.020314554687596784 0 0.035977619400610741 -0.021093425219922343 0 0.036103973701391526 -0.021416575152550042 0 0.035418950300559991 -0.020483307901389389 0 0.035468352215644372 -0.02133758246202053 0 0.035313320487216457 -0.021809676393899295 0 0.035603107577661108 -0.021783263561098408 0 0.035047484627723606 -0.021516051304553217 0 0.034828562641547996 -0.021777091235497734 0 0.035079075009113038 -0.021733701478513348 0 0.035047484627723606 -0.021516051304553217 0 0.035313320487216457 -0.021809676393899295 0 0.035079075009113038 -0.021733701478513348 0 0.035047484627723606 -0.021516051304553217 0 0.034999562525500405 -0.020314554687596784 0 0.036103973701391526 -0.021416575152550042 0 0.034999484293058249 -0.025481768731817726 0 0.036103973701391526 -0.021416575152550042 0 0.037247618703113196 -0.023275263616675777 0 0.034999484293058249 -0.025481768731817726 0 0.03610616815872876 -0.021431924536651915 0 0.036150892314806116 -0.0216459706406795 0 0.036103973701391526 -0.021416575152550042 0 0.034726441302298655 -0.02067757132140733 0 0.03511537088151296 -0.020044771387816067 0 0.0339252445323718 -0.020012376191824704 0 0.033664279527411772 -0.020790270599351214 0 0.034726441302298655 -0.02067757132140733 0 0.0339252445323718 -0.020012376191824704 0 0.034726441302298655 -0.02067757132140733 0 0.03511537088151296 -0.020044771387816067 0 0.036150892314806116 -0.0216459706406795 0 0.036043539741385619 -0.022271926870339496 0 0.0339252445323718 -0.020012376191824704 0 0.03511537088151296 -0.020044771387816067 0 0.034094648337032282 -0.019274121602864406 0 0.037247618703113196 -0.023275263616675777 0 0.03692840887487147 -0.024826555420679821 0 0.037967008663572013 -0.025050221050021321 0 0.037648612961291912 -0.026240496878224929 0 0.037967008663572013 -0.025050221050021321 0 0.037337534896442662 -0.025872743757722565 0 0.037648612961291912 -0.026240496878224929 0 0.038126038457269154 -0.026106258256652581 0 0.037967008663572013 -0.025050221050021321 0 0.03692840887487147 -0.024826555420679821 0 0.037967008663572013 -0.025050221050021321 0 0.037337534896442662 -0.025872743757722565 0 0.03692840887487147 -0.024826555420679821 0 0.037337534896442662 -0.025872743757722565 0 0.03633511842529244 -0.025851752823339316 0 0.037247618703113196 -0.023275263616675777 0 0.03692840887487147 -0.024826555420679821 0 0.034999484293058249 -0.025481768731817726 0 0.036081264666450501 -0.027289098276471382 0 0.03633511842529244 -0.025851752823339316 0 0.034999484293058249 -0.025481768731817726 0 0.03692840887487147 -0.024826555420679821 0 0.03633511842529244 -0.025851752823339316 0 0.034999484293058249 -0.025481768731817726 0 0.0370019978953601 -0.0094210460606226655 0 0.036705025975237809 -0.010300996093779822 0 0.037104286242656145 -0.010914004178679174 0 0.037020288506863841 -0.0096186277370365059 0 0.037090806871750703 -0.010525569234757268 0 0.036517446293642855 -0.0098588759980534069 0 0.036195216993383433 -0.010270914361923325 0 0.036185841415650642 -0.0094125493133643094 0 0.036195216993383433 -0.010270914361923325 0 0.035562124395895317 -0.0098797522853071099 0 0.036185841415650642 -0.0094125493133643094 0 0.036517446293642855 -0.0098588759980534069 0 0.0370019978953601 -0.0094210460606226655 0 0.036705025975237809 -0.010300996093779822 0 0.036517446293642855 -0.0098588759980534069 0 0.0370019978953601 -0.0094210460606226655 0 0.036185841415650642 -0.0094125493133643094 0 0.036705025975237809 -0.010300996093779822 0 0.036480892539345305 -0.010830168964676952 0 0.037104286242656145 -0.010914004178679174 0 0.036705025975237809 -0.010300996093779822 0 0.036195216993383433 -0.010270914361923325 0 0.036480892539345305 -0.010830168964676952 0 0.036517446293642855 -0.0098588759980534069 0 0.036705025975237809 -0.010300996093779822 0 0.036195216993383433 -0.010270914361923325 0 0.036195216993383433 -0.010270914361923325 0 0.036066453020174041 -0.010775046405713922 0 0.036480892539345305 -0.010830168964676952 0 0.036195216993383433 -0.010270914361923325 0 0.036066453020174041 -0.010775046405713922 0 0.035793552318613232 -0.010446168559745521 0 0.036066453020174041 -0.010775046405713922 0 0.035793552318613232 -0.010446168559745521 0 0.035439195031407224 -0.010818468004765132 0 0.036195216993383433 -0.010270914361923325 0 0.035793552318613232 -0.010446168559745521 0 0.035562124395895317 -0.0098797522853071099 0 0.035793552318613232 -0.010446168559745521 0 0.035439195031407224 -0.010818468004765132 0 0.035562124395895317 -0.0098797522853071099 0 0.034999842747595961 -0.010817552213205083 0 0.035562124395895317 -0.0098797522853071099 0 0.03499953791411569 -0.0087791337002615481 0 0.034999842747595961 -0.010817552213205083 0 0.035439195031407224 -0.010818468004765132 0 0.035562124395895317 -0.0098797522853071099 0 0.035562124395895317 -0.0098797522853071099 0 0.03499953791411569 -0.0087791337002615481 0 0.035724547298861827 -0.0087528080473415933 0 0.035562124395895317 -0.0098797522853071099 0 0.035724547298861827 -0.0087528080473415933 0 0.036185841415650642 -0.0094125493133643094 0 0.035724547298861827 -0.0087528080473415933 0 0.036360368453000461 -0.0083497532926646231 0 0.035788721038813517 -0.007253327568706636 0 0.036360368453000461 -0.0083497532926646231 0 0.037560296947734835 -0.009417427939849574 0 0.036812494805644656 -0.0065319451150878333 0 0.035724547298861827 -0.0087528080473415933 0 0.036185841415650642 -0.0094125493133643094 0 0.036360368453000461 -0.0083497532926646231 0 0.0370019978953601 -0.0094210460606226655 0 0.036185841415650642 -0.0094125493133643094 0 0.036360368453000461 -0.0083497532926646231 0 0.0370019978953601 -0.0094210460606226655 0 0.036360368453000461 -0.0083497532926646231 0 0.037560296947734835 -0.009417427939849574 0 0.036349988927763588 -0.005500501418592923 0 0.037004823870903904 -0.0040007454398333208 0 0.036812494805644656 -0.0065319451150878333 0 0.037197381728818112 -0.0068942257896521825 0 0.036927809134197152 -0.0064469379379850488 0 0.036349988927763588 -0.005500501418592923 0 0.036392060518240364 -0.004428303596725764 0 0.036049559095523841 -0.0044609059451324188 0 0.036392060518240364 -0.004428303596725764 0 0.036049559095523841 -0.0044609059451324188 0 0.036237016542930572 -0.0038334557649502411 0 0.036392060518240364 -0.004428303596725764 0 0.037004823870903904 -0.0040007454398333208 0 0.036237016542930572 -0.0038334557649502411 0 0.036349988927763588 -0.005500501418592923 0 0.036392060518240364 -0.004428303596725764 0 0.037004823870903904 -0.0040007454398333208 0 0.036349988927763588 -0.005500501418592923 0 0.036049559095523841 -0.0044609059451324188 0 0.035764494577875769 -0.0047605655657610045 0 0.036049559095523841 -0.0044609059451324188 0 0.035529521549045734 -0.0038248948322983757 0 0.035885417095094484 -0.0038715160747621797 0 0.036049559095523841 -0.0044609059451324188 0 0.035885417095094484 -0.0038715160747621797 0 0.036237016542930572 -0.0038334557649502411 0 0.035529521549045734 -0.0038248948322983757 0 0.035116524188774104 -0.0037978290788091805 0 0.035764494577875769 -0.0047605655657610045 0 0.036049559095523841 -0.0044609059451324188 0 0.035529521549045734 -0.0038248948322983757 0 0.035764494577875769 -0.0047605655657610045 0 0.035529521549045734 -0.0038248948322983757 0 0.035782885400650374 -0.003402869602119466 0 0.035358246836312307 -0.0032322165680072484 0 0.035782885400650374 -0.003402869602119466 0 0.036237016542930572 -0.0038334557649502411 0 0.036203308234479536 -0.003229100377179139 0 0.035529521549045734 -0.0038248948322983757 0 0.035885417095094484 -0.0038715160747621797 0 0.035782885400650374 -0.003402869602119466 0 0.035885417095094484 -0.0038715160747621797 0 0.035782885400650374 -0.003402869602119466 0 0.036237016542930572 -0.0038334557649502411 0 0.035782885400650374 -0.003402869602119466 0 0.036203308234479536 -0.003229100377179139 0 0.035701839790213796 -0.0028864335360225552 0 0.035358246836312307 -0.0032322165680072484 0 0.035701839790213796 -0.0028864335360225552 0 0.035101235356727302 -0.0027440062583625174 0 0.035782885400650374 -0.003402869602119466 0 0.035358246836312307 -0.0032322165680072484 0 0.035701839790213796 -0.0028864335360225552 0 0.037560296947734835 -0.009417427939849574 0 0.037536317195564828 -0.010651990178673593 0 0.037142953979590984 -0.010479331715547704 0 0.0370019978953601 -0.0094210460606226655 0 0.037560296947734835 -0.009417427939849574 0 0.037142953979590984 -0.010479331715547704 0 0.037197381728818112 -0.0068942257896521825 0 0.037204729056921425 -0.0057096879131253494 0 0.037004823870903904 -0.0040007454398333208 0 0.036203308234479536 -0.003229100377179139 0 0.036540930913973209 -0.0027325887252149079 0 0.037004823870903904 -0.0040007454398333208 0 0.036237016542930572 -0.0038334557649502411 0 0.036203308234479536 -0.003229100377179139 0 0.036540930913973209 -0.0027325887252149079 0 0.035749741776352602 -0.0023495343599874503 0 0.036250853044691604 -0.0018358364597320883 0 0.037204729056921425 -0.0057096879131253494 0 0.032261619115906845 -0.012386985902970063 0 0.037536317195564828 -0.010651990178673593 0 0.037204970821199113 -0.011307243274476575 0 0.037142953979590984 -0.010479331715547704 0 0.036203308234479536 -0.003229100377179139 0 0.036540930913973209 -0.0027325887252149079 0 0.036044799862358354 -0.0027879577452139567 0 0.036540930913973209 -0.0027325887252149079 0 0.036044799862358354 -0.0027879577452139567 0 0.035749741776352602 -0.0023495343599874503 0 0.035701839790213796 -0.0028864335360225552 0 0.035749741776352602 -0.0023495343599874503 0 0.035101235356727302 -0.0027440062583625174 0 0.036203308234479536 -0.003229100377179139 0 0.036044799862358354 -0.0027879577452139567 0 0.035701839790213796 -0.0028864335360225552 0 0.036044799862358354 -0.0027879577452139567 0 0.035701839790213796 -0.0028864335360225552 0 0.035749741776352602 -0.0023495343599874503 0 0.03140494385800572 -0.014631525895578913 0 0.031592650618385461 -0.010518178195359716 0 0.028135597309818166 -0.019977269810989459 0 0.027992454126899012 -0.019976898982238561 0 0.027951030282272138 -0.020039790374775796 0 0.035749741776352602 -0.0023495343599874503 0 0.036152805786089127 -0.0017677872761528565 0 0.034898685513236286 -0.001798693297267281 0 0.037536317195564828 -0.010651990178673593 0 0.037204970821199113 -0.011307243274476575 0 0.037594585389239335 -0.011631507915347762 0 0.035967257531521725 -0.012621445764110211 0 0.032261619115906845 -0.012386985902970063 0 0.035967257531521725 -0.012621445764110211 0 0.033963407254383231 -0.015197450438346676 0 0.035749741776352602 -0.0023495343599874503 0 0.036250853044691604 -0.0018358364597320883 0 0.036152805786089127 -0.0017677872761528565 0 0.032261619115906845 -0.012386985902970063 0 0.03140494385800572 -0.014631525895578913 0 0.033884265711592601 -0.014951209979030117 0 0.033591643347314966 -0.013038977485769623 0 0.031433780514911948 -0.013074547039394133 0 0.032261619115906845 -0.012386985902970063 0 0.031367422674974221 -0.015211968059831847 0 0.031367422674974221 -0.015211968059831847 0 0.03140494385800572 -0.014631525895578913 0 0.034215573194351194 -0.014431302282618162 0 0.033001399034417581 -0.013518149070457125 0 0.034098137602728999 -0.013294966856534496 0 0.031367422674974221 -0.015211968059831847 0 0.033963407254383231 -0.015197450438346676 0 0.033001399034417581 -0.013518149070457125 0 0.032968731809434396 -0.013313280969851205 0 0.034098137602728999 -0.013294966856534496 0 0.037178686108605571 -0.012913823893266419 0 0.036098416925987711 -0.01290154519036764 0 0.036595623557802021 -0.013711487546842939 0 0.033963407254383231 -0.015197450438346676 0 0.036619731814164218 -0.012892459882108876 0 0.03721790526637106 -0.012807139781704254 0 0.036114919602768532 -0.012820742044975648 0 0.036488612546391269 -0.012234233394125237 0 0.037168936885953949 -0.012219503405092749 0 0.03721790526637106 -0.012807139781704254 0 0.036488612546391269 -0.012234233394125237 0 0.035967257531521725 -0.012621445764110211 0 0.037090806871750703 -0.010525569234757268 0 0.035967257531521725 -0.012621445764110211 0 0.036346926620561312 -0.011574010083268782 0 0.037204166853913569 -0.012169685544176512 0 0.036261722812273835 -0.011434103114509677 0 0.037104286242656145 -0.010914004178679174 0 0.037168936885953949 -0.012219503405092749 0 0.036488612546391269 -0.012234233394125237 0 0.036340071428589103 -0.011541681451447381 0 0.036488612546391269 -0.012234233394125237 0 0.036340071428589103 -0.011541681451447381 0 0.035470603245415074 -0.011887408760030986 0 0.036066453020174041 -0.010775046405713922 0 0.036261722812273835 -0.011434103114509677 0 0.036480892539345305 -0.010830168964676952 0 0.036261722812273835 -0.011434103114509677 0 0.036480892539345305 -0.010830168964676952 0 0.037104286242656145 -0.010914004178679174 0 0.034999842747595961 -0.010817552213205083 0 0.035470603245415074 -0.011887408760030986 0 0.034999999408632812 -0.012854733096233672 0 0.034999842747595961 -0.010817552213205083 0 0.035439195031407224 -0.010818468004765132 0 0.035470603245415074 -0.011887408760030986 0 0.035439195031407224 -0.010818468004765132 0 0.036340071428589103 -0.011541681451447381 0 0.035470603245415074 -0.011887408760030986 0 0.035526409820521118 -0.010891901297328975 0 0.036346926620561312 -0.011574010083268782 0 0.036066453020174041 -0.010775046405713922 0 0.035439195031407224 -0.010818468004765132 0 0.036261722812273835 -0.011434103114509677 0 0.036619731814164218 -0.012892459882108876 0 0.034999911387136089 -0.012854766809501098 0 0.036114919602768532 -0.012820742044975648 0 0.035470603245415074 -0.011887408760030986 0 0.034999999408632812 -0.012854733096233672 0 0.036114919602768532 -0.012820742044975648 0 0.036488612546391269 -0.012234233394125237 0 0.035470603245415074 -0.011887408760030986 0 0.036098416925987711 -0.01290154519036764 0 0.034999984016838771 -0.012854890448346746 0 0.035882157410595958 -0.01392226585439606 0 0.034999984016838771 -0.012854890448346746 0 0.035882157410595958 -0.01392226585439606 0 0.034999964982327457 -0.014496007708981004 0 0.037178686108605571 -0.012913823893266419 0 0.036595623557802021 -0.013711487546842939 0 0.037343184835302634 -0.014508059508920871 0 0.036098416925987711 -0.01290154519036764 0 0.035882157410595958 -0.01392226585439606 0 0.036595623557802021 -0.013711487546842939 0 0.035882157410595958 -0.01392226585439606 0 0.036595623557802021 -0.013711487546842939 0 0.036535238163069764 -0.014507734650511986 0 0.036595623557802021 -0.013711487546842939 0 0.036535238163069764 -0.014507734650511986 0 0.037343184835302634 -0.014508059508920871 0 0.035882157410595958 -0.01392226585439606 0 0.036535238163069764 -0.014507734650511986 0 0.035904474874275512 -0.01512729107279473 0 0.036535238163069764 -0.014507734650511986 0 0.036809802263224355 -0.015328540434904657 0 0.037343184835302634 -0.014508059508920871 0 0.036535238163069764 -0.014507734650511986 0 0.036809802263224355 -0.015328540434904657 0 0.035904474874275512 -0.01512729107279473 0 0.034999964982327457 -0.014496007708981004 0 0.035904474874275512 -0.01512729107279473 0 0.034999963470178731 -0.016137259265117141 0 0.035882157410595958 -0.01392226585439606 0 0.034999964982327457 -0.014496007708981004 0 0.035904474874275512 -0.01512729107279473 0 0.035904474874275512 -0.01512729107279473 0 0.034999963470178731 -0.016137259265117141 0 0.036108019669460978 -0.016621435342156266 0 0.036809802263224355 -0.015328540434904657 0 0.036108019669460978 -0.016621435342156266 0 0.037484424233176106 -0.016135205495197785 0 0.036809802263224355 -0.015328540434904657 0 0.035904474874275512 -0.01512729107279473 0 0.036108019669460978 -0.016621435342156266 0 0.035876411962194855 -0.017825982457589824 0 0.036651445791030822 -0.017709142244080635 0 0.036108019669460978 -0.016621435342156266 0 0.036651445791030822 -0.017709142244080635 0 0.036108019669460978 -0.016621435342156266 0 0.037484424233176106 -0.016135205495197785 0 0.034999977142616052 -0.017778451890711165 0 0.034999963470178731 -0.016137259265117141 0 0.036108019669460978 -0.016621435342156266 0 0.034999977142616052 -0.017778451890711165 0 0.035876411962194855 -0.017825982457589824 0 0.036108019669460978 -0.016621435342156266 0 0.027941380662297746 -0.019942024425850084 0 0.027980299751530862 -0.019978333143999601 0 0.027902447967014521 -0.019988701772957859 0 0.027980299751530862 -0.019978333143999601 0 0.02796002193662071 -0.019988204458513081 0 0.027902447967014521 -0.019988701772957859 0 0.032719832038605207 -0.018719485200509613 0 0.032765852860453935 -0.018041828033715009 0 0.028035465085686429 -0.01995424820192913 0 0.027980299751530862 -0.019978333143999601 0 0.028016613607869421 -0.019981874500437619 0 0.037593762950482661 -0.017730653427346959 0 0.036651445791030822 -0.017709142244080635 0 0.037484424233176106 -0.016135205495197785 0 0.027980299751530862 -0.019978333143999601 0 0.028016613607869421 -0.019981874500437619 0 0.02796002193662071 -0.019988204458513081 0 0.028016613607869421 -0.019981874500437619 0 0.02796002193662071 -0.019988204458513081 0 0.028007830625302422 -0.019972488433608212 0 0.02796002193662071 -0.019988204458513081 0 0.027980750705755831 -0.019978127248484915 0 0.028007830625302422 -0.019972488433608212 0 0.027980750705755831 -0.019978127248484915 0 0.028007830625302422 -0.019972488433608212 0 0.028049679557365384 -0.019935872434867212 0 0.028016613607869421 -0.019981874500437619 0 0.028007830625302422 -0.019972488433608212 0 0.027971658109642819 -0.019943771840069621 0 0.036809802263224355 -0.015328540434904657 0 0.037484424233176106 -0.016135205495197785 0 0.037343184835302634 -0.014508059508920871 0 0.032765852860453935 -0.018041828033715009 0 0.0325423586077715 -0.017413730195823301 0 0.028007830625302422 -0.019972488433608212 0 0.028049679557365384 -0.019935872434867212 0 0.027971658109642819 -0.019943771840069621 0 0.028083801748683832 -0.019988923204883997 0 0.02807638768403466 -0.019991040558834675 0 0.028049679557365384 -0.019935872434867212 0 0.031367422674974221 -0.015211968059831847 0 0.027791495891543689 -0.021516988803472525 0 0.027969369335574132 -0.019520865508663679 0 0.028049679557365384 -0.019935872434867212 0 0.027971658109642819 -0.019943771840069621 0 0.028103545864044996 -0.019516407564385052 0 0.027969369335574132 -0.019520865508663679 0 0.028049679557365384 -0.019935872434867212 0 0.033963407254383231 -0.015197450438346676 0 0.0325423586077715 -0.017413730195823301 0 0.03140494385800572 -0.014631525895578913 0 0.027876269118644968 -0.020348623983748704 0 0.02807638768403466 -0.019991040558834675 0 0.028049679557365384 -0.019935872434867212 0 0.027980779793265013 -0.01999663939529462 0 0.027980750705755831 -0.019978127248484915 0 0.028049679557365384 -0.019935872434867212 0 0.027980779793265013 -0.01999663939529462 0 0.027876269118644968 -0.020348623983748704 0 0.027878321646305007 -0.019937570243382618 0 0.027992454126899012 -0.019976898982238561 0 0.027873289090162946 -0.020030347568597905 0 0.027951030282272138 -0.020039790374775796 0 0.027992454126899012 -0.019976898982238561 0 0.027873289090162946 -0.020030347568597905 0 0.027873936400648228 -0.020013281715367728 0 0.027873289090162946 -0.020030347568597905 0 0.027873936400648228 -0.020013281715367728 0 0.02776275918319138 -0.020045276484167922 0 0.027873289090162946 -0.020030347568597905 0 0.02776275918319138 -0.020045276484167922 0 0.027789737632899162 -0.020077571446388415 0 0.027873936400648228 -0.020013281715367728 0 0.027748114440766778 -0.020041946028447596 0 0.02776275918319138 -0.020045276484167922 0 0.027980750705755831 -0.019978127248484915 0 0.027980779793265013 -0.01999663939529462 0 0.027873936400648228 -0.020013281715367728 0 0.02796002193662071 -0.019988204458513081 0 0.027980750705755831 -0.019978127248484915 0 0.027873936400648228 -0.020013281715367728 0 0.02796002193662071 -0.019988204458513081 0 0.027873936400648228 -0.020013281715367728 0 0.027866413720793636 -0.020009003724476948 0 0.02796002193662071 -0.019988204458513081 0 0.027866413720793636 -0.020009003724476948 0 0.027902447967014521 -0.019988701772957859 0 0.027873936400648228 -0.020013281715367728 0 0.027866413720793636 -0.020009003724476948 0 0.027748114440766778 -0.020041946028447596 0 0.027866413720793636 -0.020009003724476948 0 0.027748114440766778 -0.020041946028447596 0 0.027816249033156919 -0.020007577131636048 0 0.027834476296227349 -0.019970555330058544 0 0.027816249033156919 -0.020007577131636048 0 0.027744753138284201 -0.020008589283762861 0 0.027748114440766778 -0.020041946028447596 0 0.027816249033156919 -0.020007577131636048 0 0.027744753138284201 -0.020008589283762861 0 0.027834476296227349 -0.019970555330058544 0 0.027816249033156919 -0.020007577131636048 0 0.027902447967014521 -0.019988701772957859 0 0.027866413720793636 -0.020009003724476948 0 0.027816249033156919 -0.020007577131636048 0 0.027902447967014521 -0.019988701772957859 0 0.027522813373588768 -0.02010499431183034 0 0.027656497210434252 -0.020055558853819933 0 0.027599269720098879 -0.02008707796170521 0 0.02762144939789582 -0.020035702888324288 0 0.027522813373588768 -0.02010499431183034 0 0.027656497210434252 -0.020055558853819933 0 0.027446530931792126 -0.020064115554472173 0 0.02762144939789582 -0.020035702888324288 0 0.027522813373588768 -0.02010499431183034 0 0.02762144939789582 -0.020035702888324288 0 0.027744753138284201 -0.020008589283762861 0 0.027656497210434252 -0.020055558853819933 0 0.027748114440766778 -0.020041946028447596 0 0.027744753138284201 -0.020008589283762861 0 0.027656497210434252 -0.020055558853819933 0 0.027748114440766778 -0.020041946028447596 0 0.027599269720098879 -0.02008707796170521 0 0.027637552384361566 -0.020063413320017147 0 0.027748114440766778 -0.020041946028447596 0 0.027656497210434252 -0.020055558853819933 0 0.027599269720098879 -0.02008707796170521 0 0.027599269720098879 -0.02008707796170521 0 0.027546432780629737 -0.020083179375604315 0 0.027446063869443822 -0.020178572809340507 0 0.027522813373588768 -0.02010499431183034 0 0.027599269720098879 -0.02008707796170521 0 0.027446063869443822 -0.020178572809340507 0 0.027599269720098879 -0.02008707796170521 0 0.027546432780629737 -0.020083179375604315 0 0.027637552384361566 -0.020063413320017147 0 0.027546432780629737 -0.020083179375604315 0 0.027637552384361566 -0.020063413320017147 0 0.027540439087417972 -0.020051250513348908 0 0.027637552384361566 -0.020063413320017147 0 0.027576545814265902 -0.020058244927168914 0 0.027540439087417972 -0.020051250513348908 0 0.027748114440766778 -0.020041946028447596 0 0.027637552384361566 -0.020063413320017147 0 0.02776275918319138 -0.020045276484167922 0 0.02776275918319138 -0.020045276484167922 0 0.027678321114638787 -0.020064568921972802 0 0.027789737632899162 -0.020077571446388415 0 0.027637552384361566 -0.020063413320017147 0 0.02776275918319138 -0.020045276484167922 0 0.027678321114638787 -0.020064568921972802 0 0.027637552384361566 -0.020063413320017147 0 0.027678321114638787 -0.020064568921972802 0 0.027576545814265902 -0.020058244927168914 0 0.027678321114638787 -0.020064568921972802 0 0.027636557472714644 -0.020087154421930487 0 0.027576545814265902 -0.020058244927168914 0 0.03353948304263947 -0.0023533577433345497 0 0.033613208916423012 -0.0024101433017978428 0 0.033573458308409687 -0.0024183883048350019 0 0.033613208916423012 -0.0024101433017978428 0 0.033586584813822061 -0.0024358031421469499 0 0.033567949534570832 -0.0025018165482173396 0 0.033613208916423012 -0.0024101433017978428 0 0.033586584813822061 -0.0024358031421469499 0 0.033573458308409687 -0.0024183883048350019 0 0.033613208916423012 -0.0024101433017978428 0 0.03399738952912907 -0.002375251692589233 0 0.033778618172263561 -0.0025409698294108049 0 0.033613208916423012 -0.0024101433017978428 0 0.033887459365853918 -0.0020407360087060264 0 0.03399738952912907 -0.002375251692589233 0 0.033613208916423012 -0.0024101433017978428 0 0.033567949534570832 -0.0025018165482173396 0 0.033778618172263561 -0.0025409698294108049 0 0.03353948304263947 -0.0023533577433345497 0 0.033613208916423012 -0.0024101433017978428 0 0.033887459365853918 -0.0020407360087060264 0 0.030518660377247066 -0.011165736930886277 0 0.030843901841000797 -0.011110295854462727 0 0.027678321114638787 -0.020064568921972802 0 0.027636557472714644 -0.020087154421930487 0 0.027789737632899162 -0.020077571446388415 0 0.030843901841000797 -0.011110295854462727 0 0.031592650618385461 -0.010518178195359716 0 0.033887459365853918 -0.0020407360087060264 0 0.034604109502739434 -0.0022985818317711368 0 0.03399738952912907 -0.002375251692589233 0 0.027873289090162946 -0.020030347568597905 0 0.027789737632899162 -0.020077571446388415 0 0.027951030282272138 -0.020039790374775796 0 0.033887459365853918 -0.0020407360087060264 0 0.034898685513236286 -0.001798693297267281 0 0.034604109502739434 -0.0022985818317711368 0 0.035749741776352602 -0.0023495343599874503 0 0.034898685513236286 -0.001798693297267281 0 0.034604109502739434 -0.0022985818317711368 0 0.035749741776352602 -0.0023495343599874503 0 0.034604109502739434 -0.0022985818317711368 0 0.035101235356727302 -0.0027440062583625174 0 0.034604109502739434 -0.0022985818317711368 0 0.035101235356727302 -0.0027440062583625174 0 0.034336103309900563 -0.0026760647658797495 0 0.034604109502739434 -0.0022985818317711368 0 0.03399738952912907 -0.002375251692589233 0 0.034336103309900563 -0.0026760647658797495 0 0.03399738952912907 -0.002375251692589233 0 0.034336103309900563 -0.0026760647658797495 0 0.033778618172263561 -0.0025409698294108049 0 0.034336103309900563 -0.0026760647658797495 0 0.033988531236217735 -0.0027398415337491454 0 0.033778618172263561 -0.0025409698294108049 0 0.034336103309900563 -0.0026760647658797495 0 0.034356181005307955 -0.0029638887690238364 0 0.034882484736221686 -0.0032195590139982972 0 0.034336103309900563 -0.0026760647658797495 0 0.034356181005307955 -0.0029638887690238364 0 0.033988531236217735 -0.0027398415337491454 0 0.034356181005307955 -0.0029638887690238364 0 0.033988531236217735 -0.0027398415337491454 0 0.034031567288182948 -0.0029437263216334449 0 0.035101235356727302 -0.0027440062583625174 0 0.034336103309900563 -0.0026760647658797495 0 0.034882484736221686 -0.0032195590139982972 0 0.035358246836312307 -0.0032322165680072484 0 0.035101235356727302 -0.0027440062583625174 0 0.034882484736221686 -0.0032195590139982972 0 0.034356181005307955 -0.0029638887690238364 0 0.034882484736221686 -0.0032195590139982972 0 0.034610610410692792 -0.0034203798298188186 0 0.035529521549045734 -0.0038248948322983757 0 0.035358246836312307 -0.0032322165680072484 0 0.034882484736221686 -0.0032195590139982972 0 0.035116524188774104 -0.0037978290788091805 0 0.035062153627657293 -0.0041636255978621745 0 0.035764494577875769 -0.0047605655657610045 0 0.035529521549045734 -0.0038248948322983757 0 0.034882484736221686 -0.0032195590139982972 0 0.035116524188774104 -0.0037978290788091805 0 0.034882484736221686 -0.0032195590139982972 0 0.035116524188774104 -0.0037978290788091805 0 0.034610610410692792 -0.0034203798298188186 0 0.035116524188774104 -0.0037978290788091805 0 0.034610610410692792 -0.0034203798298188186 0 0.035062153627657293 -0.0041636255978621745 0 0.034031567288182948 -0.0029437263216334449 0 0.034610610410692792 -0.0034203798298188186 0 0.034207891078161183 -0.0035011203330265954 0 0.034356181005307955 -0.0029638887690238364 0 0.034031567288182948 -0.0029437263216334449 0 0.034610610410692792 -0.0034203798298188186 0 0.034610610410692792 -0.0034203798298188186 0 0.034207891078161183 -0.0035011203330265954 0 0.035062153627657293 -0.0041636255978621745 0 0.034031567288182948 -0.0029437263216334449 0 0.034207891078161183 -0.0035011203330265954 0 0.033650818384045093 -0.0027194720990540194 0 0.033065002901773853 -0.0021510418685818347 0 0.033540592494508192 -0.0024097945826329842 0 0.03349860844664123 -0.0025755448475368366 0 0.034207891078161183 -0.0035011203330265954 0 0.033650818384045093 -0.0027194720990540194 0 0.033065002901773853 -0.0021510418685818347 0 0.033650818384045093 -0.0027194720990540194 0 0.033065002901773853 -0.0021510418685818347 0 0.03349860844664123 -0.0025755448475368366 0 0.034031567288182948 -0.0029437263216334449 0 0.033650818384045093 -0.0027194720990540194 0 0.03349860844664123 -0.0025755448475368366 0 0.033065002901773853 -0.0021510418685818347 0 0.033540592494508192 -0.0024097945826329842 0 0.033866505624099999 -0.0020059634396543337 0 0.033065002901773853 -0.0021510418685818347 0 0.033866505624099999 -0.0020059634396543337 0 0.033062314998706294 -0.00095866466406276433 0 0.033540592494508192 -0.0024097945826329842 0 0.033567949534570832 -0.0025018165482173396 0 0.03349860844664123 -0.0025755448475368366 0 0.033540592494508192 -0.0024097945826329842 0 0.033586584813822061 -0.0024358031421469499 0 0.033567949534570832 -0.0025018165482173396 0 0.033567949534570832 -0.0025018165482173396 0 0.033778618172263561 -0.0025409698294108049 0 0.03349860844664123 -0.0025755448475368366 0 0.033988531236217735 -0.0027398415337491454 0 0.033778618172263561 -0.0025409698294108049 0 0.03349860844664123 -0.0025755448475368366 0 0.033988531236217735 -0.0027398415337491454 0 0.034031567288182948 -0.0029437263216334449 0 0.03349860844664123 -0.0025755448475368366 0 0.033738158573105782 -0.0022918145082923428 0 0.033690087226802105 -0.0023621952785910266 0 0.033749002248662292 -0.0022848223210555434 0 0.033738158573105782 -0.0022918145082923428 0 0.033690087226802105 -0.0023621952785910266 0 0.033725060894375054 -0.0023496982556824226 0 0.033540592494508192 -0.0024097945826329842 0 0.033586584813822061 -0.0024358031421469499 0 0.033749002248662292 -0.0022848223210555434 0 0.033586584813822061 -0.0024358031421469499 0 0.033690087226802105 -0.0023621952785910266 0 0.033749002248662292 -0.0022848223210555434 0 0.033749002248662292 -0.0022848223210555434 0 0.033866505624099999 -0.0020059634396543337 0 0.033757377442895087 -0.0022321643596880342 0 0.032761182404497186 -0.00045054627000435554 0 0.032325261824569615 -9.2192192171583809e-05 0 0.033540592494508192 -0.0024097945826329842 0 0.033749002248662292 -0.0022848223210555434 0 0.033866505624099999 -0.0020059634396543337 0 0.033738158573105782 -0.0022918145082923428 0 0.033749002248662292 -0.0022848223210555434 0 0.033757377442895087 -0.0022321643596880342 0 0.032325261824569615 -9.2192192171583809e-05 0 0.030005562524186447 -0.00022385676241177334 0 0.033738158573105782 -0.0022918145082923428 0 0.033757377442895087 -0.0022321643596880342 0 0.033759385298488181 -0.0022448657808663841 0 0.030403292680745021 0.0020746288779154888 0 0.028827994876416733 0.0024545035913849005 0 0.029825652671438337 0.0012636566858463445 0 0.028642243319503276 0.0014539915145296643 0 0.028487128533163448 0.0013121271178800306 0 0.028546850660516404 0.0010736783118744887 0 0.028642243319503276 0.0014539915145296643 0 0.028546850660516404 0.0010736783118744887 0 0.028890272729114187 0.0016173544314925547 0 0.028642243319503276 0.0014539915145296643 0 0.028487128533163448 0.0013121271178800306 0 0.028712040971030185 0.0016830349896892044 0 0.030005562524186447 -0.00022385676241177334 0 0.029100702022046905 0.0020504723061032801 0 0.027261748841058309 0.0011625192055587886 0 0.028546850660516404 0.0010736783118744887 0 0.027705999662477398 0.00033743624509265959 0 0.030005562524186447 -0.00022385676241177334 0 0.027899198670417825 0.00099740861728323275 0 0.027705999662477398 0.00033743624509265959 0 0.027458082146009425 -0.00064597504880822419 0 0.029413569192052853 0.00049342809692118838 0 0.027261748841058309 0.0011625192055587886 0 0.027705999662477398 0.00033743624509265959 0 0.027188478751918623 -0.00086773761116876527 0 0.030005562524186447 -0.00022385676241177334 0 0.030801267023143862 -0.00024956190379560387 0 0.027705999662477398 0.00033743624509265959 0 0.027458082146009425 -0.00064597504880822419 0 0.027188478751918623 -0.00086773761116876527 0 0.027458082146009425 -0.00064597504880822419 0 0.026828059992545897 -0.00065503700012818861 0 0.026309441957033466 -0.0010448538543091821 0 0.033738158573105782 -0.0022918145082923428 0 0.033759385298488181 -0.0022448657808663841 0 0.033749620575736002 -0.0023064211356001716 0 0.033759385298488181 -0.0022448657808663841 0 0.033749620575736002 -0.0023064211356001716 0 0.033770382753919997 -0.0023522676544025728 0 0.033749620575736002 -0.0023064211356001716 0 0.033725060894375054 -0.0023496982556824226 0 0.033770382753919997 -0.0023522676544025728 0 0.033738158573105782 -0.0022918145082923428 0 0.033749620575736002 -0.0023064211356001716 0 0.033725060894375054 -0.0023496982556824226 0 0.030801267023143862 -0.00024956190379560387 0 0.028510893373554877 -0.0076955229183355784 0 0.033725060894375054 -0.0023496982556824226 0 0.033770382753919997 -0.0023522676544025728 0 0.033691261461132611 -0.0024302133952052271 0 0.033770382753919997 -0.0023522676544025728 0 0.033691261461132611 -0.0024302133952052271 0 0.033725579586609288 -0.0025388477471230491 0 0.027188478751918623 -0.00086773761116876527 0 0.027048182997159068 -0.00017816672504386097 0 0.027501303695215518 0.00034414420089739356 0 0.026828059992545897 -0.00065503700012818861 0 0.026802389007330112 -0.00040118542817558779 0 0.026317861522299476 -0.00046129553349614198 0 0.027458082146009425 -0.00064597504880822419 0 0.026828059992545897 -0.00065503700012818861 0 0.027094426549792269 -0.00063806938750432811 0 0.026828059992545897 -0.00065503700012818861 0 0.027094426549792269 -0.00063806938750432811 0 0.026802389007330112 -0.00040118542817558779 0 0.027188478751918623 -0.00086773761116876527 0 0.027094426549792269 -0.00063806938750432811 0 0.027048182997159068 -0.00017816672504386097 0 0.027458082146009425 -0.00064597504880822419 0 0.027188478751918623 -0.00086773761116876527 0 0.027094426549792269 -0.00063806938750432811 0 0.026802389007330112 -0.00040118542817558779 0 0.026376605753032772 9.0482763581362953e-05 0 0.026317861522299476 -0.00046129553349614198 0 0.027048182997159068 -0.00017816672504386097 0 0.026802389007330112 -0.00040118542817558779 0 0.026376605753032772 9.0482763581362953e-05 0 0.027094426549792269 -0.00063806938750432811 0 0.027048182997159068 -0.00017816672504386097 0 0.026802389007330112 -0.00040118542817558779 0 0.022332816667993683 -0.0089711120197965444 0 0.028365226317496883 0.00047344997753932246 0 0.027048182997159068 -0.00017816672504386097 0 0.02682810090831313 0.0003917533365280139 0 0.026376605753032772 9.0482763581362953e-05 0 0.027048182997159068 -0.00017816672504386097 0 0.02682810090831313 0.0003917533365280139 0 0.027501303695215518 0.00034414420089739356 0 0.022332816667993683 -0.0089711120197965444 0 0.018622446313480812 -0.021085036699325439 0 0.022332816667993683 -0.0089711120197965444 0 0.028510893373554877 -0.0076955229183355784 0 0.02622580912107754 -0.010726870466041455 0 0.021365825576990568 -0.010816324467069965 0 0.02091743376466481 -0.016128986741564419 0 0.028510893373554877 -0.0076955229183355784 0 0.030985362220858143 -0.011666335686259743 0 0.027320804597974955 -0.020015734651054058 0 0.027491463306210717 -0.020070298750982086 0 0.027339579900407383 -0.020019102754854457 0 0.033691261461132611 -0.0024302133952052271 0 0.033725579586609288 -0.0025388477471230491 0 0.033604188843118228 -0.0025034578438361908 0 0.028510893373554877 -0.0076955229183355784 0 0.018622446313480812 -0.021085036699325439 0 0.033690087226802105 -0.0023621952785910266 0 0.033691261461132611 -0.0024302133952052271 0 0.033604188843118228 -0.0025034578438361908 0 0.033690087226802105 -0.0023621952785910266 0 0.033725060894375054 -0.0023496982556824226 0 0.033691261461132611 -0.0024302133952052271 0 0.033586584813822061 -0.0024358031421469499 0 0.033690087226802105 -0.0023621952785910266 0 0.033573458308409687 -0.0024183883048350019 0 0.033690087226802105 -0.0023621952785910266 0 0.033604188843118228 -0.0025034578438361908 0 0.033573458308409687 -0.0024183883048350019 0 0.030518660377247066 -0.011165736930886277 0 0.030985362220858143 -0.011666335686259743 0 0.027636557472714644 -0.020087154421930487 0 0.027491463306210717 -0.020070298750982086 0 0.027576545814265902 -0.020058244927168914 0 0.03353948304263947 -0.0023533577433345497 0 0.033604188843118228 -0.0025034578438361908 0 0.033573458308409687 -0.0024183883048350019 0 0.027491463306210717 -0.020070298750982086 0 0.027576545814265902 -0.020058244927168914 0 0.02749366351129633 -0.020038967738007403 0 0.027576545814265902 -0.020058244927168914 0 0.02749366351129633 -0.020038967738007403 0 0.027540439087417972 -0.020051250513348908 0 0.027491463306210717 -0.020070298750982086 0 0.027430300255423652 -0.02003367584177702 0 0.027339579900407383 -0.020019102754854457 0 0.027491463306210717 -0.020070298750982086 0 0.027430300255423652 -0.02003367584177702 0 0.02749366351129633 -0.020038967738007403 0 0.027430300255423652 -0.02003367584177702 0 0.02749366351129633 -0.020038967738007403 0 0.027397311355568006 -0.020013415078777557 0 0.027397311355568006 -0.020013415078777557 0 0.02750996196438087 -0.020034056374787886 0 0.027473728075118331 -0.019997465076050613 0 0.02749366351129633 -0.020038967738007403 0 0.027397311355568006 -0.020013415078777557 0 0.02750996196438087 -0.020034056374787886 0 0.026037704211365583 -0.020813222800323824 0 0.024444242117972758 -0.020904627022480894 0 0.014266643712271355 -0.021850301525388947 0 0.014344801406974979 -0.021844973520511141 0 0.014237804570408776 -0.021839800182866992 0 0.020745875968451035 -0.021030154633910711 0 0.024444242117972758 -0.020904627022480894 0 0.02749366351129633 -0.020038967738007403 0 0.027540439087417972 -0.020051250513348908 0 0.02750996196438087 -0.020034056374787886 0 0.02750996196438087 -0.020034056374787886 0 0.027501125079009835 -0.020093903020059273 0 0.027553711267682975 -0.020087548027424084 0 0.027540439087417972 -0.020051250513348908 0 0.02750996196438087 -0.020034056374787886 0 0.027501125079009835 -0.020093903020059273 0 0.027546432780629737 -0.020083179375604315 0 0.027540439087417972 -0.020051250513348908 0 0.027501125079009835 -0.020093903020059273 0 0.027546432780629737 -0.020083179375604315 0 0.027446063869443822 -0.020178572809340507 0 0.027501125079009835 -0.020093903020059273 0 0.027446063869443822 -0.020178572809340507 0 0.027211500541168956 -0.020419389143811174 0 0.027244583140795316 -0.020205925756829484 0 0.027446063869443822 -0.020178572809340507 0 0.027501125079009835 -0.020093903020059273 0 0.027553711267682975 -0.020087548027424084 0 0.027923637269333276 -0.019572077920602043 0 0.024444242117972758 -0.020904627022480894 0 0.014344801406974979 -0.021844973520511141 0 0.014237804570408776 -0.021839800182866992 0 0.01413918274768914 -0.02174598676073972 0 0.024444242117972758 -0.020904627022480894 0 0.020216876036106217 -0.020839136581081864 0 0.027211500541168956 -0.020419389143811174 0 0.027244583140795316 -0.020205925756829484 0 0.027039041856702667 -0.020155996302553644 0 0.027244583140795316 -0.020205925756829484 0 0.027039041856702667 -0.020155996302553644 0 0.02727440568172115 -0.020122157240974332 0 0.027049407403325842 -0.020063583104414778 0 0.027039041856702667 -0.020155996302553644 0 0.02727440568172115 -0.020122157240974332 0 0.027446530931792126 -0.020064115554472173 0 0.027522813373588768 -0.02010499431183034 0 0.02727440568172115 -0.020122157240974332 0 0.027522813373588768 -0.02010499431183034 0 0.027446063869443822 -0.020178572809340507 0 0.02727440568172115 -0.020122157240974332 0 0.027446063869443822 -0.020178572809340507 0 0.027244583140795316 -0.020205925756829484 0 0.02727440568172115 -0.020122157240974332 0 0.013535141746301093 -0.021855644010732443 0 0.013319623125464383 -0.021669896809503458 0 0.013064112225133873 -0.021866335161907037 0 0.013535141746301093 -0.021855644010732443 0 0.013319623125464383 -0.021669896809503458 0 0.013573073996179278 -0.021691760355911211 0 0.013526917112356745 -0.021561718990722546 0 0.013319623125464383 -0.021669896809503458 0 0.013573073996179278 -0.021691760355911211 0 0.014050239354495191 -0.021496496809245664 0 0.013290333118038252 -0.022235968422562293 0 0.013526917112356745 -0.021561718990722546 0 0.013573073996179278 -0.021691760355911211 0 0.013873505790444468 -0.021644056980594371 0 0.020236424720245567 -0.020676690402868729 0 0.020216876036106217 -0.020839136581081864 0 0.013535141746301093 -0.021855644010732443 0 0.013573073996179278 -0.021691760355911211 0 0.013873505790444468 -0.021644056980594371 0 0.013774459083831968 -0.021476471206817425 0 0.01413918274768914 -0.02174598676073972 0 0.013873505790444468 -0.021644056980594371 0 0.013535141746301093 -0.021855644010732443 0 0.013873505790444468 -0.021644056980594371 0 0.013633345299363032 -0.022060292923957812 0 0.01413918274768914 -0.02174598676073972 0 0.013873505790444468 -0.021644056980594371 0 0.014201518805179022 -0.021863328991013186 0 0.014237804570408776 -0.021839800182866992 0 0.01413918274768914 -0.02174598676073972 0 0.014201518805179022 -0.021863328991013186 0 0.013535141746301093 -0.021855644010732443 0 0.013382531674670416 -0.022060298694282599 0 0.013064112225133873 -0.021866335161907037 0 0.013535141746301093 -0.021855644010732443 0 0.013633345299363032 -0.022060292923957812 0 0.013382531674670416 -0.022060298694282599 0 0.013382531674670416 -0.022060298694282599 0 0.013462935339574326 -0.022251765731505727 0 0.013226060000712433 -0.022290997949593501 0 0.013633345299363032 -0.022060292923957812 0 0.013382531674670416 -0.022060298694282599 0 0.013462935339574326 -0.022251765731505727 0 0.013633345299363032 -0.022060292923957812 0 0.013462935339574326 -0.022251765731505727 0 0.013613734517195383 -0.022402559445776668 0 0.013290333118038252 -0.022235968422562293 0 0.018622446313480812 -0.021085036699325439 0 0.014266643712271355 -0.021850301525388947 0 0.014201518805179022 -0.021863328991013186 0 0.014337163617054676 -0.021816558565143734 0 0.014266643712271355 -0.021850301525388947 0 0.014237804570408776 -0.021839800182866992 0 0.014201518805179022 -0.021863328991013186 0 0.027397311355568006 -0.020013415078777557 0 0.027301588833625372 -0.020013708080972286 0 0.027339579900407383 -0.020019102754854457 0 0.020745875968451035 -0.021030154633910711 0 0.018622446313480812 -0.021085036699325439 0 0.027430300255423652 -0.02003367584177702 0 0.027397311355568006 -0.020013415078777557 0 0.027339579900407383 -0.020019102754854457 0 0.027320804597974955 -0.020015734651054058 0 0.027307573544370502 -0.020006317478685889 0 0.027339579900407383 -0.020019102754854457 0 0.018622446313480812 -0.021085036699325439 0 0.023194967286599633 -0.02167545627908422 0 0.015934257955095208 -0.022775537585148067 0 0.016668875289487895 -0.022054395230858715 0 0.015252160697546176 -0.021775290405095571 0 0.013462935339574326 -0.022251765731505727 0 0.013613734517195383 -0.022402559445776668 0 0.013226060000712433 -0.022290997949593501 0 0.018622446313480812 -0.021085036699325439 0 0.013552607075711048 -0.02206659549187694 0 0.013226060000712433 -0.022290997949593501 0 0.012873334611713997 -0.022095592943246978 0 0.013064112225133873 -0.021866335161907037 0 0.013382531674670416 -0.022060298694282599 0 0.013226060000712433 -0.022290997949593501 0 0.013064112225133873 -0.021866335161907037 0 0.015252160697546176 -0.021775290405095571 0 0.013911727864413895 -0.021632964997398765 0 0.014395115981841495 -0.022833378261653867 0 0.013911727864413895 -0.021632964997398765 0 0.013443288190921847 -0.022282960979286393 0 0.014395115981841495 -0.022833378261653867 0 0.013552607075711048 -0.02206659549187694 0 0.013565974554579613 -0.02189976516483589 0 0.012873334611713997 -0.022095592943246978 0 0.013064112225133873 -0.021866335161907037 0 0.012788649296102357 -0.021886520382491517 0 0.013064112225133873 -0.021866335161907037 0 0.012861084801608464 -0.021768569499764464 0 0.012788649296102357 -0.021886520382491517 0 0.012847522621918149 -0.021565756136575364 0 0.013064112225133873 -0.021866335161907037 0 0.012861084801608464 -0.021768569499764464 0 0.012796740196442905 -0.021579071289700498 0 0.013040155981668442 -0.021851546748447796 0 0.013006280725658216 -0.021591814637881703 0 0.012743266402791911 -0.021585181578041256 0 0.013064112225133873 -0.021866335161907037 0 0.013006280725658216 -0.021591814637881703 0 0.013319623125464383 -0.021669896809503458 0 0.013064112225133873 -0.021866335161907037 0 0.012603315461980517 -0.021605756006766907 0 0.012704927800303092 -0.021739995327413334 0 0.012510287720565857 -0.021709196778101788 0 0.012704927800303092 -0.021739995327413334 0 0.012659499233965395 -0.021802102325435401 0 0.012510287720565857 -0.021709196778101788 0 0.012462374298501677 -0.021570857838014976 0 0.012603315461980517 -0.021605756006766907 0 0.012510287720565857 -0.021709196778101788 0 0.012847522621918149 -0.021565756136575364 0 0.012861084801608464 -0.021768569499764464 0 0.012704927800303092 -0.021739995327413334 0 0.012603315461980517 -0.021605756006766907 0 0.012847522621918149 -0.021565756136575364 0 0.012704927800303092 -0.021739995327413334 0 0.012704927800303092 -0.021739995327413334 0 0.012788649296102357 -0.021886520382491517 0 0.012659499233965395 -0.021802102325435401 0 0.012861084801608464 -0.021768569499764464 0 0.012704927800303092 -0.021739995327413334 0 0.012788649296102357 -0.021886520382491517 0 0.012659499233965395 -0.021802102325435401 0 0.012528617809423635 -0.021821214459720809 0 0.012510287720565857 -0.021709196778101788 0 0.012788649296102357 -0.021886520382491517 0 0.012659499233965395 -0.021802102325435401 0 0.012761498795298393 -0.02183838146761493 0 0.012659499233965395 -0.021802102325435401 0 0.012761498795298393 -0.02183838146761493 0 0.012528617809423635 -0.021821214459720809 0 0.012761498795298393 -0.02183838146761493 0 0.012852416859218568 -0.022163447795243374 0 0.012474568727135734 -0.0219801146642188 0 0.012761498795298393 -0.02183838146761493 0 0.013115062269694142 -0.022062481439421352 0 0.012852416859218568 -0.022163447795243374 0 0.013565974554579613 -0.02189976516483589 0 0.012780358761670406 -0.021817366636137536 0 0.012873334611713997 -0.022095592943246978 0 0.012788649296102357 -0.021886520382491517 0 0.012761498795298393 -0.02183838146761493 0 0.013911727864413895 -0.021632964997398765 0 0.012761498795298393 -0.02183838146761493 0 0.013115062269694142 -0.022062481439421352 0 0.013911727864413895 -0.021632964997398765 0 0.013115062269694142 -0.022062481439421352 0 0.013443288190921847 -0.022282960979286393 0 0.013115062269694142 -0.022062481439421352 0 0.013443288190921847 -0.022282960979286393 0 0.013082947132813695 -0.022377111817966984 0 0.013443288190921847 -0.022282960979286393 0 0.013082947132813695 -0.022377111817966984 0 0.013111093769039983 -0.022798659155601916 0 0.012852416859218568 -0.022163447795243374 0 0.012945391027982879 -0.022667190600687094 0 0.012474568727135734 -0.0219801146642188 0 0.014338709186982516 -0.019731229879380772 0 0.012145290190217347 -0.02196550645982254 0 0.012852416859218568 -0.022163447795243374 0 0.013082947132813695 -0.022377111817966984 0 0.012945391027982879 -0.022667190600687094 0 0.014338709186982516 -0.019731229879380772 0 0.012264462833357881 -0.022592010541796711 0 0.013115062269694142 -0.022062481439421352 0 0.012852416859218568 -0.022163447795243374 0 0.013082947132813695 -0.022377111817966984 0 0.01702425162641821 -0.012140248551541399 0 0.016065164450538138 -0.010364074818823271 0 0.022214822642707608 0.0007283317862007559 0 0.021885371095430442 -7.8904549672997672e-05 0 0.019927622738420071 0.00062603135554076391 0 0.012514915232298241 -0.021598546519708054 0 0.012618495556174137 -0.021633738759372467 0 0.012017128023497895 -0.021733357288571172 0 0.013082947132813695 -0.022377111817966984 0 0.012945391027982879 -0.022667190600687094 0 0.013111093769039983 -0.022798659155601916 0 0.014338709186982516 -0.019731229879380772 0 0.01702425162641821 -0.012140248551541399 0 0.022214822642707608 0.0007283317862007559 0 0.021885371095430442 -7.8904549672997672e-05 0 0.022616385404889177 0.00050286280573432244 0 0.021885371095430442 -7.8904549672997672e-05 0 0.022690439408064436 -0.00071060769064474033 0 0.021290799421341173 -0.0015260946534469695 0 0.021885371095430442 -7.8904549672997672e-05 0 0.021290799421341173 -0.0015260946534469695 0 0.019927622738420071 0.00062603135554076391 0 0.022690439408064436 -0.00071060769064474033 0 0.023896011375552771 -0.00073616913513336203 0 0.023142143936250959 -0.0015563919764717865 0 0.021885371095430442 -7.8904549672997672e-05 0 0.022690439408064436 -0.00071060769064474033 0 0.02260440322484902 -0.00010181538709203306 0 0.022690439408064436 -0.00071060769064474033 0 0.02260440322484902 -0.00010181538709203306 0 0.023210134103762364 -0.00020454617065485375 0 0.022690439408064436 -0.00071060769064474033 0 0.023210134103762364 -0.00020454617065485375 0 0.023896011375552771 -0.00073616913513336203 0 0.023210134103762364 -0.00020454617065485375 0 0.024034479438376548 -5.4977794801812077e-06 0 0.023896011375552771 -0.00073616913513336203 0 0.01702425162641821 -0.012140248551541399 0 0.019506684701353125 -0.011143172045440838 0 0.022208211156178059 0.00073732131600994443 0 0.022616385404889177 0.00050286280573432244 0 0.02472401699085813 0.00078978818993142479 0 0.023210134103762364 -0.00020454617065485375 0 0.022616385404889177 0.00050286280573432244 0 0.024034479438376548 -5.4977794801812077e-06 0 0.013443288190921847 -0.022282960979286393 0 0.013111093769039983 -0.022798659155601916 0 0.014395115981841495 -0.022833378261653867 0 0.021885371095430442 -7.8904549672997672e-05 0 0.02260440322484902 -0.00010181538709203306 0 0.022616385404889177 0.00050286280573432244 0 0.02260440322484902 -0.00010181538709203306 0 0.023210134103762364 -0.00020454617065485375 0 0.022616385404889177 0.00050286280573432244 0 0.01702425162641821 -0.012140248551541399 0 0.017491893749449716 -0.0088300144825226995 0 0.022616385404889177 0.00050286280573432244 0 0.02472401699085813 0.00078978818993142479 0 0.024034479438376548 -5.4977794801812077e-06 0 0.02472401699085813 0.00078978818993142479 0 0.025294197500439358 -0.00043088368365982354 0 0.024034479438376548 -5.4977794801812077e-06 0 0.022332816667993683 -0.0089711120197965444 0 0.019506684701353125 -0.011143172045440838 0 0.02700981113028111 0.00067754344448716925 0 0.02472401699085813 0.00078978818993142479 0 0.026376605753032772 9.0482763581362953e-05 0 0.02472401699085813 0.00078978818993142479 0 0.026376605753032772 9.0482763581362953e-05 0 0.025294197500439358 -0.00043088368365982354 0 0.015934257955095208 -0.022775537585148067 0 0.015252160697546176 -0.021775290405095571 0 0.014395115981841495 -0.022833378261653867 0 0.025294197500439358 -0.00043088368365982354 0 0.024533381825099312 -0.0014526846155416442 0 0.026309441957033466 -0.0010448538543091821 0 0.026376605753032772 9.0482763581362953e-05 0 0.025294197500439358 -0.00043088368365982354 0 0.026317861522299476 -0.00046129553349614198 0 0.025294197500439358 -0.00043088368365982354 0 0.026317861522299476 -0.00046129553349614198 0 0.026309441957033466 -0.0010448538543091821 0 0.026828059992545897 -0.00065503700012818861 0 0.026317861522299476 -0.00046129553349614198 0 0.026309441957033466 -0.0010448538543091821 0 0.025294197500439358 -0.00043088368365982354 0 0.024034479438376548 -5.4977794801812077e-06 0 0.023896011375552771 -0.00073616913513336203 0 0.025294197500439358 -0.00043088368365982354 0 0.023896011375552771 -0.00073616913513336203 0 0.024533381825099312 -0.0014526846155416442 0 0.027324929596284516 -0.00076172331195566894 0 0.026582764201094587 -0.00077355052645214557 0 0.023896011375552771 -0.00073616913513336203 0 0.024533381825099312 -0.0014526846155416442 0 0.023142143936250959 -0.0015563919764717865 0 0.024533381825099312 -0.0014526846155416442 0 0.025364865307310004 -0.0020377183839687691 0 0.023109716419627602 -0.0027216382527695251 0 0.024533381825099312 -0.0014526846155416442 0 0.025364865307310004 -0.0020377183839687691 0 0.026309441957033466 -0.0010448538543091821 0 0.02739261555327489 -0.0006907707486528275 0 0.027324929596284516 -0.00076172331195566894 0 0.028546850660516404 0.0010736783118744887 0 0.027705999662477398 0.00033743624509265959 0 0.029413569192052853 0.00049342809692118838 0 0.027458082146009425 -0.00064597504880822419 0 0.025364865307310004 -0.0020377183839687691 0 0.026309441957033466 -0.0010448538543091821 0 0.028546850660516404 0.0010736783118744887 0 0.029453977818078715 0.0014640953336107134 0 0.028890272729114187 0.0016173544314925547 0 0.028546850660516404 0.0010736783118744887 0 0.029413569192052853 0.00049342809692118838 0 0.029453977818078715 0.0014640953336107134 0 0.029413569192052853 0.00049342809692118838 0 0.029453977818078715 0.0014640953336107134 0 0.030134504753670334 0.001138017358301844 0 0.029453977818078715 0.0014640953336107134 0 0.030134504753670334 0.001138017358301844 0 0.029989835000813658 0.0017917899652425834 0 0.026582764201094587 -0.00077355052645214557 0 0.025909795724751519 -0.0010531459387425935 0 0.030134504753670334 0.001138017358301844 0 0.030499497379985557 0.0019541098921882468 0 0.030604050842863162 0.0016332187263107022 0 0.023109716419627602 -0.0027216382527695251 0 0.021290799421341173 -0.0015260946534469695 0 0.020918747297717734 -0.0032616094349828119 0 0.022690439408064436 -0.00071060769064474033 0 0.021290799421341173 -0.0015260946534469695 0 0.023142143936250959 -0.0015563919764717865 0 0.023109716419627602 -0.0027216382527695251 0 0.021290799421341173 -0.0015260946534469695 0 0.023142143936250959 -0.0015563919764717865 0 0.024533381825099312 -0.0014526846155416442 0 0.023109716419627602 -0.0027216382527695251 0 0.023142143936250959 -0.0015563919764717865 0 0.030292448253175376 0.0022039043282326897 0 0.029989305861236538 0.00238276686917121 0 0.029989835000813658 0.0017917899652425834 0 0.030292448253175376 0.0022039043282326897 0 0.029989305861236538 0.00238276686917121 0 0.030336339981250966 0.0026118267084857178 0 0.030292448253175376 0.0022039043282326897 0 0.030538616532555126 0.0023587200934762822 0 0.030499497379985557 0.0019541098921882468 0 0.030292448253175376 0.0022039043282326897 0 0.030538616532555126 0.0023587200934762822 0 0.030336339981250966 0.0026118267084857178 0 0.030538616532555126 0.0023587200934762822 0 0.030499497379985557 0.0019541098921882468 0 0.030686942522374503 0.0022460611298257449 0 0.030134504753670334 0.001138017358301844 0 0.030499497379985557 0.0019541098921882468 0 0.029989835000813658 0.0017917899652425834 0 0.030292448253175376 0.0022039043282326897 0 0.030499497379985557 0.0019541098921882468 0 0.029989835000813658 0.0017917899652425834 0 0.029453977818078715 0.0014640953336107134 0 0.029189898974660778 0.0018795989913436943 0 0.029582607361487274 0.0020406514589230498 0 0.029453977818078715 0.0014640953336107134 0 0.029989835000813658 0.0017917899652425834 0 0.029582607361487274 0.0020406514589230498 0 0.029453977818078715 0.0014640953336107134 0 0.028890272729114187 0.0016173544314925547 0 0.029189898974660778 0.0018795989913436943 0 0.028890272729114187 0.0016173544314925547 0 0.029189898974660778 0.0018795989913436943 0 0.028878974977476796 0.0019653795453457336 0 0.029189898974660778 0.0018795989913436943 0 0.028878974977476796 0.0019653795453457336 0 0.029228759075371494 0.0022870015980037215 0 0.029189898974660778 0.0018795989913436943 0 0.029228759075371494 0.0022870015980037215 0 0.029582607361487274 0.0020406514589230498 0 0.029228759075371494 0.0022870015980037215 0 0.029608661680908657 0.0025874622811416525 0 0.029234095016181048 0.0028240476153500063 0 0.028878974977476796 0.0019653795453457336 0 0.029228759075371494 0.0022870015980037215 0 0.028832652018246391 0.0026334192632613191 0 0.029989305861236538 0.00238276686917121 0 0.029989835000813658 0.0017917899652425834 0 0.029582607361487274 0.0020406514589230498 0 0.029228759075371494 0.0022870015980037215 0 0.029582607361487274 0.0020406514589230498 0 0.029608661680908657 0.0025874622811416525 0 0.029989305861236538 0.00238276686917121 0 0.029582607361487274 0.0020406514589230498 0 0.029608661680908657 0.0025874622811416525 0 0.029989305861236538 0.00238276686917121 0 0.029608661680908657 0.0025874622811416525 0 0.029992937812479796 0.0029421669769025254 0 0.029608661680908657 0.0025874622811416525 0 0.029992937812479796 0.0029421669769025254 0 0.029514672878502183 0.0032778263246668318 0 0.029608661680908657 0.0025874622811416525 0 0.029514672878502183 0.0032778263246668318 0 0.029234095016181048 0.0028240476153500063 0 0.029992937812479796 0.0029421669769025254 0 0.029514672878502183 0.0032778263246668318 0 0.02970304618576252 0.0039679049887164329 0 0.028832652018246391 0.0026334192632613191 0 0.028948610277861261 0.0034769671752757519 0 0.028303692391971894 0.0037613897162831326 0 0.028832652018246391 0.0026334192632613191 0 0.029234095016181048 0.0028240476153500063 0 0.028948610277861261 0.0034769671752757519 0 0.029228759075371494 0.0022870015980037215 0 0.028832652018246391 0.0026334192632613191 0 0.029234095016181048 0.0028240476153500063 0 0.029514672878502183 0.0032778263246668318 0 0.029234095016181048 0.0028240476153500063 0 0.028948610277861261 0.0034769671752757519 0 0.029459314934314682 0.0042353251653269386 0 0.02918477703888003 0.0023569256200831868 0 0.028948610277861261 0.0034769671752757519 0 0.029174408613818814 0.004541446648785104 0 0.028303692391971894 0.0037613897162831326 0 0.029174408613818814 0.004541446648785104 0 0.028999232392530962 0.00547216704722173 0 0.028303692391971894 0.0037613897162831326 0 0.029514672878502183 0.0032778263246668318 0 0.028948610277861261 0.0034769671752757519 0 0.029174408613818814 0.004541446648785104 0 0.029226235120392071 0.005179356681494867 0 0.02898171359154882 0.0060712032848638606 0 0.029185740812835752 0.0056630110495193746 0 0.029514672878502183 0.0032778263246668318 0 0.029174408613818814 0.004541446648785104 0 0.02970304618576252 0.0039679049887164329 0 0.02916748542712181 0.0047884528126133112 0 0.029748829579570927 0.0048679897428629704 0 0.029174408613818814 0.004541446648785104 0 0.029226235120392071 0.005179356681494867 0 0.029205554350068191 0.005328753107411619 0 0.029992937812479796 0.0029421669769025254 0 0.02970304618576252 0.0039679049887164329 0 0.030409668865972916 0.0030859034104028698 0 0.029748829579570927 0.0048679897428629704 0 0.02916783055015482 0.005646140050059487 0 0.029748829579570927 0.0048679897428629704 0 0.029778204101872683 0.004425127160265367 0 0.030457060865466786 0.0053533012050762949 0 0.029410704315264304 0.0052009933046281449 0 0.029238462646552135 0.0056892596243812129 0 0.029992937812479796 0.0029421669769025254 0 0.030409668865972916 0.0030859034104028698 0 0.030336339981250966 0.0026118267084857178 0 0.029989305861236538 0.00238276686917121 0 0.029992937812479796 0.0029421669769025254 0 0.030336339981250966 0.0026118267084857178 0 0.030409668865972916 0.0030859034104028698 0 0.030618030780953216 0.0026941809653402075 0 0.030887056793385818 0.0026804347786918248 0 0.029778204101872683 0.004425127160265367 0 0.029785298497630449 0.0040844945444846606 0 0.030538616532555126 0.0023587200934762822 0 0.030618030780953216 0.0026941809653402075 0 0.030682789584466918 0.0024380598577062079 0 0.030538616532555126 0.0023587200934762822 0 0.030336339981250966 0.0026118267084857178 0 0.030618030780953216 0.0026941809653402075 0 0.030409668865972916 0.0030859034104028698 0 0.030336339981250966 0.0026118267084857178 0 0.030618030780953216 0.0026941809653402075 0 0.029238462646552135 0.0056892596243812129 0 0.028298982618305251 0.0050192921831170379 0 0.027926577843345908 0.0060516239469029769 0 0.029410704315264304 0.0052009933046281449 0 0.029238462646552135 0.0056892596243812129 0 0.028298982618305251 0.0050192921831170379 0 0.02916783055015482 0.005646140050059487 0 0.028288098596240895 0.0057875914683228639 0 0.02898171359154882 0.0060712032848638606 0 0.028845701608273846 0.0060467209302773094 0 0.028407973670470411 0.006656933752588347 0 0.028845701608273846 0.0060467209302773094 0 0.028407973670470411 0.006656933752588347 0 0.028247719741527667 0.0065424433935529691 0 0.02898171359154882 0.0060712032848638606 0 0.028845701608273846 0.0060467209302773094 0 0.029185740812835752 0.0056630110495193746 0 0.028845701608273846 0.0060467209302773094 0 0.029304745512938216 0.0054300700941414771 0 0.029185740812835752 0.0056630110495193746 0 0.028845701608273846 0.0060467209302773094 0 0.028894627911930135 0.0059379204411470566 0 0.029304745512938216 0.0054300700941414771 0 0.028845701608273846 0.0060467209302773094 0 0.028563041873525888 0.0062495226152730638 0 0.028894627911930135 0.0059379204411470566 0 0.028845701608273846 0.0060467209302773094 0 0.028563041873525888 0.0062495226152730638 0 0.028247719741527667 0.0065424433935529691 0 0.028563041873525888 0.0062495226152730638 0 0.028894627911930135 0.0059379204411470566 0 0.028695709822832583 0.0061701583447679315 0 0.028894627911930135 0.0059379204411470566 0 0.028957315505855369 0.0058891416325351133 0 0.028703634597960985 0.0062612006413617716 0 0.028894627911930135 0.0059379204411470566 0 0.028695709822832583 0.0061701583447679315 0 0.028703634597960985 0.0062612006413617716 0 0.028695709822832583 0.0061701583447679315 0 0.028733593194625828 0.006393520864519016 0 0.028703634597960985 0.0062612006413617716 0 0.028607430231106266 0.0060105270277763922 0 0.028957315505855369 0.0058891416325351133 0 0.028536153925391397 0.0064621068324021399 0 0.028957315505855369 0.0058891416325351133 0 0.028536153925391397 0.0064621068324021399 0 0.028703634597960985 0.0062612006413617716 0 0.028894627911930135 0.0059379204411470566 0 0.028957315505855369 0.0058891416325351133 0 0.029304745512938216 0.0054300700941414771 0 0.028607430231106266 0.0060105270277763922 0 0.028957315505855369 0.0058891416325351133 0 0.029078100008589885 0.0048555915646142402 0 0.028957315505855369 0.0058891416325351133 0 0.029304745512938216 0.0054300700941414771 0 0.029078100008589885 0.0048555915646142402 0 0.029363685072041727 0.0052078277627920135 0 0.029459314934314682 0.0042353251653269386 0 0.029304745512938216 0.0054300700941414771 0 0.030070345053850315 0.003182289920130814 0 0.029078100008589885 0.0048555915646142402 0 0.029304745512938216 0.0054300700941414771 0 0.029185740812835752 0.0056630110495193746 0 0.028999232392530962 0.00547216704722173 0 0.029185740812835752 0.0056630110495193746 0 0.029205554350068191 0.005328753107411619 0 0.028999232392530962 0.00547216704722173 0 0.029226235120392071 0.005179356681494867 0 0.029185740812835752 0.0056630110495193746 0 0.029205554350068191 0.005328753107411619 0 0.029174408613818814 0.004541446648785104 0 0.029205554350068191 0.005328753107411619 0 0.028999232392530962 0.00547216704722173 0 0.029465434127854646 0.0024058218160855687 0 0.028133426109021975 0.0037695099615948687 0 0.029960722795427198 0.00057749376076614398 0 0.030070345053850315 0.003182289920130814 0 0.029465434127854646 0.0024058218160855687 0 0.029078100008589885 0.0048555915646142402 0 0.031991695470041444 -0.00024940177554546065 0 0.031092406542297491 -8.3368724033899572e-05 0 0.029960722795427198 0.00057749376076614398 0 0.030132651545098206 0.0019346773175691642 0 0.029961597971663749 0.00081514946121395953 0 0.030132651545098206 0.0019346773175691642 0 0.030720083188730176 0.003744907042875392 0 0.028133426109021975 0.0037695099615948687 0 0.029078100008589885 0.0048555915646142402 0 0.028021642942672453 0.0056592942444237846 0 0.029465434127854646 0.0024058218160855687 0 0.028133426109021975 0.0037695099615948687 0 0.029078100008589885 0.0048555915646142402 0 0.028607430231106266 0.0060105270277763922 0 0.029078100008589885 0.0048555915646142402 0 0.028021642942672453 0.0056592942444237846 0 0.033628777500026512 0.0020128866487093152 0 0.032341156790013481 0.0040847520455430482 0 0.03171072870227902 0.000702555148653965 0 0.031991695470041444 -0.00024940177554546065 0 0.033628777500026512 0.0020128866487093152 0 0.03171072870227902 0.000702555148653965 0 0.033628777500026512 0.0020128866487093152 0 0.032341156790013481 0.0040847520455430482 0 0.033271491210056695 0.0058356348019217661 0 0.030720083188730176 0.003744907042875392 0 0.031391389724551494 0.0068996181801822265 0 0.033628777500026512 0.0020128866487093152 0 0.033271491210056695 0.0058356348019217661 0 0.033925226338946651 0.006180273420266902 0 0.028021642942672453 0.0056592942444237846 0 0.028283801664620821 0.0061370140721772101 0 0.028093588861838888 0.0064428002925056788 0 0.028607430231106266 0.0060105270277763922 0 0.028021642942672453 0.0056592942444237846 0 0.028283801664620821 0.0061370140721772101 0 0.028607430231106266 0.0060105270277763922 0 0.028283801664620821 0.0061370140721772101 0 0.028392208301210784 0.0063627049140496071 0 0.030357606747110785 0.0047689597331898757 0 0.031246389556634228 0.0018192433036856028 0 0.031326220156756346 0.004061796353656855 0 0.030526649010817149 0.00010693404051827377 0 0.02772216362669597 0.0037589426270043724 0 0.031326220156756346 0.004061796353656855 0 0.030197575541738318 0.0055183702149827875 0 0.030758264410608919 0.0061062283832547517 0 0.031326220156756346 0.004061796353656855 0 0.032341156790013481 0.0040847520455430482 0 0.031709600546208264 0.0057261122260740304 0 0.031326220156756346 0.004061796353656855 0 0.032341156790013481 0.0040847520455430482 0 0.03171072870227902 0.000702555148653965 0 0.03171072870227902 0.000702555148653965 0 0.030526649010817149 0.00010693404051827377 0 0.031223279486949373 -0.00032366226257717767 0 0.031326220156756346 0.004061796353656855 0 0.03171072870227902 0.000702555148653965 0 0.030526649010817149 0.00010693404051827377 0 0.03171072870227902 0.000702555148653965 0 0.031223279486949373 -0.00032366226257717767 0 0.031405782403103336 -0.00033651323541431611 0 0.031991695470041444 -0.00024940177554546065 0 0.03171072870227902 0.000702555148653965 0 0.031405782403103336 -0.00033651323541431611 0 0.031991695470041444 -0.00024940177554546065 0 0.031405782403103336 -0.00033651323541431611 0 0.031092406542297491 -8.3368724033899572e-05 0 0.031223279486949373 -0.00032366226257717767 0 0.031405782403103336 -0.00033651323541431611 0 0.031670190628765263 -0.00045644366442982069 0 0.031405782403103336 -0.00033651323541431611 0 0.031523561287650388 -0.00025756899352776907 0 0.031670190628765263 -0.00045644366442982069 0 0.031523561287650388 -0.00025756899352776907 0 0.031815960364450245 -9.8725245768604768e-05 0 0.031986464914676653 -0.00036037021789140153 0 0.031523561287650388 -0.00025756899352776907 0 0.031986464914676653 -0.00036037021789140153 0 0.031670190628765263 -0.00045644366442982069 0 0.031523561287650388 -0.00025756899352776907 0 0.031815960364450245 -9.8725245768604768e-05 0 0.031141872227374318 0.00010367373221635493 0 0.031815960364450245 -9.8725245768604768e-05 0 0.031141872227374318 0.00010367373221635493 0 0.031339075813002389 0.00033218280924811132 0 0.031141872227374318 0.00010367373221635493 0 0.031092406542297491 -8.3368724033899572e-05 0 0.030428197997961242 0.00042799901796496489 0 0.031141872227374318 0.00010367373221635493 0 0.030428197997961242 0.00042799901796496489 0 0.030552703792111148 0.0005082408062511434 0 0.031523561287650388 -0.00025756899352776907 0 0.031141872227374318 0.00010367373221635493 0 0.031092406542297491 -8.3368724033899572e-05 0 0.031405782403103336 -0.00033651323541431611 0 0.031523561287650388 -0.00025756899352776907 0 0.031092406542297491 -8.3368724033899572e-05 0 0.031092406542297491 -8.3368724033899572e-05 0 0.029960722795427198 0.00057749376076614398 0 0.030428197997961242 0.00042799901796496489 0 0.029465434127854646 0.0024058218160855687 0 0.029960722795427198 0.00057749376076614398 0 0.030064522700960172 0.0008899965230442636 0 0.030070345053850315 0.003182289920130814 0 0.029465434127854646 0.0024058218160855687 0 0.030064522700960172 0.0008899965230442636 0 0.029960722795427198 0.00057749376076614398 0 0.030064522700960172 0.0008899965230442636 0 0.030062835972421997 0.00051115552940292916 0 0.028832652018246391 0.0026334192632613191 0 0.028303692391971894 0.0037613897162831326 0 0.028406169296308487 0.0020782271106490023 0 0.02918477703888003 0.0023569256200831868 0 0.029302194772828496 0.0013953576981093859 0 0.029960722795427198 0.00057749376076614398 0 0.030428197997961242 0.00042799901796496489 0 0.030062835972421997 0.00051115552940292916 0 0.030428197997961242 0.00042799901796496489 0 0.030062835972421997 0.00051115552940292916 0 0.030552703792111148 0.0005082408062511434 0 0.029302194772828496 0.0013953576981093859 0 0.029780937428332252 0.0014059078968886478 0 0.028406169296308487 0.0020782271106490023 0 0.028760684870982017 0.001677240478232095 0 0.029825652671438337 0.0012636566858463445 0 0.030062835972421997 0.00051115552940292916 0 0.029825652671438337 0.0012636566858463445 0 0.030552703792111148 0.0005082408062511434 0 0.028878974977476796 0.0019653795453457336 0 0.028832652018246391 0.0026334192632613191 0 0.028406169296308487 0.0020782271106490023 0 0.028878974977476796 0.0019653795453457336 0 0.028406169296308487 0.0020782271106490023 0 0.028760684870982017 0.001677240478232095 0 0.028878974977476796 0.0019653795453457336 0 0.028763909428907115 0.0017282098551110383 0 0.028760684870982017 0.001677240478232095 0 0.028890272729114187 0.0016173544314925547 0 0.028878974977476796 0.0019653795453457336 0 0.028763909428907115 0.0017282098551110383 0 0.028763909428907115 0.0017282098551110383 0 0.028760684870982017 0.001677240478232095 0 0.028712040971030185 0.0016830349896892044 0 0.028642243319503276 0.0014539915145296643 0 0.028763909428907115 0.0017282098551110383 0 0.028712040971030185 0.0016830349896892044 0 0.028642243319503276 0.0014539915145296643 0 0.028890272729114187 0.0016173544314925547 0 0.028763909428907115 0.0017282098551110383 0 0.028760684870982017 0.001677240478232095 0 0.028712040971030185 0.0016830349896892044 0 0.029825652671438337 0.0012636566858463445 0 0.028827994876416733 0.0024545035913849005 0 0.028712040971030185 0.0016830349896892044 0 0.029825652671438337 0.0012636566858463445 0 0.032027568724289107 0.0011270781722023209 0 0.030403292680745021 0.0020746288779154888 0 0.030957946064149047 0.00098730550222805012 0 0.029825652671438337 0.0012636566858463445 0 0.030957946064149047 0.00098730550222805012 0 0.030552703792111148 0.0005082408062511434 0 0.030403292680745021 0.0020746288779154888 0 0.029825652671438337 0.0012636566858463445 0 0.030957946064149047 0.00098730550222805012 0 0.032027568724289107 0.0011270781722023209 0 0.030957946064149047 0.00098730550222805012 0 0.031817480678259485 0.00044032169131312358 0 0.032027568724289107 0.0011270781722023209 0 0.031817480678259485 0.00044032169131312358 0 0.032534111244404945 2.8514805435973056e-06 0 0.031817480678259485 0.00044032169131312358 0 0.031339075813002389 0.00033218280924811132 0 0.032186725255985829 4.8559006593941193e-05 0 0.030957946064149047 0.00098730550222805012 0 0.031817480678259485 0.00044032169131312358 0 0.031339075813002389 0.00033218280924811132 0 0.031815960364450245 -9.8725245768604768e-05 0 0.031339075813002389 0.00033218280924811132 0 0.032186725255985829 4.8559006593941193e-05 0 0.031141872227374318 0.00010367373221635493 0 0.031339075813002389 0.00033218280924811132 0 0.030552703792111148 0.0005082408062511434 0 0.030957946064149047 0.00098730550222805012 0 0.031339075813002389 0.00033218280924811132 0 0.030552703792111148 0.0005082408062511434 0 0.032716737502688789 -5.9628076507313918e-05 0 0.03270042993059423 6.8218596586633857e-05 0 0.032944250726336541 -0.00023508932545931324 0 0.032716737502688789 -5.9628076507313918e-05 0 0.032186725255985829 4.8559006593941193e-05 0 0.032534111244404945 2.8514805435973056e-06 0 0.032716737502688789 -5.9628076507313918e-05 0 0.032186725255985829 4.8559006593941193e-05 0 0.032448384956528444 -0.00027389758912377249 0 0.031817480678259485 0.00044032169131312358 0 0.032186725255985829 4.8559006593941193e-05 0 0.032534111244404945 2.8514805435973056e-06 0 0.032027568724289107 0.0011270781722023209 0 0.032534111244404945 2.8514805435973056e-06 0 0.033062314998706294 -0.00095866466406276433 0 0.032716737502688789 -5.9628076507313918e-05 0 0.032534111244404945 2.8514805435973056e-06 0 0.033062314998706294 -0.00095866466406276433 0 0.032761182404497186 -0.00045054627000435554 0 0.03293435755786351 -0.00081577677052233023 0 0.032716737502688789 -5.9628076507313918e-05 0 0.033062314998706294 -0.00095866466406276433 0 0.03270042993059423 6.8218596586633857e-05 0 0.033175572154952052 -0.0022476164267619496 0 0.033718924927945787 -0.0024562634591321635 0 0.033065002901773853 -0.0021510418685818347 0 0.033062314998706294 -0.00095866466406276433 0 0.03270042993059423 6.8218596586633857e-05 0 0.034207891078161183 -0.0035011203330265954 0 0.034546046183724435 -0.0049927311836620624 0 0.035062153627657293 -0.0041636255978621745 0 0.034207891078161183 -0.0035011203330265954 0 0.033065002901773853 -0.0021510418685818347 0 0.034546046183724435 -0.0049927311836620624 0 0.034546046183724435 -0.0049927311836620624 0 0.035711042250540226 -0.0050431925276142381 0 0.035062153627657293 -0.0041636255978621745 0 0.035711042250540226 -0.0050431925276142381 0 0.035062153627657293 -0.0041636255978621745 0 0.035764494577875769 -0.0047605655657610045 0 0.033718924927945787 -0.0024562634591321635 0 0.035183602902433553 -0.0027547120702912189 0 0.034546046183724435 -0.0049927311836620624 0 0.035711042250540226 -0.0050431925276142381 0 0.036309378020849346 -0.0051238050234977042 0 0.03270042993059423 6.8218596586633857e-05 0 0.032944250726336541 -0.00023508932545931324 0 0.034262075871147886 -0.00039804958237155819 0 0.032944250726336541 -0.00023508932545931324 0 0.034262075871147886 -0.00039804958237155819 0 0.033252224360238232 -0.00088742257147367547 0 0.034262075871147886 -0.00039804958237155819 0 0.034363047721306599 -0.0017565471910613074 0 0.033252224360238232 -0.00088742257147367547 0 0.034363047721306599 -0.0017565471910613074 0 0.033252224360238232 -0.00088742257147367547 0 0.033451146631055501 -0.0013129553625855456 0 0.033252224360238232 -0.00088742257147367547 0 0.03249027426266194 -0.00068043445904520153 0 0.032448384956528444 -0.00027389758912377249 0 0.032944250726336541 -0.00023508932545931324 0 0.033252224360238232 -0.00088742257147367547 0 0.032448384956528444 -0.00027389758912377249 0 0.032716737502688789 -5.9628076507313918e-05 0 0.032944250726336541 -0.00023508932545931324 0 0.032448384956528444 -0.00027389758912377249 0 0.031815960364450245 -9.8725245768604768e-05 0 0.032186725255985829 4.8559006593941193e-05 0 0.032448384956528444 -0.00027389758912377249 0 0.031815960364450245 -9.8725245768604768e-05 0 0.032448384956528444 -0.00027389758912377249 0 0.031986464914676653 -0.00036037021789140153 0 0.03249027426266194 -0.00068043445904520153 0 0.032448384956528444 -0.00027389758912377249 0 0.031986464914676653 -0.00036037021789140153 0 0.03249027426266194 -0.00068043445904520153 0 0.031986464914676653 -0.00036037021789140153 0 0.031670190628765263 -0.00045644366442982069 0 0.031223279486949373 -0.00032366226257717767 0 0.031670190628765263 -0.00045644366442982069 0 0.031979871406603487 -0.00067160927787974264 0 0.03249027426266194 -0.00068043445904520153 0 0.031670190628765263 -0.00045644366442982069 0 0.031979871406603487 -0.00067160927787974264 0 0.03249027426266194 -0.00068043445904520153 0 0.031979871406603487 -0.00067160927787974264 0 0.033451146631055501 -0.0013129553625855456 0 0.031979871406603487 -0.00067160927787974264 0 0.032761929644100074 -0.0013745572876145374 0 0.033451146631055501 -0.0013129553625855456 0 0.030526649010817149 0.00010693404051827377 0 0.031223279486949373 -0.00032366226257717767 0 0.031979871406603487 -0.00067160927787974264 0 0.030526649010817149 0.00010693404051827377 0 0.031979871406603487 -0.00067160927787974264 0 0.032761929644100074 -0.0013745572876145374 0 0.030526649010817149 0.00010693404051827377 0 0.032761929644100074 -0.0013745572876145374 0 0.031772420188330854 -0.0025293847686217253 0 0.032761929644100074 -0.0013745572876145374 0 0.031772420188330854 -0.0025293847686217253 0 0.033616479650567167 -0.0027513044658202621 0 0.031246389556634228 0.0018192433036856028 0 0.034629512420747327 -0.0014052259427631479 0 0.030181656957421105 -0.00015889707142834075 0 0.031246389556634228 0.0018192433036856028 0 0.034925778777409183 -0.0026509039367404279 0 0.033616479650567167 -0.0027513044658202621 0 0.034514392885530432 -0.0019690046307103575 0 0.035046029063978808 -0.0010669282663233917 0 0.034629512420747327 -0.0014052259427631479 0 0.032761929644100074 -0.0013745572876145374 0 0.033616479650567167 -0.0027513044658202621 0 0.034514392885530432 -0.0019690046307103575 0 0.034514392885530432 -0.0019690046307103575 0 0.033451146631055501 -0.0013129553625855456 0 0.034812396628360935 -0.0019986830555828927 0 0.032761929644100074 -0.0013745572876145374 0 0.034514392885530432 -0.0019690046307103575 0 0.033451146631055501 -0.0013129553625855456 0 0.033252224360238232 -0.00088742257147367547 0 0.03249027426266194 -0.00068043445904520153 0 0.033451146631055501 -0.0013129553625855456 0 0.034363047721306599 -0.0017565471910613074 0 0.033451146631055501 -0.0013129553625855456 0 0.034812396628360935 -0.0019986830555828927 0 0.034363047721306599 -0.0017565471910613074 0 0.034812396628360935 -0.0019986830555828927 0 0.035930634129737925 -0.0030990400601186509 0 0.035510733267246998 -0.0022257130975771879 0 0.035732239044165268 -0.0030950296860568468 0 0.035930634129737925 -0.0030990400601186509 0 0.034812396628360935 -0.0019986830555828927 0 0.035510733267246998 -0.0022257130975771879 0 0.035930634129737925 -0.0030990400601186509 0 0.035510733267246998 -0.0022257130975771879 0 0.035781722496501168 -0.0020998448447103464 0 0.035732239044165268 -0.0030950296860568468 0 0.034514392885530432 -0.0019690046307103575 0 0.034812396628360935 -0.0019986830555828927 0 0.035510733267246998 -0.0022257130975771879 0 0.034925778777409183 -0.0026509039367404279 0 0.034514392885530432 -0.0019690046307103575 0 0.035571763139242769 -0.0020533809706828172 0 0.034514392885530432 -0.0019690046307103575 0 0.035510733267246998 -0.0022257130975771879 0 0.035571763139242769 -0.0020533809706828172 0 0.035510733267246998 -0.0022257130975771879 0 0.035571763139242769 -0.0020533809706828172 0 0.035781722496501168 -0.0020998448447103464 0 0.035571763139242769 -0.0020533809706828172 0 0.03583281444659054 -0.0016649423695292989 0 0.035781722496501168 -0.0020998448447103464 0 0.035571763139242769 -0.0020533809706828172 0 0.035780572873077204 -0.0019843684281982297 0 0.03583281444659054 -0.0016649423695292989 0 0.034925778777409183 -0.0026509039367404279 0 0.035571763139242769 -0.0020533809706828172 0 0.035780572873077204 -0.0019843684281982297 0 0.035046029063978808 -0.0010669282663233917 0 0.035766832522615366 -0.00086724150167276739 0 0.034999650926138264 -0.00063338067780630523 0 0.035743076857921788 -0.00042331394723311603 0 0.035547866470833349 -0.0014570150067921435 0 0.035743076857921788 -0.00042331394723311603 0 0.03583281444659054 -0.0016649423695292989 0 0.035547866470833349 -0.0014570150067921435 0 0.035780572873077204 -0.0019843684281982297 0 0.035743076857921788 -0.00042331394723311603 0 0.03583281444659054 -0.0016649423695292989 0 0.035766832522615366 -0.00086724150167276739 0 0.035628767963131948 -0.00051688372360250158 0 0.035923044149960018 0.00019000316903262907 0 0.035743076857921788 -0.00042331394723311603 0 0.035912396164374569 -9.6228104578055425e-06 0 0.03583281444659054 -0.0016649423695292989 0 0.035781722496501168 -0.0020998448447103464 0 0.035547866470833349 -0.0014570150067921435 0 0.035781722496501168 -0.0020998448447103464 0 0.035547866470833349 -0.0014570150067921435 0 0.034999776267242176 -0.0026693169481676765 0 0.034999650926138264 -0.00063338067780630523 0 0.035547866470833349 -0.0014570150067921435 0 0.034999776267242176 -0.0026693169481676765 0 0.035781722496501168 -0.0020998448447103464 0 0.034999776267242176 -0.0026693169481676765 0 0.035732239044165268 -0.0030950296860568468 0 0.034999776267242176 -0.0026693169481676765 0 0.035732239044165268 -0.0030950296860568468 0 0.034999371478594235 -0.0047054971572913747 0 0.035732239044165268 -0.0030950296860568468 0 0.034999371478594235 -0.0047054971572913747 0 0.035624701705434886 -0.0043704647970630181 0 0.034999371478594235 -0.0047054971572913747 0 0.035624701705434886 -0.0043704647970630181 0 0.034999751662229489 -0.006742231174585514 0 0.035624701705434886 -0.0043704647970630181 0 0.034999751662229489 -0.006742231174585514 0 0.035927206318112498 -0.0055063565474105956 0 0.035732239044165268 -0.0030950296860568468 0 0.035624701705434886 -0.0043704647970630181 0 0.035930634129737925 -0.0030990400601186509 0 0.035930634129737925 -0.0030990400601186509 0 0.036278571629014843 -0.0057040594981862978 0 0.035927206318112498 -0.0055063565474105956 0 0.036309378020849346 -0.0051238050234977042 0 0.035930634129737925 -0.0030990400601186509 0 0.036278571629014843 -0.0057040594981862978 0 0.034262075871147886 -0.00039804958237155819 0 0.034363047721306599 -0.0017565471910613074 0 0.035930634129737925 -0.0030990400601186509 0 0.035183602902433553 -0.0027547120702912189 0 0.035832939222116944 -0.0030268816360364747 0 0.035624701705434886 -0.0043704647970630181 0 0.035930634129737925 -0.0030990400601186509 0 0.035927206318112498 -0.0055063565474105956 0 0.036278571629014843 -0.0057040594981862978 0 0.036812494805644656 -0.0065319451150878333 0 0.035927206318112498 -0.0055063565474105956 0 0.035711042250540226 -0.0050431925276142381 0 0.036309378020849346 -0.0051238050234977042 0 0.036278571629014843 -0.0057040594981862978 0 0.036349988927763588 -0.005500501418592923 0 0.036278571629014843 -0.0057040594981862978 0 0.035764494577875769 -0.0047605655657610045 0 0.035711042250540226 -0.0050431925276142381 0 0.036278571629014843 -0.0057040594981862978 0 0.035764494577875769 -0.0047605655657610045 0 0.036349988927763588 -0.005500501418592923 0 0.036278571629014843 -0.0057040594981862978 0 0.036812494805644656 -0.0065319451150878333 0 0.036360368453000461 -0.0083497532926646231 0 0.036812494805644656 -0.0065319451150878333 0 0.035788721038813517 -0.007253327568706636 0 0.036812494805644656 -0.0065319451150878333 0 0.035788721038813517 -0.007253327568706636 0 0.035927206318112498 -0.0055063565474105956 0 0.03499953791411569 -0.0087791337002615481 0 0.035788721038813517 -0.007253327568706636 0 0.034999751662229489 -0.006742231174585514 0 0.03499953791411569 -0.0087791337002615481 0 0.035724547298861827 -0.0087528080473415933 0 0.035788721038813517 -0.007253327568706636 0 0.035788721038813517 -0.007253327568706636 0 0.034999751662229489 -0.006742231174585514 0 0.035927206318112498 -0.0055063565474105956 0 0.010963856477849372 0.010943985791641641 0 0.010984969375199001 0.010992602285423959 0 0.010967292428002842 0.010971136333512111 0 0.010984969375199001 0.010992602285423959 0 0.010967292428002842 0.010971136333512111 0 0.011005920046781983 0.011034860028257111 0 0.010967292428002842 0.010971136333512111 0 0.011005920046781983 0.011034860028257111 0 0.010954490376432695 0.011031458599732107 0 0.010967292428002842 0.010971136333512111 0 0.010983871124813317 0.010912876841334832 0 0.011006170578457236 0.01097608895115976 0 0.010983871124813317 0.010912876841334832 0 0.011006170578457236 0.01097608895115976 0 0.011022903958911616 0.01087221585014601 0 0.010983871124813317 0.010912876841334832 0 0.010993024422821081 0.010842021939962936 0 0.011022903958911616 0.01087221585014601 0 0.010971406869696755 0.010906938674086392 0 0.010983871124813317 0.010912876841334832 0 0.010993024422821081 0.010842021939962936 0 0.010963856477849372 0.010943985791641641 0 0.010971406869696755 0.010906938674086392 0 0.010983871124813317 0.010912876841334832 0 0.010963856477849372 0.010943985791641641 0 0.010967292428002842 0.010971136333512111 0 0.010983871124813317 0.010912876841334832 0 0.010993024422821081 0.010842021939962936 0 0.01094654142408517 0.010928157992121488 0 0.011012168332103445 0.010767885371263266 0 0.0033826392225191474 -0.013205736209686183 0 0.0037653504484074052 -0.013379823162647853 0 0.0030723327941151969 -0.013223613089813721 0 0.007057482445873741 -0.00088224594920104506 0 0.0073020822832448257 0.0015123189783916957 0 0.010971406869696755 0.010906938674086392 0 0.010993024422821081 0.010842021939962936 0 0.01094654142408517 0.010928157992121488 0 0.0033826392225191474 -0.013205736209686183 0 0.0031969417623481143 -0.013123546047099496 0 0.0032959287878956004 -0.013086493285307107 0 0.0033826392225191474 -0.013205736209686183 0 0.003395434924848941 -0.013073139642327232 0 0.0032959287878956004 -0.013086493285307107 0 0.0033826392225191474 -0.013205736209686183 0 0.0035699448029580306 -0.013257050538035168 0 0.0037653504484074052 -0.013379823162647853 0 0.0033826392225191474 -0.013205736209686183 0 0.0035699448029580306 -0.013257050538035168 0 0.003395434924848941 -0.013073139642327232 0 0.0035699448029580306 -0.013257050538035168 0 0.0035756840683864237 -0.013161558270669551 0 0.003395434924848941 -0.013073139642327232 0 0.0035699448029580306 -0.013257050538035168 0 0.0035756840683864237 -0.013161558270669551 0 0.0036796493123218998 -0.013266140284413109 0 0.0038050875447846882 -0.013258782237007364 0 0.0037653504484074052 -0.013379823162647853 0 0.0045871435786820607 -0.013412790168036861 0 0.0035756840683864237 -0.013161558270669551 0 0.0038050875447846882 -0.013258782237007364 0 0.0036796493123218998 -0.013266140284413109 0 0.0035699448029580306 -0.013257050538035168 0 0.0036796493123218998 -0.013266140284413109 0 0.0037653504484074052 -0.013379823162647853 0 0.0038050875447846882 -0.013258782237007364 0 0.0036796493123218998 -0.013266140284413109 0 0.0037653504484074052 -0.013379823162647853 0 0.010963856477849372 0.010943985791641641 0 0.010984969375199001 0.010992602285423959 0 0.01094654142408517 0.010928157992121488 0 0.010963856477849372 0.010943985791641641 0 0.010971406869696755 0.010906938674086392 0 0.01094654142408517 0.010928157992121488 0 0.007057482445873741 -0.00088224594920104506 0 0.0090633685854694408 -0.006332488726863407 0 0.010984969375199001 0.010992602285423959 0 0.01094654142408517 0.010928157992121488 0 0.011105673769296064 0.011129674227511568 0 0.0090633685854694408 -0.006332488726863407 0 0.0073330342499759258 -0.019225746492027358 0 0.0038050875447846882 -0.013258782237007364 0 0.0045871435786820607 -0.013412790168036861 0 0.0040785460413873516 -0.013114991365307072 0 0.0099667873075169628 -0.021952124789157177 0 0.010184444121279224 -0.021845206877810875 0 0.010390662899152917 -0.021970529694144633 0 0.0090633685854694408 -0.006332488726863407 0 0.011406341583780193 -0.011443894346942207 0 0.0090633685854694408 -0.006332488726863407 0 0.010911348252168718 0.0067812287870296422 0 0.011105673769296064 0.011129674227511568 0 0.011088975464913374 0.01108629823253786 0 0.011416571899038342 0.01126205937346811 0 0.011105673769296064 0.011129674227511568 0 0.011005920046781983 0.011034860028257111 0 0.011088975464913374 0.01108629823253786 0 0.010984969375199001 0.010992602285423959 0 0.011105673769296064 0.011129674227511568 0 0.011005920046781983 0.011034860028257111 0 0.011005920046781983 0.011034860028257111 0 0.011088975464913374 0.01108629823253786 0 0.010954490376432695 0.011031458599732107 0 0.011088975464913374 0.01108629823253786 0 0.010959856363484372 0.011036470877904872 0 0.010954490376432695 0.011031458599732107 0 0.011088975464913374 0.01108629823253786 0 0.010995209477097763 0.010870754808331162 0 0.011463807874943735 0.011029509817767897 0 0.011088975464913374 0.01108629823253786 0 0.011416571899038342 0.01126205937346811 0 0.011463807874943735 0.011029509817767897 0 0.010995209477097763 0.010870754808331162 0 0.011463807874943735 0.011029509817767897 0 0.011859126839573535 0.010453318236082925 0 0.010995209477097763 0.010870754808331162 0 0.010959856363484372 0.011036470877904872 0 0.010947752843520578 0.011204639690783049 0 0.011088975464913374 0.01108629823253786 0 0.010995209477097763 0.010870754808331162 0 0.010959856363484372 0.011036470877904872 0 0.010959856363484372 0.011036470877904872 0 0.010975620066848645 0.011220678371847273 0 0.010947752843520578 0.011204639690783049 0 0.010959856363484372 0.011036470877904872 0 0.010975620066848645 0.011220678371847273 0 0.010954490376432695 0.011031458599732107 0 0.010967292428002842 0.010971136333512111 0 0.010954490376432695 0.011031458599732107 0 0.011006170578457236 0.01097608895115976 0 0.010954490376432695 0.011031458599732107 0 0.011006170578457236 0.01097608895115976 0 0.011051978358575732 0.011105344662996801 0 0.010975620066848645 0.011220678371847273 0 0.010954490376432695 0.011031458599732107 0 0.011051978358575732 0.011105344662996801 0 0.010975620066848645 0.011220678371847273 0 0.011051978358575732 0.011105344662996801 0 0.011092833089314608 0.011273064549138173 0 0.011051978358575732 0.011105344662996801 0 0.011265352918820477 0.011147788775977465 0 0.011092833089314608 0.011273064549138173 0 0.0104952320894665 0.010850023304816164 0 0.01081498420235682 0.010802995347591656 0 0.010842288420951338 0.011419469723162256 0 0.0104952320894665 0.010850023304816164 0 0.01081498420235682 0.010802995347591656 0 0.010569542281433005 0.010464681320310028 0 0.011265352918820477 0.011147788775977465 0 0.011124918664477094 0.010971705830573135 0 0.01130687447027794 0.010887856309389383 0 0.010979920980843544 0.01116814198288647 0 0.0098495275730348386 0.0097576302700418654 0 0.011051978358575732 0.011105344662996801 0 0.011265352918820477 0.011147788775977465 0 0.011124918664477094 0.010971705830573135 0 0.011006170578457236 0.01097608895115976 0 0.011051978358575732 0.011105344662996801 0 0.011124918664477094 0.010971705830573135 0 0.001876409190316999 0.0054097477714794961 0 0.0016134596432467163 0.0039849804668429072 0 0.011723705579624934 0.011134428477344546 0 0.01081498420235682 0.010802995347591656 0 0.011193916627980317 0.0091056733534345229 0 0.011723705579624934 0.011134428477344546 0 0.01081498420235682 0.010802995347591656 0 0.011194672564728017 0.011436980118176591 0 0.01081498420235682 0.010802995347591656 0 0.011193916627980317 0.0091056733534345229 0 0.0088113996124343143 0.0081689095005439971 0 0.010659093379091114 0.01054974751596645 0 0.0098495275730348386 0.0097576302700418654 0 -0.0077725027739767531 -6.4275975077360668e-05 0 -0.0088093291295086463 -0.0022535254326082549 0 -0.0076792557686946447 -0.001915754411895687 0 -0.0088093291295086463 -0.0022535254326082549 0 -0.0076792557686946447 -0.001915754411895687 0 -0.0079503207343059185 -0.0032004031817411791 0 -0.0070420658000602014 -0.0028326688392954409 0 -0.0076792557686946447 -0.001915754411895687 0 -0.0079503207343059185 -0.0032004031817411791 0 -0.0088093291295086463 -0.0022535254326082549 0 -0.0079503207343059185 -0.0032004031817411791 0 -0.0087457212438562699 -0.0037094602462774602 0 -0.0069909045445129955 -0.0037402426198736892 0 -0.0079503207343059185 -0.0032004031817411791 0 -0.0080258892826412694 -0.0045227665512471999 0 -0.0079503207343059185 -0.0032004031817411791 0 -0.0087457212438562699 -0.0037094602462774602 0 -0.0080258892826412694 -0.0045227665512471999 0 0.0016134596432467163 0.0039849804668429072 0 -0.0024603726575413579 -0.0015074719593580967 0 0.011193916627980317 0.0091056733534345229 0 0.0097095552011293058 0.0061257177108941154 0 0.0088113996124343143 0.0081689095005439971 0 -0.0088093291295086463 -0.0022535254326082549 0 -0.0087457212438562699 -0.0037094602462774602 0 -0.0098517129705413611 -0.0044437827104458084 0 -0.010364963324676669 -0.0052480608421208892 0 -0.0082132743773539255 -0.0066438043908326853 0 -0.0068561266698980994 -0.0052025786062906447 0 -0.0024603726575413579 -0.0015074719593580967 0 -0.0090552456045626395 -0.0051111693226661009 0 -0.0087457212438562699 -0.0037094602462774602 0 -0.0098517129705413611 -0.0044437827104458084 0 -0.0080258892826412694 -0.0045227665512471999 0 -0.010364963324676669 -0.0052480608421208892 0 -0.011918925370722536 -0.0084896777873748885 0 -0.0095875330485594972 -0.0075348131937118838 0 -0.010364963324676669 -0.0052480608421208892 0 -0.0082132743773539255 -0.0066438043908326853 0 -0.0095875330485594972 -0.0075348131937118838 0 -0.0082132743773539255 -0.0066438043908326853 0 -0.0069565668905593094 -0.0067988653427404414 0 -0.0068561266698980994 -0.0052025786062906447 0 -0.0058786990193004512 -0.0055221130864729125 0 -0.0069565668905593094 -0.0067988653427404414 0 -0.0068561266698980994 -0.0052025786062906447 0 0.011124918664477094 0.010971705830573135 0 0.011147772310589601 0.010809259538039894 0 0.01130687447027794 0.010887856309389383 0 0.011147772310589601 0.010809259538039894 0 0.011022903958911616 0.01087221585014601 0 0.01109735851726937 0.010621292696781283 0 0.010993024422821081 0.010842021939962936 0 0.011022903958911616 0.01087221585014601 0 0.011012168332103445 0.010767885371263266 0 0.0093745633580350086 0.011513138674020901 0 0.0073020822832448257 0.0015123189783916957 0 0.011124918664477094 0.010971705830573135 0 0.011147772310589601 0.010809259538039894 0 0.011022903958911616 0.01087221585014601 0 0.011006170578457236 0.01097608895115976 0 0.011124918664477094 0.010971705830573135 0 0.011022903958911616 0.01087221585014601 0 0.0098495275730348386 0.0097576302700418654 0 0.0050021536159468557 0.00092167879059983158 0 0.011147772310589601 0.010809259538039894 0 0.01130687447027794 0.010887856309389383 0 0.011174180465107091 0.010620403083474322 0 0.0097095552011293058 0.0061257177108941154 0 0.0088113996124343143 0.0081689095005439971 0 0.0091548819202659035 0.0061139767180116563 0 0.0098495275730348386 0.0097576302700418654 0 0.0070167261088027698 0.0015725107328509211 0 0.0079505962514460574 0.0070741955740345969 0 0.00890577616231698 0.0027330344531814725 0 0.0053523782436286985 0.0026747604912042075 0 -0.0024603726575413579 -0.0015074719593580967 0 -0.00091880046398878446 -0.010586583701681324 0 0.0024466516264020446 -0.0049883194139114916 0 0.0016069986243017632 -0.0049191824989539938 0 0.0018363173485667901 -0.0045339882602341858 0 0.003529909438088747 -0.0044874620546241631 0 0.003097657609958946 -0.004499119418522885 0 0.0025728178682306222 -0.006383026941666598 0 0.003097657609958946 -0.004499119418522885 0 0.0024466516264020446 -0.0049883194139114916 0 0.0025728178682306222 -0.006383026941666598 0 0.003097657609958946 -0.004499119418522885 0 0.0024466516264020446 -0.0049883194139114916 0 0.0018363173485667901 -0.0045339882602341858 0 0.0050021536159468557 0.00092167879059983158 0 0.0070167261088027698 0.0015725107328509211 0 -0.0024603726575413579 -0.0015074719593580967 0 0.0050021536159468557 0.00092167879059983158 0 0.0024466516264020446 -0.0049883194139114916 0 0.0016069986243017632 -0.0049191824989539938 0 0.0025728178682306222 -0.006383026941666598 0 0.0030541472037769672 -0.013164031427989067 0 0.0030723327941151969 -0.013223613089813721 0 0.0031969417623481143 -0.013123546047099496 0 0.0045331468836239666 -0.0071714185017182665 0 0.0070167261088027698 0.0015725107328509211 0 0.0070167261088027698 0.0015725107328509211 0 0.0073020822832448257 0.0015123189783916957 0 0.011147772310589601 0.010809259538039894 0 0.011174180465107091 0.010620403083474322 0 0.01109735851726937 0.010621292696781283 0 0.0057643727381056185 0.00088554198865022418 0 0.0050597759111204932 -0.00029559070368722734 0 0.0065851561399008704 -0.00027251543908035766 0 0.0045331468836239666 -0.0071714185017182665 0 0.0073020822832448257 0.0015123189783916957 0 0.0033826392225191474 -0.013205736209686183 0 0.0030723327941151969 -0.013223613089813721 0 0.0031969417623481143 -0.013123546047099496 0 0.0031969417623481143 -0.013123546047099496 0 0.0032127900955980946 -0.012978836583531547 0 0.0032959287878956004 -0.013086493285307107 0 0.0019903822766477348 -0.013796838491293621 0 0.0023106310252002413 -0.013385082418095972 0 0.0019869934399682231 -0.013355790260875498 0 0.0030541472037769672 -0.013164031427989067 0 0.0031969417623481143 -0.013123546047099496 0 0.0032127900955980946 -0.012978836583531547 0 0.0045331468836239666 -0.0071714185017182665 0 0.0021622301205155236 -0.014313711996902378 0 0.0023106310252002413 -0.013385082418095972 0 0.0019869934399682231 -0.013355790260875498 0 0.0021513785759216925 -0.013090352798813374 0 0.0019903822766477348 -0.013796838491293621 0 0.0019869934399682231 -0.013355790260875498 0 0.001648298816447197 -0.013398522222967144 0 0.0045331468836239666 -0.0071714185017182665 0 -0.00091880046398878446 -0.010586583701681324 0 -0.00091880046398878446 -0.010586583701681324 0 -0.0047772216874468329 -0.011432900406437543 0 0.0019869934399682231 -0.013355790260875498 0 0.001648298816447197 -0.013398522222967144 0 0.0017894549946786255 -0.013009039381409238 0 -0.00091880046398878446 -0.010586583701681324 0 0.0010057327741198956 -0.012947144205860798 0 0.0017894549946786255 -0.013009039381409238 0 0.0016345535552533838 -0.012760971211365681 0 0.0013819343198714852 -0.012884669119197277 0 0.0015672815151585137 -0.013090715380774927 0 0.0017894549946786255 -0.013009039381409238 0 0.0013819343198714852 -0.012884669119197277 0 0.0016345535552533838 -0.012760971211365681 0 0.0013819343198714852 -0.012884669119197277 0 0.0015624478050948706 -0.012507474414251873 0 0.0017894549946786255 -0.013009039381409238 0 0.0016345535552533838 -0.012760971211365681 0 0.0018153308131739708 -0.012653102802453743 0 0.0017894549946786255 -0.013009039381409238 0 0.0021780775242586964 -0.012785797846516048 0 0.0018153308131739708 -0.012653102802453743 0 0.0021780775242586964 -0.012785797846516048 0 0.0023852521444386121 -0.013017585349809607 0 0.0021513785759216925 -0.013090352798813374 0 0.0021780775242586964 -0.012785797846516048 0 0.0023852521444386121 -0.013017585349809607 0 0.002921313207649291 -0.01281401166942653 0 0.0023106310252002413 -0.013385082418095972 0 0.0023852521444386121 -0.013017585349809607 0 0.0021513785759216925 -0.013090352798813374 0 0.0019869934399682231 -0.013355790260875498 0 0.0017894549946786255 -0.013009039381409238 0 0.0021513785759216925 -0.013090352798813374 0 0.0017894549946786255 -0.013009039381409238 0 0.0021780775242586964 -0.012785797846516048 0 0.0021513785759216925 -0.013090352798813374 0 -0.0044766282470108266 -0.0089687948103414541 0 -0.0074638040048347525 -0.0084695388912096447 0 -0.0057957553935940008 -0.010389011649518385 0 -0.0053930550262879969 -0.007394719372525207 0 -0.0069565668905593094 -0.0067988653427404414 0 -0.0074638040048347525 -0.0084695388912096447 0 -0.0082132743773539255 -0.0066438043908326853 0 -0.0069565668905593094 -0.0067988653427404414 0 -0.0074638040048347525 -0.0084695388912096447 0 -0.0074638040048347525 -0.0084695388912096447 0 -0.0093327322063093045 -0.0093123778500219401 0 -0.0076412492287863485 -0.010953850961144896 0 -0.011918925370722536 -0.0084896777873748885 0 -0.0093327322063093045 -0.0093123778500219401 0 -0.01042303403621064 -0.01077026320068921 0 -0.011918925370722536 -0.0084896777873748885 0 -0.0093327322063093045 -0.0093123778500219401 0 -0.0095875330485594972 -0.0075348131937118838 0 -0.0074638040048347525 -0.0084695388912096447 0 -0.0093327322063093045 -0.0093123778500219401 0 -0.0095875330485594972 -0.0075348131937118838 0 -0.0082132743773539255 -0.0066438043908326853 0 -0.0074638040048347525 -0.0084695388912096447 0 -0.0095875330485594972 -0.0075348131937118838 0 -0.01042303403621064 -0.01077026320068921 0 -0.0076412492287863485 -0.010953850961144896 0 -0.0089053856148704272 -0.013039653954702151 0 -0.0093327322063093045 -0.0093123778500219401 0 -0.01042303403621064 -0.01077026320068921 0 -0.0076412492287863485 -0.010953850961144896 0 -0.0047772216874468329 -0.011432900406437543 0 -0.0022485233377857986 -0.012379705559604203 0 -0.0050399312510250862 -0.012176450609608359 0 -0.0076412492287863485 -0.010953850961144896 0 -0.0057957553935940008 -0.010389011649518385 0 -0.0050399312510250862 -0.012176450609608359 0 -0.0076412492287863485 -0.010953850961144896 0 -0.0089053856148704272 -0.013039653954702151 0 -0.0074638040048347525 -0.0084695388912096447 0 -0.0076412492287863485 -0.010953850961144896 0 -0.0057957553935940008 -0.010389011649518385 0 0.00026109843363811991 -0.012487033391863347 0 0.00043381971517350673 -0.012601133065727993 0 0.00046677192737575816 -0.012569164171302015 0 -0.0028459080077318549 -0.012313277007271153 0 -0.0022485233377857986 -0.012379705559604203 0 5.0238700948905001e-05 -0.012371255050241168 0 0.00026109843363811991 -0.012487033391863347 0 0.00043381971517350673 -0.012601133065727993 0 0.00078006486993150641 -0.012979110107965604 0 0.001002813847402091 -0.01253161653812886 0 0.00046677192737575816 -0.012569164171302015 0 0.0013819343198714852 -0.012884669119197277 0 0.0011568085657584961 -0.012584722436975298 0 0.0015624478050948706 -0.012507474414251873 0 0.00078006486993150641 -0.012979110107965604 0 0.001002813847402091 -0.01253161653812886 0 0.0013416161734167141 -0.012809788557217046 0 -0.0022485233377857986 -0.012379705559604203 0 0.00036991204732810342 -0.01322293198479333 0 -0.0022485233377857986 -0.012379705559604203 0 0.0019129093400927859 -0.012494609887586727 0 0.0014029947972804238 -0.01234408077291088 0 0.00063286250100205201 -0.012366609376522229 0 0.001002813847402091 -0.01253161653812886 0 0.00063286250100205201 -0.012366609376522229 0 0.001002813847402091 -0.01253161653812886 0 0.00046677192737575816 -0.012569164171302015 0 0.00031247348594936301 -0.012354229635155417 0 0.00063286250100205201 -0.012366609376522229 0 0.00028190580386427624 -0.012440792928993229 0 0.00063286250100205201 -0.012366609376522229 0 0.00046677192737575816 -0.012569164171302015 0 0.00028190580386427624 -0.012440792928993229 0 0.00026109843363811991 -0.012487033391863347 0 0.00046677192737575816 -0.012569164171302015 0 0.00028190580386427624 -0.012440792928993229 0 0.0021780775242586964 -0.012785797846516048 0 0.0021183060963586688 -0.012470858782575521 0 0.002921313207649291 -0.01281401166942653 0 0.0019190863450844846 -0.012531809997178267 0 0.0019983921794711318 -0.012606256022289118 0 0.0018153308131739708 -0.012653102802453743 0 0.0019190863450844846 -0.012531809997178267 0 0.0021183060963586688 -0.012470858782575521 0 0.0019983921794711318 -0.012606256022289118 0 0.0021780775242586964 -0.012785797846516048 0 0.0021183060963586688 -0.012470858782575521 0 0.0019983921794711318 -0.012606256022289118 0 0.0021780775242586964 -0.012785797846516048 0 0.0019983921794711318 -0.012606256022289118 0 0.0018153308131739708 -0.012653102802453743 0 0.0016345535552533838 -0.012760971211365681 0 0.0018153308131739708 -0.012653102802453743 0 0.0015624478050948706 -0.012507474414251873 0 0.0019190863450844846 -0.012531809997178267 0 0.0018153308131739708 -0.012653102802453743 0 0.0015624478050948706 -0.012507474414251873 0 0.0016908605501579808 -0.012593338863856262 0 0.0019129093400927859 -0.012494609887586727 0 0.0014029947972804238 -0.01234408077291088 0 0.001002813847402091 -0.01253161653812886 0 0.0013416161734167141 -0.012809788557217046 0 0.0014029947972804238 -0.01234408077291088 0 0.0019190863450844846 -0.012531809997178267 0 0.0013416161734167141 -0.012809788557217046 0 0.0014029947972804238 -0.01234408077291088 0 0.0019190863450844846 -0.012531809997178267 0 0.0021183060963586688 -0.012470858782575521 0 0.004315696463039401 -0.016537661499931681 0 0.0046329276230583335 -0.016414875495700892 0 0.0071659329250726581 -0.020660145362313115 0 0.007438665491886761 -0.020641834737765267 0 0.0074411545815476574 -0.020665130022475144 0 0.007438665491886761 -0.020641834737765267 0 0.0074411545815476574 -0.020665130022475144 0 0.0073633105063895584 -0.020662720288901003 0 0.007550539884655612 -0.020649931402181604 0 0.0074411545815476574 -0.020665130022475144 0 0.0073633105063895584 -0.020662720288901003 0 0.0092753637278881612 -0.021353427091218933 0 0.0092248898492349393 -0.021539343083639223 0 0.0094881091663670397 -0.021575645905411965 0 0.0092753637278881612 -0.021353427091218933 0 0.0094881091663670397 -0.021575645905411965 0 0.0096674100237783521 -0.021442208956365887 0 0.0094881091663670397 -0.021575645905411965 0 0.0094177434848411786 -0.021717888931543718 0 0.0097291291342434649 -0.021648014707862397 0 0.0094881091663670397 -0.021575645905411965 0 0.0097291291342434649 -0.021648014707862397 0 0.0096674100237783521 -0.021442208956365887 0 0.0046329276230583335 -0.016414875495700892 0 0.0059353712471495023 -0.017293229328089198 0 0.0092248898492349393 -0.021539343083639223 0 0.0094881091663670397 -0.021575645905411965 0 0.0094177434848411786 -0.021717888931543718 0 0.007438665491886761 -0.020641834737765267 0 0.0073633105063895584 -0.020662720288901003 0 0.0072664741490608047 -0.020358908349975082 0 0.0021183060963586688 -0.012470858782575521 0 0.0031913819938893125 -0.012848522972225954 0 0.002921313207649291 -0.01281401166942653 0 0.0086444704779113039 -0.021939356238720328 0 0.0059353712471495023 -0.017293229328089198 0 0.0023106310252002413 -0.013385082418095972 0 0.0023852521444386121 -0.013017585349809607 0 0.002921313207649291 -0.01281401166942653 0 0.0032127900955980946 -0.012978836583531547 0 0.003203439009953925 -0.012941622329599467 0 0.002921313207649291 -0.01281401166942653 0 0.0021622301205155236 -0.014313711996902378 0 0.0031801548057346931 -0.012391322658451141 0 0.0059353712471495023 -0.017293229328089198 0 0.0036086042587665243 -0.012394142808856572 0 0.003203439009953925 -0.012941622329599467 0 0.0031913819938893125 -0.012848522972225954 0 0.0034377609789068655 -0.012975814660997368 0 0.003203439009953925 -0.012941622329599467 0 0.0031913819938893125 -0.012848522972225954 0 0.002921313207649291 -0.01281401166942653 0 0.0094177434848411786 -0.021717888931543718 0 0.0096933659591938986 -0.021832169240272987 0 0.0097291291342434649 -0.021648014707862397 0 0.0059353712471495023 -0.017293229328089198 0 0.0073330342499759258 -0.019225746492027358 0 0.0039871553866642788 -0.013228969176024442 0 0.0039784291885186845 -0.013157836509925989 0 0.0040785460413873516 -0.013114991365307072 0 0.0038050875447846882 -0.013258782237007364 0 0.0039784291885186845 -0.013157836509925989 0 0.0040785460413873516 -0.013114991365307072 0 0.0035756840683864237 -0.013161558270669551 0 0.0038050875447846882 -0.013258782237007364 0 0.0034377609789068655 -0.012975814660997368 0 0.003834343546857234 -0.013483029656526277 0 0.0036086042587665243 -0.012394142808856572 0 0.0035756840683864237 -0.013161558270669551 0 0.0034377609789068655 -0.012975814660997368 0 0.003395434924848941 -0.013073139642327232 0 0.0032127900955980946 -0.012978836583531547 0 0.003395434924848941 -0.013073139642327232 0 0.0032959287878956004 -0.013086493285307107 0 0.0032127900955980946 -0.012978836583531547 0 0.003203439009953925 -0.012941622329599467 0 0.003395434924848941 -0.013073139642327232 0 0.003203439009953925 -0.012941622329599467 0 0.0034377609789068655 -0.012975814660997368 0 0.003395434924848941 -0.013073139642327232 0 0.0099667873075169628 -0.021952124789157177 0 0.010184444121279224 -0.021845206877810875 0 0.0096933659591938986 -0.021832169240272987 0 0.010184444121279224 -0.021845206877810875 0 0.0096933659591938986 -0.021832169240272987 0 0.0100933452407559 -0.021715600058448373 0 0.0096933659591938986 -0.021832169240272987 0 0.0100933452407559 -0.021715600058448373 0 0.0097291291342434649 -0.021648014707862397 0 0.0100933452407559 -0.021715600058448373 0 0.010071709944330345 -0.02151664384675156 0 0.010308447868250022 -0.02160325904585295 0 0.0100933452407559 -0.021715600058448373 0 0.0097291291342434649 -0.021648014707862397 0 0.010071709944330345 -0.02151664384675156 0 0.0097291291342434649 -0.021648014707862397 0 0.0096674100237783521 -0.021442208956365887 0 0.010071709944330345 -0.02151664384675156 0 0.0099542430733395217 -0.021326597733996169 0 0.0096674100237783521 -0.021442208956365887 0 0.010071709944330345 -0.02151664384675156 0 0.010275257515243094 -0.021247093756052157 0 0.0099542430733395217 -0.021326597733996169 0 0.010071709944330345 -0.02151664384675156 0 0.010275257515243094 -0.021247093756052157 0 0.010071709944330345 -0.02151664384675156 0 0.010527344221060421 -0.021512371386174206 0 0.010527344221060421 -0.021512371386174206 0 0.010308447868250022 -0.02160325904585295 0 0.010520780411211213 -0.021655056240732461 0 0.010071709944330345 -0.02151664384675156 0 0.010527344221060421 -0.021512371386174206 0 0.010308447868250022 -0.02160325904585295 0 0.010527344221060421 -0.021512371386174206 0 0.010795921226042955 -0.021523525858894825 0 0.010520780411211213 -0.021655056240732461 0 0.010527344221060421 -0.021512371386174206 0 0.010882587419663413 -0.021530460685763596 0 0.010795921226042955 -0.021523525858894825 0 0.010662358461668436 -0.021335426865575925 0 0.010527344221060421 -0.021512371386174206 0 0.010882587419663413 -0.021530460685763596 0 0.01091678402179987 -0.021533876115496939 0 0.011239302520835966 -0.021660222940058031 0 0.010882587419663413 -0.021530460685763596 0 0.010980972304017666 -0.021411994573319593 0 0.010795921226042955 -0.021523525858894825 0 0.011555562446869819 -0.021389413667278288 0 0.010882587419663413 -0.021530460685763596 0 0.011493899621767476 -0.02190954121248137 0 0.010980972304017666 -0.021411994573319593 0 0.01093190045247552 -0.021622313282407393 0 0.011283432302385633 -0.021402003377440457 0 0.010980972304017666 -0.021411994573319593 0 0.010795921226042955 -0.021523525858894825 0 0.01093190045247552 -0.021622313282407393 0 0.010795921226042955 -0.021523525858894825 0 0.01093190045247552 -0.021622313282407393 0 0.010520780411211213 -0.021655056240732461 0 0.01093190045247552 -0.021622313282407393 0 0.010570895379723564 -0.021799721185614258 0 0.010787437881459715 -0.021908767375547679 0 0.010184444121279224 -0.021845206877810875 0 0.010570895379723564 -0.021799721185614258 0 0.010520780411211213 -0.021655056240732461 0 0.0100933452407559 -0.021715600058448373 0 0.010308447868250022 -0.02160325904585295 0 0.010520780411211213 -0.021655056240732461 0 0.010184444121279224 -0.021845206877810875 0 0.0100933452407559 -0.021715600058448373 0 0.010520780411211213 -0.021655056240732461 0 0.01093190045247552 -0.021622313282407393 0 0.010570895379723564 -0.021799721185614258 0 0.010520780411211213 -0.021655056240732461 0 0.012528617809423635 -0.021821214459720809 0 0.012256054617334242 -0.021805173367556149 0 0.012474568727135734 -0.0219801146642188 0 0.012528617809423635 -0.021821214459720809 0 0.012510287720565857 -0.021709196778101788 0 0.012256054617334242 -0.021805173367556149 0 0.012287689808452915 -0.021596707939658767 0 0.012462374298501677 -0.021570857838014976 0 0.012510287720565857 -0.021709196778101788 0 0.01196301463145546 -0.021584289981893618 0 0.012287689808452915 -0.021596707939658767 0 0.012256054617334242 -0.021805173367556149 0 0.012287689808452915 -0.021596707939658767 0 0.012510287720565857 -0.021709196778101788 0 0.012256054617334242 -0.021805173367556149 0 0.01196301463145546 -0.021584289981893618 0 0.011493899621767476 -0.02190954121248137 0 0.011885175580622591 -0.022096414135850326 0 0.01196301463145546 -0.021584289981893618 0 0.01219751524804508 -0.021943907935482437 0 0.011885175580622591 -0.022096414135850326 0 0.01219751524804508 -0.021943907935482437 0 0.011885175580622591 -0.022096414135850326 0 0.012180900734681921 -0.022212539424361747 0 0.01197859634579182 -0.021627911626456994 0 0.012227137435354907 -0.021769540462743941 0 0.011239302520835966 -0.021660222940058031 0 0.01158717735333238 -0.021751800742549919 0 0.01093190045247552 -0.021622313282407393 0 0.011283432302385633 -0.021402003377440457 0 0.011362171732709963 -0.021606089532386841 0 0.01093190045247552 -0.021622313282407393 0 0.011362171732709963 -0.021606089532386841 0 0.011146236669776668 -0.021838123448143142 0 0.011362171732709963 -0.021606089532386841 0 0.0116515073730741 -0.021422974902241647 0 0.011740284728014453 -0.021598673984311281 0 0.011362171732709963 -0.021606089532386841 0 0.011740284728014453 -0.021598673984311281 0 0.0115348428410833 -0.021786766373633058 0 0.011283432302385633 -0.021402003377440457 0 0.011362171732709963 -0.021606089532386841 0 0.0116515073730741 -0.021422974902241647 0 0.01158717735333238 -0.021751800742549919 0 0.011938011563733964 -0.021816524580242511 0 0.012227137435354907 -0.021769540462743941 0 0.012264462833357881 -0.022592010541796711 0 0.01219751524804508 -0.021943907935482437 0 0.012180900734681921 -0.022212539424361747 0 0.012385998318476438 -0.022194466594779073 0 0.011938011563733964 -0.021816524580242511 0 0.012145290190217347 -0.02196550645982254 0 0.0116515073730741 -0.021422974902241647 0 0.011740284728014453 -0.021598673984311281 0 0.012095331205949626 -0.021488844813659078 0 0.011740284728014453 -0.021598673984311281 0 0.012095331205949626 -0.021488844813659078 0 0.012017128023497895 -0.021733357288571172 0 0.012180900734681921 -0.022212539424361747 0 0.012406239682320592 -0.022286889863963912 0 0.012385998318476438 -0.022194466594779073 0 0.01255935211486579 -0.022335087720160667 0 0.012406239682320592 -0.022286889863963912 0 0.012385998318476438 -0.022194466594779073 0 0.012761498795298393 -0.02183838146761493 0 0.012528617809423635 -0.021821214459720809 0 0.012474568727135734 -0.0219801146642188 0 0.021290799421341173 -0.0015260946534469695 0 0.019927622738420071 0.00062603135554076391 0 0.019064957706981928 -0.0017021487632666325 0 0.012514915232298241 -0.021598546519708054 0 0.012095331205949626 -0.021488844813659078 0 0.012017128023497895 -0.021733357288571172 0 0.019927622738420071 0.00062603135554076391 0 0.017984735499926532 -0.00083959619890883424 0 0.017762312448228134 0.00049072724808689613 0 0.011740284728014453 -0.021598673984311281 0 0.012017128023497895 -0.021733357288571172 0 0.0115348428410833 -0.021786766373633058 0 0.016065164450538138 -0.010364074818823271 0 0.014631337404216089 -0.010668254439915261 0 0.019927622738420071 0.00062603135554076391 0 0.017984735499926532 -0.00083959619890883424 0 0.019064957706981928 -0.0017021487632666325 0 0.017984735499926532 -0.00083959619890883424 0 0.017762312448228134 0.00049072724808689613 0 0.015698306189989471 0.00036156309309908646 0 0.011362171732709963 -0.021606089532386841 0 0.0115348428410833 -0.021786766373633058 0 0.011146236669776668 -0.021838123448143142 0 0.014631337404216089 -0.010668254439915261 0 0.013440650902405574 -0.010743001787357228 0 0.017984735499926532 -0.00083959619890883424 0 0.015698306189989471 0.00036156309309908646 0 0.015652357643227133 -0.0011861664602198132 0 0.017147936579394493 -0.0019224484722671596 0 0.015652357643227133 -0.0011861664602198132 0 0.015266754213187185 -0.0025760386306873501 0 0.017984735499926532 -0.00083959619890883424 0 0.017147936579394493 -0.0019224484722671596 0 0.015652357643227133 -0.0011861664602198132 0 0.015266754213187185 -0.0025760386306873501 0 0.015073609072964409 -0.0036079162818799357 0 0.016733864937711777 -0.0041211935968060998 0 0.017147936579394493 -0.0019224484722671596 0 0.015266754213187185 -0.0025760386306873501 0 0.016733864937711777 -0.0041211935968060998 0 0.017147936579394493 -0.0019224484722671596 0 0.018244280784391585 -0.0029827397408302499 0 0.016733864937711777 -0.0041211935968060998 0 0.018244280784391585 -0.0029827397408302499 0 0.018796214240921986 -0.0037119274879075363 0 0.016733864937711777 -0.0041211935968060998 0 0.017984735499926532 -0.00083959619890883424 0 0.017147936579394493 -0.0019224484722671596 0 0.019064957706981928 -0.0017021487632666325 0 0.017147936579394493 -0.0019224484722671596 0 0.019064957706981928 -0.0017021487632666325 0 0.018244280784391585 -0.0029827397408302499 0 0.019064957706981928 -0.0017021487632666325 0 0.018244280784391585 -0.0029827397408302499 0 0.018987363759977092 -0.0027634678819641336 0 0.019064957706981928 -0.0017021487632666325 0 0.018987363759977092 -0.0027634678819641336 0 0.019726114859786068 -0.0027564815368064186 0 0.018244280784391585 -0.0029827397408302499 0 0.018796214240921986 -0.0037119274879075363 0 0.018987363759977092 -0.0027634678819641336 0 0.018796214240921986 -0.0037119274879075363 0 0.018987363759977092 -0.0027634678819641336 0 0.019726114859786068 -0.0027564815368064186 0 0.018796214240921986 -0.0037119274879075363 0 0.019726114859786068 -0.0027564815368064186 0 0.020918747297717734 -0.0032616094349828119 0 0.023709408707173085 0.0014609452319335856 0 0.025909795724751519 -0.0010531459387425935 0 0.021290799421341173 -0.0015260946534469695 0 0.019064957706981928 -0.0017021487632666325 0 0.019726114859786068 -0.0027564815368064186 0 0.021290799421341173 -0.0015260946534469695 0 0.019726114859786068 -0.0027564815368064186 0 0.020918747297717734 -0.0032616094349828119 0 0.012803513818497014 -0.00083258203012735418 0 0.011336242810139108 -0.00096265547024535208 0 0.012429819249330931 -0.0020716520679399703 0 0.012803513818497014 -0.00083258203012735418 0 0.011336242810139108 -0.00096265547024535208 0 0.011958070782953729 0.0001043930130897624 0 0.010292068153074698 1.063939052088785e-05 0 0.011336242810139108 -0.00096265547024535208 0 0.011958070782953729 0.0001043930130897624 0 0.010184444121279224 -0.021845206877810875 0 0.010570895379723564 -0.021799721185614258 0 0.010390662899152917 -0.021970529694144633 0 0.012803513818497014 -0.00083258203012735418 0 0.011958070782953729 0.0001043930130897624 0 0.01375523523038855 0.00023520906484185891 0 0.011406341583780193 -0.011443894346942207 0 0.012223868656937297 -0.010780092912217289 0 0.010570895379723564 -0.021799721185614258 0 0.010390662899152917 -0.021970529694144633 0 0.010787437881459715 -0.021908767375547679 0 0.01093190045247552 -0.021622313282407393 0 0.011146236669776668 -0.021838123448143142 0 0.010787437881459715 -0.021908767375547679 0 0.013440650902405574 -0.010743001787357228 0 0.012223868656937297 -0.010780092912217289 0 0.015698306189989471 0.00036156309309908646 0 0.01375523523038855 0.00023520906484185891 0 0.015652357643227133 -0.0011861664602198132 0 0.01375523523038855 0.00023520906484185891 0 0.015652357643227133 -0.0011861664602198132 0 0.013956993151467974 -0.0015724180416413183 0 0.012803513818497014 -0.00083258203012735418 0 0.01375523523038855 0.00023520906484185891 0 0.013956993151467974 -0.0015724180416413183 0 0.015652357643227133 -0.0011861664602198132 0 0.013956993151467974 -0.0015724180416413183 0 0.015266754213187185 -0.0025760386306873501 0 0.015266754213187185 -0.0025760386306873501 0 0.013572997441576669 -0.0032576445658186915 0 0.015073609072964409 -0.0036079162818799357 0 0.013956993151467974 -0.0015724180416413183 0 0.015266754213187185 -0.0025760386306873501 0 0.013572997441576669 -0.0032576445658186915 0 0.013446734859375468 0.0033510801726660561 0 0.012520055130687255 0.0042646718234265182 0 0.013398856027948179 0.01043995058629793 0 0.012260361997434742 0.011136547944181686 0 0.01261699841246222 0.010080116779023556 0 0.012803513818497014 -0.00083258203012735418 0 0.013956993151467974 -0.0015724180416413183 0 0.012429819249330931 -0.0020716520679399703 0 0.013956993151467974 -0.0015724180416413183 0 0.013572997441576669 -0.0032576445658186915 0 0.012429819249330931 -0.0020716520679399703 0 0.011416571899038342 0.01126205937346811 0 0.012260361997434742 0.011136547944181686 0 0.011463807874943735 0.011029509817767897 0 0.010911348252168718 0.0067812287870296422 0 0.012520055130687255 0.0042646718234265182 0 0.012260361997434742 0.011136547944181686 0 0.011859126839573535 0.010453318236082925 0 0.01261699841246222 0.010080116779023556 0 0.012260361997434742 0.011136547944181686 0 0.011463807874943735 0.011029509817767897 0 0.011859126839573535 0.010453318236082925 0 0.011859126839573535 0.010453318236082925 0 0.012197515578061294 0.0097442747497682343 0 0.011673711262562052 0.0094573852198517466 0 0.011859126839573535 0.010453318236082925 0 0.012197515578061294 0.0097442747497682343 0 0.01261699841246222 0.010080116779023556 0 0.01068521884886859 0.011413950558965444 0 0.0110131840934655 0.011216903897119513 0 0.010728349164102978 0.01139523744030003 0 0.011673711262562052 0.0094573852198517466 0 0.012317063059043943 0.0092255732604950499 0 0.012412829474520539 0.0084996183904396151 0 0.011223966005599179 0.010459318687031118 0 0.011521915425598685 0.0097514451581667185 0 0.012197515578061294 0.0097442747497682343 0 0.011673711262562052 0.0094573852198517466 0 0.012317063059043943 0.0092255732604950499 0 0.012197515578061294 0.0097442747497682343 0 0.012317063059043943 0.0092255732604950499 0 0.012630780924124558 0.0094752797796243283 0 0.013162258745617134 0.0089943468964051448 0 0.012656120380473848 0.0089886172158374789 0 0.012630780924124558 0.0094752797796243283 0 0.012317063059043943 0.0092255732604950499 0 0.012656120380473848 0.0089886172158374789 0 0.012630780924124558 0.0094752797796243283 0 0.013398856027948179 0.01043995058629793 0 0.01261699841246222 0.010080116779023556 0 0.013454469919064899 0.009286142779914389 0 0.012630780924124558 0.0094752797796243283 0 0.01261699841246222 0.010080116779023556 0 0.013454469919064899 0.009286142779914389 0 0.012197515578061294 0.0097442747497682343 0 0.012630780924124558 0.0094752797796243283 0 0.01261699841246222 0.010080116779023556 0 0.013572997441576669 -0.0032576445658186915 0 0.015073609072964409 -0.0036079162818799357 0 0.014780069439507769 -0.0044931566299274868 0 0.015567153180182636 0.0047220259088469651 0 0.013706556076918402 0.0094047590701815346 0 0.013446734859375468 0.0033510801726660561 0 0.015567153180182636 0.0047220259088469651 0 0.013398856027948179 0.01043995058629793 0 0.014469670180795971 0.0094631349079218382 0 0.013454469919064899 0.009286142779914389 0 0.015073609072964409 -0.0036079162818799357 0 0.014780069439507769 -0.0044931566299274868 0 0.016733864937711777 -0.0041211935968060998 0 0.014773700100873841 0.0096696243264118246 0 0.014135833225222083 0.0088292167973530542 0 0.016358550035390825 0.0081199432607209215 0 0.013015082464218999 0.0094720102342321366 0 0.019583268201529141 0.0065110562028424428 0 0.015567153180182636 0.0047220259088469651 0 0.019583268201529141 0.0065110562028424428 0 0.01377801065816163 0.0093602885623934005 0 0.014298779324544196 0.0089611985286258584 0 0.014901381323256899 0.0090360723033688847 0 0.01377801065816163 0.0093602885623934005 0 0.013770364287538524 0.0088154122883254901 0 0.014298779324544196 0.0089611985286258584 0 0.013162258745617134 0.0089943468964051448 0 0.012630780924124558 0.0094752797796243283 0 0.01377801065816163 0.0093602885623934005 0 0.012630780924124558 0.0094752797796243283 0 0.013454469919064899 0.009286142779914389 0 0.014135833225222083 0.0088292167973530542 0 0.014773700100873841 0.0096696243264118246 0 0.013454469919064899 0.009286142779914389 0 0.014135833225222083 0.0088292167973530542 0 0.013132865837544075 0.0093134775437675107 0 0.013015082464218999 0.0094720102342321366 0 0.013162258745617134 0.0089943468964051448 0 0.01377801065816163 0.0093602885623934005 0 0.013770364287538524 0.0088154122883254901 0 0.013162258745617134 0.0089943468964051448 0 0.013770364287538524 0.0088154122883254901 0 0.013384870608517979 0.0086132853728831948 0 0.013770364287538524 0.0088154122883254901 0 0.013714816364996848 0.0084252904853364848 0 0.013384870608517979 0.0086132853728831948 0 0.013770364287538524 0.0088154122883254901 0 0.013714816364996848 0.0084252904853364848 0 0.014186048303871872 0.0084523106106244618 0 0.013714816364996848 0.0084252904853364848 0 0.013384870608517979 0.0086132853728831948 0 0.013447233314626661 0.0082382542368209695 0 0.015324205133066161 0.0095183737805783954 0 0.017033000711734622 0.011063288653866096 0 0.016791108008633742 0.0086085253928334503 0 0.014553060657898832 0.0091182126942972123 0 0.019583268201529141 0.0065110562028424428 0 0.014298779324544196 0.0089611985286258584 0 0.014186048303871872 0.0084523106106244618 0 0.014901381323256899 0.0090360723033688847 0 0.013770364287538524 0.0088154122883254901 0 0.014298779324544196 0.0089611985286258584 0 0.014186048303871872 0.0084523106106244618 0 0.015462933774446984 0.0080256793389218237 0 0.014568115694999571 0.0082679310255080601 0 0.016145785969445769 0.0085782076579147253 0 0.015324205133066161 0.0095183737805783954 0 0.014568115694999571 0.0082679310255080601 0 0.016791108008633742 0.0086085253928334503 0 0.014999262034366511 0.0083322867299466946 0 0.015765032013096605 0.0085286290897438888 0 0.015462933774446984 0.0080256793389218237 0 0.014568115694999571 0.0082679310255080601 0 0.014618627085581945 0.0076914043294582972 0 0.013384870608517979 0.0086132853728831948 0 0.013447233314626661 0.0082382542368209695 0 0.013018592464641642 0.0082006384269816164 0 0.013714816364996848 0.0084252904853364848 0 0.013447233314626661 0.0082382542368209695 0 0.013731520433618831 0.0079941150045757629 0 0.015324205133066161 0.0095183737805783954 0 0.014568115694999571 0.0082679310255080601 0 0.013731520433618831 0.0079941150045757629 0 0.013714816364996848 0.0084252904853364848 0 0.014186048303871872 0.0084523106106244618 0 0.013731520433618831 0.0079941150045757629 0 0.014553060657898832 0.0091182126942972123 0 0.013845768922364922 0.0080775710643752816 0 0.014568115694999571 0.0082679310255080601 0 0.013893144212142111 0.0076123102298250051 0 0.014618627085581945 0.0076914043294582972 0 0.014568115694999571 0.0082679310255080601 0 0.013731520433618831 0.0079941150045757629 0 0.013893144212142111 0.0076123102298250051 0 0.013731520433618831 0.0079941150045757629 0 0.013400566749698806 0.0079127094300452637 0 0.013893144212142111 0.0076123102298250051 0 0.013447233314626661 0.0082382542368209695 0 0.013731520433618831 0.0079941150045757629 0 0.013400566749698806 0.0079127094300452637 0 0.011521915425598685 0.0097514451581667185 0 0.013569418777240893 0.0097120669139693552 0 0.013400566749698806 0.0079127094300452637 0 0.013018592464641642 0.0082006384269816164 0 0.012989519146672485 0.0073591714811342048 0 0.013018592464641642 0.0082006384269816164 0 0.012412829474520539 0.0084996183904396151 0 0.012989519146672485 0.0073591714811342048 0 0.0110131840934655 0.011216903897119513 0 0.010975660758599428 0.010737578935424655 0 0.011381189414991616 0.01064396832213238 0 0.013447233314626661 0.0082382542368209695 0 0.013400566749698806 0.0079127094300452637 0 0.013018592464641642 0.0082006384269816164 0 0.010827731323149962 0.010989747538752162 0 0.0110131840934655 0.011216903897119513 0 0.010695828144554232 0.011159628135643758 0 0.010827731323149962 0.010989747538752162 0 0.0110131840934655 0.011216903897119513 0 0.010975660758599428 0.010737578935424655 0 0.010827731323149962 0.010989747538752162 0 0.010975660758599428 0.010737578935424655 0 0.010633686818843361 0.010834390217622688 0 0.0110131840934655 0.011216903897119513 0 0.010695828144554232 0.011159628135643758 0 0.010728349164102978 0.01139523744030003 0 0.012317063059043943 0.0092255732604950499 0 0.012656120380473848 0.0089886172158374789 0 0.012412829474520539 0.0084996183904396151 0 0.012656120380473848 0.0089886172158374789 0 0.012412829474520539 0.0084996183904396151 0 0.012883277679682614 0.0086369924184895586 0 0.013162258745617134 0.0089943468964051448 0 0.013384870608517979 0.0086132853728831948 0 0.012883277679682614 0.0086369924184895586 0 0.013162258745617134 0.0089943468964051448 0 0.012656120380473848 0.0089886172158374789 0 0.012883277679682614 0.0086369924184895586 0 0.013384870608517979 0.0086132853728831948 0 0.013018592464641642 0.0082006384269816164 0 0.012883277679682614 0.0086369924184895586 0 0.013018592464641642 0.0082006384269816164 0 0.012412829474520539 0.0084996183904396151 0 0.012883277679682614 0.0086369924184895586 0 0.030686942522374503 0.0022460611298257449 0 0.030756608280177511 0.0020884076674406375 0 0.030761721613471092 0.0023058913151380194 0 0.030538616532555126 0.0023587200934762822 0 0.030682789584466918 0.0024380598577062079 0 0.030686942522374503 0.0022460611298257449 0 0.030682789584466918 0.0024380598577062079 0 0.030686942522374503 0.0022460611298257449 0 0.030761721613471092 0.0023058913151380194 0 0.030499497379985557 0.0019541098921882468 0 0.030686942522374503 0.0022460611298257449 0 0.030756608280177511 0.0020884076674406375 0 0.030499497379985557 0.0019541098921882468 0 0.030604050842863162 0.0016332187263107022 0 0.030756608280177511 0.0020884076674406375 0 0.030814253924749985 0.0020345282923946236 0 0.030604050842863162 0.0016332187263107022 0 0.030756608280177511 0.0020884076674406375 0 0.030756608280177511 0.0020884076674406375 0 0.030774184307769601 0.0021254643693696743 0 0.030810346615294019 0.0021534308348828712 0 0.030814253924749985 0.0020345282923946236 0 0.030774184307769601 0.0021254643693696743 0 0.030515148543577154 0.0022407036782739957 0 0.030814253924749985 0.0020345282923946236 0 0.030756608280177511 0.0020884076674406375 0 0.030774184307769601 0.0021254643693696743 0 0.030756608280177511 0.0020884076674406375 0 0.030810346615294019 0.0021534308348828712 0 0.030761721613471092 0.0023058913151380194 0 0.030810346615294019 0.0021534308348828712 0 0.030761721613471092 0.0023058913151380194 0 0.030918838876654715 0.0023929188549269721 0 0.030702596079499305 0.0018040727500753804 0 0.029084799277710755 0.0036739844933707856 0 0.030511163897818477 0.0019701279348526427 0 0.029785893962162233 0.0018253194334226866 0 0.030668757469313856 0.0016311462274186761 0 0.030810346615294019 0.0021534308348828712 0 0.030511163897818477 0.0019701279348526427 0 0.030668757469313856 0.0016311462274186761 0 0.030511163897818477 0.0019701279348526427 0 0.030515148543577154 0.0022407036782739957 0 0.029785893962162233 0.0018253194334226866 0 0.030810346615294019 0.0021534308348828712 0 0.030511163897818477 0.0019701279348526427 0 0.030515148543577154 0.0022407036782739957 0 0.023709408707173085 0.0014609452319335856 0 0.017760893725596669 -0.00089237301521277864 0 0.022267959685188049 0.004489768182778694 0 0.020850420142409603 0.0032483407399925284 0 0.020072932669849178 0.0039568241411953335 0 0.023709408707173085 0.0014609452319335856 0 0.02662289492053568 0.0027625861099422637 0 0.030774184307769601 0.0021254643693696743 0 0.030810346615294019 0.0021534308348828712 0 0.030515148543577154 0.0022407036782739957 0 0.015567153180182636 0.0047220259088469651 0 0.017760893725596669 -0.00089237301521277864 0 0.020850420142409603 0.0032483407399925284 0 0.020072932669849178 0.0039568241411953335 0 0.019503415316500735 0.0029190771861092191 0 0.017883632814907974 0.003389890203497046 0 0.020072932669849178 0.0039568241411953335 0 0.019503415316500735 0.0029190771861092191 0 0.02662289492053568 0.0027625861099422637 0 0.019583268201529141 0.0065110562028424428 0 0.020850420142409603 0.0032483407399925284 0 0.019503415316500735 0.0029190771861092191 0 0.019374068413307109 0.0019225340130810456 0 0.017883632814907974 0.003389890203497046 0 0.019503415316500735 0.0029190771861092191 0 0.019374068413307109 0.0019225340130810456 0 0.019583268201529141 0.0065110562028424428 0 0.021296430257877374 0.0073892322008916062 0 0.017033000711734622 0.011063288653866096 0 0.016791108008633742 0.0086085253928334503 0 0.019060851506446815 0.0090287858646809077 0 0.021116739461679756 0.0070441183489415521 0 0.023832784149027633 0.0043323223191974397 0 0.023040711929920448 0.0058355409220147147 0 0.015765032013096605 0.0085286290897438888 0 0.021296430257877374 0.0073892322008916062 0 0.016145785969445769 0.0085782076579147253 0 0.016494070065198711 0.0083908797287712035 0 0.016378660499090657 0.0083258326885846199 0 0.015462933774446984 0.0080256793389218237 0 0.016145785969445769 0.0085782076579147253 0 0.016409101486339298 0.008170110399355562 0 0.016145785969445769 0.0085782076579147253 0 0.016409101486339298 0.008170110399355562 0 0.016378660499090657 0.0083258326885846199 0 0.016409101486339298 0.008170110399355562 0 0.016378660499090657 0.0083258326885846199 0 0.016181236224664532 0.0083562423153000463 0 0.016378660499090657 0.0083258326885846199 0 0.01650696768313625 0.0083576634846900776 0 0.016181236224664532 0.0083562423153000463 0 0.023726924004524783 0.0082772995589224345 0 0.025409779296868946 0.0065937272162681802 0 0.023058359522144339 0.0062387243084287758 0 0.023032998791509177 0.006828823859076699 0 0.021384870582262773 0.008101046710439045 0 0.016494070065198711 0.0083908797287712035 0 0.016378660499090657 0.0083258326885846199 0 0.01650696768313625 0.0083576634846900776 0 0.026305669969794904 0.0056504842385641076 0 0.02634550450873907 0.0057691174706805586 0 0.027126953069317322 0.0048374652292116627 0 0.023032998791509177 0.006828823859076699 0 0.024177303318306854 0.0065653609498616435 0 0.024495885010281569 0.0060400601086570702 0 0.023161774060342484 0.0073905803476518386 0 0.022600157572219171 0.0056569626829133853 0 0.021296430257877374 0.0073892322008916062 0 0.024177303318306854 0.0065653609498616435 0 0.021296430257877374 0.0073892322008916062 0 0.023032998791509177 0.006828823859076699 0 0.024177303318306854 0.0065653609498616435 0 0.029084799277710755 0.0036739844933707856 0 0.02420479434907306 0.0044060377566949773 0 0.023040711929920448 0.0058355409220147147 0 0.024819320830610506 0.0062484849610761036 0 0.021116739461679756 0.0070441183489415521 0 0.023040711929920448 0.0058355409220147147 0 0.024819320830610506 0.0062484849610761036 0 0.019583268201529141 0.0065110562028424428 0 0.029084799277710755 0.0036739844933707856 0 0.023832784149027633 0.0043323223191974397 0 0.02420479434907306 0.0044060377566949773 0 0.023040711929920448 0.0058355409220147147 0 0.024177303318306854 0.0065653609498616435 0 0.029785298497630449 0.0040844945444846606 0 0.029084799277710755 0.0036739844933707856 0 0.029785298497630449 0.0040844945444846606 0 0.026613000403956338 0.0043439180209729807 0 0.027003614551980547 0.0055090777350121781 0 0.029420293679700487 0.0048925559354555193 0 0.030761721613471092 0.0023058913151380194 0 0.030918838876654715 0.0023929188549269721 0 0.030710724461807292 0.0025527191906136097 0 0.02634550450873907 0.0057691174706805586 0 0.027926577843345908 0.0060516239469029769 0 0.027126953069317322 0.0048374652292116627 0 0.023032998791509177 0.006828823859076699 0 0.027547807687055486 0.0062817875452795997 0 0.028298982618305251 0.0050192921831170379 0 0.027926577843345908 0.0060516239469029769 0 0.027126953069317322 0.0048374652292116627 0 0.030750332014233481 0.0029791839526001566 0 0.029785298497630449 0.0040844945444846606 0 0.030682789584466918 0.0024380598577062079 0 0.030761721613471092 0.0023058913151380194 0 0.030710724461807292 0.0025527191906136097 0 0.030618030780953216 0.0026941809653402075 0 0.030682789584466918 0.0024380598577062079 0 0.030710724461807292 0.0025527191906136097 0 0.028563041873525888 0.0062495226152730638 0 0.027964293359741575 0.0066437769352985154 0 0.028247719741527667 0.0065424433935529691 0 0.027964293359741575 0.0066437769352985154 0 0.028247719741527667 0.0065424433935529691 0 0.027755393247896165 0.0067807055296750414 0 0.028407973670470411 0.006656933752588347 0 0.028247719741527667 0.0065424433935529691 0 0.027884406989019169 0.006849590370431622 0 0.028407973670470411 0.006656933752588347 0 0.027884406989019169 0.006849590370431622 0 0.027764113398805402 0.0069892709957605206 0 0.028288098596240895 0.0057875914683228639 0 0.027547807687055486 0.0062817875452795997 0 0.028247719741527667 0.0065424433935529691 0 0.027884406989019169 0.006849590370431622 0 0.027755393247896165 0.0067807055296750414 0 0.027884406989019169 0.006849590370431622 0 0.027576959790411092 0.0069201433992558299 0 0.027755393247896165 0.0067807055296750414 0 0.027884406989019169 0.006849590370431622 0 0.027681610852783395 0.0070426856619376392 0 0.027576959790411092 0.0069201433992558299 0 0.027570032299604537 0.0065871860928161706 0 0.027547807687055486 0.0062817875452795997 0 0.027576959790411092 0.0069201433992558299 0 0.027755393247896165 0.0067807055296750414 0 0.027443430384640661 0.0068803762988025059 0 0.027755393247896165 0.0067807055296750414 0 0.027418154159190227 0.0068306760550126367 0 0.027443430384640661 0.0068803762988025059 0 0.027964293359741575 0.0066437769352985154 0 0.027755393247896165 0.0067807055296750414 0 0.027418154159190227 0.0068306760550126367 0 0.027964293359741575 0.0066437769352985154 0 0.027418154159190227 0.0068306760550126367 0 0.02717370031141296 0.0069054189384405284 0 0.027418154159190227 0.0068306760550126367 0 0.027443430384640661 0.0068803762988025059 0 0.027251316277385973 0.0070427959539203534 0 0.027443430384640661 0.0068803762988025059 0 0.027326531716924264 0.0069721454998429265 0 0.027251316277385973 0.0070427959539203534 0 0.027681610852783395 0.0070426856619376392 0 0.027576959790411092 0.0069201433992558299 0 0.027326531716924264 0.0069721454998429265 0 0.027547807687055486 0.0062817875452795997 0 0.021384870582262773 0.008101046710439045 0 0.027576959790411092 0.0069201433992558299 0 0.027443430384640661 0.0068803762988025059 0 0.027326531716924264 0.0069721454998429265 0 0.016409101486339298 0.008170110399355562 0 0.016181236224664532 0.0083562423153000463 0 0.016808358108842916 0.0089871714173515686 0 0.018054841877477714 0.0097521665620370398 0 0.018227645195256867 0.009790783261954112 0 0.018158236915649634 0.010108864823757469 0 0.021384870582262773 0.008101046710439045 0 0.016942197629395611 0.009255275795482628 0 0.018227645195256867 0.009790783261954112 0 0.018158236915649634 0.010108864823757469 0 0.018298664600695357 0.009991904873103372 0 0.021384870582262773 0.008101046710439045 0 0.022869962964508175 0.0086714441621362666 0 0.022869962964508175 0.0086714441621362666 0 0.022552312058198375 0.0092077193447701773 0 0.018158236915649634 0.010108864823757469 0 0.018352436959726427 0.010457982378826976 0 0.018463301328919695 0.01025105863942046 0 0.027251316277385973 0.0070427959539203534 0 0.026887623648715098 0.008104949686491383 0 0.026930260540237772 0.007760603477476734 0 0.026887623648715098 0.008104949686491383 0 0.026930260540237772 0.007760603477476734 0 0.02652016784000211 0.0084925347095704071 0 0.026930260540237772 0.007760603477476734 0 0.026368362639188667 0.0083434769402232194 0 0.02652016784000211 0.0084925347095704071 0 0.027418154159190227 0.0068306760550126367 0 0.027251316277385973 0.0070427959539203534 0 0.02717370031141296 0.0069054189384405284 0 0.027251316277385973 0.0070427959539203534 0 0.026930260540237772 0.007760603477476734 0 0.02717370031141296 0.0069054189384405284 0 0.027964293359741575 0.0066437769352985154 0 0.02717370031141296 0.0069054189384405284 0 0.028298077851656715 0.0064013874767439556 0 0.027199243820622315 0.0069727107495340971 0 0.027467896738711226 0.0072503416920269822 0 0.02717370031141296 0.0069054189384405284 0 0.028298077851656715 0.0064013874767439556 0 0.028542933425651739 0.0060709910307177864 0 0.026930260540237772 0.007760603477476734 0 0.02717370031141296 0.0069054189384405284 0 0.026368362639188667 0.0083434769402232194 0 0.028695709822832583 0.0061701583447679315 0 0.028542933425651739 0.0060709910307177864 0 0.028733593194625828 0.006393520864519016 0 0.028695709822832583 0.0061701583447679315 0 0.028298077851656715 0.0064013874767439556 0 0.028542933425651739 0.0060709910307177864 0 0.028563041873525888 0.0062495226152730638 0 0.027964293359741575 0.0066437769352985154 0 0.028298077851656715 0.0064013874767439556 0 0.028563041873525888 0.0062495226152730638 0 0.028695709822832583 0.0061701583447679315 0 0.028298077851656715 0.0064013874767439556 0 0.018746220230765494 0.010053883424369463 0 0.018633626919137853 0.010107122963352574 0 0.018725065995779729 0.01043694006623931 0 0.018746220230765494 0.010053883424369463 0 0.01910961889802815 0.010237283472809311 0 0.018725065995779729 0.01043694006623931 0 0.017334462016291637 0.0107108329228289 0 0.019133213635447129 0.010351713976011008 0 0.017146569271944252 0.010381513916133707 0 0.017334462016291637 0.0107108329228289 0 0.015363762207650029 0.010605409320055749 0 0.014918244846481982 0.010450162098181557 0 0.015096060980541975 0.010703457573467296 0 0.014918244846481982 0.010450162098181557 0 0.015096060980541975 0.010703457573467296 0 0.014883715941573105 0.010740437422125612 0 0.015096060980541975 0.010703457573467296 0 0.015058995841699249 0.01094177804285882 0 0.015306976520425231 0.010750141530154625 0 0.014883715941573105 0.010740437422125612 0 0.015058995841699249 0.01094177804285882 0 0.014701556841279297 0.011023518928013934 0 0.013017476517485178 0.010837527842794526 0 0.012458438802176347 0.0117255404929856 0 0.015096060980541975 0.010703457573467296 0 0.014883715941573105 0.010740437422125612 0 0.015058995841699249 0.01094177804285882 0 0.015058995841699249 0.01094177804285882 0 0.015306976520425231 0.010750141530154625 0 0.015415303894393788 0.010854738633749889 0 0.013017476517485178 0.010837527842794526 0 0.013569418777240893 0.0097120669139693552 0 0.015363762207650029 0.010605409320055749 0 0.015096060980541975 0.010703457573467296 0 0.015306976520425231 0.010750141530154625 0 0.015363762207650029 0.010605409320055749 0 0.015306976520425231 0.010750141530154625 0 0.015460510698568181 0.010766876476124485 0 0.015306976520425231 0.010750141530154625 0 0.015460510698568181 0.010766876476124485 0 0.015415303894393788 0.010854738633749889 0 0.013859740385062718 0.0099272329832597143 0 0.013569418777240893 0.0097120669139693552 0 0.012989519146672485 0.0073591714811342048 0 0.013893144212142111 0.0076123102298250051 0 0.014331889500685301 0.0069426714305667967 0 0.015460510698568181 0.010766876476124485 0 0.01541639613354669 0.010848970666991456 0 0.015818121771771807 0.01074849683588742 0 0.015363762207650029 0.010605409320055749 0 0.015460510698568181 0.010766876476124485 0 0.015818121771771807 0.01074849683588742 0 0.017146569271944252 0.010381513916133707 0 0.016448763457818625 0.0093472863281743798 0 0.013569418777240893 0.0097120669139693552 0 0.016448763457818625 0.0093472863281743798 0 0.013400566749698806 0.0079127094300452637 0 0.012989519146672485 0.0073591714811342048 0 0.013893144212142111 0.0076123102298250051 0 0.013893144212142111 0.0076123102298250051 0 0.014331889500685301 0.0069426714305667967 0 0.014618627085581945 0.0076914043294582972 0 0.018526228157978848 0.0097297661005550738 0 0.01846998079915069 0.0098703556504814872 0 0.018633626919137853 0.010107122963352574 0 0.018519089789732553 0.0096900310106270149 0 0.018526228157978848 0.0097297661005550738 0 0.01846998079915069 0.0098703556504814872 0 0.016787864496694279 0.0093131499754495733 0 0.016448763457818625 0.0093472863281743798 0 0.018227645195256867 0.009790783261954112 0 0.018337286352793088 0.0097022384073342446 0 0.018327218910302211 0.0098657288411166857 0 0.016409101486339298 0.008170110399355562 0 0.016808358108842916 0.0089871714173515686 0 0.018337286352793088 0.0097022384073342446 0 0.016409101486339298 0.008170110399355562 0 0.018519089789732553 0.0096900310106270149 0 0.018337286352793088 0.0097022384073342446 0 0.015462933774446984 0.0080256793389218237 0 0.016409101486339298 0.008170110399355562 0 0.014331889500685301 0.0069426714305667967 0 0.016409101486339298 0.008170110399355562 0 0.018519089789732553 0.0096900310106270149 0 0.018718830759937549 0.0096815064687544913 0 0.016942197629395611 0.009255275795482628 0 0.018486678774993041 0.0096577498060234669 0 0.016316598209586784 0.0078921798633312962 0 0.016448763457818625 0.0093472863281743798 0 0.015462933774446984 0.0080256793389218237 0 0.014331889500685301 0.0069426714305667967 0 0.014618627085581945 0.0076914043294582972 0 0.018519089789732553 0.0096900310106270149 0 0.01846998079915069 0.0098703556504814872 0 0.018337286352793088 0.0097022384073342446 0 0.01846998079915069 0.0098703556504814872 0 0.018337286352793088 0.0097022384073342446 0 0.018327218910302211 0.0098657288411166857 0 0.018227645195256867 0.009790783261954112 0 0.018327218910302211 0.0098657288411166857 0 0.018298664600695357 0.009991904873103372 0 0.018158236915649634 0.010108864823757469 0 0.018298664600695357 0.009991904873103372 0 0.018463301328919695 0.01025105863942046 0 0.018327218910302211 0.0098657288411166857 0 0.018298664600695357 0.009991904873103372 0 0.018446248910593158 0.010035402291609515 0 0.01846998079915069 0.0098703556504814872 0 0.018327218910302211 0.0098657288411166857 0 0.018446248910593158 0.010035402291609515 0 0.018446248910593158 0.010035402291609515 0 0.018546753058471848 0.010180331270812843 0 0.018463301328919695 0.01025105863942046 0 0.018298664600695357 0.009991904873103372 0 0.018446248910593158 0.010035402291609515 0 0.018463301328919695 0.01025105863942046 0 0.018746220230765494 0.010053883424369463 0 0.018526228157978848 0.0097297661005550738 0 0.018633626919137853 0.010107122963352574 0 0.018633626919137853 0.010107122963352574 0 0.018546753058471848 0.010180331270812843 0 0.018660007104500238 0.010341827348013652 0 0.01846998079915069 0.0098703556504814872 0 0.018446248910593158 0.010035402291609515 0 0.018633626919137853 0.010107122963352574 0 0.018446248910593158 0.010035402291609515 0 0.018633626919137853 0.010107122963352574 0 0.018546753058471848 0.010180331270812843 0 0.018546753058471848 0.010180331270812843 0 0.018660007104500238 0.010341827348013652 0 0.018463301328919695 0.01025105863942046 0 0.018660007104500238 0.010341827348013652 0 0.018463301328919695 0.01025105863942046 0 0.018681112705497768 0.010444684060325926 0 0.018352436959726427 0.010457982378826976 0 0.018463301328919695 0.01025105863942046 0 0.018681112705497768 0.010444684060325926 0 0.018681112705497768 0.010444684060325926 0 0.018636108406361606 0.010320796530171214 0 0.018752261200234537 0.010330545693349498 0 0.018660007104500238 0.010341827348013652 0 0.018681112705497768 0.010444684060325926 0 0.018636108406361606 0.010320796530171214 0 0.018633626919137853 0.010107122963352574 0 0.018660007104500238 0.010341827348013652 0 0.018725065995779729 0.01043694006623931 0 0.018660007104500238 0.010341827348013652 0 0.018636108406361606 0.010320796530171214 0 0.018725065995779729 0.01043694006623931 0 0.018115132464975366 0.011107167858040917 0 0.018311818230938831 0.010408693729298747 0 0.017766724359711071 0.010643162231292597 0 0.018636108406361606 0.010320796530171214 0 0.018725065995779729 0.01043694006623931 0 0.018311818230938831 0.010408693729298747 0 0.018115132464975366 0.011107167858040917 0 0.018725065995779729 0.01043694006623931 0 0.018311818230938831 0.010408693729298747 0 0.01840269534710353 0.010216617631933451 0 0.017775823460988268 0.0099280195280390497 0 0.018752261200234537 0.010330545693349498 0 0.018636108406361606 0.010320796530171214 0 0.01840269534710353 0.010216617631933451 0 0.018752261200234537 0.010330545693349498 0 0.018311818230938831 0.010408693729298747 0 0.01840269534710353 0.010216617631933451 0 0.017775823460988268 0.0099280195280390497 0 0.018636108406361606 0.010320796530171214 0 0.018311818230938831 0.010408693729298747 0 0.01840269534710353 0.010216617631933451 0 0.017934521053706534 0.012779200361590278 0 0.01708849685513841 0.012662801677812028 0 0.01694282204154765 0.013107874526149768 0 0.017934521053706534 0.012779200361590278 0 0.01708849685513841 0.012662801677812028 0 0.017528606651574963 0.012367955078733167 0 0.017934521053706534 0.012779200361590278 0 0.01694282204154765 0.013107874526149768 0 0.01704217132783243 0.013665358382254337 0 0.016069896818118951 0.011059283500661269 0 0.017130947204571621 0.010491641504191336 0 0.016028308484340628 0.011819841956406627 0 0.017873602042876097 0.011485497816410326 0 0.015826343539625302 0.011463457521845053 0 0.017775823460988268 0.0099280195280390497 0 0.015796330577966183 0.010564711276818392 0 0.016300229929367669 0.010576656438248027 0 0.015522907787181531 0.010601529975419136 0 0.016069896818118951 0.011059283500661269 0 0.01533101471765609 0.011540052863753173 0 0.015522907787181531 0.010601529975419136 0 0.016069896818118951 0.011059283500661269 0 0.016300229929367669 0.010576656438248027 0 0.015826343539625302 0.011463457521845053 0 0.016088791874740441 0.011170391004611544 0 0.016069896818118951 0.011059283500661269 0 0.016300229929367669 0.010576656438248027 0 0.017130947204571621 0.010491641504191336 0 0.017766724359711071 0.010643162231292597 0 0.017130947204571621 0.010491641504191336 0 0.017387863705845552 0.011037244324677323 0 0.017775823460988268 0.0099280195280390497 0 0.016300229929367669 0.010576656438248027 0 0.017130947204571621 0.010491641504191336 0 0.018311818230938831 0.010408693729298747 0 0.017775823460988268 0.0099280195280390497 0 0.017766724359711071 0.010643162231292597 0 0.017775823460988268 0.0099280195280390497 0 0.017766724359711071 0.010643162231292597 0 0.017130947204571621 0.010491641504191336 0 0.01288157891818417 0.013472997270922231 0 0.012303307871072941 0.013617262143245734 0 0.012516837688451684 0.01342747634169868 0 0.012701517856638669 0.013350367384139571 0 0.01288157891818417 0.013472997270922231 0 0.012899716039261419 0.013253768185701899 0 0.012701517856638669 0.013350367384139571 0 0.012516837688451684 0.01342747634169868 0 0.012480677134574078 0.01324205563709842 0 0.012701517856638669 0.013350367384139571 0 0.01288157891818417 0.013472997270922231 0 0.012516837688451684 0.01342747634169868 0 0.01708849685513841 0.012662801677812028 0 0.016043938744477994 0.012974234205723009 0 0.016930749865760677 0.011968155258286178 0 0.01708849685513841 0.012662801677812028 0 0.01694282204154765 0.013107874526149768 0 0.016043938744477994 0.012974234205723009 0 0.01694282204154765 0.013107874526149768 0 0.016043938744477994 0.012974234205723009 0 0.016536160518078016 0.013439563504231087 0 0.01704217132783243 0.013665358382254337 0 0.016536160518078016 0.013439563504231087 0 0.016107861266852489 0.013896826715639774 0 0.015112963708372128 0.010684771142657323 0 0.013433791034853355 0.011074402360263115 0 0.014063867226043828 0.011660086055059613 0 0.016043938744477994 0.012974234205723009 0 0.016536160518078016 0.013439563504231087 0 0.016107861266852489 0.013896826715639774 0 0.015826343539625302 0.011463457521845053 0 0.014918496262227004 0.012482931129799719 0 0.01694282204154765 0.013107874526149768 0 0.01704217132783243 0.013665358382254337 0 0.016536160518078016 0.013439563504231087 0 0.015826343539625302 0.011463457521845053 0 0.014294552229525546 0.011557074385974224 0 0.014586129781482639 0.013333706526329101 0 0.012931151871647934 0.013232738737315949 0 0.016043938744477994 0.012974234205723009 0 0.016107861266852489 0.013896826715639774 0 0.015122427460744702 0.01410437869525075 0 0.01288157891818417 0.013472997270922231 0 0.012285480195331367 0.013949048870405057 0 0.012303307871072941 0.013617262143245734 0 0.014918496262227004 0.012482931129799719 0 0.012931151871647934 0.013232738737315949 0 0.013433791034853355 0.011074402360263115 0 0.012526308559230256 0.011785523275530925 0 0.011907103496395326 0.011641527632096584 0 0.012257054812273816 0.012258385841985265 0 0.012526308559230256 0.011785523275530925 0 0.012993343337003979 0.011847257293411706 0 0.012257054812273816 0.012258385841985265 0 0.012993343337003979 0.011847257293411706 0 0.01275376987158614 0.012414595533160388 0 0.012257054812273816 0.012258385841985265 0 0.012526308559230256 0.011785523275530925 0 0.012063360975843301 0.012038566748009299 0 0.013433791034853355 0.011074402360263115 0 0.012526308559230256 0.011785523275530925 0 0.012993343337003979 0.011847257293411706 0 0.012993343337003979 0.011847257293411706 0 0.01275376987158614 0.012414595533160388 0 0.013385230245451593 0.012241474002426041 0 0.012993343337003979 0.011847257293411706 0 0.013385230245451593 0.012241474002426041 0 0.014063867226043828 0.011660086055059613 0 0.013385230245451593 0.012241474002426041 0 0.014063867226043828 0.011660086055059613 0 0.013987151753615659 0.012537586845625984 0 0.013433791034853355 0.011074402360263115 0 0.012993343337003979 0.011847257293411706 0 0.014063867226043828 0.011660086055059613 0 0.015522907787181531 0.010601529975419136 0 0.014063867226043828 0.011660086055059613 0 0.01533101471765609 0.011540052863753173 0 0.014063867226043828 0.011660086055059613 0 0.015032288655392398 0.012340491474074103 0 0.01533101471765609 0.011540052863753173 0 0.014063867226043828 0.011660086055059613 0 0.015032288655392398 0.012340491474074103 0 0.013987151753615659 0.012537586845625984 0 0.015032288655392398 0.012340491474074103 0 0.014302253737704539 0.013457058038103193 0 0.013987151753615659 0.012537586845625984 0 0.014302253737704539 0.013457058038103193 0 0.013987151753615659 0.012537586845625984 0 0.013274935517617471 0.012945041707669252 0 0.013385230245451593 0.012241474002426041 0 0.013987151753615659 0.012537586845625984 0 0.013274935517617471 0.012945041707669252 0 0.013274935517617471 0.012945041707669252 0 0.011839831067328197 0.013364316029735857 0 0.012011318764492651 0.012997543961276376 0 0.014302253737704539 0.013457058038103193 0 0.013274935517617471 0.012945041707669252 0 0.011839831067328197 0.013364316029735857 0 0.01275376987158614 0.012414595533160388 0 0.013385230245451593 0.012241474002426041 0 0.013274935517617471 0.012945041707669252 0 0.01275376987158614 0.012414595533160388 0 0.013274935517617471 0.012945041707669252 0 0.012619241235677507 0.012782585624411672 0 0.013274935517617471 0.012945041707669252 0 0.012619241235677507 0.012782585624411672 0 0.012011318764492651 0.012997543961276376 0 0.012619241235677507 0.012782585624411672 0 0.012120062626749402 0.012727704943496409 0 0.012011318764492651 0.012997543961276376 0 0.01275376987158614 0.012414595533160388 0 0.012619241235677507 0.012782585624411672 0 0.012120062626749402 0.012727704943496409 0 0.012257054812273816 0.012258385841985265 0 0.01275376987158614 0.012414595533160388 0 0.012120062626749402 0.012727704943496409 0 0.017412834260341264 0.010726796915659999 0 0.015751061251824294 0.011760805475458831 0 0.017130947204571621 0.010491641504191336 0 0.017482458550265013 0.011602097986483441 0 0.017387863705845552 0.011037244324677323 0 0.014918244846481982 0.010450162098181557 0 0.014883715941573105 0.010740437422125612 0 0.014643720265408403 0.010588276929180808 0 0.017334462016291637 0.0107108329228289 0 0.015751061251824294 0.011760805475458831 0 0.017334462016291637 0.0107108329228289 0 0.017715805036503458 0.011087181252943671 0 0.018067766169179902 0.011283416550504367 0 0.017482458550265013 0.011602097986483441 0 0.017387863705845552 0.011037244324677323 0 0.018115132464975366 0.011107167858040917 0 0.017766724359711071 0.010643162231292597 0 0.017387863705845552 0.011037244324677323 0 0.017130947204571621 0.010491641504191336 0 0.017224443289534791 0.012405933105457212 0 0.016028308484340628 0.011819841956406627 0 0.015032288655392398 0.012340491474074103 0 0.017224443289534791 0.012405933105457212 0 0.016028308484340628 0.011819841956406627 0 0.015032288655392398 0.012340491474074103 0 0.016028308484340628 0.011819841956406627 0 0.01533101471765609 0.011540052863753173 0 0.016069896818118951 0.011059283500661269 0 0.016028308484340628 0.011819841956406627 0 0.01533101471765609 0.011540052863753173 0 0.015032288655392398 0.012340491474074103 0 0.014302253737704539 0.013457058038103193 0 0.017224443289534791 0.012405933105457212 0 0.013479873078020272 0.013182007708549373 0 0.015751061251824294 0.011760805475458831 0 0.012775696622742262 0.01280616560647856 0 0.013844558463606193 0.012246466855008995 0 0.01342095184805654 0.012751464481292883 0 0.01342095184805654 0.012751464481292883 0 0.013272753235018454 0.012976996157984018 0 0.013972230740770943 0.013062440960143404 0 0.012775696622742262 0.01280616560647856 0 0.01342095184805654 0.012751464481292883 0 0.013272753235018454 0.012976996157984018 0 0.015751061251824294 0.011760805475458831 0 0.012458438802176347 0.0117255404929856 0 0.014883715941573105 0.010740437422125612 0 0.014643720265408403 0.010588276929180808 0 0.014701556841279297 0.011023518928013934 0 0.013844558463606193 0.012246466855008995 0 0.01342095184805654 0.012751464481292883 0 0.013972230740770943 0.013062440960143404 0 0.010827731323149962 0.010989747538752162 0 0.010633686818843361 0.010834390217622688 0 0.010695828144554232 0.011159628135643758 0 0.010780339907830262 0.011747611516441112 0 0.010737126730123676 0.01162883025510611 0 0.010850608812560216 0.011679619015056856 0 0.012458438802176347 0.0117255404929856 0 0.010724196476249871 0.011261196052538244 0 0.010724196476249871 0.011261196052538244 0 0.010733288181324912 0.011440132648951216 0 0.010737126730123676 0.01162883025510611 0 0.010813472611966159 0.011499160449443711 0 0.010728349164102978 0.01139523744030003 0 0.010737126730123676 0.01162883025510611 0 0.010823678341206941 0.011601127035502767 0 0.010813472611966159 0.011499160449443711 0 0.010737126730123676 0.01162883025510611 0 0.010823678341206941 0.011601127035502767 0 0.010850608812560216 0.011679619015056856 0 0.010873844619287995 0.011594716222114401 0 0.010906535015296474 0.011667244525248267 0 0.010906921013109225 0.011595068408643104 0 0.010823678341206941 0.011601127035502767 0 0.010813472611966159 0.011499160449443711 0 0.010873844619287995 0.011594716222114401 0 0.010823678341206941 0.011601127035502767 0 0.010873844619287995 0.011594716222114401 0 0.010850608812560216 0.011679619015056856 0 0.010873844619287995 0.011594716222114401 0 0.010906535015296474 0.011667244525248267 0 0.010850608812560216 0.011679619015056856 0 0.012458438802176347 0.0117255404929856 0 0.011885611040190418 0.012606511242662089 0 0.010906535015296474 0.011667244525248267 0 0.010850608812560216 0.011679619015056856 0 0.010926621720138464 0.011723466182255603 0 0.010780339907830262 0.011747611516441112 0 0.010850608812560216 0.011679619015056856 0 0.010926621720138464 0.011723466182255603 0 0.013272753235018454 0.012976996157984018 0 0.013972230740770943 0.013062440960143404 0 0.012919143065646302 0.013290290843421364 0 0.012775696622742262 0.01280616560647856 0 0.013272753235018454 0.012976996157984018 0 0.012919143065646302 0.013290290843421364 0 0.011885611040190418 0.012606511242662089 0 0.011466523421945769 0.012635910965966553 0 0.012775696622742262 0.01280616560647856 0 0.012919143065646302 0.013290290843421364 0 0.012361069304105085 0.013240934945799518 0 0.012919143065646302 0.013290290843421364 0 0.012361069304105085 0.013240934945799518 0 0.011926725900269426 0.013513143737612315 0 0.012775696622742262 0.01280616560647856 0 0.012361069304105085 0.013240934945799518 0 0.011839831067328197 0.013364316029735857 0 0.010926621720138464 0.011723466182255603 0 0.010910030353135704 0.011864523481614217 0 0.010925258100655214 0.011806754409087131 0 0.013479873078020272 0.013182007708549373 0 0.012032664090651313 0.013353018620535386 0 0.012361069304105085 0.013240934945799518 0 0.011926725900269426 0.013513143737612315 0 0.011839831067328197 0.013364316029735857 0 0.01093357313869644 0.011808569720295033 0 0.010924755914596608 0.011721774720307556 0 0.010934955586131775 0.011503383561189085 0 0.010925258100655214 0.011806754409087131 0 0.01093357313869644 0.011808569720295033 0 0.010919651602877573 0.011965563482836448 0 0.010910030353135704 0.011864523481614217 0 0.010925258100655214 0.011806754409087131 0 0.010919651602877573 0.011965563482836448 0 0.010925258100655214 0.011806754409087131 0 0.01093357313869644 0.011808569720295033 0 0.010924755914596608 0.011721774720307556 0 0.010926621720138464 0.011723466182255603 0 0.010925258100655214 0.011806754409087131 0 0.010924755914596608 0.011721774720307556 0 0.010906535015296474 0.011667244525248267 0 0.010926621720138464 0.011723466182255603 0 0.010924755914596608 0.011721774720307556 0 0.010906535015296474 0.011667244525248267 0 0.010924755914596608 0.011721774720307556 0 0.010906921013109225 0.011595068408643104 0 0.010906921013109225 0.011595068408643104 0 0.010934955586131775 0.011503383561189085 0 0.010890909841800864 0.011426471117608696 0 0.010924755914596608 0.011721774720307556 0 0.010906921013109225 0.011595068408643104 0 0.010934955586131775 0.011503383561189085 0 0.010934955586131775 0.011503383561189085 0 0.010947752843520578 0.011204639690783049 0 0.010890909841800864 0.011426471117608696 0 0.01093357313869644 0.011808569720295033 0 0.010934955586131775 0.011503383561189085 0 0.010992198237692154 0.011536740648711104 0 0.010975620066848645 0.011220678371847273 0 0.010934955586131775 0.011503383561189085 0 0.010992198237692154 0.011536740648711104 0 0.010975620066848645 0.011220678371847273 0 0.010992198237692154 0.011536740648711104 0 0.011092833089314608 0.011273064549138173 0 0.010975620066848645 0.011220678371847273 0 0.010934955586131775 0.011503383561189085 0 0.010947752843520578 0.011204639690783049 0 0.010995209477097763 0.010870754808331162 0 0.010947752843520578 0.011204639690783049 0 0.010890909841800864 0.011426471117608696 0 0.010995209477097763 0.010870754808331162 0 0.011859126839573535 0.010453318236082925 0 0.011673711262562052 0.0094573852198517466 0 0.010995209477097763 0.010870754808331162 0 0.01068521884886859 0.011413950558965444 0 0.010804940843487546 0.011380446451533533 0 0.010995209477097763 0.010870754808331162 0 0.010804940843487546 0.011380446451533533 0 0.010890909841800864 0.011426471117608696 0 0.010989266797067019 0.010842786484516696 0 0.011223966005599179 0.010459318687031118 0 0.01068521884886859 0.011413950558965444 0 0.010804940843487546 0.011380446451533533 0 0.010728349164102978 0.01139523744030003 0 0.010813472611966159 0.011499160449443711 0 0.010804940843487546 0.011380446451533533 0 0.010728349164102978 0.01139523744030003 0 0.010813472611966159 0.011499160449443711 0 0.010804940843487546 0.011380446451533533 0 0.010890909841800864 0.011426471117608696 0 0.010813472611966159 0.011499160449443711 0 0.010873844619287995 0.011594716222114401 0 0.010890909841800864 0.011426471117608696 0 0.010873844619287995 0.011594716222114401 0 0.010906921013109225 0.011595068408643104 0 0.010890909841800864 0.011426471117608696 0 0.011188070339597345 0.011869306957949997 0 0.010925079588304415 0.011979531843982727 0 0.011186950740287853 0.012349584346998585 0 0.011188070339597345 0.011869306957949997 0 0.011186950740287853 0.012349584346998585 0 0.011455242790195245 0.01219317113377302 0 0.011188070339597345 0.011869306957949997 0 0.010842288420951338 0.011419469723162256 0 0.010925079588304415 0.011979531843982727 0 0.011188070339597345 0.011869306957949997 0 0.011470594406804995 0.011731797626275461 0 0.011455242790195245 0.01219317113377302 0 0.011758271408705549 0.011886173018256868 0 0.011470594406804995 0.011731797626275461 0 0.011455242790195245 0.01219317113377302 0 0.011188070339597345 0.011869306957949997 0 0.011470594406804995 0.011731797626275461 0 0.011194672564728017 0.011436980118176591 0 0.011758271408705549 0.011886173018256868 0 0.011723705579624934 0.011134428477344546 0 0.011470594406804995 0.011731797626275461 0 0.011723705579624934 0.011134428477344546 0 0.011470594406804995 0.011731797626275461 0 0.011194672564728017 0.011436980118176591 0 0.01081498420235682 0.010802995347591656 0 0.011194672564728017 0.011436980118176591 0 0.010842288420951338 0.011419469723162256 0 0.011188070339597345 0.011869306957949997 0 0.011194672564728017 0.011436980118176591 0 0.010842288420951338 0.011419469723162256 0 0.010842288420951338 0.011419469723162256 0 0.010568140271113306 0.011617450403847006 0 0.010925079588304415 0.011979531843982727 0 0.010979920980843544 0.01116814198288647 0 0.01090316546877425 0.01148429315713941 0 0.0104952320894665 0.010850023304816164 0 0.010842288420951338 0.011419469723162256 0 0.010568140271113306 0.011617450403847006 0 0.011265352918820477 0.011147788775977465 0 0.011239036828057576 0.011454248716912084 0 0.011092833089314608 0.011273064549138173 0 0.010992198237692154 0.011536740648711104 0 0.011239036828057576 0.011454248716912084 0 0.011092833089314608 0.011273064549138173 0 0.01090316546877425 0.01148429315713941 0 0.010916030284367341 0.01195508345314448 0 0.01093357313869644 0.011808569720295033 0 0.010992198237692154 0.011536740648711104 0 0.010928109793969987 0.012012055816767118 0 0.010992198237692154 0.011536740648711104 0 0.011239036828057576 0.011454248716912084 0 0.010928109793969987 0.012012055816767118 0 0.010568140271113306 0.011617450403847006 0 0.010925079588304415 0.011979531843982727 0 0.010928109793969987 0.012012055816767118 0 0.010925079588304415 0.011979531843982727 0 0.011066961862369084 0.01253780335665163 0 0.011186950740287853 0.012349584346998585 0 0.010925079588304415 0.011979531843982727 0 0.011066961862369084 0.01253780335665163 0 0.010928109793969987 0.012012055816767118 0 0.011066961862369084 0.01253780335665163 0 0.010928109793969987 0.012012055816767118 0 0.010919651602877573 0.011965563482836448 0 0.010910030353135704 0.011864523481614217 0 0.011066961862369084 0.01253780335665163 0 0.010919651602877573 0.011965563482836448 0 0.01093357313869644 0.011808569720295033 0 0.010928109793969987 0.012012055816767118 0 0.010919651602877573 0.011965563482836448 0 0.011926725900269426 0.013513143737612315 0 0.011066961862369084 0.01253780335665163 0 0.011538888689119666 0.013085965279051214 0 0.011466523421945769 0.012635910965966553 0 0.01118543810852325 0.012561835947778091 0 0.011926725900269426 0.013513143737612315 0 0.011839831067328197 0.013364316029735857 0 0.011538888689119666 0.013085965279051214 0 0.011538888689119666 0.013085965279051214 0 0.011632667313965603 0.013058655898736326 0 0.011310924068144256 0.01292210197965438 0 0.011839831067328197 0.013364316029735857 0 0.011538888689119666 0.013085965279051214 0 0.011632667313965603 0.013058655898736326 0 0.011839831067328197 0.013364316029735857 0 0.011632667313965603 0.013058655898736326 0 0.012011318764492651 0.012997543961276376 0 0.011066961862369084 0.01253780335665163 0 0.011310924068144256 0.01292210197965438 0 0.011164554402265705 0.012845572263685786 0 0.011066961862369084 0.01253780335665163 0 0.011164554402265705 0.012845572263685786 0 0.011186774713352632 0.012653173660480362 0 0.011066961862369084 0.01253780335665163 0 0.011538888689119666 0.013085965279051214 0 0.011310924068144256 0.01292210197965438 0 0.011164554402265705 0.012845572263685786 0 0.011186774713352632 0.012653173660480362 0 0.011225981484321636 0.012897452471771801 0 0.011186774713352632 0.012653173660480362 0 0.011344888642915918 0.012563481374071714 0 0.011225981484321636 0.012897452471771801 0 0.011066961862369084 0.01253780335665163 0 0.011186774713352632 0.012653173660480362 0 0.011186950740287853 0.012349584346998585 0 0.011186774713352632 0.012653173660480362 0 0.011186950740287853 0.012349584346998585 0 0.011344888642915918 0.012563481374071714 0 0.011186950740287853 0.012349584346998585 0 0.011455242790195245 0.01219317113377302 0 0.011344888642915918 0.012563481374071714 0 0.011455242790195245 0.01219317113377302 0 0.011510653934377713 0.012494385516381237 0 0.011344888642915918 0.012563481374071714 0 0.011651880095317212 0.012309818619838589 0 0.011455242790195245 0.01219317113377302 0 0.011510653934377713 0.012494385516381237 0 0.011510653934377713 0.012494385516381237 0 0.011344888642915918 0.012563481374071714 0 0.011432271273753439 0.01273931924250611 0 0.011432271273753439 0.01273931924250611 0 0.01131790093492715 0.012981121845935067 0 0.011225981484321636 0.012897452471771801 0 0.011344888642915918 0.012563481374071714 0 0.011432271273753439 0.01273931924250611 0 0.011225981484321636 0.012897452471771801 0 0.01131790093492715 0.012981121845935067 0 0.011225981484321636 0.012897452471771801 0 0.011140069805630162 0.013257703193853297 0 0.01131790093492715 0.012981121845935067 0 0.011140069805630162 0.013257703193853297 0 0.011229647437979925 0.013278188444872545 0 0.011164554402265705 0.012845572263685786 0 0.011140069805630162 0.013257703193853297 0 0.011229961395978358 0.012814660875632562 0 0.011164554402265705 0.012845572263685786 0 0.011225981484321636 0.012897452471771801 0 0.011140069805630162 0.013257703193853297 0 0.011300923864146287 0.013227472082331939 0 0.01133271224183712 0.013181676727252822 0 0.011140069805630162 0.013257703193853297 0 0.011580886797326542 0.013841878229038474 0 0.011359975946205718 0.013622162456954185 0 0.011140069805630162 0.013257703193853297 0 0.011167413693417633 0.013528541847367001 0 0.011359975946205718 0.013622162456954185 0 0.011140069805630162 0.013257703193853297 0 0.011161529266281578 0.013461129537776643 0 0.011167413693417633 0.013528541847367001 0 0.011161529266281578 0.013461129537776643 0 0.011187903122781369 0.013423409277234932 0 0.011229647437979925 0.013278188444872545 0 0.011127115188047437 0.013489464511137734 0 0.011161529266281578 0.013461129537776643 0 0.011187903122781369 0.013423409277234932 0 0.011140069805630162 0.013257703193853297 0 0.011161529266281578 0.013461129537776643 0 0.011229647437979925 0.013278188444872545 0 0.012257054812273816 0.012258385841985265 0 0.011805128216296671 0.012558229169227803 0 0.012120062626749402 0.012727704943496409 0 0.011805128216296671 0.012558229169227803 0 0.012120062626749402 0.012727704943496409 0 0.011554055109855955 0.012829302229019702 0 0.011632667313965603 0.013058655898736326 0 0.012011318764492651 0.012997543961276376 0 0.011554055109855955 0.012829302229019702 0 0.012120062626749402 0.012727704943496409 0 0.012011318764492651 0.012997543961276376 0 0.011554055109855955 0.012829302229019702 0 0.011632667313965603 0.013058655898736326 0 0.011310924068144256 0.01292210197965438 0 0.011554055109855955 0.012829302229019702 0 0.011805128216296671 0.012558229169227803 0 0.011554055109855955 0.012829302229019702 0 0.011533630797446183 0.012557600320852149 0 0.011554055109855955 0.012829302229019702 0 0.011229961395978358 0.012814660875632562 0 0.011533630797446183 0.012557600320852149 0 0.011310924068144256 0.01292210197965438 0 0.011554055109855955 0.012829302229019702 0 0.011229961395978358 0.012814660875632562 0 0.011310924068144256 0.01292210197965438 0 0.011164554402265705 0.012845572263685786 0 0.011229961395978358 0.012814660875632562 0 0.011140069805630162 0.013257703193853297 0 0.011229961395978358 0.012814660875632562 0 0.011248079289286892 0.012564800287036534 0 0.011229961395978358 0.012814660875632562 0 0.011248079289286892 0.012564800287036534 0 0.011533630797446183 0.012557600320852149 0 0.01133271224183712 0.013181676727252822 0 0.012931151871647934 0.013232738737315949 0 0.011248079289286892 0.012564800287036534 0 0.011717042725488415 0.012160851287520843 0 0.011820108957964311 0.011944764804548461 0 0.011248079289286892 0.012564800287036534 0 0.011533630797446183 0.012557600320852149 0 0.011717042725488415 0.012160851287520843 0 0.011580886797326542 0.013841878229038474 0 0.012285480195331367 0.013949048870405057 0 0.012001022900977886 0.013770654553035555 0 0.011533630797446183 0.012557600320852149 0 0.011717042725488415 0.012160851287520843 0 0.011869708580693817 0.012317814410323457 0 0.012526308559230256 0.011785523275530925 0 0.011907103496395326 0.011641527632096584 0 0.012063360975843301 0.012038566748009299 0 0.012684818267649476 0.012796559402696495 0 0.012931151871647934 0.013232738737315949 0 0.011717042725488415 0.012160851287520843 0 0.011907103496395326 0.011641527632096584 0 0.012063360975843301 0.012038566748009299 0 0.012257054812273816 0.012258385841985265 0 0.012063360975843301 0.012038566748009299 0 0.011869708580693817 0.012317814410323457 0 0.011717042725488415 0.012160851287520843 0 0.012063360975843301 0.012038566748009299 0 0.011869708580693817 0.012317814410323457 0 0.011805128216296671 0.012558229169227803 0 0.011533630797446183 0.012557600320852149 0 0.011869708580693817 0.012317814410323457 0 0.012257054812273816 0.012258385841985265 0 0.011805128216296671 0.012558229169227803 0 0.011869708580693817 0.012317814410323457 0 0.012285480195331367 0.013949048870405057 0 0.012303307871072941 0.013617262143245734 0 0.012001022900977886 0.013770654553035555 0 0.012303307871072941 0.013617262143245734 0 0.012001022900977886 0.013770654553035555 0 0.011853632571849354 0.013642697723335102 0 0.012303307871072941 0.013617262143245734 0 0.011853632571849354 0.013642697723335102 0 0.0121171437655273 0.013453390523762286 0 0.011853632571849354 0.013642697723335102 0 0.011625187754910928 0.013473973357138187 0 0.0121171437655273 0.013453390523762286 0 0.011580886797326542 0.013841878229038474 0 0.012001022900977886 0.013770654553035555 0 0.011853632571849354 0.013642697723335102 0 0.011580886797326542 0.013841878229038474 0 0.011853632571849354 0.013642697723335102 0 0.011359975946205718 0.013622162456954185 0 0.011853632571849354 0.013642697723335102 0 0.011625187754910928 0.013473973357138187 0 0.011359975946205718 0.013622162456954185 0 0.011625187754910928 0.013473973357138187 0 0.012017390049312685 0.013240164885032506 0 0.011463907095744966 0.013094228469846238 0 0.011625187754910928 0.013473973357138187 0 0.012017390049312685 0.013240164885032506 0 0.0121171437655273 0.013453390523762286 0 0.012017390049312685 0.013240164885032506 0 0.0121171437655273 0.013453390523762286 0 0.012480677134574078 0.01324205563709842 0 0.0121171437655273 0.013453390523762286 0 0.012516837688451684 0.01342747634169868 0 0.012480677134574078 0.01324205563709842 0 0.012303307871072941 0.013617262143245734 0 0.0121171437655273 0.013453390523762286 0 0.012516837688451684 0.01342747634169868 0 0.011089966498182651 0.013538614277685102 0 0.011058966797421165 0.01354898373215211 0 0.010982822733338836 0.013580398225483986 0 0.011089966498182651 0.013538614277685102 0 0.011137191562403862 0.013529914663574408 0 0.010982822733338836 0.013580398225483986 0 0.011089966498182651 0.013538614277685102 0 0.011058966797421165 0.01354898373215211 0 0.011107634083507371 0.013511118248664614 0 0.011127115188047437 0.013489464511137734 0 0.011058966797421165 0.01354898373215211 0 0.011107634083507371 0.013511118248664614 0 0.011127115188047437 0.013489464511137734 0 0.011161529266281578 0.013461129537776643 0 0.011107634083507371 0.013511118248664614 0 0.011161529266281578 0.013461129537776643 0 0.011089966498182651 0.013538614277685102 0 0.011107634083507371 0.013511118248664614 0 0.011161529266281578 0.013461129537776643 0 0.011089966498182651 0.013538614277685102 0 0.011167413693417633 0.013528541847367001 0 0.011167413693417633 0.013528541847367001 0 0.011359975946205718 0.013622162456954185 0 0.011137191562403862 0.013529914663574408 0 0.011625187754910928 0.013473973357138187 0 0.011359975946205718 0.013622162456954185 0 0.011137191562403862 0.013529914663574408 0 0.011089966498182651 0.013538614277685102 0 0.011167413693417633 0.013528541847367001 0 0.011137191562403862 0.013529914663574408 0 0.011563199333787803 0.01270220335694844 0 0.009593062084631284 0.015381864693861729 0 0.0029789272075685775 0.019238037660177596 0 0.0030006123686930034 0.018811248930334212 0 0.0038196549781819278 0.019079326406385062 0 0.011625187754910928 0.013473973357138187 0 0.011137191562403862 0.013529914663574408 0 0.011463907095744966 0.013094228469846238 0 0.0068234530332967188 0.016483257904875637 0 0.009593062084631284 0.015381864693861729 0 0.011137191562403862 0.013529914663574408 0 0.010982822733338836 0.013580398225483986 0 0.011076274511447912 0.013543278835737721 0 0.0022456637071441763 0.019050858565767357 0 0.0029789272075685775 0.019238037660177596 0 0.0022737675453052323 0.018926936999072112 0 0.0022456637071441763 0.019050858565767357 0 0.0024228034243754873 0.019158921499070582 0 0.0029789272075685775 0.019238037660177596 0 0.0056704460715796094 0.016915531068005349 0 0.0068234530332967188 0.016483257904875637 0 0.0023599153638009921 0.019170859067297281 0 0.0024228034243754873 0.019158921499070582 0 0.0029789272075685775 0.019238037660177596 0 0.0029789272075685775 0.019238037660177596 0 0.0030006123686930034 0.018811248930334212 0 0.0022737675453052323 0.018926936999072112 0 0.011013931285782525 0.01359030593453071 0 0.011058966797421165 0.01354898373215211 0 0.010982822733338836 0.013580398225483986 0 0.0030006123686930034 0.018811248930334212 0 0.0022737675453052323 0.018926936999072112 0 0.0015921509821050391 0.018658176948517069 0 0.0030006123686930034 0.018811248930334212 0 0.0030824086839692519 0.018206087732332212 0 0.0015921509821050391 0.018658176948517069 0 0.0038196549781819278 0.019079326406385062 0 0.0036636733099622903 0.018438116850165436 0 0.0045901498106156544 0.018179130787167621 0 0.0030006123686930034 0.018811248930334212 0 0.0038196549781819278 0.019079326406385062 0 0.0036636733099622903 0.018438116850165436 0 0.0030006123686930034 0.018811248930334212 0 0.0036636733099622903 0.018438116850165436 0 0.0030824086839692519 0.018206087732332212 0 0.0036636733099622903 0.018438116850165436 0 0.0038613450231485317 0.01782525528344869 0 0.0030824086839692519 0.018206087732332212 0 0.0036636733099622903 0.018438116850165436 0 0.0038613450231485317 0.01782525528344869 0 0.0045901498106156544 0.018179130787167621 0 0.0030824086839692519 0.018206087732332212 0 0.0024906287105975785 0.017345987178806713 0 0.0015921509821050391 0.018658176948517069 0 0.0038613450231485317 0.01782525528344869 0 0.0030824086839692519 0.018206087732332212 0 0.0024906287105975785 0.017345987178806713 0 0.012480677134574078 0.01324205563709842 0 0.012375338542898975 0.012931696246113988 0 0.012899716039261419 0.013253768185701899 0 0.012017390049312685 0.013240164885032506 0 0.012480677134574078 0.01324205563709842 0 0.012375338542898975 0.012931696246113988 0 0.011859372252583747 0.014662010307002144 0 0.01299535266105031 0.01403028501322583 0 0.012375338620818398 0.01361517735575434 0 0.009593062084631284 0.015381864693861729 0 0.0082301504264920486 0.01625704482669155 0 0.012017390049312685 0.013240164885032506 0 0.011463907095744966 0.013094228469846238 0 0.012375338542898975 0.012931696246113988 0 0.009593062084631284 0.015381864693861729 0 0.013154481067553358 0.013186951278390606 0 0.0038613450231485317 0.01782525528344869 0 0.0045901498106156544 0.018179130787167621 0 0.0044873740274142399 0.017440635671463672 0 0.01299535266105031 0.01403028501322583 0 0.012375338620818398 0.01361517735575434 0 0.012941488812408853 0.013663860043780188 0 0.012375338620818398 0.01361517735575434 0 0.012941488812408853 0.013663860043780188 0 0.012551453869125123 0.013364946214298937 0 0.012941488812408853 0.013663860043780188 0 0.013279863555960841 0.013338172704275739 0 0.013382997835671644 0.013616475758192295 0 0.01299535266105031 0.01403028501322583 0 0.012941488812408853 0.013663860043780188 0 0.013382997835671644 0.013616475758192295 0 0.012551453869125123 0.013364946214298937 0 0.012363833130100959 0.013562574159590914 0 0.010845204135786771 0.014158363278454895 0 0.012551453869125123 0.013364946214298937 0 0.013913290316792414 0.011635847838433289 0 0.013671154733845454 0.012691334459463343 0 0.013279863555960841 0.013338172704275739 0 0.012551453869125123 0.013364946214298937 0 0.013671154733845454 0.012691334459463343 0 0.012941488812408853 0.013663860043780188 0 0.013279863555960841 0.013338172704275739 0 0.012551453869125123 0.013364946214298937 0 0.0082301504264920486 0.01625704482669155 0 0.0090383969834356651 0.015245363917938437 0 0.012375338620818398 0.01361517735575434 0 0.012551453869125123 0.013364946214298937 0 0.012363833130100959 0.013562574159590914 0 0.0045901498106156544 0.018179130787167621 0 0.0056503727586474069 0.017188938470691476 0 0.0044873740274142399 0.017440635671463672 0 0.0056503727586474069 0.017188938470691476 0 0.0044873740274142399 0.017440635671463672 0 0.0046568998312540421 0.016883417284758204 0 0.0046568998312540421 0.016883417284758204 0 0.0051404691330913452 0.016215992462639172 0 0.0053903601209820424 0.01677137463674162 0 0.0046568998312540421 0.016883417284758204 0 0.0051404691330913452 0.016215992462639172 0 0.0037903919789378402 0.016223296587392213 0 0.0051404691330913452 0.016215992462639172 0 0.0053903601209820424 0.01677137463674162 0 0.0059988199298025456 0.016386755307571284 0 0.0056503727586474069 0.017188938470691476 0 0.0053903601209820424 0.01677137463674162 0 0.0059988199298025456 0.016386755307571284 0 0.0056503727586474069 0.017188938470691476 0 0.0046568998312540421 0.016883417284758204 0 0.0053903601209820424 0.01677137463674162 0 0.012363833130100959 0.013562574159590914 0 0.010902401500182278 0.01439393192198014 0 0.010845204135786771 0.014158363278454895 0 0.012466445106608859 0.013388545898843193 0 0.012381837211286313 0.012993611894513993 0 0.0090383969834356651 0.015245363917938437 0 0.0091259009263364495 0.015131107753494797 0 0.0056503727586474069 0.017188938470691476 0 0.0059988199298025456 0.016386755307571284 0 0.0071672683778803868 0.016131783779980573 0 0.0024906287105975785 0.017345987178806713 0 0.0025790575878851052 0.016298804228844478 0 0.00095685472686721923 0.016596503809044857 0 0.0024906287105975785 0.017345987178806713 0 0.0036078707832917019 0.01701844377122123 0 0.0025790575878851052 0.016298804228844478 0 0.0038613450231485317 0.01782525528344869 0 0.0024906287105975785 0.017345987178806713 0 0.0036078707832917019 0.01701844377122123 0 0.0038613450231485317 0.01782525528344869 0 0.0044873740274142399 0.017440635671463672 0 0.0036078707832917019 0.01701844377122123 0 0.0044873740274142399 0.017440635671463672 0 0.0046568998312540421 0.016883417284758204 0 0.0036078707832917019 0.01701844377122123 0 0.0037903919789378402 0.016223296587392213 0 0.0025790575878851052 0.016298804228844478 0 0.003142306691406365 0.015233841800079979 0 0.0036078707832917019 0.01701844377122123 0 0.0037903919789378402 0.016223296587392213 0 0.0025790575878851052 0.016298804228844478 0 0.0046568998312540421 0.016883417284758204 0 0.0036078707832917019 0.01701844377122123 0 0.0037903919789378402 0.016223296587392213 0 0.0025790575878851052 0.016298804228844478 0 0.003142306691406365 0.015233841800079979 0 0.0015231629972938898 0.01524003774026275 0 0.0020294539219390833 0.01428027913276942 0 0.003142306691406365 0.015233841800079979 0 0.0015231629972938898 0.01524003774026275 0 0.0020294539219390833 0.01428027913276942 0 0.0015279216173414917 0.013215710006081613 0 0.0035293629889367509 0.013565089313035751 0 0.0020294539219390833 0.01428027913276942 0 0.003142306691406365 0.015233841800079979 0 0.0035293629889367509 0.013565089313035751 0 0.003142306691406365 0.015233841800079979 0 0.0047239723691194996 0.015228837665178095 0 0.0035293629889367509 0.013565089313035751 0 0.0047239723691194996 0.015228837665178095 0 0.0054166886632865058 0.014258184451211369 0 0.0035293629889367509 0.013565089313035751 0 0.0037903919789378402 0.016223296587392213 0 0.003142306691406365 0.015233841800079979 0 0.0047239723691194996 0.015228837665178095 0 0.0051404691330913452 0.016215992462639172 0 0.0037903919789378402 0.016223296587392213 0 0.0047239723691194996 0.015228837665178095 0 0.0051404691330913452 0.016215992462639172 0 0.0059557652077969845 0.015753479975511395 0 0.0047239723691194996 0.015228837665178095 0 0.0051404691330913452 0.016215992462639172 0 0.0059988199298025456 0.016386755307571284 0 0.0059557652077969845 0.015753479975511395 0 0.0059557652077969845 0.015753479975511395 0 0.0047239723691194996 0.015228837665178095 0 0.006140426676194544 0.014952764853475322 0 0.0059988199298025456 0.016386755307571284 0 0.0059557652077969845 0.015753479975511395 0 0.0064841693571831161 0.015948733066801633 0 0.0059988199298025456 0.016386755307571284 0 0.0071672683778803868 0.016131783779980573 0 0.0064841693571831161 0.015948733066801633 0 0.0071672683778803868 0.016131783779980573 0 0.0064841693571831161 0.015948733066801633 0 0.0068114249165319328 0.015466109602028594 0 0.0059557652077969845 0.015753479975511395 0 0.0064841693571831161 0.015948733066801633 0 0.0068114249165319328 0.015466109602028594 0 0.0059557652077969845 0.015753479975511395 0 0.0068114249165319328 0.015466109602028594 0 0.006140426676194544 0.014952764853475322 0 0.0071672683778803868 0.016131783779980573 0 0.0068114249165319328 0.015466109602028594 0 0.0078588744548522532 0.015006209013841702 0 0.0071672683778803868 0.016131783779980573 0 0.0078588744548522532 0.015006209013841702 0 0.0096351899478205588 0.014405207820559188 0 0.0078588744548522532 0.015006209013841702 0 0.0072929387129935077 0.014708372077827587 0 0.0081378528048067118 0.014091694822955586 0 0.0068114249165319328 0.015466109602028594 0 0.0072929387129935077 0.014708372077827587 0 0.006140426676194544 0.014952764853475322 0 0.0072929387129935077 0.014708372077827587 0 0.0068186227534696641 0.014094739764986115 0 0.006140426676194544 0.014952764853475322 0 0.0068114249165319328 0.015466109602028594 0 0.0078588744548522532 0.015006209013841702 0 0.0072929387129935077 0.014708372077827587 0 0.0072929387129935077 0.014708372077827587 0 0.0068186227534696641 0.014094739764986115 0 0.0081378528048067118 0.014091694822955586 0 0.0068186227534696641 0.014094739764986115 0 0.0081378528048067118 0.014091694822955586 0 0.0079373779190324931 0.013173454260794165 0 0.0078588744548522532 0.015006209013841702 0 0.0081378528048067118 0.014091694822955586 0 0.0096351899478205588 0.014405207820559188 0 0.0054166886632865058 0.014258184451211369 0 0.0060733989926558575 0.013181071734542343 0 0.0035293629889367509 0.013565089313035751 0 0.0047239723691194996 0.015228837665178095 0 0.006140426676194544 0.014952764853475322 0 0.0054166886632865058 0.014258184451211369 0 0.0068186227534696641 0.014094739764986115 0 0.006140426676194544 0.014952764853475322 0 0.0054166886632865058 0.014258184451211369 0 0.0068186227534696641 0.014094739764986115 0 0.0054166886632865058 0.014258184451211369 0 0.0060733989926558575 0.013181071734542343 0 0.0050024112393478428 0.012134899132010343 0 0.0060733989926558575 0.013181071734542343 0 0.0079743482332903636 0.011360465435577512 0 0.0050024112393478428 0.012134899132010343 0 0.0060733989926558575 0.013181071734542343 0 0.0035293629889367509 0.013565089313035751 0 0.0060733989926558575 0.013181071734542343 0 0.0079373779190324931 0.013173454260794165 0 0.0079743482332903636 0.011360465435577512 0 0.0079373779190324931 0.013173454260794165 0 0.0079743482332903636 0.011360465435577512 0 0.010086255682370449 0.012649170497796427 0 0.0081378528048067118 0.014091694822955586 0 0.0079373779190324931 0.013173454260794165 0 0.0092826728461536927 0.013647377271575247 0 0.0068186227534696641 0.014094739764986115 0 0.0060733989926558575 0.013181071734542343 0 0.0079373779190324931 0.013173454260794165 0 0.0050024112393478428 0.012134899132010343 0 0.003638227830959552 0.011032333621679422 0 0.0059176785473943764 0.0095227794730639043 0 0.0050024112393478428 0.012134899132010343 0 0.0079743482332903636 0.011360465435577512 0 0.0059176785473943764 0.0095227794730639043 0 0.003638227830959552 0.011032333621679422 0 0.0014066567622206968 0.011849124656270454 0 0.0035293629889367509 0.013565089313035751 0 0.003638227830959552 0.011032333621679422 0 0.0014066567622206968 0.011849124656270454 0 0.0033558031651290186 0.0082337118499076992 0 0.0014066567622206968 0.011849124656270454 0 0.0015279216173414917 0.013215710006081613 0 0.0035293629889367509 0.013565089313035751 0 0.0050024112393478428 0.012134899132010343 0 0.003638227830959552 0.011032333621679422 0 0.0035293629889367509 0.013565089313035751 0 0.016734088936321698 0.010263237082820759 0 0.016903475392195031 0.0099354929456315928 0 0.016238765696375168 0.0098679512302709306 0 0.017355037854530894 0.010269498479753909 0 0.017459927299698377 0.0099279630391545266 0 0.016903475392195031 0.0099354929456315928 0 0.016734088936321698 0.010263237082820759 0 0.017355037854530894 0.010269498479753909 0 0.016903475392195031 0.0099354929456315928 0 0.016734088936321698 0.010263237082820759 0 0.017355037854530894 0.010269498479753909 0 0.017340353596768155 0.010715854818110037 0 0.017355037854530894 0.010269498479753909 0 0.017937411387606926 0.010410187209538761 0 0.017340353596768155 0.010715854818110037 0 0.017355037854530894 0.010269498479753909 0 0.017937411387606926 0.010410187209538761 0 0.017979411832848353 0.010089697284432261 0 0.017937411387606926 0.010410187209538761 0 0.017979411832848353 0.010089697284432261 0 0.018524580391757448 0.010157276324629226 0 0.017355037854530894 0.010269498479753909 0 0.017979411832848353 0.010089697284432261 0 0.017459927299698377 0.0099279630391545266 0 0.017979411832848353 0.010089697284432261 0 0.017459927299698377 0.0099279630391545266 0 0.017913015393135341 0.0096978514753996679 0 0.017459927299698377 0.0099279630391545266 0 0.017913015393135341 0.0096978514753996679 0 0.017321519337809788 0.0096581643289011514 0 0.017979411832848353 0.010089697284432261 0 0.017913015393135341 0.0096978514753996679 0 0.018369267028612093 0.0098335892819796274 0 0.017913015393135341 0.0096978514753996679 0 0.018175348664935878 0.0093362825179798929 0 0.017708604623011732 0.0094071111503220336 0 0.017913015393135341 0.0096978514753996679 0 0.018355491615946396 0.0095705923663885733 0 0.018175348664935878 0.0093362825179798929 0 0.017913015393135341 0.0096978514753996679 0 0.018355491615946396 0.0095705923663885733 0 0.018369267028612093 0.0098335892819796274 0 0.017913015393135341 0.0096978514753996679 0 0.017321519337809788 0.0096581643289011514 0 0.017708604623011732 0.0094071111503220336 0 0.016807247707722888 0.0095780638743561217 0 0.016903475392195031 0.0099354929456315928 0 0.016238765696375168 0.0098679512302709306 0 0.017321519337809788 0.0096581643289011514 0 0.016807247707722888 0.0095780638743561217 0 0.0171735990460379 0.0092320564101102849 0 0.016807247707722888 0.0095780638743561217 0 0.016238765696375168 0.0098679512302709306 0 0.016108838566316026 0.0088985784271580926 0 0.017321519337809788 0.0096581643289011514 0 0.016807247707722888 0.0095780638743561217 0 0.016903475392195031 0.0099354929456315928 0 0.017459927299698377 0.0099279630391545266 0 0.017321519337809788 0.0096581643289011514 0 0.016903475392195031 0.0099354929456315928 0 0.012582180486113897 0.012234411568050167 0 0.011012398050735249 0.010853462612540228 0 0.012917327241107971 0.0096609833655386008 0 0.01444345109763409 0.01094187455395133 0 0.016010431969712146 0.008876588578935236 0 0.012582180486113897 0.012234411568050167 0 0.011012398050735249 0.010853462612540228 0 0.010086255682370449 0.012649170497796427 0 0.0079743482332903636 0.011360465435577512 0 0.011012398050735249 0.010853462612540228 0 0.010338164200350965 0.0091781969813426265 0 0.0079743482332903636 0.011360465435577512 0 0.011012398050735249 0.010853462612540228 0 0.010086255682370449 0.012649170497796427 0 0.012582180486113897 0.012234411568050167 0 0.010086255682370449 0.012649170497796427 0 0.010064954404057816 0.014635246297994793 0 0.010086255682370449 0.012649170497796427 0 0.0092826728461536927 0.013647377271575247 0 0.010064954404057816 0.014635246297994793 0 0.0079373779190324931 0.013173454260794165 0 0.010086255682370449 0.012649170497796427 0 0.0092826728461536927 0.013647377271575247 0 0.01444345109763409 0.01094187455395133 0 0.012767804144479788 0.012579332825131396 0 0.016238765696375168 0.0098679512302709306 0 0.016085820698233905 0.010421532085301482 0 0.015358374508554174 0.010499428170310772 0 0.016734088936321698 0.010263237082820759 0 0.016238765696375168 0.0098679512302709306 0 0.016085820698233905 0.010421532085301482 0 0.016734088936321698 0.010263237082820759 0 0.016085820698233905 0.010421532085301482 0 0.016336158778570881 0.010799252800155344 0 0.016085820698233905 0.010421532085301482 0 0.015750075851331376 0.010823142954926113 0 0.015358374508554174 0.010499428170310772 0 0.016085820698233905 0.010421532085301482 0 0.015750075851331376 0.010823142954926113 0 0.016336158778570881 0.010799252800155344 0 0.010902401500182278 0.01439393192198014 0 0.0096351899478205588 0.014405207820559188 0 0.010064954404057816 0.014635246297994793 0 0.0092826728461536927 0.013647377271575247 0 0.0096351899478205588 0.014405207820559188 0 0.010064954404057816 0.014635246297994793 0 0.0081378528048067118 0.014091694822955586 0 0.0092826728461536927 0.013647377271575247 0 0.0096351899478205588 0.014405207820559188 0 0.010902401500182278 0.01439393192198014 0 0.010064954404057816 0.014635246297994793 0 0.010845204135786771 0.014158363278454895 0 0.0091259009263364495 0.015131107753494797 0 0.0096215489844498365 0.014321088316443261 0 0.015358374508554174 0.010499428170310772 0 0.015189778400731199 0.011262380368007781 0 0.013913290316792414 0.011635847838433289 0 0.012767804144479788 0.012579332825131396 0 0.012381837211286313 0.012993611894513993 0 0.015750075851331376 0.010823142954926113 0 0.015358374508554174 0.010499428170310772 0 0.015189778400731199 0.011262380368007781 0 0.016336158778570881 0.010799252800155344 0 0.015872545472457197 0.011226310287923565 0 0.016350281976181769 0.01127523282784006 0 0.015750075851331376 0.010823142954926113 0 0.016336158778570881 0.010799252800155344 0 0.015872545472457197 0.011226310287923565 0 0.015750075851331376 0.010823142954926113 0 0.015189778400731199 0.011262380368007781 0 0.015872545472457197 0.011226310287923565 0 0.015189778400731199 0.011262380368007781 0 0.015872545472457197 0.011226310287923565 0 0.015467800307266749 0.011695621827658922 0 0.015872545472457197 0.011226310287923565 0 0.016207457780544308 0.011616627190127035 0 0.015467800307266749 0.011695621827658922 0 0.015872545472457197 0.011226310287923565 0 0.016350281976181769 0.01127523282784006 0 0.016207457780544308 0.011616627190127035 0 0.016350281976181769 0.01127523282784006 0 0.016811013056501602 0.011146064482422224 0 0.016766476146775153 0.011538871171851681 0 0.016350281976181769 0.01127523282784006 0 0.016766476146775153 0.011538871171851681 0 0.016207457780544308 0.011616627190127035 0 0.016811013056501602 0.011146064482422224 0 0.017356423549264137 0.011110042633636902 0 0.017328106741069407 0.011426400425758189 0 0.016811013056501602 0.011146064482422224 0 0.017328106741069407 0.011426400425758189 0 0.016766476146775153 0.011538871171851681 0 0.016811013056501602 0.011146064482422224 0 0.017340353596768155 0.010715854818110037 0 0.017356423549264137 0.011110042633636902 0 0.016336158778570881 0.010799252800155344 0 0.016350281976181769 0.01127523282784006 0 0.016811013056501602 0.011146064482422224 0 0.016734088936321698 0.010263237082820759 0 0.016336158778570881 0.010799252800155344 0 0.017340353596768155 0.010715854818110037 0 0.016336158778570881 0.010799252800155344 0 0.016811013056501602 0.011146064482422224 0 0.017340353596768155 0.010715854818110037 0 0.017340353596768155 0.010715854818110037 0 0.017904104045056851 0.011064972493815446 0 0.018154807629968465 0.010738078910553485 0 0.017937411387606926 0.010410187209538761 0 0.017340353596768155 0.010715854818110037 0 0.018154807629968465 0.010738078910553485 0 0.017340353596768155 0.010715854818110037 0 0.017904104045056851 0.011064972493815446 0 0.017356423549264137 0.011110042633636902 0 0.017904104045056851 0.011064972493815446 0 0.017356423549264137 0.011110042633636902 0 0.017328106741069407 0.011426400425758189 0 0.017904104045056851 0.011064972493815446 0 0.017328106741069407 0.011426400425758189 0 0.017848834267327435 0.011489467863201683 0 0.017904104045056851 0.011064972493815446 0 0.017848834267327435 0.011489467863201683 0 0.018234133974087213 0.011358035065348418 0 0.017848834267327435 0.011489467863201683 0 0.018242868097198533 0.011726837870307698 0 0.017479307612350899 0.011819887707778448 0 0.017848834267327435 0.011489467863201683 0 0.018242868097198533 0.011726837870307698 0 0.018234133974087213 0.011358035065348418 0 0.018242868097198533 0.011726837870307698 0 0.017479307612350899 0.011819887707778448 0 0.017208797972458733 0.012402422350797228 0 0.017328106741069407 0.011426400425758189 0 0.017848834267327435 0.011489467863201683 0 0.017479307612350899 0.011819887707778448 0 0.017328106741069407 0.011426400425758189 0 0.016766476146775153 0.011538871171851681 0 0.016814836308088124 0.011995998050286297 0 0.017328106741069407 0.011426400425758189 0 0.017479307612350899 0.011819887707778448 0 0.016814836308088124 0.011995998050286297 0 0.016207457780544308 0.011616627190127035 0 0.016814836308088124 0.011995998050286297 0 0.015859002178690049 0.012183058816097204 0 0.016766476146775153 0.011538871171851681 0 0.016207457780544308 0.011616627190127035 0 0.016814836308088124 0.011995998050286297 0 0.016814836308088124 0.011995998050286297 0 0.016335416967666761 0.012750533658185719 0 0.015859002178690049 0.012183058816097204 0 0.016814836308088124 0.011995998050286297 0 0.017208797972458733 0.012402422350797228 0 0.016335416967666761 0.012750533658185719 0 0.017479307612350899 0.011819887707778448 0 0.016814836308088124 0.011995998050286297 0 0.017208797972458733 0.012402422350797228 0 0.017208797972458733 0.012402422350797228 0 0.016335416967666761 0.012750533658185719 0 0.017306570203668062 0.013400168159861234 0 0.016335416967666761 0.012750533658185719 0 0.017306570203668062 0.013400168159861234 0 0.015615535231909242 0.013729318812730651 0 0.016610717163046452 0.012282194359947892 0 0.014129249710559857 0.013537862506011644 0 0.018242868097198533 0.011726837870307698 0 0.017208797972458733 0.012402422350797228 0 0.017306570203668062 0.013400168159861234 0 0.017736693390828215 0.011113073288794338 0 0.018268080671929417 0.011478127974038211 0 0.018449798736506533 0.011110959937418608 0 0.018242868097198533 0.011726837870307698 0 0.018204649442560967 0.011868625491761872 0 0.018391943573945108 0.011832652099310711 0 0.016610717163046452 0.012282194359947892 0 0.018662787170292107 0.011416436411156403 0 0.018463773956730118 0.011795998275721016 0 0.016610717163046452 0.012282194359947892 0 0.013913290316792414 0.011635847838433289 0 0.014308260201033577 0.012206661243137414 0 0.013671154733845454 0.012691334459463343 0 0.014308260201033577 0.012206661243137414 0 0.014266718827143938 0.012616303689527668 0 0.013671154733845454 0.012691334459463343 0 0.013913290316792414 0.011635847838433289 0 0.014726680035330435 0.011802901361078902 0 0.014308260201033577 0.012206661243137414 0 0.015189778400731199 0.011262380368007781 0 0.013913290316792414 0.011635847838433289 0 0.014726680035330435 0.011802901361078902 0 0.014308260201033577 0.012206661243137414 0 0.014931725512272571 0.012319906732566568 0 0.014266718827143938 0.012616303689527668 0 0.014726680035330435 0.011802901361078902 0 0.014308260201033577 0.012206661243137414 0 0.014931725512272571 0.012319906732566568 0 0.014931725512272571 0.012319906732566568 0 0.015859002178690049 0.012183058816097204 0 0.015363559631045614 0.012830064192948026 0 0.014931725512272571 0.012319906732566568 0 0.015467800307266749 0.011695621827658922 0 0.015859002178690049 0.012183058816097204 0 0.015189778400731199 0.011262380368007781 0 0.014726680035330435 0.011802901361078902 0 0.015467800307266749 0.011695621827658922 0 0.014726680035330435 0.011802901361078902 0 0.014931725512272571 0.012319906732566568 0 0.015467800307266749 0.011695621827658922 0 0.016207457780544308 0.011616627190127035 0 0.015467800307266749 0.011695621827658922 0 0.015859002178690049 0.012183058816097204 0 0.016335416967666761 0.012750533658185719 0 0.015859002178690049 0.012183058816097204 0 0.015363559631045614 0.012830064192948026 0 0.016335416967666761 0.012750533658185719 0 0.015363559631045614 0.012830064192948026 0 0.015615535231909242 0.013729318812730651 0 0.015363559631045614 0.012830064192948026 0 0.014326519566935503 0.013083126041822482 0 0.015615535231909242 0.013729318812730651 0 0.014931725512272571 0.012319906732566568 0 0.015363559631045614 0.012830064192948026 0 0.014326519566935503 0.013083126041822482 0 0.014326519566935503 0.013083126041822482 0 0.013382997835671644 0.013616475758192295 0 0.015615535231909242 0.013729318812730651 0 0.014931725512272571 0.012319906732566568 0 0.014266718827143938 0.012616303689527668 0 0.014326519566935503 0.013083126041822482 0 0.014266718827143938 0.012616303689527668 0 0.014326519566935503 0.013083126041822482 0 0.013787538638301509 0.013096544893484123 0 0.013279863555960841 0.013338172704275739 0 0.013787538638301509 0.013096544893484123 0 0.013382997835671644 0.013616475758192295 0 0.014326519566935503 0.013083126041822482 0 0.013787538638301509 0.013096544893484123 0 0.013382997835671644 0.013616475758192295 0 0.013279863555960841 0.013338172704275739 0 0.013787538638301509 0.013096544893484123 0 0.013671154733845454 0.012691334459463343 0 0.014266718827143938 0.012616303689527668 0 0.013787538638301509 0.013096544893484123 0 0.013671154733845454 0.012691334459463343 0 0.01364547541737313 0.013565189515311559 0 0.014129249710559857 0.013537862506011644 0 0.013154481067553358 0.013186951278390606 0 0.012981425999861804 0.01350218254829212 0 0.01299535266105031 0.01403028501322583 0 0.013382997835671644 0.013616475758192295 0 0.013297993116489132 0.013355860155639075 0 0.013382997835671644 0.013616475758192295 0 0.013297993116489132 0.013355860155639075 0 0.013193698883376423 0.013155174814249175 0 0.012375338542898975 0.012931696246113988 0 0.013297993116489132 0.013355860155639075 0 0.012956904142809152 0.013188058721641251 0 0.013297993116489132 0.013355860155639075 0 0.012956904142809152 0.013188058721641251 0 0.013120452344619634 0.013219639395343211 0 0.013120452344619634 0.013219639395343211 0 0.013193698883376423 0.013155174814249175 0 0.01322870475222555 0.0132598751851644 0 0.013297993116489132 0.013355860155639075 0 0.013120452344619634 0.013219639395343211 0 0.013193698883376423 0.013155174814249175 0 0.013120452344619634 0.013219639395343211 0 0.01322870475222555 0.0132598751851644 0 0.012899716039261419 0.013253768185701899 0 0.01288157891818417 0.013472997270922231 0 0.01322870475222555 0.0132598751851644 0 0.012899716039261419 0.013253768185701899 0 0.014586129781482639 0.013333706526329101 0 0.014897452520167269 0.012610191703506952 0 0.012375338542898975 0.012931696246113988 0 0.012956904142809152 0.013188058721641251 0 0.012899716039261419 0.013253768185701899 0 0.012956904142809152 0.013188058721641251 0 0.013120452344619634 0.013219639395343211 0 0.012899716039261419 0.013253768185701899 0 0.012701517856638669 0.013350367384139571 0 0.012480677134574078 0.01324205563709842 0 0.012899716039261419 0.013253768185701899 0 0.017736693390828215 0.011113073288794338 0 0.018268080671929417 0.011478127974038211 0 0.01786010131126731 0.011906085792172946 0 0.018268080671929417 0.011478127974038211 0 0.01786010131126731 0.011906085792172946 0 0.018701050395566413 0.011936819723189315 0 0.017736693390828215 0.011113073288794338 0 0.016930749865760677 0.011968155258286178 0 0.01786010131126731 0.011906085792172946 0 0.016610717163046452 0.012282194359947892 0 0.014897452520167269 0.012610191703506952 0 0.013411308051494559 0.013105375773432678 0 0.013193698883376423 0.013155174814249175 0 0.01322870475222555 0.0132598751851644 0 0.01708849685513841 0.012662801677812028 0 0.016930749865760677 0.011968155258286178 0 0.017528606651574963 0.012367955078733167 0 0.016930749865760677 0.011968155258286178 0 0.017528606651574963 0.012367955078733167 0 0.01786010131126731 0.011906085792172946 0 0.017934521053706534 0.012779200361590278 0 0.017528606651574963 0.012367955078733167 0 0.01786010131126731 0.011906085792172946 0 0.017934521053706534 0.012779200361590278 0 0.01786010131126731 0.011906085792172946 0 0.018701050395566413 0.011936819723189315 0 0.017873602042876097 0.011485497816410326 0 0.018662189551908809 0.011151609468202322 0 0.018268080671929417 0.011478127974038211 0 0.018701050395566413 0.011936819723189315 0 0.018721358472392681 0.011369970319234637 0 0.018268080671929417 0.011478127974038211 0 0.018721358472392681 0.011369970319234637 0 0.018449798736506533 0.011110959937418608 0 0.018752261200234537 0.010330545693349498 0 0.018991266430653374 0.011149020748651475 0 0.018744127287844851 0.010701005160841508 0 0.018701050395566413 0.011936819723189315 0 0.018721358472392681 0.011369970319234637 0 0.018991266430653374 0.011149020748651475 0 0.018662189551908809 0.011151609468202322 0 0.018929608848721614 0.011171013442171683 0 0.018681112705497768 0.010444684060325926 0 0.018752261200234537 0.010330545693349498 0 0.018744127287844851 0.010701005160841508 0 0.018352436959726427 0.010457982378826976 0 0.018681112705497768 0.010444684060325926 0 0.018744127287844851 0.010701005160841508 0 0.018352436959726427 0.010457982378826976 0 0.018744127287844851 0.010701005160841508 0 0.018556087794367338 0.010848159531182502 0 0.022552312058198375 0.0092077193447701773 0 0.022142357437737178 0.009735992835040409 0 0.018991266430653374 0.011149020748651475 0 0.018744127287844851 0.010701005160841508 0 0.018556087794367338 0.010848159531182502 0 0.018991266430653374 0.011149020748651475 0 0.019088673986950199 0.011300390410000373 0 0.019169362408518902 0.011316187651181494 0 0.018991266430653374 0.011149020748651475 0 0.018556087794367338 0.010848159531182502 0 0.019088673986950199 0.011300390410000373 0 0.022142357437737178 0.009735992835040409 0 0.021597716766296914 0.0098244290904757284 0 0.025764017625570498 0.0087608130961418229 0 0.024126686019126146 0.0085882125488768134 0 0.025268522540780849 0.0085955631741204859 0 0.024126686019126146 0.0085882125488768134 0 0.023754984403966173 0.0081381272610746586 0 0.025268522540780849 0.0085955631741204859 0 0.021597716766296914 0.0098244290904757284 0 0.021127469196250848 0.0091905927717779341 0 0.024126686019126146 0.0085882125488768134 0 0.023754984403966173 0.0081381272610746586 0 0.022366742712322467 0.0078335884977921277 0 0.019088673986950199 0.011300390410000373 0 0.019469334954547089 0.011097328030565462 0 0.019169362408518902 0.011316187651181494 0 0.019088673986950199 0.011300390410000373 0 0.019469334954547089 0.011097328030565462 0 0.019953634006611567 0.010781508932971228 0 0.019469334954547089 0.011097328030565462 0 0.019169362408518902 0.011316187651181494 0 0.019206354071877076 0.011146682453724951 0 0.019169362408518902 0.011316187651181494 0 0.019019561063966305 0.011358524622900509 0 0.019206354071877076 0.011146682453724951 0 0.019019561063966305 0.011358524622900509 0 0.019206354071877076 0.011146682453724951 0 0.018765165846295933 0.011462713068595445 0 0.019019561063966305 0.011358524622900509 0 0.018765165846295933 0.011462713068595445 0 0.018940796986138955 0.011367907140668845 0 0.019206354071877076 0.011146682453724951 0 0.018808891112388537 0.011194806283325446 0 0.018765165846295933 0.011462713068595445 0 0.018808891112388537 0.011194806283325446 0 0.018482636916895299 0.011523722662622636 0 0.018765165846295933 0.011462713068595445 0 0.018242868097198533 0.011726837870307698 0 0.018482636916895299 0.011523722662622636 0 0.018234133974087213 0.011358035065348418 0 0.018808891112388537 0.011194806283325446 0 0.018482636916895299 0.011523722662622636 0 0.018234133974087213 0.011358035065348418 0 0.018242868097198533 0.011726837870307698 0 0.018482636916895299 0.011523722662622636 0 0.018528758446182628 0.011640349378911124 0 0.018482636916895299 0.011523722662622636 0 0.018765165846295933 0.011462713068595445 0 0.018528758446182628 0.011640349378911124 0 0.018662787170292107 0.011416436411156403 0 0.01873636964968101 0.011407935439462306 0 0.018528758446182628 0.011640349378911124 0 0.018391943573945108 0.011832652099310711 0 0.018940796986138955 0.011367907140668845 0 0.018721358472392681 0.011369970319234637 0 0.018449798736506533 0.011110959937418608 0 0.018940796986138955 0.011367907140668845 0 0.018765165846295933 0.011462713068595445 0 0.018528758446182628 0.011640349378911124 0 0.018940796986138955 0.011367907140668845 0 0.018242868097198533 0.011726837870307698 0 0.018528758446182628 0.011640349378911124 0 0.018391943573945108 0.011832652099310711 0 0.018721358472392681 0.011369970319234637 0 0.018991266430653374 0.011149020748651475 0 0.018940796986138955 0.011367907140668845 0 0.018991266430653374 0.011149020748651475 0 0.019169362408518902 0.011316187651181494 0 0.018940796986138955 0.011367907140668845 0 0.019169362408518902 0.011316187651181494 0 0.019019561063966305 0.011358524622900509 0 0.018940796986138955 0.011367907140668845 0 0.026937476037872467 0.008789823602830496 0 0.026368362639188667 0.0083434769402232194 0 0.026520256717606067 0.0086630164354727073 0 0.027991470007025187 0.0078974763464577605 0 0.027467896738711226 0.0072503416920269822 0 0.02908239258600747 0.0070518855385059793 0 0.028542933425651739 0.0060709910307177864 0 0.028733593194625828 0.006393520864519016 0 0.026368362639188667 0.0083434769402232194 0 0.026520256717606067 0.0086630164354727073 0 0.02652016784000211 0.0084925347095704071 0 0.026937476037872467 0.008789823602830496 0 0.026520256717606067 0.0086630164354727073 0 0.026638648716518776 0.0085224070757792831 0 0.026520256717606067 0.0086630164354727073 0 0.02652016784000211 0.0084925347095704071 0 0.02611244247828743 0.0086285019126651295 0 0.02652016784000211 0.0084925347095704071 0 0.026065442130341582 0.0086815141398588671 0 0.02611244247828743 0.0086285019126651295 0 0.026887623648715098 0.008104949686491383 0 0.02652016784000211 0.0084925347095704071 0 0.026065442130341582 0.0086815141398588671 0 0.026887623648715098 0.008104949686491383 0 0.025764017625570498 0.0087608130961418229 0 0.026065442130341582 0.0086815141398588671 0 0.025764017625570498 0.0087608130961418229 0 0.026065442130341582 0.0086815141398588671 0 0.025268522540780849 0.0085955631741204859 0 0.026065442130341582 0.0086815141398588671 0 0.025268522540780849 0.0085955631741204859 0 0.02611244247828743 0.0086285019126651295 0 0.025268522540780849 0.0085955631741204859 0 0.025127475357509119 0.0080601385404440225 0 0.025809469532408348 0.0083109812963729178 0 0.023754984403966173 0.0081381272610746586 0 0.025268522540780849 0.0085955631741204859 0 0.025127475357509119 0.0080601385404440225 0 0.025928097440127088 0.0081085853945159891 0 0.024272450153194215 0.0085703983915507154 0 0.025127475357509119 0.0080601385404440225 0 0.025809469532408348 0.0083109812963729178 0 0.025753015940775309 0.0076023118103916024 0 0.026081422586642287 0.008185218359131597 0 0.026733843895288247 0.0078507544994061759 0 0.026059637855422386 0.0076954729728056157 0 0.026081422586642287 0.008185218359131597 0 0.02611244247828743 0.0086285019126651295 0 0.026638648716518776 0.0085224070757792831 0 0.025928097440127088 0.0081085853945159891 0 0.026055017151557058 0.0086535073288263945 0 0.025268522540780849 0.0085955631741204859 0 0.025809469532408348 0.0083109812963729178 0 0.02611244247828743 0.0086285019126651295 0 0.026520256717606067 0.0086630164354727073 0 0.02611244247828743 0.0086285019126651295 0 0.026638648716518776 0.0085224070757792831 0 0.026638648716518776 0.0085224070757792831 0 0.026733843895288247 0.0078507544994061759 0 0.027259463411789361 0.0084860572743615977 0 0.026081422586642287 0.008185218359131597 0 0.026638648716518776 0.0085224070757792831 0 0.026733843895288247 0.0078507544994061759 0 0.02630991558963755 0.0091579513193957712 0 0.027174113003016902 0.0091960901206861213 0 0.025395925888925759 0.010358579256879445 0 0.026744635483714519 0.010346686244017635 0 0.026675069707465988 0.0098757694760962748 0 0.026733843895288247 0.0078507544994061759 0 0.027259463411789361 0.0084860572743615977 0 0.027830573622572578 0.008130500105931724 0 0.026937476037872467 0.008789823602830496 0 0.026638648716518776 0.0085224070757792831 0 0.027259463411789361 0.0084860572743615977 0 0.025566575264292957 0.0095334225028458879 0 0.026080674360122114 0.0096999846195452832 0 0.026347306307284785 0.0093909077020609497 0 0.025566575264292957 0.0095334225028458879 0 0.026080674360122114 0.0096999846195452832 0 0.025075979565158484 0.0097636325711783437 0 0.025395925888925759 0.010358579256879445 0 0.026080674360122114 0.0096999846195452832 0 0.026675069707465988 0.0098757694760962748 0 0.025395925888925759 0.010358579256879445 0 0.026080674360122114 0.0096999846195452832 0 0.025075979565158484 0.0097636325711783437 0 0.025395925888925759 0.010358579256879445 0 0.025075979565158484 0.0097636325711783437 0 0.024624232616171686 0.010189593675506852 0 0.02630991558963755 0.0091579513193957712 0 0.024272450153194215 0.0085703983915507154 0 0.025075979565158484 0.0097636325711783437 0 0.024550054378619544 0.0096414318972703021 0 0.024624232616171686 0.010189593675506852 0 0.022266475715067121 0.0091353406554713044 0 0.024272450153194215 0.0085703983915507154 0 0.020395468456548778 0.0085442132654532359 0 0.02035839532891455 0.0074854528869254056 0 0.021021665720776787 0.0076247015123470574 0 0.023754984403966173 0.0081381272610746586 0 0.025127475357509119 0.0080601385404440225 0 0.024600555926037378 0.0074005737868304174 0 0.024272450153194215 0.0085703983915507154 0 0.022566132453468439 0.0074916773020894528 0 0.025127475357509119 0.0080601385404440225 0 0.025753015940775309 0.0076023118103916024 0 0.024600555926037378 0.0074005737868304174 0 0.020395468456548778 0.0085442132654532359 0 0.021021665720776787 0.0076247015123470574 0 0.021176873527735229 0.0083558348878882398 0 0.020395468456548778 0.0085442132654532359 0 0.021176873527735229 0.0083558348878882398 0 0.020946399839931663 0.0088214081233784353 0 0.020395468456548778 0.0085442132654532359 0 0.020505746405742702 0.0091773353635923212 0 0.020946399839931663 0.0088214081233784353 0 0.020505746405742702 0.0091773353635923212 0 0.020946399839931663 0.0088214081233784353 0 0.020700733028234386 0.0092673150527416495 0 0.022266475715067121 0.0091353406554713044 0 0.022317612791353157 0.0093305659155049972 0 0.024550054378619544 0.0096414318972703021 0 0.024126138612419992 0.0095841552494468144 0 0.024742103881033279 0.0094843778539399678 0 0.025566575264292957 0.0095334225028458879 0 0.025075979565158484 0.0097636325711783437 0 0.024742103881033279 0.0094843778539399678 0 0.025075979565158484 0.0097636325711783437 0 0.024550054378619544 0.0096414318972703021 0 0.024742103881033279 0.0094843778539399678 0 0.024126138612419992 0.0095841552494468144 0 0.024742103881033279 0.0094843778539399678 0 0.023754418383126696 0.0097144932013245398 0 0.024742103881033279 0.0094843778539399678 0 0.024745150540231357 0.0095215223842954177 0 0.025672506065527848 0.0092957116596602846 0 0.025566575264292957 0.0095334225028458879 0 0.024742103881033279 0.0094843778539399678 0 0.025672506065527848 0.0092957116596602846 0 0.019965983420783817 0.010125229377810132 0 0.019133314863901362 0.0099110043084742194 0 0.020939763285629302 0.0089707597910257987 0 0.019965983420783817 0.010125229377810132 0 0.019133314863901362 0.0099110043084742194 0 0.01962836629218696 0.010714153243155042 0 0.017904104045056851 0.011064972493815446 0 0.018154807629968465 0.010738078910553485 0 0.01872064492870168 0.010893185784598358 0 0.018154807629968465 0.010738078910553485 0 0.01872064492870168 0.010893185784598358 0 0.018682152683985466 0.010438261568654999 0 0.018808891112388537 0.011194806283325446 0 0.018234133974087213 0.011358035065348418 0 0.019133314863901362 0.0099110043084742194 0 0.017904104045056851 0.011064972493815446 0 0.018234133974087213 0.011358035065348418 0 0.01872064492870168 0.010893185784598358 0 0.018277419938359164 0.011298821176283301 0 0.018971089599984413 0.010437884012615506 0 0.018808891112388537 0.011194806283325446 0 0.019133314863901362 0.0099110043084742194 0 0.019213457395891975 0.010779186484009643 0 0.019206354071877076 0.011146682453724951 0 0.018808891112388537 0.011194806283325446 0 0.019213457395891975 0.010779186484009643 0 0.019206354071877076 0.011146682453724951 0 0.019213457395891975 0.010779186484009643 0 0.01962836629218696 0.010714153243155042 0 0.019133314863901362 0.0099110043084742194 0 0.019213457395891975 0.010779186484009643 0 0.01962836629218696 0.010714153243155042 0 0.019469334954547089 0.011097328030565462 0 0.019206354071877076 0.011146682453724951 0 0.01962836629218696 0.010714153243155042 0 0.019469334954547089 0.011097328030565462 0 0.01962836629218696 0.010714153243155042 0 0.019953634006611567 0.010781508932971228 0 0.019965983420783817 0.010125229377810132 0 0.01962836629218696 0.010714153243155042 0 0.019953634006611567 0.010781508932971228 0 0.021021665720776787 0.0076247015123470574 0 0.022342747415799703 0.0077690884096217952 0 0.021176873527735229 0.0083558348878882398 0 0.023754984403966173 0.0081381272610746586 0 0.024600555926037378 0.0074005737868304174 0 0.022342747415799703 0.0077690884096217952 0 0.022566132453468439 0.0074916773020894528 0 0.022586732487987253 0.0077140607068823417 0 0.023754984403966173 0.0081381272610746586 0 0.022366742712322467 0.0078335884977921277 0 0.022342747415799703 0.0077690884096217952 0 0.021176873527735229 0.0083558348878882398 0 0.021575392464937285 0.008516689872394987 0 0.020946399839931663 0.0088214081233784353 0 0.022342747415799703 0.0077690884096217952 0 0.021176873527735229 0.0083558348878882398 0 0.021575392464937285 0.008516689872394987 0 0.019965983420783817 0.010125229377810132 0 0.019953634006611567 0.010781508932971228 0 0.020939763285629302 0.0089707597910257987 0 0.022366742712322467 0.0078335884977921277 0 0.021575392464937285 0.008516689872394987 0 0.020939763285629302 0.0089707597910257987 0 0.022366742712322467 0.0078335884977921277 0 0.022342747415799703 0.0077690884096217952 0 0.021575392464937285 0.008516689872394987 0 0.021127469196250848 0.0091905927717779341 0 0.020912411863278094 0.0088325954888485662 0 0.021575392464937285 0.008516689872394987 0 0.021096712633762196 0.0088024951232025077 0 0.020939763285629302 0.0089707597910257987 0 0.021096712633762196 0.0088024951232025077 0 0.020989448136088287 0.0085990790372063777 0 0.020939763285629302 0.0089707597910257987 0 0.021575392464937285 0.008516689872394987 0 0.021096712633762196 0.0088024951232025077 0 0.020946399839931663 0.0088214081233784353 0 0.021096712633762196 0.0088024951232025077 0 0.020593162772025799 0.0092683286522721349 0 0.020700733028234386 0.0092673150527416495 0 0.021096712633762196 0.0088024951232025077 0 0.020946399839931663 0.0088214081233784353 0 0.020700733028234386 0.0092673150527416495 0 0.021096712633762196 0.0088024951232025077 0 0.020989448136088287 0.0085990790372063777 0 0.020593162772025799 0.0092683286522721349 0 0.019637656119847413 0.01020597546945831 0 0.019849074453238889 0.0094159681860164889 0 0.020593162772025799 0.0092683286522721349 0 0.02024870911144875 0.0094136259499379392 0 0.020591343433426269 0.0092337672159676261 0 0.019453657840843644 0.0098653535789771964 0 0.019637656119847413 0.01020597546945831 0 0.019849074453238889 0.0094159681860164889 0 0.019220534603844455 0.009722917134421874 0 0.019453657840843644 0.0098653535789771964 0 0.019849074453238889 0.0094159681860164889 0 0.019220534603844455 0.009722917134421874 0 0.019176529148240442 0.0093802418538840703 0 0.019849074453238889 0.0094159681860164889 0 0.019453657840843644 0.0098653535789771964 0 0.019637656119847413 0.01020597546945831 0 0.019116504273300011 0.010109561200237767 0 0.019220534603844455 0.009722917134421874 0 0.019453657840843644 0.0098653535789771964 0 0.019116504273300011 0.010109561200237767 0 0.018971089599984413 0.010437884012615506 0 0.02024870911144875 0.0094136259499379392 0 0.019637656119847413 0.01020597546945831 0 0.019116504273300011 0.010109561200237767 0 0.018682152683985466 0.010438261568654999 0 0.01872064492870168 0.010893185784598358 0 0.019637656119847413 0.01020597546945831 0 0.018682152683985466 0.010438261568654999 0 0.019133314863901362 0.0099110043084742194 0 0.020989448136088287 0.0085990790372063777 0 0.020939763285629302 0.0089707597910257987 0 0.017937411387606926 0.010410187209538761 0 0.018682152683985466 0.010438261568654999 0 0.018524580391757448 0.010157276324629226 0 0.017937411387606926 0.010410187209538761 0 0.018154807629968465 0.010738078910553485 0 0.018682152683985466 0.010438261568654999 0 0.019116504273300011 0.010109561200237767 0 0.018682152683985466 0.010438261568654999 0 0.018524580391757448 0.010157276324629226 0 0.019116504273300011 0.010109561200237767 0 0.018524580391757448 0.010157276324629226 0 0.018830892569274151 0.0099041161894926934 0 0.017979411832848353 0.010089697284432261 0 0.018524580391757448 0.010157276324629226 0 0.018369267028612093 0.0098335892819796274 0 0.018524580391757448 0.010157276324629226 0 0.018369267028612093 0.0098335892819796274 0 0.018830892569274151 0.0099041161894926934 0 0.018369267028612093 0.0098335892819796274 0 0.018830892569274151 0.0099041161894926934 0 0.018790137134155557 0.0096426721892081332 0 0.019220534603844455 0.009722917134421874 0 0.019116504273300011 0.010109561200237767 0 0.018830892569274151 0.0099041161894926934 0 0.019220534603844455 0.009722917134421874 0 0.018790137134155557 0.0096426721892081332 0 0.019176529148240442 0.0093802418538840703 0 0.019220534603844455 0.009722917134421874 0 0.018830892569274151 0.0099041161894926934 0 0.018790137134155557 0.0096426721892081332 0 0.018355491615946396 0.0095705923663885733 0 0.018369267028612093 0.0098335892819796274 0 0.018790137134155557 0.0096426721892081332 0 0.018355491615946396 0.0095705923663885733 0 0.018790137134155557 0.0096426721892081332 0 0.01868295403463922 0.0093562559873985977 0 0.01868295403463922 0.0093562559873985977 0 0.018602460293882468 0.0091094554076940528 0 0.018175348664935878 0.0093362825179798929 0 0.01868295403463922 0.0093562559873985977 0 0.018983358742513827 0.0091380847638657357 0 0.018602460293882468 0.0091094554076940528 0 0.01868295403463922 0.0093562559873985977 0 0.019176529148240442 0.0093802418538840703 0 0.018983358742513827 0.0091380847638657357 0 0.018790137134155557 0.0096426721892081332 0 0.01868295403463922 0.0093562559873985977 0 0.019176529148240442 0.0093802418538840703 0 0.018983358742513827 0.0091380847638657357 0 0.018913549882428694 0.0087971333863745733 0 0.019468781866794568 0.0090555625621393451 0 0.019176529148240442 0.0093802418538840703 0 0.018983358742513827 0.0091380847638657357 0 0.019468781866794568 0.0090555625621393451 0 0.018983358742513827 0.0091380847638657357 0 0.018602460293882468 0.0091094554076940528 0 0.018913549882428694 0.0087971333863745733 0 0.018913549882428694 0.0087971333863745733 0 0.019658045253067975 0.0086451949287143608 0 0.018955773723584157 0.0084508381749812157 0 0.018913549882428694 0.0087971333863745733 0 0.019468781866794568 0.0090555625621393451 0 0.019658045253067975 0.0086451949287143608 0 0.019468781866794568 0.0090555625621393451 0 0.020084325717656837 0.0090482880850556013 0 0.019658045253067975 0.0086451949287143608 0 0.020084325717656837 0.0090482880850556013 0 0.020038804430325956 0.0090338747650142714 0 0.019658045253067975 0.0086451949287143608 0 0.019468781866794568 0.0090555625621393451 0 0.019849074453238889 0.0094159681860164889 0 0.020084325717656837 0.0090482880850556013 0 0.019176529148240442 0.0093802418538840703 0 0.019468781866794568 0.0090555625621393451 0 0.019849074453238889 0.0094159681860164889 0 0.019849074453238889 0.0094159681860164889 0 0.020593162772025799 0.0092683286522721349 0 0.020084325717656837 0.0090482880850556013 0 0.020593162772025799 0.0092683286522721349 0 0.020700733028234386 0.0092673150527416495 0 0.020476790171520917 0.0093793767627138314 0 0.020593162772025799 0.0092683286522721349 0 0.020476790171520917 0.0093793767627138314 0 0.020084325717656837 0.0090482880850556013 0 0.020476790171520917 0.0093793767627138314 0 0.020084325717656837 0.0090482880850556013 0 0.020038804430325956 0.0090338747650142714 0 0.020038804430325956 0.0090338747650142714 0 0.020076192041793547 0.0092970109384860541 0 0.019870836789680553 0.0089170367937786692 0 0.020476790171520917 0.0093793767627138314 0 0.020038804430325956 0.0090338747650142714 0 0.020076192041793547 0.0092970109384860541 0 0.020476790171520917 0.0093793767627138314 0 0.020076192041793547 0.0092970109384860541 0 0.020170920553442818 0.0095673087816078861 0 0.020076192041793547 0.0092970109384860541 0 0.020170920553442818 0.0095673087816078861 0 0.01984131118665778 0.0095221743702791472 0 0.020076192041793547 0.0092970109384860541 0 0.019870836789680553 0.0089170367937786692 0 0.01984131118665778 0.0095221743702791472 0 0.019870836789680553 0.0089170367937786692 0 0.020120579622931841 0.0094301774221523978 0 0.01984131118665778 0.0095221743702791472 0 0.019870836789680553 0.0089170367937786692 0 0.020127938820530034 0.0089965574981627633 0 0.020120579622931841 0.0094301774221523978 0 0.019870836789680553 0.0089170367937786692 0 0.020127938820530034 0.0089965574981627633 0 0.019531705820275126 0.0082062177167420963 0 0.019658045253067975 0.0086451949287143608 0 0.019531705820275126 0.0082062177167420963 0 0.018955773723584157 0.0084508381749812157 0 0.019870836789680553 0.0089170367937786692 0 0.019658045253067975 0.0086451949287143608 0 0.019531705820275126 0.0082062177167420963 0 0.020038804430325956 0.0090338747650142714 0 0.019870836789680553 0.0089170367937786692 0 0.019658045253067975 0.0086451949287143608 0 0.024198115323698297 0.0097178820638458372 0 0.023754418383126696 0.0097144932013245398 0 0.023002360851087252 0.0098356378675776238 0 0.024198115323698297 0.0097178820638458372 0 0.024745150540231357 0.0095215223842954177 0 0.023754418383126696 0.0097144932013245398 0 0.024742103881033279 0.0094843778539399678 0 0.024745150540231357 0.0095215223842954177 0 0.023754418383126696 0.0097144932013245398 0 0.023754418383126696 0.0097144932013245398 0 0.023092682977599668 0.0098243790025698639 0 0.023002360851087252 0.0098356378675776238 0 0.021858163104371883 0.009548960347448154 0 0.021342416866717819 0.0095544069714749939 0 0.024126138612419992 0.0095841552494468144 0 0.023754418383126696 0.0097144932013245398 0 0.023092682977599668 0.0098243790025698639 0 0.022317612791353157 0.0093305659155049972 0 0.021858163104371883 0.009548960347448154 0 0.020505746405742702 0.0091773353635923212 0 0.020700733028234386 0.0092673150527416495 0 0.020711909996346031 0.0094618936707335892 0 0.020476790171520917 0.0093793767627138314 0 0.020711909996346031 0.0094618936707335892 0 0.02120451544285229 0.0096848182059884793 0 0.020700733028234386 0.0092673150527416495 0 0.020476790171520917 0.0093793767627138314 0 0.020711909996346031 0.0094618936707335892 0 0.020476790171520917 0.0093793767627138314 0 0.020170920553442818 0.0095673087816078861 0 0.02120451544285229 0.0096848182059884793 0 0.020170920553442818 0.0095673087816078861 0 0.02120451544285229 0.0096848182059884793 0 0.020653995825222503 0.0097111484524693148 0 0.02120451544285229 0.0096848182059884793 0 0.022162111342825207 0.0096940251133470837 0 0.020653995825222503 0.0097111484524693148 0 0.023092682977599668 0.0098243790025698639 0 0.02120451544285229 0.0096848182059884793 0 0.023002360851087252 0.0098356378675776238 0 0.02120451544285229 0.0096848182059884793 0 0.023002360851087252 0.0098356378675776238 0 0.022162111342825207 0.0096940251133470837 0 0.022162111342825207 0.0096940251133470837 0 0.021164811677171814 0.0097678741407536424 0 0.020653995825222503 0.0097111484524693148 0 0.022162111342825207 0.0096940251133470837 0 0.022528593456669337 0.0095697094495473135 0 0.021714644995781171 0.0097101661216558322 0 0.022162111342825207 0.0096940251133470837 0 0.022528593456669337 0.0095697094495473135 0 0.023384639877828368 0.0098141086677106266 0 0.023002360851087252 0.0098356378675776238 0 0.022162111342825207 0.0096940251133470837 0 0.023384639877828368 0.0098141086677106266 0 0.024198115323698297 0.0097178820638458372 0 0.023002360851087252 0.0098356378675776238 0 0.023384639877828368 0.0098141086677106266 0 0.021713974099312628 0.0098153365007040572 0 0.021723996447525214 0.0097618126770126611 0 0.021750760882308727 0.009899774735125098 0 0.021706718258189837 0.0091404651613306246 0 0.020505231299686975 0.011889447800501439 0 0.021713974099312628 0.0098153365007040572 0 0.021723996447525214 0.0097618126770126611 0 0.021784106768490477 0.0097477862038744707 0 0.022528593456669337 0.0095697094495473135 0 0.021723996447525214 0.0097618126770126611 0 0.021784106768490477 0.0097477862038744707 0 0.022528593456669337 0.0095697094495473135 0 0.021714644995781171 0.0097101661216558322 0 0.021723996447525214 0.0097618126770126611 0 0.022162111342825207 0.0096940251133470837 0 0.021714644995781171 0.0097101661216558322 0 0.021164811677171814 0.0097678741407536424 0 0.021714644995781171 0.0097101661216558322 0 0.021723996447525214 0.0097618126770126611 0 0.020689385296232574 0.010001728509773036 0 0.021714644995781171 0.0097101661216558322 0 0.021164811677171814 0.0097678741407536424 0 0.020689385296232574 0.010001728509773036 0 0.021723996447525214 0.0097618126770126611 0 0.020689385296232574 0.010001728509773036 0 0.020333857315184854 0.010176486355324492 0 0.021164811677171814 0.0097678741407536424 0 0.020689385296232574 0.010001728509773036 0 0.020005583980778625 0.010089223731100402 0 0.020689385296232574 0.010001728509773036 0 0.020005583980778625 0.010089223731100402 0 0.019342864392215199 0.01063363398746125 0 0.021164811677171814 0.0097678741407536424 0 0.020005583980778625 0.010089223731100402 0 0.020653995825222503 0.0097111484524693148 0 0.020170920553442818 0.0095673087816078861 0 0.020653995825222503 0.0097111484524693148 0 0.019637340941373507 0.010012215102016282 0 0.020005583980778625 0.010089223731100402 0 0.020653995825222503 0.0097111484524693148 0 0.019637340941373507 0.010012215102016282 0 0.020005583980778625 0.010089223731100402 0 0.019637340941373507 0.010012215102016282 0 0.018864400975850095 0.010688227634922198 0 0.020005583980778625 0.010089223731100402 0 0.019342864392215199 0.01063363398746125 0 0.018864400975850095 0.010688227634922198 0 0.017366368806741295 0.011735594874173159 0 0.019342864392215199 0.01063363398746125 0 0.018864400975850095 0.010688227634922198 0 0.017306885808877261 0.011326385249693167 0 0.015432552895717233 0.012955770331869482 0 0.017366368806741295 0.011735594874173159 0 0.019342864392215199 0.01063363398746125 0 0.019286176402480478 0.010155456252564652 0 0.020689385296232574 0.010001728509773036 0 0.019342864392215199 0.01063363398746125 0 0.020333857315184854 0.010176486355324492 0 0.020505231299686975 0.011889447800501439 0 0.015432552895717233 0.012955770331869482 0 0.017785811449703755 0.013485101118512595 0 0.01753265956608728 0.012918214838148956 0 0.017309030173281538 0.012980170313745678 0 0.020505231299686975 0.011889447800501439 0 0.015644213194583676 0.015423644543111096 0 0.02059512054173826 0.014374635761534834 0 0.020302549579272453 0.015033971383189437 0 0.020892344801253224 0.015416152845399933 0 0.019342864392215199 0.01063363398746125 0 0.020333857315184854 0.010176486355324492 0 0.019286176402480478 0.010155456252564652 0 0.020302549579272453 0.015033971383189437 0 0.019690179664749258 0.014641131291404439 0 0.019976548083737458 0.015729886746764524 0 0.02059512054173826 0.014374635761534834 0 0.020302549579272453 0.015033971383189437 0 0.019690179664749258 0.014641131291404439 0 0.020150119491107583 0.013756037221025339 0 0.02059512054173826 0.014374635761534834 0 0.019690179664749258 0.014641131291404439 0 0.020990417910185542 0.011903042698816618 0 0.020505231299686975 0.011889447800501439 0 0.020178028992063973 0.010233382843508472 0 0.021421915847808344 0.011187187241587637 0 0.020977039894921022 0.0098596803854049831 0 0.020127938820530034 0.0089965574981627633 0 0.020120579622931841 0.0094301774221523978 0 0.020977039894921022 0.0098596803854049831 0 0.020178028992063973 0.010233382843508472 0 0.020120579622931841 0.0094301774221523978 0 0.020977039894921022 0.0098596803854049831 0 0.020178028992063973 0.010233382843508472 0 0.020120579622931841 0.0094301774221523978 0 0.01984131118665778 0.0095221743702791472 0 0.020170920553442818 0.0095673087816078861 0 0.019637340941373507 0.010012215102016282 0 0.01984131118665778 0.0095221743702791472 0 0.019637340941373507 0.010012215102016282 0 0.01984131118665778 0.0095221743702791472 0 0.01951721263222753 0.010213169283542168 0 0.019637340941373507 0.010012215102016282 0 0.01951721263222753 0.010213169283542168 0 0.018864400975850095 0.010688227634922198 0 0.020178028992063973 0.010233382843508472 0 0.01951721263222753 0.010213169283542168 0 0.01940046692014602 0.011057839072396502 0 0.020178028992063973 0.010233382843508472 0 0.01984131118665778 0.0095221743702791472 0 0.01951721263222753 0.010213169283542168 0 0.01951721263222753 0.010213169283542168 0 0.01940046692014602 0.011057839072396502 0 0.018864400975850095 0.010688227634922198 0 0.01940046692014602 0.011057839072396502 0 0.018864400975850095 0.010688227634922198 0 0.018537084811885096 0.011747180069444097 0 0.017366368806741295 0.011735594874173159 0 0.018864400975850095 0.010688227634922198 0 0.018537084811885096 0.011747180069444097 0 0.017366368806741295 0.011735594874173159 0 0.018537084811885096 0.011747180069444097 0 0.017985320971543966 0.013692464374577488 0 0.01940046692014602 0.011057839072396502 0 0.019170767836329893 0.013039005612354109 0 0.020477724108861759 0.012134112799798369 0 0.018537084811885096 0.011747180069444097 0 0.019170767836329893 0.013039005612354109 0 0.017985320971543966 0.013692464374577488 0 0.01940046692014602 0.011057839072396502 0 0.018537084811885096 0.011747180069444097 0 0.019170767836329893 0.013039005612354109 0 0.019170767836329893 0.013039005612354109 0 0.02008865129993417 0.013566874023705532 0 0.020477724108861759 0.012134112799798369 0 0.02008865129993417 0.013566874023705532 0 0.020477724108861759 0.012134112799798369 0 0.021157564178537171 0.01351807489738918 0 0.020178028992063973 0.010233382843508472 0 0.01940046692014602 0.011057839072396502 0 0.020477724108861759 0.012134112799798369 0 0.020178028992063973 0.010233382843508472 0 0.020477724108861759 0.012134112799798369 0 0.021421915847808344 0.011187187241587637 0 0.016331728201242332 0.012548299041246132 0 0.017976303401552499 0.015189744148726973 0 0.020477724108861759 0.012134112799798369 0 0.021421915847808344 0.011187187241587637 0 0.021640042537676141 0.013435267912383553 0 0.020477724108861759 0.012134112799798369 0 0.021157564178537171 0.01351807489738918 0 0.021640042537676141 0.013435267912383553 0 0.011489623981487864 0.014537208469979244 0 0.011448103065955818 0.014511926964285203 0 0.011605496868310793 0.014455584821164371 0 0.011448103065955818 0.014511926964285203 0 0.011485560632016611 0.014462202110563295 0 0.011605496868310793 0.014455584821164371 0 0.011448103065955818 0.014511926964285203 0 0.011404564554268318 0.01449230715313903 0 0.011485560632016611 0.014462202110563295 0 0.011448103065955818 0.014511926964285203 0 0.011366765017403782 0.014544791832975306 0 0.011404564554268318 0.01449230715313903 0 0.011366765017403782 0.014544791832975306 0 0.011358744328660025 0.014557300077933245 0 0.011318488895659791 0.014569117547283754 0 0.011448103065955818 0.014511926964285203 0 0.011366765017403782 0.014544791832975306 0 0.011358744328660025 0.014557300077933245 0 0.011489623981487864 0.014537208469979244 0 0.011448103065955818 0.014511926964285203 0 0.011358744328660025 0.014557300077933245 0 0.011358744328660025 0.014557300077933245 0 0.011185153021476374 0.014625819088740605 0 0.011361085668958635 0.014601757788020833 0 0.011489623981487864 0.014537208469979244 0 0.011358744328660025 0.014557300077933245 0 0.011361085668958635 0.014601757788020833 0 0.016331728201242332 0.012548299041246132 0 0.016115420390579303 0.012993769284367056 0 0.011185153021476374 0.014625819088740605 0 0.011023496561108997 0.014736664039151285 0 0.010859086342923947 0.014920576303694994 0 0.011283182570986483 0.014975851886075042 0 0.010923267663656885 0.013955755034070637 0 0.011358744328660025 0.014557300077933245 0 0.011185153021476374 0.014625819088740605 0 0.011318488895659791 0.014569117547283754 0 0.011185153021476374 0.014625819088740605 0 0.011049383829728912 0.014641740761600706 0 0.011296200264323026 0.014716846436488013 0 0.016115420390579303 0.012993769284367056 0 0.015875936367770911 0.0084846473546933612 0 0.011185153021476374 0.014625819088740605 0 0.011361085668958635 0.014601757788020833 0 0.011296200264323026 0.014716846436488013 0 0.012245835261215121 0.0069766343268816439 0 0.0096841825076711217 0.0086693205055311685 0 0.010135162625710376 0.00027137787392911419 0 0.013780411526976144 6.7729728452386724e-05 0 0.010217518713933602 -0.0023809386531498402 0 0.011049383829728912 0.014641740761600706 0 0.011031919350309002 0.01483178573473156 0 0.011023496561108997 0.014736664039151285 0 0.011185153021476374 0.014625819088740605 0 0.011049383829728912 0.014641740761600706 0 0.011023496561108997 0.014736664039151285 0 0.011049383829728912 0.014641740761600706 0 0.011031919350309002 0.01483178573473156 0 0.011226031135468908 0.014761276776510845 0 0.011031919350309002 0.01483178573473156 0 0.011023496561108997 0.014736664039151285 0 0.010859086342923947 0.014920576303694994 0 0.011031919350309002 0.01483178573473156 0 0.010859086342923947 0.014920576303694994 0 0.010985681757288718 0.015199530562556681 0 0.011031919350309002 0.01483178573473156 0 0.011226031135468908 0.014761276776510845 0 0.010985681757288718 0.015199530562556681 0 0.0096841825076711217 0.0086693205055311685 0 0.010546231393426156 0.016943369136253276 0 0.011008092231409639 0.015087760024331718 0 0.011020316075669518 0.015211809926589845 0 0.011038721004742725 0.015128771624790474 0 0.0088098281433211193 0.019997269235973697 0 0.0077966234794496101 0.015087364443053253 0 0.011008092231409639 0.015087760024331718 0 0.011020316075669518 0.015211809926589845 0 0.010985681757288718 0.015199530562556681 0 0.0074023233293135796 0.024110457623516105 0 0.0089532222018412436 0.023876342715568787 0 0.0096276691748429337 0.021881337163167838 0 0.011020316075669518 0.015211809926589845 0 0.010985681757288718 0.015199530562556681 0 0.010841103532259356 0.015474488061368499 0 0.0074023233293135796 0.024110457623516105 0 0.0052431406933240964 0.026208468050966161 0 0.0074354614031251955 0.026378457980415743 0 0.0088098281433211193 0.019997269235973697 0 0.01057569494908767 0.019471992929019608 0 0.0074023233293135796 0.024110457623516105 0 0.0084243912731626017 0.025472633126228106 0 0.0089532222018412436 0.023876342715568787 0 0.0074023233293135796 0.024110457623516105 0 0.0084243912731626017 0.025472633126228106 0 0.0074354614031251955 0.026378457980415743 0 0.011366765017403782 0.014544791832975306 0 0.011318488895659791 0.014569117547283754 0 0.011333015269293383 0.014555882374646865 0 0.010859086342923947 0.014920576303694994 0 0.010985681757288718 0.015199530562556681 0 0.010841103532259356 0.015474488061368499 0 0.010923267663656885 0.013955755034070637 0 0.01057569494908767 0.019471992929019608 0 0.01057569494908767 0.019471992929019608 0 0.016979091292119764 0.019454267637432972 0 0.013800866748015787 0.021793154620791146 0 0.013309775804954729 0.020745557990919764 0 0.014936630247894291 0.020782956850400554 0 0.011366765017403782 0.014544791832975306 0 0.011333015269293383 0.014555882374646865 0 0.011404564554268318 0.01449230715313903 0 0.01057569494908767 0.019471992929019608 0 0.014027597099993901 0.024441423778118754 0 0.0083727724779902556 0.026688484848423132 0 0.0074354614031251955 0.026378457980415743 0 0.0081248057836555525 0.027727159703130146 0 0.0084243912731626017 0.025472633126228106 0 0.0083727724779902556 0.026688484848423132 0 0.0091988419561819228 0.026376974927862288 0 0.0084243912731626017 0.025472633126228106 0 0.0083727724779902556 0.026688484848423132 0 0.0074354614031251955 0.026378457980415743 0 0.0052431406933240964 0.026208468050966161 0 0.0074354614031251955 0.026378457980415743 0 0.0070174098090557968 0.027516728652874699 0 0.0070174098090557968 0.027516728652874699 0 0.0076480711142819322 0.028275921895516271 0 0.0064680182127943202 0.028947320608883016 0 0.0052431406933240964 0.026208468050966161 0 0.0070174098090557968 0.027516728652874699 0 0.0064680182127943202 0.028947320608883016 0 0.0076480711142819322 0.028275921895516271 0 0.0084954268444424486 0.028369979413616752 0 0.007939934800254669 0.02898615291167328 0 0.0074354614031251955 0.026378457980415743 0 0.0070174098090557968 0.027516728652874699 0 0.0081248057836555525 0.027727159703130146 0 0.0070174098090557968 0.027516728652874699 0 0.0076480711142819322 0.028275921895516271 0 0.0081248057836555525 0.027727159703130146 0 0.0083727724779902556 0.026688484848423132 0 0.0081248057836555525 0.027727159703130146 0 0.0087213908999792776 0.027442464015262843 0 0.0081248057836555525 0.027727159703130146 0 0.0086136289061622927 0.027984163822959658 0 0.0087213908999792776 0.027442464015262843 0 0.0081248057836555525 0.027727159703130146 0 0.0086136289061622927 0.027984163822959658 0 0.0084954268444424486 0.028369979413616752 0 0.0076480711142819322 0.028275921895516271 0 0.0081248057836555525 0.027727159703130146 0 0.0084954268444424486 0.028369979413616752 0 0.0091083858336497691 0.028375711706533392 0 0.0087213908999792776 0.027442464015262843 0 0.0091988419561819228 0.026376974927862288 0 0.0091083858336497691 0.028375711706533392 0 0.0094253433672370646 0.028419326303134398 0 0.009245599395791837 0.027910151345403349 0 0.0091083858336497691 0.028375711706533392 0 0.0091988419561819228 0.026376974927862288 0 0.010597050613118891 0.025065508403824238 0 0.0092538566899157664 0.028062344459393103 0 0.0098061238555569655 0.026776624163412779 0 0.0084954268444424486 0.028369979413616752 0 0.0091083858336497691 0.028375711706533392 0 0.0090013269959703501 0.028905896755861714 0 0.0086136289061622927 0.027984163822959658 0 0.0084954268444424486 0.028369979413616752 0 0.0091083858336497691 0.028375711706533392 0 0.0086136289061622927 0.027984163822959658 0 0.0091083858336497691 0.028375711706533392 0 0.0087213908999792776 0.027442464015262843 0 0.0083727724779902556 0.026688484848423132 0 0.0087213908999792776 0.027442464015262843 0 0.0091988419561819228 0.026376974927862288 0 0.0094253433672370646 0.028419326303134398 0 0.0097993022690890212 0.028278962528124087 0 0.009245599395791837 0.027910151345403349 0 0.0091083858336497691 0.028375711706533392 0 0.0094253433672370646 0.028419326303134398 0 0.0093386306954925061 0.028744119787037673 0 0.0094253433672370646 0.028419326303134398 0 0.0096792906617414291 0.028858408161411407 0 0.0093386306954925061 0.028744119787037673 0 0.0097993022690890212 0.028278962528124087 0 0.010606872187486412 0.027978405249990877 0 0.010136961205171036 0.028872039569147627 0 0.0097993022690890212 0.028278962528124087 0 0.010136961205171036 0.028872039569147627 0 0.0096792906617414291 0.028858408161411407 0 0.0094253433672370646 0.028419326303134398 0 0.0097993022690890212 0.028278962528124087 0 0.0096792906617414291 0.028858408161411407 0 0.0098200409463515877 0.027667146636948817 0 0.010606872187486412 0.027978405249990877 0 0.0097750510816417922 0.026822944015577891 0 0.0097993022690890212 0.028278962528124087 0 0.0098200409463515877 0.027667146636948817 0 0.010606872187486412 0.027978405249990877 0 0.0098200409463515877 0.027667146636948817 0 0.009245599395791837 0.027910151345403349 0 0.0094510106980091445 0.027082848219442152 0 0.0097993022690890212 0.028278962528124087 0 0.0098200409463515877 0.027667146636948817 0 0.009245599395791837 0.027910151345403349 0 0.0098061238555569655 0.026776624163412779 0 0.0084964916994206552 0.021967498369766181 0 0.0089532222018412436 0.023876342715568787 0 0.010597050613118891 0.025065508403824238 0 0.01179183956402465 0.021924388838330793 0 0.010016414852266639 0.023186339284283156 0 0.0084964916994206552 0.021967498369766181 0 0.0084243912731626017 0.025472633126228106 0 0.0089532222018412436 0.023876342715568787 0 0.0093424523482384825 0.025167561089876295 0 0.0089532222018412436 0.023876342715568787 0 0.0093424523482384825 0.025167561089876295 0 0.010597050613118891 0.025065508403824238 0 0.0084243912731626017 0.025472633126228106 0 0.0091988419561819228 0.026376974927862288 0 0.0093424523482384825 0.025167561089876295 0 0.0091988419561819228 0.026376974927862288 0 0.0093424523482384825 0.025167561089876295 0 0.010597050613118891 0.025065508403824238 0 -0.0064557902411359353 0.01897747463564162 0 -0.0062320662638592284 0.018953171931995923 0 -0.0062233013272215438 0.019818631547116841 0 0.010606872187486412 0.027978405249990877 0 0.010687561623282568 0.029429199054736378 0 0.011307154974449495 0.029239086007824155 0 -0.0062320662638592284 0.018953171931995923 0 -0.0062233013272215438 0.019818631547116841 0 -0.0060218797065974593 0.019381557242022958 0 0.0017832305607909606 0.022853104537528809 0 0.0021399146647332352 0.030891303912499942 0 0.010606872187486412 0.027978405249990877 0 0.010687561623282568 0.029429199054736378 0 0.010136961205171036 0.028872039569147627 0 0.0017832305607909606 0.022853104537528809 0 0.0030347893394157273 0.019599859560285374 0 -0.0062320662638592284 0.018953171931995923 0 -0.0062702474820132805 0.018610322669044641 0 -0.0062126137579695618 0.018557580287268685 0 -0.0064557902411359353 0.01897747463564162 0 -0.0062320662638592284 0.018953171931995923 0 -0.0062702474820132805 0.018610322669044641 0 -0.0062702474820132805 0.018610322669044641 0 -0.0062367333101701981 0.01845845028541216 0 -0.0062126137579695618 0.018557580287268685 0 -0.0062702474820132805 0.018610322669044641 0 -0.0062500402246685642 0.01850873391033565 0 -0.0063233807668321394 0.018568639962085756 0 -0.0062702474820132805 0.018610322669044641 0 -0.0062500402246685642 0.01850873391033565 0 -0.0062367333101701981 0.01845845028541216 0 -0.0064557902411359353 0.01897747463564162 0 -0.0063233807668321394 0.018568639962085756 0 -0.0064404986428287679 0.018586024362165443 0 -0.0064557902411359353 0.01897747463564162 0 -0.0062702474820132805 0.018610322669044641 0 -0.0063233807668321394 0.018568639962085756 0 -0.0063233807668321394 0.018568639962085756 0 -0.0061891453287077399 0.018420881107098701 0 -0.0064404986428287679 0.018586024362165443 0 0.00066540910917025069 0.01059843685308653 0 0.00038006887537886229 0.010787003504503359 0 0.00074749033303448287 0.010527547737711231 0 0.0028992321566306458 0.010897777410605679 0 4.5712927971304534e-05 0.010564394110223143 0 -0.0037850411021100238 0.01397820235459196 0 0.0030347893394157273 0.019599859560285374 0 -0.0062500402246685642 0.01850873391033565 0 -0.0063233807668321394 0.018568639962085756 0 -0.0061891453287077399 0.018420881107098701 0 -0.0061891453287077399 0.018420881107098701 0 -0.0062367333101701981 0.01845845028541216 0 -0.0062769115863635172 0.018588947514679103 0 -0.0062500402246685642 0.01850873391033565 0 -0.0061891453287077399 0.018420881107098701 0 -0.0062367333101701981 0.01845845028541216 0 0.0077966234794496101 0.015087364443053253 0 0.0051455945883883232 0.012044488754413111 0 0.0039300062675933518 0.0066139024597608835 0 0.002856530504539372 0.0075251735490708986 0 0.0035555864785931823 0.0075855983442585069 0 0.0096276691748429337 0.021881337163167838 0 0.011625084727338914 0.021851637755742843 0 0.011902157577601023 0.01965987488210753 0 0.0046251794827625904 0.0071059745436972722 0 0.0039300062675933518 0.0066139024597608835 0 0.0035555864785931823 0.0075855983442585069 0 0.0089532222018412436 0.023876342715568787 0 0.0096276691748429337 0.021881337163167838 0 0.011625084727338914 0.021851637755742843 0 0.0096841825076711217 0.0086693205055311685 0 0.0077966234794496101 0.015087364443053253 0 0.0098200409463515877 0.027667146636948817 0 0.0094510106980091445 0.027082848219442152 0 0.0097750510816417922 0.026822944015577891 0 0.0084964916994206552 0.021967498369766181 0 0.0030347893394157273 0.019599859560285374 0 0.011625084727338914 0.021851637755742843 0 0.012261252011973313 0.02009997315690077 0 0.011902157577601023 0.01965987488210753 0 0.00039085796723499071 0.011005338688008562 0 0.0003336591930623223 0.010921545181830923 0 0.00038006887537886229 0.010787003504503359 0 0.0084964916994206552 0.021967498369766181 0 0.0048988053430995748 0.015272924625790753 0 0.0058312270545322282 0.020019468494918102 0 0.0065518557292414369 0.019505181891659795 0 0.0061912075295365914 0.019055933931070988 0 0.0030347893394157273 0.019599859560285374 0 0.0048988053430995748 0.015272924625790753 0 0.0048988053430995748 0.015272924625790753 0 0.0051455945883883232 0.012044488754413111 0 0.0028992321566306458 0.010897777410605679 0 0.0013477887169546891 0.0097172996534497756 0 0.0028448177398654943 0.0075152466975641269 0 0.0024746396775729143 0.0078323239774860196 0 0.0030592602632313827 0.007773233619397522 0 0.0024746396775729143 0.0078323239774860196 0 0.0028358875782093932 0.0084251497569198096 0 0.0030592602632313827 0.007773233619397522 0 0.0051455945883883232 0.012044488754413111 0 0.0038513140184127845 0.010187768213312442 0 0.00066540910917025069 0.01059843685308653 0 0.00039085796723499071 0.011005338688008562 0 0.00038006887537886229 0.010787003504503359 0 0.0024746396775729143 0.0078323239774860196 0 0.0028358875782093932 0.0084251497569198096 0 0.0024630057751576693 0.0090713064331601548 0 0.003808029536119958 0.012100743052869638 0 0.0037819699480018858 0.012066989564736385 0 0.0038333607816100406 0.012008772450768207 0 0.0048988053430995748 0.015272924625790753 0 0.0028992321566306458 0.010897777410605679 0 0.0051455945883883232 0.012044488754413111 0 0.0028992321566306458 0.010897777410605679 0 0.0096841825076711217 0.0086693205055311685 0 0.0055094900657283929 0.0038777368173262081 0 0.0035555864785931823 0.0075855983442585069 0 0.0030592602632313827 0.007773233619397522 0 0.0033139649661360947 0.0089094766880333433 0 0.0046251794827625904 0.0071059745436972722 0 0.0035555864785931823 0.0075855983442585069 0 0.0033139649661360947 0.0089094766880333433 0 0.010135162625710376 0.00027137787392911419 0 0.010217518713933602 -0.0023809386531498402 0 0.0078563062103068747 0.0011339410223985783 0 0.0028358875782093932 0.0084251497569198096 0 0.0030592602632313827 0.007773233619397522 0 0.0033139649661360947 0.0089094766880333433 0 0.002856530504539372 0.0075251735490708986 0 0.0035555864785931823 0.0075855983442585069 0 0.0030592602632313827 0.007773233619397522 0 0.0093598603194432126 0.0023207848764997411 0 0.0078563062103068747 0.0011339410223985783 0 0.008092431691851797 0.0039030447918559285 0 0.010135162625710376 0.00027137787392911419 0 0.0093598603194432126 0.0023207848764997411 0 0.0078563062103068747 0.0011339410223985783 0 0.0024630057751576693 0.0090713064331601548 0 0.0017147059312326539 0.0095005430044505651 0 0.001927600437416112 0.010571307491030349 0 0.0028358875782093932 0.0084251497569198096 0 0.0033139649661360947 0.0089094766880333433 0 0.0024630057751576693 0.0090713064331601548 0 0.0033139649661360947 0.0089094766880333433 0 0.0024630057751576693 0.0090713064331601548 0 0.001927600437416112 0.010571307491030349 0 0.0024746396775729143 0.0078323239774860196 0 0.0024630057751576693 0.0090713064331601548 0 0.0017147059312326539 0.0095005430044505651 0 0.0055094900657283929 0.0038777368173262081 0 0.0036893306182501817 0.0078547280530686121 0 0.0054912954816334122 0.0047486458964829262 0 0.008092431691851797 0.0039030447918559285 0 0.0071076364408756108 0.0057357046732450208 0 0.0078563062103068747 0.0011339410223985783 0 0.0054912954816334122 0.0047486458964829262 0 0.008092431691851797 0.0039030447918559285 0 0.008092431691851797 0.0039030447918559285 0 0.008825591494553725 0.0057725590700130969 0 0.0071076364408756108 0.0057357046732450208 0 0.008092431691851797 0.0039030447918559285 0 0.008825591494553725 0.0057725590700130969 0 0.01041127839868514 0.0041534843453230243 0 0.0093598603194432126 0.0023207848764997411 0 0.008092431691851797 0.0039030447918559285 0 0.01041127839868514 0.0041534843453230243 0 0.00074749033303448287 0.010527547737711231 0 0.00062830761017295452 0.010720427579169044 0 0.00016357790715855014 0.010438724109133503 0 -0.0037850411021100238 0.01397820235459196 0 -0.0029371912355913013 0.01458526035419729 0 0.00066540910917025069 0.01059843685308653 0 0.00074749033303448287 0.010527547737711231 0 0.00016357790715855014 0.010438724109133503 0 0.0012021707150945292 0.010128809298896911 0 0.00099908108521119506 0.010571579423282974 0 0.00074749033303448287 0.010527547737711231 0 0.00099908108521119506 0.010571579423282974 0 0.00074749033303448287 0.010527547737711231 0 0.00088885075761546272 0.01067716316258158 0 0.0013477887169546891 0.0097172996534497756 0 0.00111183641235601 0.010952396943052533 0 0.0017147059312326539 0.0095005430044505651 0 0.001927600437416112 0.010571307491030349 0 0.0011447590175616426 0.010877360851227525 0 0.00099908108521119506 0.010571579423282974 0 0.00088885075761546272 0.01067716316258158 0 0.0011447590175616426 0.010877360851227525 0 0.00088885075761546272 0.01067716316258158 0 0.00062830761017295452 0.010720427579169044 0 0.0011447590175616426 0.010877360851227525 0 0.00074749033303448287 0.010527547737711231 0 0.00088885075761546272 0.01067716316258158 0 0.00062830761017295452 0.010720427579169044 0 0.00062830761017295452 0.010720427579169044 0 0.00081216849058402018 0.011166303936905779 0 0.00042639847169163636 0.010996465966674878 0 0.00062830761017295452 0.010720427579169044 0 0.00081216849058402018 0.011166303936905779 0 0.0011447590175616426 0.010877360851227525 0 0.00081216849058402018 0.011166303936905779 0 0.0007735924093087486 0.011513925501124013 0 0.00042639847169163636 0.010996465966674878 0 0.00081216849058402018 0.011166303936905779 0 0.0010868477613604544 0.011482201235948571 0 0.0007735924093087486 0.011513925501124013 0 0.0036893306182501817 0.0078547280530686121 0 0.0022729129953213867 0.0098440490972852204 0 0.00081216849058402018 0.011166303936905779 0 0.0011447590175616426 0.010877360851227525 0 0.0010868477613604544 0.011482201235948571 0 0.001927600437416112 0.010571307491030349 0 0.0011447590175616426 0.010877360851227525 0 0.0010868477613604544 0.011482201235948571 0 0.003638227830959552 0.011032333621679422 0 0.0033558031651290186 0.0082337118499076992 0 0.0059176785473943764 0.0095227794730639043 0 0.0013840009864248047 0.011746999984620182 0 0.0022729129953213867 0.0098440490972852204 0 0.0014066567622206968 0.011849124656270454 0 0.0010868477613604544 0.011482201235948571 0 0.0007735924093087486 0.011513925501124013 0 0.0073108956606894463 0.0076326522337221226 0 0.0093999093951150445 0.0076282023601905915 0 0.008825591494553725 0.0057725590700130969 0 0.0073108956606894463 0.0076326522337221226 0 0.008825591494553725 0.0057725590700130969 0 0.0071076364408756108 0.0057357046732450208 0 0.0054912954816334122 0.0047486458964829262 0 0.0033558031651290186 0.0082337118499076992 0 0.0058307779686459461 0.0071917797883669244 0 0.0054912954816334122 0.0047486458964829262 0 0.0071076364408756108 0.0057357046732450208 0 0.0058307779686459461 0.0071917797883669244 0 0.0073108956606894463 0.0076326522337221226 0 0.0071076364408756108 0.0057357046732450208 0 0.0058307779686459461 0.0071917797883669244 0 0.0073108956606894463 0.0076326522337221226 0 0.0058307779686459461 0.0071917797883669244 0 0.0059176785473943764 0.0095227794730639043 0 0.0033558031651290186 0.0082337118499076992 0 0.0058307779686459461 0.0071917797883669244 0 0.0059176785473943764 0.0095227794730639043 0 0.0079743482332903636 0.011360465435577512 0 0.0059176785473943764 0.0095227794730639043 0 0.0081714529495963816 0.0090940146371358051 0 0.0079743482332903636 0.011360465435577512 0 0.0081714529495963816 0.0090940146371358051 0 0.010338164200350965 0.0091781969813426265 0 0.0073108956606894463 0.0076326522337221226 0 0.0059176785473943764 0.0095227794730639043 0 0.0081714529495963816 0.0090940146371358051 0 0.0073108956606894463 0.0076326522337221226 0 0.0093999093951150445 0.0076282023601905915 0 0.0081714529495963816 0.0090940146371358051 0 0.0093999093951150445 0.0076282023601905915 0 0.0081714529495963816 0.0090940146371358051 0 0.010338164200350965 0.0091781969813426265 0 0.011012398050735249 0.010853462612540228 0 0.010338164200350965 0.0091781969813426265 0 0.011856745402621023 0.0087632046999409161 0 0.010338164200350965 0.0091781969813426265 0 0.011856745402621023 0.0087632046999409161 0 0.011171453210384459 0.007618269638440975 0 0.0093999093951150445 0.0076282023601905915 0 0.010338164200350965 0.0091781969813426265 0 0.011171453210384459 0.007618269638440975 0 0.0093999093951150445 0.0076282023601905915 0 0.011171453210384459 0.007618269638440975 0 0.010617853059831732 0.0061400067816854802 0 0.011171453210384459 0.007618269638440975 0 0.011834929650565495 0.0065889995273607418 0 0.012966765012443308 0.0072525558632764104 0 0.011856745402621023 0.0087632046999409161 0 0.011171453210384459 0.007618269638440975 0 0.012966765012443308 0.0072525558632764104 0 0.011171453210384459 0.007618269638440975 0 0.011834929650565495 0.0065889995273607418 0 0.010617853059831732 0.0061400067816854802 0 0.011834929650565495 0.0065889995273607418 0 0.010617853059831732 0.0061400067816854802 0 0.01249363234998326 0.0054723030055315678 0 0.0093999093951150445 0.0076282023601905915 0 0.008825591494553725 0.0057725590700130969 0 0.010617853059831732 0.0061400067816854802 0 0.013929623054534138 0.0064598771895090917 0 0.015347778235036205 0.0068483944596085299 0 0.014627976827688363 0.0052921879312807099 0 0.013929623054534138 0.0064598771895090917 0 0.01249363234998326 0.0054723030055315678 0 0.014627976827688363 0.0052921879312807099 0 0.011834929650565495 0.0065889995273607418 0 0.012966765012443308 0.0072525558632764104 0 0.01249363234998326 0.0054723030055315678 0 0.013929623054534138 0.0064598771895090917 0 0.012966765012443308 0.0072525558632764104 0 0.01249363234998326 0.0054723030055315678 0 0.012966765012443308 0.0072525558632764104 0 0.014313837378012843 0.0075026866818666037 0 0.013888813989777296 0.0083661302036386661 0 0.013929623054534138 0.0064598771895090917 0 0.012966765012443308 0.0072525558632764104 0 0.014313837378012843 0.0075026866818666037 0 0.014313837378012843 0.0075026866818666037 0 0.015241756626772768 0.0079919530281342705 0 0.015347778235036205 0.0068483944596085299 0 0.013929623054534138 0.0064598771895090917 0 0.014313837378012843 0.0075026866818666037 0 0.015347778235036205 0.0068483944596085299 0 0.014313837378012843 0.0075026866818666037 0 0.013888813989777296 0.0083661302036386661 0 0.015241756626772768 0.0079919530281342705 0 0.013888813989777296 0.0083661302036386661 0 0.016108838566316026 0.0088985784271580926 0 0.015241756626772768 0.0079919530281342705 0 0.013888813989777296 0.0083661302036386661 0 0.012917327241107971 0.0096609833655386008 0 0.016108838566316026 0.0088985784271580926 0 0.012582180486113897 0.012234411568050167 0 0.012917327241107971 0.0096609833655386008 0 0.016108838566316026 0.0088985784271580926 0 0.011856745402621023 0.0087632046999409161 0 0.013888813989777296 0.0083661302036386661 0 0.012917327241107971 0.0096609833655386008 0 0.011856745402621023 0.0087632046999409161 0 0.012966765012443308 0.0072525558632764104 0 0.013888813989777296 0.0083661302036386661 0 0.011012398050735249 0.010853462612540228 0 0.011856745402621023 0.0087632046999409161 0 0.012917327241107971 0.0096609833655386008 0 0.016807247707722888 0.0095780638743561217 0 0.0171735990460379 0.0092320564101102849 0 0.016108838566316026 0.0088985784271580926 0 0.0171735990460379 0.0092320564101102849 0 0.016946434183008733 0.0087702890382341785 0 0.016108838566316026 0.0088985784271580926 0 0.0171735990460379 0.0092320564101102849 0 0.017361248655170625 0.0089060829852656721 0 0.016946434183008733 0.0087702890382341785 0 0.017361248655170625 0.0089060829852656721 0 0.016946434183008733 0.0087702890382341785 0 0.01738432637351885 0.0084600577211493538 0 0.016946434183008733 0.0087702890382341785 0 0.016108838566316026 0.0088985784271580926 0 0.016530053424749027 0.0082632437996127996 0 0.016108838566316026 0.0088985784271580926 0 0.015241756626772768 0.0079919530281342705 0 0.016530053424749027 0.0082632437996127996 0 0.018175348664935878 0.0093362825179798929 0 0.017714158129510736 0.0091257110915109897 0 0.01821036126662157 0.0089424155941895157 0 0.018355491615946396 0.0095705923663885733 0 0.01868295403463922 0.0093562559873985977 0 0.018175348664935878 0.0093362825179798929 0 0.017321519337809788 0.0096581643289011514 0 0.0171735990460379 0.0092320564101102849 0 0.017708604623011732 0.0094071111503220336 0 0.018175348664935878 0.0093362825179798929 0 0.017708604623011732 0.0094071111503220336 0 0.017714158129510736 0.0091257110915109897 0 0.0171735990460379 0.0092320564101102849 0 0.017708604623011732 0.0094071111503220336 0 0.017714158129510736 0.0091257110915109897 0 0.017759391722535708 0.0087955571776625868 0 0.01821036126662157 0.0089424155941895157 0 0.018153731185372213 0.008555950154696115 0 0.017361248655170625 0.0089060829852656721 0 0.017714158129510736 0.0091257110915109897 0 0.017759391722535708 0.0087955571776625868 0 0.0171735990460379 0.0092320564101102849 0 0.017361248655170625 0.0089060829852656721 0 0.017714158129510736 0.0091257110915109897 0 0.017361248655170625 0.0089060829852656721 0 0.017759391722535708 0.0087955571776625868 0 0.01738432637351885 0.0084600577211493538 0 0.017714158129510736 0.0091257110915109897 0 0.017759391722535708 0.0087955571776625868 0 0.01821036126662157 0.0089424155941895157 0 0.018602460293882468 0.0091094554076940528 0 0.018913549882428694 0.0087971333863745733 0 0.01821036126662157 0.0089424155941895157 0 0.018602460293882468 0.0091094554076940528 0 0.018175348664935878 0.0093362825179798929 0 0.01821036126662157 0.0089424155941895157 0 0.018153731185372213 0.008555950154696115 0 0.018955773723584157 0.0084508381749812157 0 0.017691880442526873 0.0080533817305788787 0 0.018913549882428694 0.0087971333863745733 0 0.01821036126662157 0.0089424155941895157 0 0.018153731185372213 0.008555950154696115 0 0.018913549882428694 0.0087971333863745733 0 0.018153731185372213 0.008555950154696115 0 0.018955773723584157 0.0084508381749812157 0 0.017759391722535708 0.0087955571776625868 0 0.018153731185372213 0.008555950154696115 0 0.01738432637351885 0.0084600577211493538 0 0.018153731185372213 0.008555950154696115 0 0.01738432637351885 0.0084600577211493538 0 0.017691880442526873 0.0080533817305788787 0 0.016546766076898301 0.0084506243126251414 0 0.017394864509756112 0.0060097277632240433 0 0.016530053424749027 0.0082632437996127996 0 0.01738432637351885 0.0084600577211493538 0 0.017691880442526873 0.0080533817305788787 0 0.016530053424749027 0.0082632437996127996 0 0.015347778235036205 0.0068483944596085299 0 0.01679525143512264 0.0051851064075507216 0 0.015241756626772768 0.0079919530281342705 0 0.016530053424749027 0.0082632437996127996 0 0.015347778235036205 0.0068483944596085299 0 0.016946434183008733 0.0087702890382341785 0 0.016530053424749027 0.0082632437996127996 0 0.01738432637351885 0.0084600577211493538 0 0.015347778235036205 0.0068483944596085299 0 0.01679525143512264 0.0051851064075507216 0 0.014627976827688363 0.0052921879312807099 0 0.017394864509756112 0.0060097277632240433 0 0.015875936367770911 0.0084846473546933612 0 0.01679525143512264 0.0051851064075507216 0 0.015116772908816101 0.0033075398493570564 0 0.014627976827688363 0.0052921879312807099 0 0.01679525143512264 0.0051851064075507216 0 0.015116772908816101 0.0033075398493570564 0 0.017442156319988418 0.0026220784031489616 0 0.019531705820275126 0.0082062177167420963 0 0.017691880442526873 0.0080533817305788787 0 0.018191104188963456 0.0069569043631100861 0 0.019531705820275126 0.0082062177167420963 0 0.018955773723584157 0.0084508381749812157 0 0.017691880442526873 0.0080533817305788787 0 0.020316942541941625 0.0085918392988434521 0 0.015875936367770911 0.0084846473546933612 0 0.020127938820530034 0.0089965574981627633 0 0.019531705820275126 0.0082062177167420963 0 0.020788751012262872 0.0087640802091576188 0 0.020127938820530034 0.0089965574981627633 0 0.020977039894921022 0.0098596803854049831 0 0.020788751012262872 0.0087640802091576188 0 0.013780411526976144 6.7729728452386724e-05 0 0.015116772908816101 0.0033075398493570564 0 0.017442156319988418 0.0026220784031489616 0 0.012245835261215121 0.0069766343268816439 0 0.015875936367770911 0.0084846473546933612 0 0.013780411526976144 6.7729728452386724e-05 0 0.011064898438218177 0.0019852497695904822 0 0.012937067779526622 0.0034222565445307346 0 0.013780411526976144 6.7729728452386724e-05 0 0.015116772908816101 0.0033075398493570564 0 0.012937067779526622 0.0034222565445307346 0 0.010135162625710376 0.00027137787392911419 0 0.013780411526976144 6.7729728452386724e-05 0 0.011064898438218177 0.0019852497695904822 0 0.010135162625710376 0.00027137787392911419 0 0.0093598603194432126 0.0023207848764997411 0 0.011064898438218177 0.0019852497695904822 0 0.0093598603194432126 0.0023207848764997411 0 0.011064898438218177 0.0019852497695904822 0 0.01041127839868514 0.0041534843453230243 0 0.011064898438218177 0.0019852497695904822 0 0.01041127839868514 0.0041534843453230243 0 0.012937067779526622 0.0034222565445307346 0 0.008825591494553725 0.0057725590700130969 0 0.010617853059831732 0.0061400067816854802 0 0.01041127839868514 0.0041534843453230243 0 0.010617853059831732 0.0061400067816854802 0 0.01041127839868514 0.0041534843453230243 0 0.01249363234998326 0.0054723030055315678 0 0.01041127839868514 0.0041534843453230243 0 0.01249363234998326 0.0054723030055315678 0 0.012937067779526622 0.0034222565445307346 0 0.01249363234998326 0.0054723030055315678 0 0.014627976827688363 0.0052921879312807099 0 0.012937067779526622 0.0034222565445307346 0 0.015116772908816101 0.0033075398493570564 0 0.014627976827688363 0.0052921879312807099 0 0.012937067779526622 0.0034222565445307346 0 0.034888240929639554 0.0074068885994741356 0 0.034851673552641946 0.0080234171763563979 0 0.034525276808568039 0.0080512046508015925 0 0.034888240929639554 0.0074068885994741356 0 0.034525276808568039 0.0080512046508015925 0 0.034482460495480698 0.0076104393052553706 0 0.034888240929639554 0.0074068885994741356 0 0.034998542945838547 0.0075467041231303466 0 0.035000257448194148 0.0054849024804387598 0 0.034888240929639554 0.0074068885994741356 0 0.034998542945838547 0.0075467041231303466 0 0.034851673552641946 0.0080234171763563979 0 0.034998542945838547 0.0075467041231303466 0 0.034980824286671645 0.0085976380761448156 0 0.034851673552641946 0.0080234171763563979 0 0.034980824286671645 0.0085976380761448156 0 0.034851673552641946 0.0080234171763563979 0 0.034579439841546607 0.0084046780069926379 0 0.034998542945838547 0.0075467041231303466 0 0.034980824286671645 0.0085976380761448156 0 0.034999611426741635 0.0096165001164107561 0 0.034851673552641946 0.0080234171763563979 0 0.034525276808568039 0.0080512046508015925 0 0.034579439841546607 0.0084046780069926379 0 0.034525276808568039 0.0080512046508015925 0 0.034414125580784459 0.0084617023529066498 0 0.034579439841546607 0.0084046780069926379 0 0.034525276808568039 0.0080512046508015925 0 0.034256833843218017 0.0084457282947470493 0 0.034139675183972831 0.0079183675957510882 0 0.034525276808568039 0.0080512046508015925 0 0.034256833843218017 0.0084457282947470493 0 0.034414125580784459 0.0084617023529066498 0 0.034256833843218017 0.0084457282947470493 0 0.034139675183972831 0.0079183675957510882 0 0.034061542462621573 0.0087244364707094943 0 0.034139675183972831 0.0079183675957510882 0 0.034482460495480698 0.0076104393052553706 0 0.034170174756724618 0.0075907450177645037 0 0.034525276808568039 0.0080512046508015925 0 0.034139675183972831 0.0079183675957510882 0 0.034482460495480698 0.0076104393052553706 0 0.034170174756724618 0.0075907450177645037 0 0.034375560232567735 0.007631092944510579 0 0.034695159212621375 0.0070380074288069732 0 0.034482460495480698 0.0076104393052553706 0 0.034170174756724618 0.0075907450177645037 0 0.034695159212621375 0.0070380074288069732 0 0.034170174756724618 0.0075907450177645037 0 0.033465884218361622 0.0078332872291783928 0 0.03379672435486427 0.0079379517106244087 0 0.034139675183972831 0.0079183675957510882 0 0.034170174756724618 0.0075907450177645037 0 0.033465884218361622 0.0078332872291783928 0 0.034139675183972831 0.0079183675957510882 0 0.033465884218361622 0.0078332872291783928 0 0.032662347757823777 0.0074567100421582726 0 0.03379672435486427 0.0079379517106244087 0 0.033425184884527705 0.0084370384961060686 0 0.033086191397680424 0.0081736499582686188 0 0.033465884218361622 0.0078332872291783928 0 0.03379672435486427 0.0079379517106244087 0 0.033086191397680424 0.0081736499582686188 0 0.03379672435486427 0.0079379517106244087 0 0.034375560232567735 0.007631092944510579 0 0.034023885691178306 0.008212616313350702 0 0.034170174756724618 0.0075907450177645037 0 0.03379672435486427 0.0079379517106244087 0 0.034375560232567735 0.007631092944510579 0 0.034375560232567735 0.007631092944510579 0 0.034695159212621375 0.0070380074288069732 0 0.034853967819675674 0.007620644035055738 0 0.034375560232567735 0.007631092944510579 0 0.034853967819675674 0.007620644035055738 0 0.034023885691178306 0.008212616313350702 0 0.034888240929639554 0.0074068885994741356 0 0.034482460495480698 0.0076104393052553706 0 0.034695159212621375 0.0070380074288069732 0 0.034888240929639554 0.0074068885994741356 0 0.034695159212621375 0.0070380074288069732 0 0.035000257448194148 0.0054849024804387598 0 0.03499998067798929 0.005478702192871633 0 0.034999980322136609 0.0034416839666376806 0 0.036137874187689087 0.0043044955101496649 0 0.034695159212621375 0.0070380074288069732 0 0.035000257448194148 0.0054849024804387598 0 0.034853967819675674 0.007620644035055738 0 0.034999953935275517 0.0054792334761571537 0 0.03545221088294629 0.0059026042444493537 0 0.034999980322136609 0.0034416839666376806 0 0.036137874187689087 0.0043044955101496649 0 0.036127810844169043 0.002658852198782384 0 0.034853967819675674 0.007620644035055738 0 0.034285100053107316 0.0087691691816907547 0 0.034023885691178306 0.008212616313350702 0 0.03545221088294629 0.0059026042444493537 0 0.035689115257927104 0.0063810649661515083 0 0.036137874187689087 0.0043044955101496649 0 0.036127810844169043 0.002658852198782384 0 0.037287042672342612 0.0031379396625892423 0 0.036127810844169043 0.002658852198782384 0 0.037091031002015377 0.0020387536134019758 0 0.037287042672342612 0.0031379396625892423 0 0.034999980322136609 0.0034416839666376806 0 0.036127810844169043 0.002658852198782384 0 0.034999778778955465 0.0014045076421589462 0 0.036127810844169043 0.002658852198782384 0 0.034999778778955465 0.0014045076421589462 0 0.036205473015921037 0.0014143741910691171 0 0.036127810844169043 0.002658852198782384 0 0.037091031002015377 0.0020387536134019758 0 0.036205473015921037 0.0014143741910691171 0 0.037091031002015377 0.0020387536134019758 0 0.036205473015921037 0.0014143741910691171 0 0.037332246213304526 0.00099597556273335651 0 0.036205473015921037 0.0014143741910691171 0 0.035917294415237971 -8.9093957729964571e-05 0 0.037332246213304526 0.00099597556273335651 0 0.035951723557854309 -2.5462170669299996e-05 0 0.036734301980099832 0.00041610012374077059 0 0.035912396164374569 -9.6228104578055425e-06 0 0.035917294415237971 -8.9093957729964571e-05 0 0.0359110769385729 1.9429545690621382e-05 0 0.035743076857921788 -0.00042331394723311603 0 0.035912396164374569 -9.6228104578055425e-06 0 0.035917294415237971 -8.9093957729964571e-05 0 0.034999778778955465 0.0014045076421589462 0 0.036205473015921037 0.0014143741910691171 0 0.035917294415237971 -8.9093957729964571e-05 0 0.034999650926138264 -0.00063338067780630523 0 0.035743076857921788 -0.00042331394723311603 0 0.034999778778955465 0.0014045076421589462 0 0.035743076857921788 -0.00042331394723311603 0 0.034999778778955465 0.0014045076421589462 0 0.035917294415237971 -8.9093957729964571e-05 0 0.03538484110888826 0.00041597871256532197 0 0.035923044149960018 0.00019000316903262907 0 0.035691389442991467 0.00010524466695242109 0 0.03538484110888826 0.00041597871256532197 0 0.035691389442991467 0.00010524466695242109 0 0.035410070768177926 3.2706041519151061e-05 0 0.035923044149960018 0.00019000316903262907 0 0.035691389442991467 0.00010524466695242109 0 0.0359110769385729 1.9429545690621382e-05 0 0.035923044149960018 0.00019000316903262907 0 0.035912396164374569 -9.6228104578055425e-06 0 0.0359110769385729 1.9429545690621382e-05 0 0.035691389442991467 0.00010524466695242109 0 0.0359110769385729 1.9429545690621382e-05 0 0.035640691556982823 -0.00016591739373984633 0 0.037091031002015377 0.0020387536134019758 0 0.037332246213304526 0.00099597556273335651 0 0.038493189677654159 0.0019386102595329408 0 0.036734301980099832 0.00041610012374077059 0 0.035393668477595355 0.0025923903977598337 0 0.035691389442991467 0.00010524466695242109 0 0.035640691556982823 -0.00016591739373984633 0 0.035410070768177926 3.2706041519151061e-05 0 0.035500127096841846 -6.5418215395436028e-05 0 0.035410070768177926 3.2706041519151061e-05 0 0.035314762691720979 -0.00018446172228739504 0 0.035393668477595355 0.0025923903977598337 0 0.035983388545205441 -0.00022297220306847156 0 0.033588665276654835 0.0095047472987031326 0 0.033557580159445252 0.0088244353919272912 0 0.033039637826753281 0.0091670119666044502 0 0.035393668477595355 0.0025923903977598337 0 0.034133721661184398 0.0044636501603413327 0 0.033557580159445252 0.0088244353919272912 0 0.033027503156079441 0.0087908857013953377 0 0.033039637826753281 0.0091670119666044502 0 0.037091031002015377 0.0020387536134019758 0 0.038493189677654159 0.0019386102595329408 0 0.037287042672342612 0.0031379396625892423 0 0.033588665276654835 0.0095047472987031326 0 0.033557580159445252 0.0088244353919272912 0 0.034285100053107316 0.0087691691816907547 0 0.035393668477595355 0.0025923903977598337 0 0.035689115257927104 0.0063810649661515083 0 0.033557580159445252 0.0088244353919272912 0 0.034285100053107316 0.0087691691816907547 0 0.034023885691178306 0.008212616313350702 0 0.033557580159445252 0.0088244353919272912 0 0.033425184884527705 0.0084370384961060686 0 0.033027503156079441 0.0087908857013953377 0 0.033557580159445252 0.0088244353919272912 0 0.034023885691178306 0.008212616313350702 0 0.033425184884527705 0.0084370384961060686 0 0.03379672435486427 0.0079379517106244087 0 0.034023885691178306 0.008212616313350702 0 0.033425184884527705 0.0084370384961060686 0 0.033425184884527705 0.0084370384961060686 0 0.03300101154426175 0.0085032301411449782 0 0.033086191397680424 0.0081736499582686188 0 0.033425184884527705 0.0084370384961060686 0 0.03300101154426175 0.0085032301411449782 0 0.033027503156079441 0.0087908857013953377 0 0.03300101154426175 0.0085032301411449782 0 0.032606735260317127 0.0087118524493985262 0 0.032311988646769665 0.0083338636876622591 0 0.032606735260317127 0.0087118524493985262 0 0.032484432930206114 0.0088862628619768413 0 0.033027503156079441 0.0087908857013953377 0 0.03228951008825786 0.0084117931499312574 0 0.033240576845554856 0.0065078856924162803 0 0.03300101154426175 0.0085032301411449782 0 0.032606735260317127 0.0087118524493985262 0 0.033027503156079441 0.0087908857013953377 0 0.03090692055302531 0.0082888191551544147 0 0.031401499646023262 0.0085422587201533021 0 0.031043196235842212 0.0081869201279863076 0 0.031401499646023262 0.0085422587201533021 0 0.031272131687383242 0.0084205892321341496 0 0.031576973326253456 0.0083576568312480858 0 0.032606735260317127 0.0087118524493985262 0 0.031401499646023262 0.0085422587201533021 0 0.032311988646769665 0.0083338636876622591 0 0.033240576845554856 0.0065078856924162803 0 0.031810377335290747 0.008074434526131196 0 0.032606735260317127 0.0087118524493985262 0 0.032243178534345843 0.0092122421063255498 0 0.031401499646023262 0.0085422587201533021 0 0.031401499646023262 0.0085422587201533021 0 0.031043196235842212 0.0081869201279863076 0 0.031272131687383242 0.0084205892321341496 0 0.03090692055302531 0.0082888191551544147 0 0.030656407887957506 0.0077417415543807712 0 0.031043196235842212 0.0081869201279863076 0 0.035105269800946505 -0.00030039003578784745 0 0.035126605219555102 -0.00015981321732878639 0 0.034886910610206649 -9.919548448054077e-05 0 0.033240576845554856 0.0065078856924162803 0 0.032915576970656446 0.0033800680869560057 0 0.032484432930206114 0.0088862628619768413 0 0.033027503156079441 0.0087908857013953377 0 0.033039637826753281 0.0091670119666044502 0 0.033240576845554856 0.0065078856924162803 0 0.034133721661184398 0.0044636501603413327 0 0.035105269800946505 -0.00030039003578784745 0 0.035126605219555102 -0.00015981321732878639 0 0.035314762691720979 -0.00018446172228739504 0 0.035126605219555102 -0.00015981321732878639 0 0.035314762691720979 -0.00018446172228739504 0 0.035182662490069253 -5.0107832444172133e-05 0 0.035410070768177926 3.2706041519151061e-05 0 0.035182662490069253 -5.0107832444172133e-05 0 0.035056375928059574 0.00016108109244974869 0 0.035410070768177926 3.2706041519151061e-05 0 0.035314762691720979 -0.00018446172228739504 0 0.035182662490069253 -5.0107832444172133e-05 0 0.034886910610206649 -9.919548448054077e-05 0 0.035056375928059574 0.00016108109244974869 0 0.034590835775902974 0.00019542996177437875 0 0.035182662490069253 -5.0107832444172133e-05 0 0.034886910610206649 -9.919548448054077e-05 0 0.035056375928059574 0.00016108109244974869 0 0.035126605219555102 -0.00015981321732878639 0 0.035182662490069253 -5.0107832444172133e-05 0 0.034886910610206649 -9.919548448054077e-05 0 0.034867049570612416 0.00052183904689469458 0 0.035056375928059574 0.00016108109244974869 0 0.034590835775902974 0.00019542996177437875 0 0.03538484110888826 0.00041597871256532197 0 0.035410070768177926 3.2706041519151061e-05 0 0.035056375928059574 0.00016108109244974869 0 0.03538484110888826 0.00041597871256532197 0 0.034867049570612416 0.00052183904689469458 0 0.035056375928059574 0.00016108109244974869 0 0.030197575541738318 0.0055183702149827875 0 0.030233647711628356 0.0068024010523234126 0 0.030758264410608919 0.0061062283832547517 0 0.030233647711628356 0.0068024010523234126 0 0.030860338767714008 0.0074030678917603255 0 0.030758264410608919 0.0061062283832547517 0 0.031246389556634228 0.0018192433036856028 0 0.032449156983965173 0.0036474161538611522 0 0.034275965791776865 0.00058687083832712069 0 0.034867049570612416 0.00052183904689469458 0 0.034590835775902974 0.00019542996177437875 0 0.032915576970656446 0.0033800680869560057 0 0.032449156983965173 0.0036474161538611522 0 0.030656407887957506 0.0077417415543807712 0 0.030233647711628356 0.0068024010523234126 0 0.030732240493748914 0.007645090218546733 0 0.030233647711628356 0.0068024010523234126 0 0.030732240493748914 0.007645090218546733 0 0.030860338767714008 0.0074030678917603255 0 0.030860338767714008 0.0074030678917603255 0 0.031052330541774285 0.0082052809031696438 0 0.031250549350830062 0.0083210501957822289 0 0.030732240493748914 0.007645090218546733 0 0.030860338767714008 0.0074030678917603255 0 0.031052330541774285 0.0082052809031696438 0 0.030656407887957506 0.0077417415543807712 0 0.030732240493748914 0.007645090218546733 0 0.031043196235842212 0.0081869201279863076 0 0.030732240493748914 0.007645090218546733 0 0.031052330541774285 0.0082052809031696438 0 0.031043196235842212 0.0081869201279863076 0 0.031052330541774285 0.0082052809031696438 0 0.031272131687383242 0.0084205892321341496 0 0.031351310661488691 0.0085145042917182182 0 0.031052330541774285 0.0082052809031696438 0 0.031043196235842212 0.0081869201279863076 0 0.031272131687383242 0.0084205892321341496 0 0.031052330541774285 0.0082052809031696438 0 0.031351310661488691 0.0085145042917182182 0 0.031250549350830062 0.0083210501957822289 0 0.031351310661488691 0.0085145042917182182 0 0.031575919396082147 0.0088096784283988368 0 0.031250549350830062 0.0083210501957822289 0 0.031351310661488691 0.0085145042917182182 0 0.031833878147731531 0.0089518624641826989 0 0.031575919396082147 0.0088096784283988368 0 0.033076880906791895 0.0092921525291018037 0 0.032512992253793255 0.0090014348462927711 0 0.031833878147731531 0.0089518624641826989 0 0.031351310661488691 0.0085145042917182182 0 0.031530091197961373 0.0081460991207315779 0 0.031833878147731531 0.0089518624641826989 0 0.032355229729278311 0.008686433098196009 0 0.031930395496524627 0.0089114880125456992 0 0.031351310661488691 0.0085145042917182182 0 0.031530091197961373 0.0081460991207315779 0 0.031576973326253456 0.0083576568312480858 0 0.031272131687383242 0.0084205892321341496 0 0.031351310661488691 0.0085145042917182182 0 0.031576973326253456 0.0083576568312480858 0 0.031401499646023262 0.0085422587201533021 0 0.031576973326253456 0.0083576568312480858 0 0.032311988646769665 0.0083338636876622591 0 0.031576973326253456 0.0083576568312480858 0 0.032346980780340102 0.008060427167245485 0 0.032311988646769665 0.0083338636876622591 0 0.033465884218361622 0.0078332872291783928 0 0.032346980780340102 0.008060427167245485 0 0.033086191397680424 0.0081736499582686188 0 0.03300101154426175 0.0085032301411449782 0 0.033086191397680424 0.0081736499582686188 0 0.032311988646769665 0.0083338636876622591 0 0.032346980780340102 0.008060427167245485 0 0.033086191397680424 0.0081736499582686188 0 0.032311988646769665 0.0083338636876622591 0 0.033465884218361622 0.0078332872291783928 0 0.032346980780340102 0.008060427167245485 0 0.032662347757823777 0.0074567100421582726 0 0.031530091197961373 0.0081460991207315779 0 0.031576973326253456 0.0083576568312480858 0 0.032346980780340102 0.008060427167245485 0 0.032355229729278311 0.008686433098196009 0 0.033241593370015907 0.0081937196274360549 0 0.031530091197961373 0.0081460991207315779 0 0.032346980780340102 0.008060427167245485 0 0.032662347757823777 0.0074567100421582726 0 0.033076880906791895 0.0092921525291018037 0 0.03387810617238611 0.0088597820527665065 0 0.033315036917247569 0.0089022221398440578 0 0.034139675183972831 0.0079183675957510882 0 0.03387810617238611 0.0088597820527665065 0 0.034061542462621573 0.0087244364707094943 0 0.03399693767155449 0.0079531803408821235 0 0.033241593370015907 0.0081937196274360549 0 0.03387810617238611 0.0088597820527665065 0 0.034061542462621573 0.0087244364707094943 0 0.033315036917247569 0.0089022221398440578 0 0.033315036917247569 0.0089022221398440578 0 0.032695712904543636 0.0089646047364953119 0 0.033095718217899923 0.009048936841521216 0 0.032695712904543636 0.0089646047364953119 0 0.032512992253793255 0.0090014348462927711 0 0.032074983141932203 0.0089771434439913089 0 0.033315036917247569 0.0089022221398440578 0 0.032695712904543636 0.0089646047364953119 0 0.032512992253793255 0.0090014348462927711 0 0.032512992253793255 0.0090014348462927711 0 0.032074983141932203 0.0089771434439913089 0 0.031833878147731531 0.0089518624641826989 0 0.033076880906791895 0.0092921525291018037 0 0.033315036917247569 0.0089022221398440578 0 0.032512992253793255 0.0090014348462927711 0 0.032074983141932203 0.0089771434439913089 0 0.031575203894742179 0.0088173026882149546 0 0.031537998743774331 0.0089833899868858348 0 0.032074983141932203 0.0089771434439913089 0 0.031537998743774331 0.0089833899868858348 0 0.031833878147731531 0.0089518624641826989 0 0.032695712904543636 0.0089646047364953119 0 0.032074983141932203 0.0089771434439913089 0 0.032318516179597287 0.0089328585510918095 0 0.032074983141932203 0.0089771434439913089 0 0.031575203894742179 0.0088173026882149546 0 0.032318516179597287 0.0089328585510918095 0 0.031575203894742179 0.0088173026882149546 0 0.030373993981392164 0.0087462894511283213 0 0.031204905178363943 0.0084771105925576084 0 0.031575203894742179 0.0088173026882149546 0 0.031060464425144135 0.0089065731802009836 0 0.030373993981392164 0.0087462894511283213 0 0.031060464425144135 0.0089065731802009836 0 0.030666115228127445 0.0090861452145360264 0 0.030373993981392164 0.0087462894511283213 0 0.031575203894742179 0.0088173026882149546 0 0.031060464425144135 0.0089065731802009836 0 0.031537998743774331 0.0089833899868858348 0 0.030666115228127445 0.0090861452145360264 0 0.031303165024839374 0.0089781965666944491 0 0.031537998743774331 0.0089833899868858348 0 0.031060464425144135 0.0089065731802009836 0 0.030666115228127445 0.0090861452145360264 0 0.031537998743774331 0.0089833899868858348 0 0.030666115228127445 0.0090861452145360264 0 0.030815169519533208 0.009049643196781346 0 0.029724644101111686 0.0092340924790515321 0 0.030666115228127445 0.0090861452145360264 0 0.030815169519533208 0.009049643196781346 0 0.031303165024839374 0.0089781965666944491 0 0.030815169519533208 0.009049643196781346 0 0.031303165024839374 0.0089781965666944491 0 0.031477190591005663 0.0088233321107883435 0 0.031303165024839374 0.0089781965666944491 0 0.031575919396082147 0.0088096784283988368 0 0.031477190591005663 0.0088233321107883435 0 0.031303165024839374 0.0089781965666944491 0 0.031537998743774331 0.0089833899868858348 0 0.031575919396082147 0.0088096784283988368 0 0.031537998743774331 0.0089833899868858348 0 0.031833878147731531 0.0089518624641826989 0 0.031575919396082147 0.0088096784283988368 0 0.031575919396082147 0.0088096784283988368 0 0.031554283892475513 0.0085240683189477598 0 0.031250549350830062 0.0083210501957822289 0 0.031575919396082147 0.0088096784283988368 0 0.031554283892475513 0.0085240683189477598 0 0.031477190591005663 0.0088233321107883435 0 0.031554283892475513 0.0085240683189477598 0 0.031484561900921734 0.007378625681492364 0 0.031842147527144427 0.0085403600320760487 0 0.031554283892475513 0.0085240683189477598 0 0.031842147527144427 0.0085403600320760487 0 0.031477190591005663 0.0088233321107883435 0 0.031554283892475513 0.0085240683189477598 0 0.031250549350830062 0.0083210501957822289 0 0.031484561900921734 0.007378625681492364 0 0.030860338767714008 0.0074030678917603255 0 0.031484561900921734 0.007378625681492364 0 0.030758264410608919 0.0061062283832547517 0 0.030860338767714008 0.0074030678917603255 0 0.031250549350830062 0.0083210501957822289 0 0.031484561900921734 0.007378625681492364 0 0.031484561900921734 0.007378625681492364 0 0.032393746995679915 0.0074247264965807318 0 0.031842147527144427 0.0085403600320760487 0 0.031484561900921734 0.007378625681492364 0 0.032194970356938891 0.0062724606874611771 0 0.032393746995679915 0.0074247264965807318 0 0.031484561900921734 0.007378625681492364 0 0.032194970356938891 0.0062724606874611771 0 0.031709600546208264 0.0057261122260740304 0 0.032341156790013481 0.0040847520455430482 0 0.032194970356938891 0.0062724606874611771 0 0.031709600546208264 0.0057261122260740304 0 0.031484561900921734 0.007378625681492364 0 0.031709600546208264 0.0057261122260740304 0 0.030758264410608919 0.0061062283832547517 0 0.031326220156756346 0.004061796353656855 0 0.031709600546208264 0.0057261122260740304 0 0.030758264410608919 0.0061062283832547517 0 0.031391389724551494 0.0068996181801822265 0 0.029170848273310495 0.0083008700105665252 0 0.028392208301210784 0.0063627049140496071 0 0.028093588861838888 0.0064428002925056788 0 0.028385387483992715 0.0066410024980725867 0 0.028283801664620821 0.0061370140721772101 0 0.028392208301210784 0.0063627049140496071 0 0.028093588861838888 0.0064428002925056788 0 0.032234954564429021 0.0069361026787286475 0 0.031391389724551494 0.0068996181801822265 0 0.032341156790013481 0.0040847520455430482 0 0.032194970356938891 0.0062724606874611771 0 0.033271491210056695 0.0058356348019217661 0 0.032194970356938891 0.0062724606874611771 0 0.033271491210056695 0.0058356348019217661 0 0.032393746995679915 0.0074247264965807318 0 0.033271491210056695 0.0058356348019217661 0 0.033636213586318908 0.0062555531707789384 0 0.032393746995679915 0.0074247264965807318 0 0.033636213586318908 0.0062555531707789384 0 0.032145021794035514 0.0086390996039321811 0 0.032393746995679915 0.0074247264965807318 0 0.031391389724551494 0.0068996181801822265 0 0.032376655357927768 0.0088524511449921059 0 0.032145021794035514 0.0086390996039321811 0 0.032393746995679915 0.0074247264965807318 0 0.031842147527144427 0.0085403600320760487 0 0.032173184741424339 0.010119303133508032 0 0.032145021794035514 0.0086390996039321811 0 0.030391432391385993 0.0096813735774165938 0 0.032145021794035514 0.0086390996039321811 0 0.030230030853324694 0.009214755532431158 0 0.030391432391385993 0.0096813735774165938 0 0.032145021794035514 0.0086390996039321811 0 0.03115069262013374 0.0089109476690434255 0 0.030230030853324694 0.009214755532431158 0 0.032145021794035514 0.0086390996039321811 0 0.03115069262013374 0.0089109476690434255 0 0.031842147527144427 0.0085403600320760487 0 0.03115069262013374 0.0089109476690434255 0 0.031842147527144427 0.0085403600320760487 0 0.031477190591005663 0.0088233321107883435 0 0.030815169519533208 0.009049643196781346 0 0.03115069262013374 0.0089109476690434255 0 0.031477190591005663 0.0088233321107883435 0 0.030815169519533208 0.009049643196781346 0 0.03115069262013374 0.0089109476690434255 0 0.030002696340985936 0.0091674003082331205 0 0.030002696340985936 0.0091674003082331205 0 0.029178686802394844 0.0092935203949498033 0 0.030230030853324694 0.009214755532431158 0 0.030002696340985936 0.0091674003082331205 0 0.029178686802394844 0.0092935203949498033 0 0.028702982247904799 0.0094192813253738197 0 0.029178686802394844 0.0092935203949498033 0 0.028365235296084319 0.0092486401107706711 0 0.028702982247904799 0.0094192813253738197 0 0.029178686802394844 0.0092935203949498033 0 0.029018053754176945 0.0096397512559273126 0 0.030230030853324694 0.009214755532431158 0 0.029178686802394844 0.0092935203949498033 0 0.029018053754176945 0.0096397512559273126 0 0.028365235296084319 0.0092486401107706711 0 0.03115069262013374 0.0089109476690434255 0 0.030002696340985936 0.0091674003082331205 0 0.030230030853324694 0.009214755532431158 0 0.029018053754176945 0.0096397512559273126 0 0.030230030853324694 0.009214755532431158 0 0.030391432391385993 0.0096813735774165938 0 0.028705698019156536 0.0083589094377861869 0 0.029170848273310495 0.0083008700105665252 0 0.028218597008128662 0.0070983147355356364 0 0.028385387483992715 0.0066410024980725867 0 0.028536153925391397 0.0064621068324021399 0 0.028218597008128662 0.0070983147355356364 0 0.028536153925391397 0.0064621068324021399 0 0.028453257991012913 0.0068898953012386322 0 0.028607430231106266 0.0060105270277763922 0 0.028392208301210784 0.0063627049140496071 0 0.028536153925391397 0.0064621068324021399 0 0.028392208301210784 0.0063627049140496071 0 0.028385387483992715 0.0066410024980725867 0 0.028536153925391397 0.0064621068324021399 0 0.028733593194625828 0.006393520864519016 0 0.028703634597960985 0.0062612006413617716 0 0.028453257991012913 0.0068898953012386322 0 0.028536153925391397 0.0064621068324021399 0 0.028703634597960985 0.0062612006413617716 0 0.028453257991012913 0.0068898953012386322 0 0.02908239258600747 0.0070518855385059793 0 0.028733593194625828 0.006393520864519016 0 0.028453257991012913 0.0068898953012386322 0 0.02908239258600747 0.0070518855385059793 0 0.028453257991012913 0.0068898953012386322 0 0.028263703544313602 0.0084481711784070556 0 0.026937476037872467 0.008789823602830496 0 0.027259463411789361 0.0084860572743615977 0 0.02814306839528264 0.0085936964451856744 0 0.027991470007025187 0.0078974763464577605 0 0.028129956083320817 0.008486945669400104 0 0.02908239258600747 0.0070518855385059793 0 0.028263703544313602 0.0084481711784070556 0 0.02814306839528264 0.0085936964451856744 0 0.028705698019156536 0.0083589094377861869 0 0.028384240595285742 0.0084722485415022475 0 0.028218597008128662 0.0070983147355356364 0 0.028453257991012913 0.0068898953012386322 0 0.028263703544313602 0.0084481711784070556 0 0.029018053754176945 0.0096397512559273126 0 0.028263703544313602 0.0084481711784070556 0 0.028365235296084319 0.0092486401107706711 0 0.028365235296084319 0.0092486401107706711 0 0.027696015847141771 0.009645524699521792 0 0.028702982247904799 0.0094192813253738197 0 0.028263703544313602 0.0084481711784070556 0 0.028365235296084319 0.0092486401107706711 0 0.02814306839528264 0.0085936964451856744 0 0.028365235296084319 0.0092486401107706711 0 0.026744635483714519 0.010346686244017635 0 0.027696015847141771 0.009645524699521792 0 0.028365235296084319 0.0092486401107706711 0 0.02814306839528264 0.0085936964451856744 0 0.027830573622572578 0.008130500105931724 0 0.027259463411789361 0.0084860572743615977 0 0.02814306839528264 0.0085936964451856744 0 0.027830573622572578 0.008130500105931724 0 0.028146726638499462 0.009255163427204444 0 0.027174113003016902 0.0091960901206861213 0 0.026080674360122114 0.0096999846195452832 0 0.026675069707465988 0.0098757694760962748 0 0.027443509008110586 0.0094953737829112841 0 0.026675069707465988 0.0098757694760962748 0 0.027443509008110586 0.0094953737829112841 0 0.027696015847141771 0.009645524699521792 0 0.026744635483714519 0.010346686244017635 0 0.026675069707465988 0.0098757694760962748 0 0.027696015847141771 0.009645524699521792 0 0.026080674360122114 0.0096999846195452832 0 0.027443509008110586 0.0094953737829112841 0 0.026347306307284785 0.0093909077020609497 0 0.027443509008110586 0.0094953737829112841 0 0.027696015847141771 0.009645524699521792 0 0.028702982247904799 0.0094192813253738197 0 0.027443509008110586 0.0094953737829112841 0 0.028702982247904799 0.0094192813253738197 0 0.02927954094415653 0.0092435784951061944 0 0.028702982247904799 0.0094192813253738197 0 0.029724644101111686 0.0092340924790515321 0 0.02927954094415653 0.0092435784951061944 0 0.030002696340985936 0.0091674003082331205 0 0.028702982247904799 0.0094192813253738197 0 0.029724644101111686 0.0092340924790515321 0 0.030815169519533208 0.009049643196781346 0 0.030002696340985936 0.0091674003082331205 0 0.029724644101111686 0.0092340924790515321 0 0.030666115228127445 0.0090861452145360264 0 0.02927954094415653 0.0092435784951061944 0 0.030373993981392164 0.0087462894511283213 0 0.030666115228127445 0.0090861452145360264 0 0.029724644101111686 0.0092340924790515321 0 0.02927954094415653 0.0092435784951061944 0 0.027443509008110586 0.0094953737829112841 0 0.02927954094415653 0.0092435784951061944 0 0.027124007242364519 0.0089632019872337675 0 0.02927954094415653 0.0092435784951061944 0 0.030373993981392164 0.0087462894511283213 0 0.027124007242364519 0.0089632019872337675 0 0.030373993981392164 0.0087462894511283213 0 0.027124007242364519 0.0089632019872337675 0 0.02958067075541234 0.0080481172299098694 0 0.02706274849273985 0.0090789753010431934 0 0.027329277810706095 0.0088878651816713412 0 0.025672506065527848 0.0092957116596602846 0 0.027124007242364519 0.0089632019872337675 0 0.025346882414966031 0.0094598709434088116 0 0.024745150540231357 0.0095215223842954177 0 0.025672506065527848 0.0092957116596602846 0 0.025346882414966031 0.0094598709434088116 0 0.025566575264292957 0.0095334225028458879 0 0.025672506065527848 0.0092957116596602846 0 0.026347306307284785 0.0093909077020609497 0 0.025672506065527848 0.0092957116596602846 0 0.026347306307284785 0.0093909077020609497 0 0.027124007242364519 0.0089632019872337675 0 0.027443509008110586 0.0094953737829112841 0 0.026347306307284785 0.0093909077020609497 0 0.027124007242364519 0.0089632019872337675 0 0.025346882414966031 0.0094598709434088116 0 0.024842296845483038 0.0097751668627472192 0 0.024434395042590328 0.0097951846267569885 0 0.024198115323698297 0.0097178820638458372 0 0.025346882414966031 0.0094598709434088116 0 0.024434395042590328 0.0097951846267569885 0 0.024198115323698297 0.0097178820638458372 0 0.024745150540231357 0.0095215223842954177 0 0.025346882414966031 0.0094598709434088116 0 0.027124007242364519 0.0089632019872337675 0 0.025346882414966031 0.0094598709434088116 0 0.025119349655111829 0.0094986716176412925 0 0.030373993981392164 0.0087462894511283213 0 0.02958067075541234 0.0080481172299098694 0 0.031204905178363943 0.0084771105925576084 0 0.02958067075541234 0.0080481172299098694 0 0.031063790391948176 0.0083554987011506144 0 0.031204905178363943 0.0084771105925576084 0 0.027329277810706095 0.0088878651816713412 0 0.027853555286642045 0.009096571169523093 0 0.025119349655111829 0.0094986716176412925 0 0.024842296845483038 0.0097751668627472192 0 0.024723547681561549 0.0097627195516537275 0 0.025346882414966031 0.0094598709434088116 0 0.025119349655111829 0.0094986716176412925 0 0.024842296845483038 0.0097751668627472192 0 0.024842296845483038 0.0097751668627472192 0 0.024720866626547214 0.0098658432759426967 0 0.024723547681561549 0.0097627195516537275 0 0.024842296845483038 0.0097751668627472192 0 0.024720866626547214 0.0098658432759426967 0 0.024494179053320703 0.0098133190230723991 0 0.024720866626547214 0.0098658432759426967 0 0.024723547681561549 0.0097627195516537275 0 0.02472991164042489 0.0099978223756029081 0 0.024723547681561549 0.0097627195516537275 0 0.02472991164042489 0.0099978223756029081 0 0.024798465638613633 0.010387895203377767 0 0.02472991164042489 0.0099978223756029081 0 0.024686297192200366 0.010075075301825043 0 0.024568783950055087 0.0098535601224356908 0 0.02472991164042489 0.0099978223756029081 0 0.024686297192200366 0.010075075301825043 0 0.024798465638613633 0.010387895203377767 0 0.024720866626547214 0.0098658432759426967 0 0.024606938357169039 0.0098385122272701877 0 0.024494179053320703 0.0098133190230723991 0 0.024720866626547214 0.0098658432759426967 0 0.02472991164042489 0.0099978223756029081 0 0.024606938357169039 0.0098385122272701877 0 0.02472991164042489 0.0099978223756029081 0 0.024606938357169039 0.0098385122272701877 0 0.024568783950055087 0.0098535601224356908 0 0.024606938357169039 0.0098385122272701877 0 0.024399381307875442 0.0096392515363523199 0 0.024568783950055087 0.0098535601224356908 0 0.024256147283426403 0.0096548664547200912 0 0.024494179053320703 0.0098133190230723991 0 0.024399381307875442 0.0096392515363523199 0 0.024606938357169039 0.0098385122272701877 0 0.024494179053320703 0.0098133190230723991 0 0.024399381307875442 0.0096392515363523199 0 0.024256147283426403 0.0096548664547200912 0 0.024494179053320703 0.0098133190230723991 0 0.023892981721067415 0.0097809908655208336 0 0.024494179053320703 0.0098133190230723991 0 0.024434395042590328 0.0097951846267569885 0 0.023892981721067415 0.0097809908655208336 0 0.024842296845483038 0.0097751668627472192 0 0.024494179053320703 0.0098133190230723991 0 0.024434395042590328 0.0097951846267569885 0 0.023384639877828368 0.0098141086677106266 0 0.024434395042590328 0.0097951846267569885 0 0.023892981721067415 0.0097809908655208336 0 0.024198115323698297 0.0097178820638458372 0 0.023384639877828368 0.0098141086677106266 0 0.024434395042590328 0.0097951846267569885 0 0.022528593456669337 0.0095697094495473135 0 0.023384639877828368 0.0098141086677106266 0 0.023892981721067415 0.0097809908655208336 0 0.022528593456669337 0.0095697094495473135 0 0.023892981721067415 0.0097809908655208336 0 0.024165286635004078 0.009369795605733415 0 0.024256147283426403 0.0096548664547200912 0 0.023892981721067415 0.0097809908655208336 0 0.024165286635004078 0.009369795605733415 0 0.022528593456669337 0.0095697094495473135 0 0.024165286635004078 0.009369795605733415 0 0.023550089230064745 0.0085854102039328167 0 0.022744356659378781 0.009218690151528295 0 0.022048597472627472 0.010255145019851997 0 0.024165286635004078 0.009369795605733415 0 0.024292886831096719 0.0095235868372280791 0 0.024282016580756998 0.0095429609468211489 0 0.023577212527088179 0.009770269768006103 0 0.022048597472627472 0.010255145019851997 0 0.024165286635004078 0.009369795605733415 0 0.024399381307875442 0.0096392515363523199 0 0.024282016580756998 0.0095429609468211489 0 0.024256147283426403 0.0096548664547200912 0 0.024165286635004078 0.009369795605733415 0 0.024399381307875442 0.0096392515363523199 0 0.024399381307875442 0.0096392515363523199 0 0.024282016580756998 0.0095429609468211489 0 0.024399605199735202 0.0096431257244853335 0 0.024282016580756998 0.0095429609468211489 0 0.024336482982986501 0.009612496758980996 0 0.024399605199735202 0.0096431257244853335 0 0.024336482982986501 0.009612496758980996 0 0.024399605199735202 0.0096431257244853335 0 0.024464588908360785 0.0096400529119944466 0 0.020150119491107583 0.013756037221025339 0 0.019684245976670685 0.013122424218796544 0 0.019121437378979478 0.013846645058835179 0 0.022048597472627472 0.010255145019851997 0 0.021660223633190381 0.011906617862795897 0 0.024292886831096719 0.0095235868372280791 0 0.024282016580756998 0.0095429609468211489 0 0.024336482982986501 0.009612496758980996 0 0.020990417910185542 0.011903042698816618 0 0.022048597472627472 0.010255145019851997 0 0.020150119491107583 0.013756037221025339 0 0.019121437378979478 0.013846645058835179 0 0.019690179664749258 0.014641131291404439 0 0.019121437378979478 0.013846645058835179 0 0.019690179664749258 0.014641131291404439 0 0.018580320293016955 0.014562677738296739 0 0.024336482982986501 0.009612496758980996 0 0.024452657066426763 0.0096278641582956629 0 0.024464588908360785 0.0096400529119944466 0 0.021660223633190381 0.011906617862795897 0 0.021363273199768364 0.011912984294588324 0 0.019690179664749258 0.014641131291404439 0 0.018580320293016955 0.014562677738296739 0 0.01918243954616481 0.015270718904731686 0 0.018580320293016955 0.014562677738296739 0 0.018606176272173217 0.015640091022874499 0 0.01918243954616481 0.015270718904731686 0 0.019690179664749258 0.014641131291404439 0 0.01918243954616481 0.015270718904731686 0 0.019976548083737458 0.015729886746764524 0 0.025280232778999948 0.012303413685973107 0 0.023926090952679422 0.014749157011574738 0 0.025012484734165698 0.016985260700803331 0 0.025839084980510643 0.015415012407057586 0 0.024400662771232186 0.01602182974959938 0 0.025012484734165698 0.016985260700803331 0 0.025839084980510643 0.015415012407057586 0 0.026205216468725555 0.017228398130429635 0 0.024452657066426763 0.0096278641582956629 0 0.024514490938692134 0.0096265718662433327 0 0.024467737502676633 0.0097015133064161339 0 0.021363273199768364 0.011912984294588324 0 0.023926090952679422 0.014749157011574738 0 0.018580320293016955 0.014562677738296739 0 0.018606176272173217 0.015640091022874499 0 0.018043081093207132 0.015284840806521871 0 0.024452657066426763 0.0096278641582956629 0 0.024514490938692134 0.0096265718662433327 0 0.024464588908360785 0.0096400529119944466 0 0.025280232778999948 0.012303413685973107 0 0.025171275636020608 0.011592017076864367 0 0.025839084980510643 0.015415012407057586 0 0.025769527385887919 0.013450918537897393 0 0.024564588041408236 0.014697602777368006 0 0.02469522598823759 0.0097074187230846015 0 0.024464588908360785 0.0096400529119944466 0 0.024534608128014834 0.0097619068554783989 0 0.024514490938692134 0.0096265718662433327 0 0.02469522598823759 0.0097074187230846015 0 0.024464588908360785 0.0096400529119944466 0 0.024399605199735202 0.0096431257244853335 0 0.024464588908360785 0.0096400529119944466 0 0.024534608128014834 0.0097619068554783989 0 0.024399605199735202 0.0096431257244853335 0 0.024534608128014834 0.0097619068554783989 0 0.024568783950055087 0.0098535601224356908 0 0.024534608128014834 0.0097619068554783989 0 0.024568783950055087 0.0098535601224356908 0 0.024634795491826185 0.0099698842413309553 0 0.024399381307875442 0.0096392515363523199 0 0.024399605199735202 0.0096431257244853335 0 0.024568783950055087 0.0098535601224356908 0 0.025171275636020608 0.011592017076864367 0 0.024859285434611279 0.010473522243442702 0 0.02469522598823759 0.0097074187230846015 0 0.024634795491826185 0.0099698842413309553 0 0.024798465638613633 0.010387895203377767 0 0.02469522598823759 0.0097074187230846015 0 0.024534608128014834 0.0097619068554783989 0 0.024634795491826185 0.0099698842413309553 0 0.024686297192200366 0.010075075301825043 0 0.024568783950055087 0.0098535601224356908 0 0.024634795491826185 0.0099698842413309553 0 0.024686297192200366 0.010075075301825043 0 0.024634795491826185 0.0099698842413309553 0 0.024798465638613633 0.010387895203377767 0 0.02455527337302537 0.012543453107542762 0 0.024798465638613633 0.010387895203377767 0 0.024281876426276945 0.010396175184464057 0 0.025769527385887919 0.013450918537897393 0 0.02455527337302537 0.012543453107542762 0 0.024798465638613633 0.010387895203377767 0 0.02455527337302537 0.012543453107542762 0 0.023005663231220573 0.01433332806437896 0 0.024281876426276945 0.010396175184464057 0 0.027707062928135778 0.011795205459193584 0 0.028068701332888493 0.0097217364212858186 0 0.032113578952565218 0.0091709161025110685 0 0.032195747863980349 0.0093736978851926261 0 0.031912014688890919 0.0089234732367405416 0 0.025769527385887919 0.013450918537897393 0 0.02455527337302537 0.012543453107542762 0 0.024564588041408236 0.014697602777368006 0 0.02455527337302537 0.012543453107542762 0 0.023005663231220573 0.01433332806437896 0 0.024564588041408236 0.014697602777368006 0 0.024564588041408236 0.014697602777368006 0 0.02385215882268828 0.015461665409188675 0 0.024400662771232186 0.01602182974959938 0 0.025839084980510643 0.015415012407057586 0 0.024564588041408236 0.014697602777368006 0 0.024400662771232186 0.01602182974959938 0 0.023005663231220573 0.01433332806437896 0 0.024564588041408236 0.014697602777368006 0 0.02385215882268828 0.015461665409188675 0 0.023005663231220573 0.01433332806437896 0 0.023816196630372967 0.01559792679667177 0 0.02385215882268828 0.015461665409188675 0 0.023005663231220573 0.01433332806437896 0 0.023816196630372967 0.01559792679667177 0 0.024968882391267516 0.016127713821771503 0 0.023816196630372967 0.01559792679667177 0 0.02385215882268828 0.015461665409188675 0 0.023301031431018516 0.016076947685734849 0 0.023816196630372967 0.01559792679667177 0 0.023301031431018516 0.016076947685734849 0 0.024968882391267516 0.016127713821771503 0 0.025012484734165698 0.016985260700803331 0 0.024400662771232186 0.01602182974959938 0 0.023999608217832171 0.017587661340498061 0 0.023301031431018516 0.016076947685734849 0 0.024400662771232186 0.01602182974959938 0 0.023999608217832171 0.017587661340498061 0 0.02385215882268828 0.015461665409188675 0 0.023301031431018516 0.016076947685734849 0 0.024400662771232186 0.01602182974959938 0 0.031467576539153289 0.0096936368438877134 0 0.030940753287786768 0.0098741496206046393 0 0.030462149083274638 0.010658872615729139 0 0.031526515258274282 0.0096948009916536671 0 0.02865706403232629 0.010810092627126303 0 0.02946467810463483 0.011338769418281087 0 0.030462149083274638 0.010658872615729139 0 0.02865706403232629 0.010810092627126303 0 0.02946467810463483 0.011338769418281087 0 0.02865706403232629 0.010810092627126303 0 0.028708457382919311 0.011745833705145066 0 0.030462149083274638 0.010658872615729139 0 0.031805710925121231 0.009989273262621428 0 0.028287112203155124 0.012554043740177885 0 0.023301031431018516 0.016076947685734849 0 0.024968882391267516 0.016127713821771503 0 0.027060929351256337 0.012781029670013443 0 0.030462149083274638 0.010658872615729139 0 0.031805710925121231 0.009989273262621428 0 0.031526515258274282 0.0096948009916536671 0 0.032195747863980349 0.0093736978851926261 0 0.031805710925121231 0.009989273262621428 0 0.031985946177365915 0.0095109032314568114 0 0.031805710925121231 0.009989273262621428 0 0.031526515258274282 0.0096948009916536671 0 0.031985946177365915 0.0095109032314568114 0 0.027707062928135778 0.011795205459193584 0 0.028338867529563272 0.012865545400299286 0 0.031526515258274282 0.0096948009916536671 0 0.032320297264637747 0.0095553547839908829 0 0.03277355361745752 0.0088822565514476565 0 0.031526515258274282 0.0096948009916536671 0 0.032320297264637747 0.0095553547839908829 0 0.031985946177365915 0.0095109032314568114 0 0.032320297264637747 0.0095553547839908829 0 0.03254526233401444 0.0096670844489998905 0 0.033027823466707407 0.0097147986358706133 0 0.032320297264637747 0.0095553547839908829 0 0.03254526233401444 0.0096670844489998905 0 0.031985946177365915 0.0095109032314568114 0 0.03254526233401444 0.0096670844489998905 0 0.031985946177365915 0.0095109032314568114 0 0.032218537692253177 0.0094115172448276125 0 0.032195747863980349 0.0093736978851926261 0 0.031985946177365915 0.0095109032314568114 0 0.032218537692253177 0.0094115172448276125 0 0.032113578952565218 0.0091709161025110685 0 0.032218537692253177 0.0094115172448276125 0 0.032380438031481135 0.0092883648703002003 0 0.032113578952565218 0.0091709161025110685 0 0.032195747863980349 0.0093736978851926261 0 0.032218537692253177 0.0094115172448276125 0 0.03254526233401444 0.0096670844489998905 0 0.032218537692253177 0.0094115172448276125 0 0.032736419103161919 0.0096058437774053616 0 0.03254526233401444 0.0096670844489998905 0 0.032736419103161919 0.0096058437774053616 0 0.033262182401441263 0.0099702420018350987 0 0.032218537692253177 0.0094115172448276125 0 0.032736419103161919 0.0096058437774053616 0 0.032380438031481135 0.0092883648703002003 0 0.032736419103161919 0.0096058437774053616 0 0.03275710157995352 0.0093476454812992642 0 0.032380438031481135 0.0092883648703002003 0 0.03275710157995352 0.0093476454812992642 0 0.032236775175257498 0.0090620073535087869 0 0.032380438031481135 0.0092883648703002003 0 0.03275710157995352 0.0093476454812992642 0 0.032236775175257498 0.0090620073535087869 0 0.032255014020300815 0.0089537473712484172 0 0.03275710157995352 0.0093476454812992642 0 0.032255014020300815 0.0089537473712484172 0 0.032869279427609331 0.009155003004158873 0 0.032236775175257498 0.0090620073535087869 0 0.031854741250129721 0.0087808141008869581 0 0.032255014020300815 0.0089537473712484172 0 0.032236775175257498 0.0090620073535087869 0 0.032380438031481135 0.0092883648703002003 0 0.032001790539095611 0.0089802349742263733 0 0.032113578952565218 0.0091709161025110685 0 0.032380438031481135 0.0092883648703002003 0 0.032001790539095611 0.0089802349742263733 0 0.032001790539095611 0.0089802349742263733 0 0.031912014688890919 0.0089234732367405416 0 0.031635252043710517 0.0086741948798394943 0 0.032113578952565218 0.0091709161025110685 0 0.032001790539095611 0.0089802349742263733 0 0.031912014688890919 0.0089234732367405416 0 0.027853555286642045 0.009096571169523093 0 0.028068701332888493 0.0097217364212858186 0 0.024723547681561549 0.0097627195516537275 0 0.024798465638613633 0.010387895203377767 0 0.024281876426276945 0.010396175184464057 0 0.031063790391948176 0.0083554987011506144 0 0.031912014688890919 0.0089234732367405416 0 0.031635252043710517 0.0086741948798394943 0 0.032001790539095611 0.0089802349742263733 0 0.031635252043710517 0.0086741948798394943 0 0.031854741250129721 0.0087808141008869581 0 0.032236775175257498 0.0090620073535087869 0 0.032001790539095611 0.0089802349742263733 0 0.031854741250129721 0.0087808141008869581 0 0.031635252043710517 0.0086741948798394943 0 0.031854741250129721 0.0087808141008869581 0 0.031204905178363943 0.0084771105925576084 0 0.031854741250129721 0.0087808141008869581 0 0.031204905178363943 0.0084771105925576084 0 0.031829084790220515 0.008766133949521011 0 0.031063790391948176 0.0083554987011506144 0 0.031635252043710517 0.0086741948798394943 0 0.031204905178363943 0.0084771105925576084 0 0.031575203894742179 0.0088173026882149546 0 0.031204905178363943 0.0084771105925576084 0 0.031829084790220515 0.008766133949521011 0 0.031575203894742179 0.0088173026882149546 0 0.031829084790220515 0.008766133949521011 0 0.032318516179597287 0.0089328585510918095 0 0.032318516179597287 0.0089328585510918095 0 0.032255014020300815 0.0089537473712484172 0 0.032869279427609331 0.009155003004158873 0 0.031829084790220515 0.008766133949521011 0 0.032318516179597287 0.0089328585510918095 0 0.032255014020300815 0.0089537473712484172 0 0.031854741250129721 0.0087808141008869581 0 0.031829084790220515 0.008766133949521011 0 0.032255014020300815 0.0089537473712484172 0 0.033581340631689847 0.0093070069380194378 0 0.033095718217899923 0.009048936841521216 0 0.03367314837077006 0.0090670135467886999 0 0.033581340631689847 0.0093070069380194378 0 0.032869279427609331 0.009155003004158873 0 0.033095718217899923 0.009048936841521216 0 0.032318516179597287 0.0089328585510918095 0 0.032869279427609331 0.009155003004158873 0 0.033095718217899923 0.009048936841521216 0 0.032695712904543636 0.0089646047364953119 0 0.032318516179597287 0.0089328585510918095 0 0.033095718217899923 0.009048936841521216 0 0.033315036917247569 0.0089022221398440578 0 0.033095718217899923 0.009048936841521216 0 0.03367314837077006 0.0090670135467886999 0 0.034061542462621573 0.0087244364707094943 0 0.03367314837077006 0.0090670135467886999 0 0.034095160322149078 0.0090616115229524632 0 0.034061542462621573 0.0087244364707094943 0 0.033315036917247569 0.0089022221398440578 0 0.03367314837077006 0.0090670135467886999 0 0.034061542462621573 0.0087244364707094943 0 0.034095160322149078 0.0090616115229524632 0 0.034217245637539438 0.0088152240225064394 0 0.034095160322149078 0.0090616115229524632 0 0.034326932344126836 0.0096720091462301292 0 0.034282666262486723 0.0091452024682280586 0 0.034095160322149078 0.0090616115229524632 0 0.033977712899318724 0.009377437672179913 0 0.034326932344126836 0.0096720091462301292 0 0.034095160322149078 0.0090616115229524632 0 0.034282666262486723 0.0091452024682280586 0 0.034217245637539438 0.0088152240225064394 0 0.03367314837077006 0.0090670135467886999 0 0.034095160322149078 0.0090616115229524632 0 0.033977712899318724 0.009377437672179913 0 0.033581340631689847 0.0093070069380194378 0 0.03367314837077006 0.0090670135467886999 0 0.033977712899318724 0.009377437672179913 0 0.033977712899318724 0.009377437672179913 0 0.034049715313433072 0.009780868925042192 0 0.034326932344126836 0.0096720091462301292 0 0.033581340631689847 0.0093070069380194378 0 0.033977712899318724 0.009377437672179913 0 0.034049715313433072 0.009780868925042192 0 0.034326932344126836 0.0096720091462301292 0 0.034596016296440359 0.010384581679964195 0 0.034397624692861103 0.0096861201424464881 0 0.034326932344126836 0.0096720091462301292 0 0.034465457627776544 0.010342726222915235 0 0.034596016296440359 0.010384581679964195 0 0.034049715313433072 0.009780868925042192 0 0.034326932344126836 0.0096720091462301292 0 0.034465457627776544 0.010342726222915235 0 0.034049715313433072 0.009780868925042192 0 0.034465457627776544 0.010342726222915235 0 0.03391301088677285 0.010023144513936566 0 0.034049715313433072 0.009780868925042192 0 0.03391301088677285 0.010023144513936566 0 0.033448234255689172 0.0095679208306948069 0 0.03391301088677285 0.010023144513936566 0 0.033448234255689172 0.0095679208306948069 0 0.033354960841843417 0.0098132785244608965 0 0.033581340631689847 0.0093070069380194378 0 0.034049715313433072 0.009780868925042192 0 0.033448234255689172 0.0095679208306948069 0 0.033581340631689847 0.0093070069380194378 0 0.032869279427609331 0.009155003004158873 0 0.033448234255689172 0.0095679208306948069 0 0.03275710157995352 0.0093476454812992642 0 0.032869279427609331 0.009155003004158873 0 0.033448234255689172 0.0095679208306948069 0 0.03275710157995352 0.0093476454812992642 0 0.033448234255689172 0.0095679208306948069 0 0.033354960841843417 0.0098132785244608965 0 0.032736419103161919 0.0096058437774053616 0 0.03275710157995352 0.0093476454812992642 0 0.033354960841843417 0.0098132785244608965 0 0.033354960841843417 0.0098132785244608965 0 0.033262182401441263 0.0099702420018350987 0 0.03380964608972014 0.010176421125769412 0 0.032736419103161919 0.0096058437774053616 0 0.033354960841843417 0.0098132785244608965 0 0.033262182401441263 0.0099702420018350987 0 0.03380964608972014 0.010176421125769412 0 0.034035100415799283 0.010302624561224492 0 0.034388843159422311 0.010587275776478633 0 0.03391301088677285 0.010023144513936566 0 0.03380964608972014 0.010176421125769412 0 0.034388843159422311 0.010587275776478633 0 0.03391301088677285 0.010023144513936566 0 0.033354960841843417 0.0098132785244608965 0 0.03380964608972014 0.010176421125769412 0 0.033262182401441263 0.0099702420018350987 0 0.03380964608972014 0.010176421125769412 0 0.034035100415799283 0.010302624561224492 0 0.03254526233401444 0.0096670844489998905 0 0.033262182401441263 0.0099702420018350987 0 0.033027823466707407 0.0097147986358706133 0 0.033262182401441263 0.0099702420018350987 0 0.034035100415799283 0.010302624561224492 0 0.033027823466707407 0.0097147986358706133 0 0.032320297264637747 0.0095553547839908829 0 0.033027823466707407 0.0097147986358706133 0 0.03277355361745752 0.0088822565514476565 0 0.033027823466707407 0.0097147986358706133 0 0.033683545376488343 0.0093591154141829166 0 0.03277355361745752 0.0088822565514476565 0 0.034035100415799283 0.010302624561224492 0 0.033027823466707407 0.0097147986358706133 0 0.033683545376488343 0.0093591154141829166 0 0.034035100415799283 0.010302624561224492 0 0.033683545376488343 0.0093591154141829166 0 0.034528911126289474 0.0093116372676630161 0 0.033956288713868438 0.010674189019384418 0 0.034847597008096587 0.0097794712910076499 0 0.033683545376488343 0.0093591154141829166 0 0.033977932343530338 0.0086478224282236262 0 0.034528911126289474 0.0093116372676630161 0 0.030733651240870435 0.0097939022168766574 0 0.030940753287786768 0.0098741496206046393 0 0.033683545376488343 0.0093591154141829166 0 0.033977932343530338 0.0086478224282236262 0 0.03277355361745752 0.0088822565514476565 0 0.028520805078645128 0.011534148842322319 0 0.02865706403232629 0.010810092627126303 0 0.028590014554324451 0.011695082666415215 0 0.02865706403232629 0.010810092627126303 0 0.028708457382919311 0.011745833705145066 0 0.028590014554324451 0.011695082666415215 0 0.034628897890646229 0.013794492652956262 0 0.036755202239913035 0.013068659475781853 0 0.037689964179494849 0.015999135506070378 0 0.039333257334863619 0.015510002405213542 0 0.035837738408769991 0.01300383185283146 0 0.034962009734772259 0.011300173951392413 0 0.035051970373862096 0.011971634811157395 0 0.035837738408769991 0.01300383185283146 0 0.03820789443488725 0.014766315559584756 0 0.034628897890646229 0.013794492652956262 0 0.030733651240870435 0.0097939022168766574 0 0.034628897890646229 0.013794492652956262 0 0.034962009734772259 0.011300173951392413 0 0.034682305076561247 0.011512454221599343 0 0.035051970373862096 0.011971634811157395 0 0.034628897890646229 0.013794492652956262 0 0.034847597008096587 0.0097794712910076499 0 0.033977932343530338 0.0086478224282236262 0 0.035085579706946583 0.008549923021886249 0 0.034528911126289474 0.0093116372676630161 0 0.034035100415799283 0.010302624561224492 0 0.034682305076561247 0.011512454221599343 0 0.034742133107246338 0.011259252712857704 0 0.034682305076561247 0.011512454221599343 0 0.035051970373862096 0.011971634811157395 0 0.034742133107246338 0.011259252712857704 0 0.035051970373862096 0.011971634811157395 0 0.035170640918468214 0.011986958547072083 0 0.035837738408769991 0.01300383185283146 0 0.035051970373862096 0.011971634811157395 0 0.035170640918468214 0.011986958547072083 0 0.034742133107246338 0.011259252712857704 0 0.035170640918468214 0.011986958547072083 0 0.034864047139756882 0.01117859905126992 0 0.0351457628583704 0.012110926651128145 0 0.035170640918468214 0.011986958547072083 0 0.034742133107246338 0.011259252712857704 0 0.034864047139756882 0.01117859905126992 0 0.034742133107246338 0.011259252712857704 0 0.034388843159422311 0.010587275776478633 0 0.034864047139756882 0.01117859905126992 0 0.034035100415799283 0.010302624561224492 0 0.034742133107246338 0.011259252712857704 0 0.034388843159422311 0.010587275776478633 0 0.034465457627776544 0.010342726222915235 0 0.034388843159422311 0.010587275776478633 0 0.034864047139756882 0.01117859905126992 0 0.034465457627776544 0.010342726222915235 0 0.03391301088677285 0.010023144513936566 0 0.034388843159422311 0.010587275776478633 0 0.034465457627776544 0.010342726222915235 0 0.034864047139756882 0.01117859905126992 0 0.034596016296440359 0.010384581679964195 0 0.034864047139756882 0.01117859905126992 0 0.034714025751486924 0.011386809160825595 0 0.0351457628583704 0.012110926651128145 0 0.034864047139756882 0.01117859905126992 0 0.034714025751486924 0.011386809160825595 0 0.034596016296440359 0.010384581679964195 0 0.034714025751486924 0.011386809160825595 0 0.034861303027822713 0.012879279796922454 0 0.033788109665488043 0.011595745574447964 0 0.034714025751486924 0.011386809160825595 0 0.033788109665488043 0.011595745574447964 0 0.03425809455285813 0.010829501415786598 0 0.034861303027822713 0.012879279796922454 0 0.0351457628583704 0.012110926651128145 0 0.035837738408769991 0.01300383185283146 0 0.034714025751486924 0.011386809160825595 0 0.034861303027822713 0.012879279796922454 0 0.0351457628583704 0.012110926651128145 0 0.035170640918468214 0.011986958547072083 0 0.0351457628583704 0.012110926651128145 0 0.035837738408769991 0.01300383185283146 0 0.035837738408769991 0.01300383185283146 0 0.034953540856427379 0.01423340301293703 0 0.035336544739918638 0.01520840105385454 0 0.034861303027822713 0.012879279796922454 0 0.034953540856427379 0.01423340301293703 0 0.034452108441775917 0.014184499139457627 0 0.034861303027822713 0.012879279796922454 0 0.035837738408769991 0.01300383185283146 0 0.034953540856427379 0.01423340301293703 0 0.035336544739918638 0.01520840105385454 0 0.034732672095261992 0.015493650600882805 0 0.034985404143874334 0.016550692235518132 0 0.034953540856427379 0.01423340301293703 0 0.035336544739918638 0.01520840105385454 0 0.034732672095261992 0.015493650600882805 0 0.035336544739918638 0.01520840105385454 0 0.034985404143874334 0.016550692235518132 0 0.035413136079501591 0.01669026242313898 0 0.035336544739918638 0.01520840105385454 0 0.035974531947900776 0.016364283699396166 0 0.035413136079501591 0.01669026242313898 0 0.035837738408769991 0.01300383185283146 0 0.035336544739918638 0.01520840105385454 0 0.036217757809187338 0.015481521129826294 0 0.037689964179494849 0.015999135506070378 0 0.035837738408769991 0.01300383185283146 0 0.036217757809187338 0.015481521129826294 0 0.035336544739918638 0.01520840105385454 0 0.036217757809187338 0.015481521129826294 0 0.035974531947900776 0.016364283699396166 0 0.03487726334032195 0.016911635238068844 0 0.034732672095261992 0.015493650600882805 0 0.034996012642382161 0.01634490289524736 0 0.03487726334032195 0.016911635238068844 0 0.034996012642382161 0.01634490289524736 0 0.03500025243904771 0.017627360684410422 0 0.03487726334032195 0.016911635238068844 0 0.034732672095261992 0.015493650600882805 0 0.034985404143874334 0.016550692235518132 0 0.034732672095261992 0.015493650600882805 0 0.034452108441775917 0.014184499139457627 0 0.034996012642382161 0.01634490289524736 0 0.034953540856427379 0.01423340301293703 0 0.034732672095261992 0.015493650600882805 0 0.034452108441775917 0.014184499139457627 0 0.034999805669143194 0.016346696233951977 0 0.035908067463553101 0.01496273082552192 0 0.03500030364404387 0.015192726697247553 0 0.034999953070219005 0.01634605952996682 0 0.034986144732495277 0.014249366122558086 0 0.034452108441775917 0.014184499139457627 0 0.034996012642382161 0.01634490289524736 0 0.033836100617443375 0.01371077823759238 0 0.035908067463553101 0.01496273082552192 0 0.03500030364404387 0.015192726697247553 0 0.03499957941733544 0.014035179950703715 0 0.034861303027822713 0.012879279796922454 0 0.034452108441775917 0.014184499139457627 0 0.033788109665488043 0.011595745574447964 0 0.034452108441775917 0.014184499139457627 0 0.033836100617443375 0.01371077823759238 0 0.033788109665488043 0.011595745574447964 0 0.034986144732495277 0.014249366122558086 0 0.035640294854489336 0.012221706007840633 0 0.035908067463553101 0.01496273082552192 0 0.03499957941733544 0.014035179950703715 0 0.035923336336750433 0.013055927572941651 0 0.035908067463553101 0.01496273082552192 0 0.037229074735034486 0.01292207737034811 0 0.035923336336750433 0.013055927572941651 0 0.034998381721412661 0.014045479649721518 0 0.036086918533106187 0.01235604068938442 0 0.03499957941733544 0.014035179950703715 0 0.035923336336750433 0.013055927572941651 0 0.035002649617093227 0.011872750046248763 0 0.037229074735034486 0.01292207737034811 0 0.035923336336750433 0.013055927572941651 0 0.036397089838832081 0.011646270222996458 0 0.035002649617093227 0.011872750046248763 0 0.036397089838832081 0.011646270222996458 0 0.035153286194609529 0.010163184165612051 0 0.036086918533106187 0.01235604068938442 0 0.034829523526355134 0.010817589843789563 0 0.034903138316124863 0.012874580193503286 0 0.034999904445643104 0.011685992215576629 0 0.03518428685089868 0.011711359776809019 0 0.035923336336750433 0.013055927572941651 0 0.035002649617093227 0.011872750046248763 0 0.036397089838832081 0.011646270222996458 0 0.036397089838832081 0.011646270222996458 0 0.035153286194609529 0.010163184165612051 0 0.036785372690622049 0.010389866658693651 0 0.034238304726643694 0.0090749017405282999 0 0.03434664148303971 0.0089753677719046996 0 0.034345304426964346 0.0087793701265982543 0 0.034829523526355134 0.010817589843789563 0 0.034844460720207346 0.0094350451067185398 0 0.035000240225092634 0.01168621180978446 0 0.035194208822675856 0.011711395129031204 0 0.035348811024093374 0.010229243205238117 0 0.034999971650648866 0.011683053323084698 0 0.034829523526355134 0.010817589843789563 0 0.034829523526355134 0.010817589843789563 0 0.035661028664298301 0.0098295702556409192 0 0.034238304726643694 0.0090749017405282999 0 0.03434664148303971 0.0089753677719046996 0 0.034342413377400335 0.0090844729452798124 0 0.034288022646983871 0.0091331049360441324 0 0.03423207821147365 0.0091383163657369117 0 0.034331909471074271 0.0089718037527728098 0 0.03434664148303971 0.0089753677719046996 0 0.034288022646983871 0.0091331049360441324 0 0.034331909471074271 0.0089718037527728098 0 0.03434664148303971 0.0089753677719046996 0 0.034288022646983871 0.0091331049360441324 0 0.034342413377400335 0.0090844729452798124 0 0.035661028664298301 0.0098295702556409192 0 0.035194879205885404 0.010250829109118212 0 0.034288022646983871 0.0091331049360441324 0 0.034342413377400335 0.0090844729452798124 0 0.034211679081799166 0.0091439276478018847 0 0.036397089838832081 0.011646270222996458 0 0.036785372690622049 0.010389866658693651 0 0.038419980373982317 0.0106056551602202 0 0.037229074735034486 0.01292207737034811 0 0.036397089838832081 0.011646270222996458 0 0.038419980373982317 0.0106056551602202 0 0.035640294854489336 0.012221706007840633 0 0.035194879205885404 0.010250829109118212 0 0.034714025751486924 0.011386809160825595 0 0.03425809455285813 0.010829501415786598 0 0.034390239108122569 0.010070540948562611 0 0.033788109665488043 0.011595745574447964 0 0.03425809455285813 0.010829501415786598 0 0.033979641802446538 0.010242172430791121 0 0.03425809455285813 0.010829501415786598 0 0.034390239108122569 0.010070540948562611 0 0.033979641802446538 0.010242172430791121 0 0.034036534857157838 0.010008423307224758 0 0.035194879205885404 0.010250829109118212 0 0.034714025751486924 0.011386809160825595 0 0.034596016296440359 0.010384581679964195 0 0.034390239108122569 0.010070540948562611 0 0.034596016296440359 0.010384581679964195 0 0.034390239108122569 0.010070540948562611 0 0.034397624692861103 0.0096861201424464881 0 0.034390239108122569 0.010070540948562611 0 0.034397624692861103 0.0096861201424464881 0 0.034300245940480541 0.0093464298453908318 0 0.034397624692861103 0.0096861201424464881 0 0.034300245940480541 0.0093464298453908318 0 0.034282666262486723 0.0091452024682280586 0 0.034326932344126836 0.0096720091462301292 0 0.034397624692861103 0.0096861201424464881 0 0.034282666262486723 0.0091452024682280586 0 0.034288022646983871 0.0091331049360441324 0 0.034124816935979761 0.0093410761353418317 0 0.034211679081799166 0.0091439276478018847 0 0.034854230557660036 0.0097970521621895765 0 0.035194879205885404 0.010250829109118212 0 0.034390239108122569 0.010070540948562611 0 0.034124816935979761 0.0093410761353418317 0 0.033963163253748672 0.0096440150889984515 0 0.034390239108122569 0.010070540948562611 0 0.034300245940480541 0.0093464298453908318 0 0.034124816935979761 0.0093410761353418317 0 0.034300245940480541 0.0093464298453908318 0 0.034124816935979761 0.0093410761353418317 0 0.034229914000217222 0.0092155195986937909 0 0.034288022646983871 0.0091331049360441324 0 0.034124816935979761 0.0093410761353418317 0 0.03423207821147365 0.0091383163657369117 0 0.034124816935979761 0.0093410761353418317 0 0.034229914000217222 0.0092155195986937909 0 0.03423207821147365 0.0091383163657369117 0 0.034273901428855502 0.0089819218068729421 0 0.034282666262486723 0.0091452024682280586 0 0.034297272274791776 0.0087273499808479885 0 0.034229914000217222 0.0092155195986937909 0 0.03423207821147365 0.0091383163657369117 0 0.034273901428855502 0.0089819218068729421 0 0.03423207821147365 0.0091383163657369117 0 0.034273901428855502 0.0089819218068729421 0 0.034331909471074271 0.0089718037527728098 0 0.034300245940480541 0.0093464298453908318 0 0.034229914000217222 0.0092155195986937909 0 0.034273901428855502 0.0089819218068729421 0 0.034273901428855502 0.0089819218068729421 0 0.034297272274791776 0.0087273499808479885 0 0.03440651028922987 0.0086604013556841504 0 0.034300245940480541 0.0093464298453908318 0 0.034273901428855502 0.0089819218068729421 0 0.034282666262486723 0.0091452024682280586 0 0.034282666262486723 0.0091452024682280586 0 0.034217245637539438 0.0088152240225064394 0 0.034297272274791776 0.0087273499808479885 0 0.034256833843218017 0.0084457282947470493 0 0.034061542462621573 0.0087244364707094943 0 0.034217245637539438 0.0088152240225064394 0 0.034256833843218017 0.0084457282947470493 0 0.034217245637539438 0.0088152240225064394 0 0.034297272274791776 0.0087273499808479885 0 0.034297272274791776 0.0087273499808479885 0 0.034414125580784459 0.0084617023529066498 0 0.03440651028922987 0.0086604013556841504 0 0.034256833843218017 0.0084457282947470493 0 0.034297272274791776 0.0087273499808479885 0 0.034414125580784459 0.0084617023529066498 0 0.034414125580784459 0.0084617023529066498 0 0.034579439841546607 0.0084046780069926379 0 0.03440651028922987 0.0086604013556841504 0 0.034579439841546607 0.0084046780069926379 0 0.03440651028922987 0.0086604013556841504 0 0.03454395213166013 0.0086278311570243855 0 0.03440651028922987 0.0086604013556841504 0 0.03454395213166013 0.0086278311570243855 0 0.034401930916474317 0.0087814982511370283 0 0.034980824286671645 0.0085976380761448156 0 0.03454395213166013 0.0086278311570243855 0 0.034345304426964346 0.0087793701265982543 0 0.034951897889380933 0.0087835931180943148 0 0.034844460720207346 0.0094350451067185398 0 0.034980824286671645 0.0085976380761448156 0 0.034579439841546607 0.0084046780069926379 0 0.03454395213166013 0.0086278311570243855 0 0.034980824286671645 0.0085976380761448156 0 0.034999611426741635 0.0096165001164107561 0 0.035348811024093374 0.010229243205238117 0 0.03454395213166013 0.0086278311570243855 0 0.034345304426964346 0.0087793701265982543 0 0.034407642959160649 0.008826975237820443 0 0.035000240225092634 0.01168621180978446 0 0.034999611426741635 0.0096165001164107561 0 0.035348811024093374 0.010229243205238117 0 0.03434664148303971 0.0089753677719046996 0 0.034345304426964346 0.0087793701265982543 0 0.034407642959160649 0.008826975237820443 0 0.03434664148303971 0.0089753677719046996 0 0.034331909471074271 0.0089718037527728098 0 0.034407642959160649 0.008826975237820443 0 0.034273901428855502 0.0089819218068729421 0 0.034331909471074271 0.0089718037527728098 0 0.034401930916474317 0.0087814982511370283 0 0.034273901428855502 0.0089819218068729421 0 0.03440651028922987 0.0086604013556841504 0 0.034401930916474317 0.0087814982511370283 0 0.03454395213166013 0.0086278311570243855 0 0.034401930916474317 0.0087814982511370283 0 0.034407642959160649 0.008826975237820443 0 0.034331909471074271 0.0089718037527728098 0 0.034401930916474317 0.0087814982511370283 0 0.034407642959160649 0.008826975237820443 0 0.036036685720910351 0.025521555312031579 0 0.037042833342365654 0.024612026297656461 0 0.035976987919704148 0.023818240797402385 0 0.036036685720910351 0.025521555312031579 0 0.034999609712893245 0.025096130357567695 0 0.035976987919704148 0.023818240797402385 0 0.034999609712893245 0.025096130357567695 0 0.035941606945411465 0.026805459245070596 0 0.034999889976922431 0.027158389559090172 0 0.036036685720910351 0.025521555312031579 0 0.034999609712893245 0.025096130357567695 0 0.035941606945411465 0.026805459245070596 0 0.036036685720910351 0.025521555312031579 0 0.036556902760627674 0.026979266038333581 0 0.035941606945411465 0.026805459245070596 0 0.036556902760627674 0.026979266038333581 0 0.035896106855245864 0.028206998064884772 0 0.035717321171209029 0.02747254358645014 0 0.036036685720910351 0.025521555312031579 0 0.036556902760627674 0.026979266038333581 0 0.037042833342365654 0.024612026297656461 0 0.036556902760627674 0.026979266038333581 0 0.035896106855245864 0.028206998064884772 0 0.036649390368762323 0.028108220249469407 0 0.036637407643645196 0.026906747676210249 0 0.036763749693268996 0.026219620109863749 0 0.036649390368762323 0.028108220249469407 0 0.03623381187633469 0.028582333321398441 0 0.036593410718248523 0.028790526856019998 0 0.035896106855245864 0.028206998064884772 0 0.036649390368762323 0.028108220249469407 0 0.03623381187633469 0.028582333321398441 0 0.036763749693268996 0.026219620109863749 0 0.03685864577223668 0.026236920711995147 0 0.035896106855245864 0.028206998064884772 0 0.03623381187633469 0.028582333321398441 0 0.035809643419136471 0.028808888007470779 0 0.035896106855245864 0.028206998064884772 0 0.035809643419136471 0.028808888007470779 0 0.03542061687440072 0.028567489249872482 0 0.036249922899004854 0.023984100537854634 0 0.033902637034194882 0.023626889417673189 0 0.03623381187633469 0.028582333321398441 0 0.035809643419136471 0.028808888007470779 0 0.036089522376896367 0.029081832390615018 0 0.035809643419136471 0.028808888007470779 0 0.036089522376896367 0.029081832390615018 0 0.035403470102006562 0.028830647437886849 0 0.03623381187633469 0.028582333321398441 0 0.036593410718248523 0.028790526856019998 0 0.036089522376896367 0.029081832390615018 0 0.03688627499108562 0.022697816991253183 0 0.035976987919704148 0.023818240797402385 0 0.035776897302585063 0.022010971472342853 0 0.037042833342365654 0.024612026297656461 0 0.03688627499108562 0.022697816991253183 0 0.035976987919704148 0.023818240797402385 0 0.034999609712893245 0.025096130357567695 0 0.035976987919704148 0.023818240797402385 0 0.034999882361075152 0.023032990924252743 0 0.034999882361075152 0.023032990924252743 0 0.035776897302585063 0.022010971472342853 0 0.034999855250205186 0.020969964047271739 0 0.035976987919704148 0.023818240797402385 0 0.034999882361075152 0.023032990924252743 0 0.035776897302585063 0.022010971472342853 0 0.035776897302585063 0.022010971472342853 0 0.0357337173695359 0.0211146101550931 0 0.034999855250205186 0.020969964047271739 0 0.035776897302585063 0.022010971472342853 0 0.0357337173695359 0.0211146101550931 0 0.036582750114476099 0.020952541988308235 0 0.0357337173695359 0.0211146101550931 0 0.034999855250205186 0.020969964047271739 0 0.035285427081778793 0.020244381678001737 0 0.03685864577223668 0.026236920711995147 0 0.036069939952145066 0.022724088964840804 0 0.03688627499108562 0.022697816991253183 0 0.035776897302585063 0.022010971472342853 0 0.036582750114476099 0.020952541988308235 0 0.036555577076789449 0.020741415787037455 0 0.036309641448617341 0.019659840985717918 0 0.035285427081778793 0.020244381678001737 0 0.036284751283931285 0.018973450472910415 0 0.03611144246410531 0.019264340832345465 0 0.035890601389785455 0.018954991726936252 0 0.036284751283931285 0.018973450472910415 0 0.03611144246410531 0.019264340832345465 0 0.036309641448617341 0.019659840985717918 0 0.036069939952145066 0.022724088964840804 0 0.036073445085458386 0.018926135175438914 0 0.03611144246410531 0.019264340832345465 0 0.036309641448617341 0.019659840985717918 0 0.036354284335181723 0.019526925830040336 0 0.036309641448617341 0.019659840985717918 0 0.035285427081778793 0.020244381678001737 0 0.035000116668986371 0.018907393013687889 0 0.034999855250205186 0.020969964047271739 0 0.035285427081778793 0.020244381678001737 0 0.035000116668986371 0.018907393013687889 0 0.0357337173695359 0.0211146101550931 0 0.036582750114476099 0.020952541988308235 0 0.035285427081778793 0.020244381678001737 0 0.036069939952145066 0.022724088964840804 0 0.03534631519506657 0.020030315505529018 0 0.036309641448617341 0.019659840985717918 0 0.035000116668986371 0.018907393013687889 0 0.036354284335181723 0.019526925830040336 0 0.034998739430300872 0.01890468180216804 0 0.034944301409464668 0.018171453951764765 0 0.034961475744156562 0.017973662232060133 0 0.034998739430300872 0.01890468180216804 0 0.034875305003790484 0.018200560762413664 0 0.034944301409464668 0.018171453951764765 0 0.035000031672768064 0.018907295056209927 0 0.035574364326089639 0.018904371193169851 0 0.034875305003790484 0.018200560762413664 0 0.034936706040668786 0.018111001883182872 0 0.034944301409464668 0.018171453951764765 0 0.034875305003790484 0.018200560762413664 0 0.034936706040668786 0.018111001883182872 0 0.035203982069620915 0.018307709589449682 0 0.035004094025670868 0.017892136910013373 0 0.034936706040668786 0.018111001883182872 0 0.035203982069620915 0.018307709589449682 0 0.035004094025670868 0.017892136910013373 0 0.034944301409464668 0.018171453951764765 0 0.034940726827100345 0.017512869108774337 0 0.035004094025670868 0.017892136910013373 0 0.034936706040668786 0.018111001883182872 0 0.034944301409464668 0.018171453951764765 0 0.03487726334032195 0.016911635238068844 0 0.034940726827100345 0.017512869108774337 0 0.034985404143874334 0.016550692235518132 0 0.035004094025670868 0.017892136910013373 0 0.034940726827100345 0.017512869108774337 0 0.035158270624181975 0.017381941392540262 0 0.034940726827100345 0.017512869108774337 0 0.034985404143874334 0.016550692235518132 0 0.035158270624181975 0.017381941392540262 0 0.034998739430300872 0.01890468180216804 0 0.03500025243904771 0.017627360684410422 0 0.034961475744156562 0.017973662232060133 0 0.03487726334032195 0.016911635238068844 0 0.034940726827100345 0.017512869108774337 0 0.034961475744156562 0.017973662232060133 0 0.03487726334032195 0.016911635238068844 0 0.03500025243904771 0.017627360684410422 0 0.034961475744156562 0.017973662232060133 0 0.034944301409464668 0.018171453951764765 0 0.034940726827100345 0.017512869108774337 0 0.034961475744156562 0.017973662232060133 0 0.0357873442933112 0.017635400080016701 0 0.036752446756553564 0.016655735234215624 0 0.037397355816515307 0.017473501683662854 0 0.037689964179494849 0.015999135506070378 0 0.036217757809187338 0.015481521129826294 0 0.036752446756553564 0.016655735234215624 0 0.036217757809187338 0.015481521129826294 0 0.036752446756553564 0.016655735234215624 0 0.035974531947900776 0.016364283699396166 0 0.0357873442933112 0.017635400080016701 0 0.036752446756553564 0.016655735234215624 0 0.035974531947900776 0.016364283699396166 0 0.0357873442933112 0.017635400080016701 0 0.035974531947900776 0.016364283699396166 0 0.035413136079501591 0.01669026242313898 0 0.034985404143874334 0.016550692235518132 0 0.035413136079501591 0.01669026242313898 0 0.035158270624181975 0.017381941392540262 0 0.0357873442933112 0.017635400080016701 0 0.035413136079501591 0.01669026242313898 0 0.035158270624181975 0.017381941392540262 0 0.0357873442933112 0.017635400080016701 0 0.035312999064984162 0.01810412337748931 0 0.035576518029594904 0.018580297856281836 0 0.0357873442933112 0.017635400080016701 0 0.035158270624181975 0.017381941392540262 0 0.035312999064984162 0.01810412337748931 0 0.035004094025670868 0.017892136910013373 0 0.035312999064984162 0.01810412337748931 0 0.035203982069620915 0.018307709589449682 0 0.035004094025670868 0.017892136910013373 0 0.035158270624181975 0.017381941392540262 0 0.035312999064984162 0.01810412337748931 0 0.035312999064984162 0.01810412337748931 0 0.035203982069620915 0.018307709589449682 0 0.035576518029594904 0.018580297856281836 0 0.035203982069620915 0.018307709589449682 0 0.035576518029594904 0.018580297856281836 0 0.035696219646948565 0.019100552287106248 0 0.036067041544063511 0.018912154335538986 0 0.036139026551967796 0.019389851993849915 0 0.0357873442933112 0.017635400080016701 0 0.035911761482647464 0.019088341844696641 0 0.037397355816515307 0.017473501683662854 0 0.0357873442933112 0.017635400080016701 0 0.035576518029594904 0.018580297856281836 0 0.035911761482647464 0.019088341844696641 0 0.035911761482647464 0.019088341844696641 0 0.035567415500401232 0.019009264217357592 0 0.034895624774492137 0.019374653269068044 0 0.035576518029594904 0.018580297856281836 0 0.035911761482647464 0.019088341844696641 0 0.035696219646948565 0.019100552287106248 0 0.035911761482647464 0.019088341844696641 0 0.035567415500401232 0.019009264217357592 0 0.035696219646948565 0.019100552287106248 0 0.035567415500401232 0.019009264217357592 0 0.035696219646948565 0.019100552287106248 0 0.035674246463106754 0.018899690850263412 0 0.034875305003790484 0.018200560762413664 0 0.035203982069620915 0.018307709589449682 0 0.035696219646948565 0.019100552287106248 0 0.03611144246410531 0.019264340832345465 0 0.036354284335181723 0.019526925830040336 0 0.035696219646948565 0.019100552287106248 0 0.035574364326089639 0.018904371193169851 0 0.035758752790800971 0.019073208046303223 0 0.035696219646948565 0.019100552287106248 0 0.035890601389785455 0.018954991726936252 0 0.035674246463106754 0.018899690850263412 0 0.03611144246410531 0.019264340832345465 0 0.035696219646948565 0.019100552287106248 0 0.035890601389785455 0.018954991726936252 0 0.036284751283931285 0.018973450472910415 0 0.035890601389785455 0.018954991726936252 0 0.035747356267770335 0.018544207747004052 0 0.036069939952145066 0.022724088964840804 0 0.036249922899004854 0.023984100537854634 0 0.036593410718248523 0.028790526856019998 0 0.036664004971718296 0.029220917779216888 0 0.036089522376896367 0.029081832390615018 0 0.035890601389785455 0.018954991726936252 0 0.035674246463106754 0.018899690850263412 0 0.035747356267770335 0.018544207747004052 0 0.035453319873195784 0.018779722783311387 0 0.035747356267770335 0.018544207747004052 0 0.03512762081559289 0.018480077319497093 0 0.035567415500401232 0.019009264217357592 0 0.035453319873195784 0.018779722783311387 0 0.034987642475146338 0.018912743678713581 0 0.035567415500401232 0.019009264217357592 0 0.035453319873195784 0.018779722783311387 0 0.035674246463106754 0.018899690850263412 0 0.035453319873195784 0.018779722783311387 0 0.035674246463106754 0.018899690850263412 0 0.035747356267770335 0.018544207747004052 0 0.03512762081559289 0.018480077319497093 0 0.034987642475146338 0.018912743678713581 0 0.034411342776748052 0.018597600231456016 0 0.034987642475146338 0.018912743678713581 0 0.034411342776748052 0.018597600231456016 0 0.034249047106541017 0.019197390657748493 0 0.035453319873195784 0.018779722783311387 0 0.03512762081559289 0.018480077319497093 0 0.034987642475146338 0.018912743678713581 0 0.034411342776748052 0.018597600231456016 0 0.033509094489735144 0.019316614598668767 0 0.032752873079741597 0.017349190132786508 0 0.034411342776748052 0.018597600231456016 0 0.033509094489735144 0.019316614598668767 0 0.034249047106541017 0.019197390657748493 0 0.033509094489735144 0.019316614598668767 0 0.033739322611072639 0.019378562573938062 0 0.034249047106541017 0.019197390657748493 0 0.033739322611072639 0.019378562573938062 0 0.034249047106541017 0.019197390657748493 0 0.034127436488533183 0.019523280262018387 0 0.034249047106541017 0.019197390657748493 0 0.034127436488533183 0.019523280262018387 0 0.034895624774492137 0.019374653269068044 0 0.033739322611072639 0.019378562573938062 0 0.034127436488533183 0.019523280262018387 0 0.033650166425242184 0.019641354872053249 0 0.034987642475146338 0.018912743678713581 0 0.034249047106541017 0.019197390657748493 0 0.034895624774492137 0.019374653269068044 0 0.035567415500401232 0.019009264217357592 0 0.034987642475146338 0.018912743678713581 0 0.034895624774492137 0.019374653269068044 0 0.034895624774492137 0.019374653269068044 0 0.034259857204763475 0.019951459861425179 0 0.035098867942887073 0.020241940162577327 0 0.035911761482647464 0.019088341844696641 0 0.034895624774492137 0.019374653269068044 0 0.035098867942887073 0.020241940162577327 0 0.034259857204763475 0.019951459861425179 0 0.033587965714620319 0.02018416784249065 0 0.033650166425242184 0.019641354872053249 0 0.034127436488533183 0.019523280262018387 0 0.034895624774492137 0.019374653269068044 0 0.034259857204763475 0.019951459861425179 0 0.034127436488533183 0.019523280262018387 0 0.034259857204763475 0.019951459861425179 0 0.033650166425242184 0.019641354872053249 0 0.034482592646159077 0.020910237507753858 0 0.034420615538094501 0.020569610698683377 0 0.033587965714620319 0.02018416784249065 0 0.034259857204763475 0.019951459861425179 0 0.034420615538094501 0.020569610698683377 0 0.033587965714620319 0.02018416784249065 0 0.034628897890646229 0.013794492652956262 0 0.031002007680858729 0.015918885752117064 0 0.028520805078645128 0.011534148842322319 0 0.028394483133505979 0.011633498691621429 0 0.028618385610608258 0.011869607468077199 0 0.037689964179494849 0.015999135506070378 0 0.038775293517391646 0.015677277392639941 0 0.037397355816515307 0.017473501683662854 0 0.034482592646159077 0.020910237507753858 0 0.034420615538094501 0.020569610698683377 0 0.035098867942887073 0.020241940162577327 0 0.034628897890646229 0.013794492652956262 0 0.036139026551967796 0.019389851993849915 0 0.034259857204763475 0.019951459861425179 0 0.034420615538094501 0.020569610698683377 0 0.035098867942887073 0.020241940162577327 0 0.037689964179494849 0.015999135506070378 0 0.036752446756553564 0.016655735234215624 0 0.037397355816515307 0.017473501683662854 0 0.028813832897108083 0.011987999681431877 0 0.028590014554324451 0.011695082666415215 0 0.028618385610608258 0.011869607468077199 0 0.028813832897108083 0.011987999681431877 0 0.028708457382919311 0.011745833705145066 0 0.028743176022570656 0.011999266070937369 0 0.028813832897108083 0.011987999681431877 0 0.028708457382919311 0.011745833705145066 0 0.028590014554324451 0.011695082666415215 0 0.028520805078645128 0.011534148842322319 0 0.028590014554324451 0.011695082666415215 0 0.028618385610608258 0.011869607468077199 0 0.033587965714620319 0.02018416784249065 0 0.033650166425242184 0.019641354872053249 0 0.032941579015714074 0.019635789981255137 0 0.028813832897108083 0.011987999681431877 0 0.029227032001130252 0.011467739712301406 0 0.028287112203155124 0.012554043740177885 0 0.031002007680858729 0.015918885752117064 0 0.028123767460092448 0.018641408807764166 0 0.028813832897108083 0.011987999681431877 0 0.028618385610608258 0.011869607468077199 0 0.029227032001130252 0.011467739712301406 0 0.028447928108179442 0.024336304883586849 0 0.031045000580756581 0.022145304359928425 0 0.028334643254783475 0.021006428719846565 0 0.028123767460092448 0.018641408807764166 0 0.032212171801426874 0.020745647064874275 0 0.033650166425242184 0.019641354872053249 0 0.032941579015714074 0.019635789981255137 0 0.033431092680900047 0.019336040211268252 0 0.033739322611072639 0.019378562573938062 0 0.033650166425242184 0.019641354872053249 0 0.033431092680900047 0.019336040211268252 0 0.033509094489735144 0.019316614598668767 0 0.033739322611072639 0.019378562573938062 0 0.033431092680900047 0.019336040211268252 0 0.033509094489735144 0.019316614598668767 0 0.030833787500823912 0.019375340542537471 0 0.032752873079741597 0.017349190132786508 0 0.033373487349783855 0.019549104106273991 0 0.032212171801426874 0.020745647064874275 0 0.033509094489735144 0.019316614598668767 0 0.031045000580756581 0.022145304359928425 0 0.030833787500823912 0.019375340542537471 0 0.030833787500823912 0.019375340542537471 0 0.028334643254783475 0.021006428719846565 0 0.028316084836814741 0.017761540145287646 0 0.031045000580756581 0.022145304359928425 0 0.030833787500823912 0.019375340542537471 0 0.028334643254783475 0.021006428719846565 0 0.02572033077635992 0.019661637398804152 0 0.026506858190200606 0.018786094373274515 0 0.027803092565101637 0.019682965990099437 0 0.02572033077635992 0.019661637398804152 0 0.026506858190200606 0.018786094373274515 0 0.024796228382119565 0.018401835196862008 0 0.026506858190200606 0.018786094373274515 0 0.026167117334362944 0.017769005839193761 0 0.024796228382119565 0.018401835196862008 0 0.026506858190200606 0.018786094373274515 0 0.026167117334362944 0.017769005839193761 0 0.028056521678268748 0.018454855665644129 0 0.029924952578602844 0.023191994276820175 0 0.030991413920560481 0.02363673110364892 0 0.033498548435288891 0.028526665863660729 0 0.034332644536321816 0.028787906277828512 0 0.034440597081633918 0.028329634071190577 0 0.027081041407500568 0.018801978367380959 0 0.030022081710687366 0.01806492002862117 0 0.026506858190200606 0.018786094373274515 0 0.028056521678268748 0.018454855665644129 0 0.027803092565101637 0.019682965990099437 0 0.030833787500823912 0.019375340542537471 0 0.028316084836814741 0.017761540145287646 0 0.032752873079741597 0.017349190132786508 0 0.030022081710687366 0.01806492002862117 0 0.033902637034194882 0.023626889417673189 0 0.034411342776748052 0.018597600231456016 0 0.032752873079741597 0.017349190132786508 0 0.034822473520504577 0.017639059844791121 0 0.028056521678268748 0.018454855665644129 0 0.027803092565101637 0.019682965990099437 0 0.030256955218007808 0.019484486524823284 0 0.030991413920560481 0.02363673110364892 0 0.033902637034194882 0.023626889417673189 0 0.035908491881623157 0.028535401986846051 0 0.033902637034194882 0.023626889417673189 0 0.035747356267770335 0.018544207747004052 0 0.03512762081559289 0.018480077319497093 0 0.034822473520504577 0.017639059844791121 0 0.035809643419136471 0.028808888007470779 0 0.035185033678788995 0.029021357612200292 0 0.03542061687440072 0.028567489249872482 0 0.03512762081559289 0.018480077319497093 0 0.034411342776748052 0.018597600231456016 0 0.034822473520504577 0.017639059844791121 0 0.035896106855245864 0.028206998064884772 0 0.03542061687440072 0.028567489249872482 0 0.035183096395400952 0.028223420559316731 0 0.035185033678788995 0.029021357612200292 0 0.03542061687440072 0.028567489249872482 0 0.034939495480244512 0.028596377754184076 0 0.03542061687440072 0.028567489249872482 0 0.034939495480244512 0.028596377754184076 0 0.035183096395400952 0.028223420559316731 0 0.034332644536321816 0.028787906277828512 0 0.035185033678788995 0.029021357612200292 0 0.034939495480244512 0.028596377754184076 0 0.034332644536321816 0.028787906277828512 0 0.034939495480244512 0.028596377754184076 0 0.034440597081633918 0.028329634071190577 0 0.034939495480244512 0.028596377754184076 0 0.034440597081633918 0.028329634071190577 0 0.035183096395400952 0.028223420559316731 0 0.034440597081633918 0.028329634071190577 0 0.035183096395400952 0.028223420559316731 0 0.034684821323021552 0.027784235188414642 0 0.034440597081633918 0.028329634071190577 0 0.034684821323021552 0.027784235188414642 0 0.034056241459501486 0.028045373755898502 0 0.035896106855245864 0.028206998064884772 0 0.035183096395400952 0.028223420559316731 0 0.035717321171209029 0.02747254358645014 0 0.035183096395400952 0.028223420559316731 0 0.035717321171209029 0.02747254358645014 0 0.034684821323021552 0.027784235188414642 0 0.035717321171209029 0.02747254358645014 0 0.034684821323021552 0.027784235188414642 0 0.034444394343154605 0.027087315263076863 0 0.034684821323021552 0.027784235188414642 0 0.03381363551767242 0.027559709044363844 0 0.034444394343154605 0.027087315263076863 0 0.03381363551767242 0.027559709044363844 0 0.033389781953683119 0.028012134591897019 0 0.034056241459501486 0.028045373755898502 0 0.034684821323021552 0.027784235188414642 0 0.03381363551767242 0.027559709044363844 0 0.034056241459501486 0.028045373755898502 0 0.03381363551767242 0.027559709044363844 0 0.033389781953683119 0.028012134591897019 0 0.032973548786723546 0.027682041658065308 0 0.033498548435288891 0.028526665863660729 0 0.033389781953683119 0.028012134591897019 0 0.034056241459501486 0.028045373755898502 0 0.033498548435288891 0.028526665863660729 0 0.033389781953683119 0.028012134591897019 0 0.032772314635057281 0.028280916268080093 0 0.033498548435288891 0.028526665863660729 0 0.034440597081633918 0.028329634071190577 0 0.034056241459501486 0.028045373755898502 0 0.028555771415643 0.022567076278166068 0 0.028313366031146637 0.024117057619941439 0 0.02397568890499668 0.017461272600850133 0 0.024690074788499008 0.017287060477141437 0 0.023500519778867357 0.016747280796589537 0 0.02397568890499668 0.017461272600850133 0 0.023561844836819095 0.01740725886905246 0 0.023500519778867357 0.016747280796589537 0 0.02397568890499668 0.017461272600850133 0 0.023561844836819095 0.01740725886905246 0 0.023566956843995953 0.017952773354366632 0 0.02397568890499668 0.017461272600850133 0 0.024690074788499008 0.017287060477141437 0 0.024796228382119565 0.018401835196862008 0 0.029924952578602844 0.023191994276820175 0 0.028555771415643 0.022567076278166068 0 0.033389781953683119 0.028012134591897019 0 0.032772314635057281 0.028280916268080093 0 0.032973548786723546 0.027682041658065308 0 0.032772314635057281 0.028280916268080093 0 0.032973548786723546 0.027682041658065308 0 0.032553899849294778 0.028042948217091513 0 0.032973548786723546 0.027682041658065308 0 0.032517413115683722 0.0278015972789778 0 0.032553899849294778 0.028042948217091513 0 0.032772314635057281 0.028280916268080093 0 0.032553899849294778 0.028042948217091513 0 0.03212452956368321 0.028122529508412025 0 0.032517413115683722 0.0278015972789778 0 0.032553899849294778 0.028042948217091513 0 0.032261159251914771 0.027939087750934309 0 0.032553899849294778 0.028042948217091513 0 0.032261159251914771 0.027939087750934309 0 0.03212452956368321 0.028122529508412025 0 0.032261159251914771 0.027939087750934309 0 0.03212452956368321 0.028122529508412025 0 0.032134828219212139 0.028025497593232397 0 0.032517413115683722 0.0278015972789778 0 0.032261159251914771 0.027939087750934309 0 0.032268700951309244 0.027763247569082817 0 0.032268700951309244 0.027763247569082817 0 0.03213832938905993 0.027836105438215485 0 0.032095838651667458 0.027730398415350962 0 0.032261159251914771 0.027939087750934309 0 0.032268700951309244 0.027763247569082817 0 0.03213832938905993 0.027836105438215485 0 0.023033906174242606 0.016780081728738613 0 0.023500519778867357 0.016747280796589537 0 0.022437939453815278 0.016504628051679654 0 0.03213832938905993 0.027836105438215485 0 0.032085476447698248 0.027933764328671187 0 0.031975583295536701 0.027815542030955369 0 0.03213832938905993 0.027836105438215485 0 0.031975583295536701 0.027815542030955369 0 0.032095838651667458 0.027730398415350962 0 0.028313366031146637 0.024117057619941439 0 0.026377932972430487 0.021027433174289629 0 0.031902799976553889 0.027987440913219253 0 0.03212452956368321 0.028122529508412025 0 0.031243871949408059 0.027850540006537992 0 0.031902799976553889 0.027987440913219253 0 0.03178130305830125 0.027931702428989683 0 0.031243871949408059 0.027850540006537992 0 0.028313366031146637 0.024117057619941439 0 0.03257619151005723 0.028926445778505366 0 0.023500519778867357 0.016747280796589537 0 0.021773991796690539 0.015975699191314207 0 0.022437939453815278 0.016504628051679654 0 0.032261159251914771 0.027939087750934309 0 0.032085476447698248 0.027933764328671187 0 0.032134828219212139 0.028025497593232397 0 0.032261159251914771 0.027939087750934309 0 0.03213832938905993 0.027836105438215485 0 0.032085476447698248 0.027933764328671187 0 0.032085476447698248 0.027933764328671187 0 0.032134828219212139 0.028025497593232397 0 0.032033525236364518 0.02799719362213356 0 0.032085476447698248 0.027933764328671187 0 0.031940489773923865 0.027916639938464168 0 0.032033525236364518 0.02799719362213356 0 0.032085476447698248 0.027933764328671187 0 0.031940489773923865 0.027916639938464168 0 0.031975583295536701 0.027815542030955369 0 0.031902799976553889 0.027987440913219253 0 0.031940489773923865 0.027916639938464168 0 0.032033525236364518 0.02799719362213356 0 0.031940489773923865 0.027916639938464168 0 0.031975583295536701 0.027815542030955369 0 0.031826140662201449 0.027861580814292169 0 0.031826140662201449 0.027861580814292169 0 0.031638884317309823 0.0278639135506305 0 0.031789087051202446 0.027781673411063107 0 0.031975583295536701 0.027815542030955369 0 0.031826140662201449 0.027861580814292169 0 0.031789087051202446 0.027781673411063107 0 0.031826140662201449 0.027861580814292169 0 0.031638884317309823 0.0278639135506305 0 0.03178130305830125 0.027931702428989683 0 0.031638884317309823 0.0278639135506305 0 0.031597025257465945 0.027772155023448854 0 0.031789087051202446 0.027781673411063107 0 0.031940489773923865 0.027916639938464168 0 0.031826140662201449 0.027861580814292169 0 0.03178130305830125 0.027931702428989683 0 0.031902799976553889 0.027987440913219253 0 0.031940489773923865 0.027916639938464168 0 0.03178130305830125 0.027931702428989683 0 0.022762655509974142 0.016745961832927043 0 0.023033906174242606 0.016780081728738613 0 0.022437939453815278 0.016504628051679654 0 0.022619055028369729 0.016714938488939905 0 0.022762655509974142 0.016745961832927043 0 0.022437939453815278 0.016504628051679654 0 0.022619055028369729 0.016714938488939905 0 0.022439193136372947 0.016813879904941924 0 0.022709113622757956 0.016947103941222688 0 0.022762655509974142 0.016745961832927043 0 0.022965763055548157 0.016923814713287962 0 0.022709113622757956 0.016947103941222688 0 0.022619055028369729 0.016714938488939905 0 0.022762655509974142 0.016745961832927043 0 0.022709113622757956 0.016947103941222688 0 0.022762655509974142 0.016745961832927043 0 0.023033906174242606 0.016780081728738613 0 0.022965763055548157 0.016923814713287962 0 0.023033906174242606 0.016780081728738613 0 0.023196566962974806 0.016878412547512052 0 0.022965763055548157 0.016923814713287962 0 0.023033906174242606 0.016780081728738613 0 0.023196566962974806 0.016878412547512052 0 0.023500519778867357 0.016747280796589537 0 0.023196566962974806 0.016878412547512052 0 0.023500519778867357 0.016747280796589537 0 0.023260785639016429 0.016996227952793846 0 0.03212452956368321 0.028122529508412025 0 0.032134828219212139 0.028025497593232397 0 0.032033525236364518 0.02799719362213356 0 0.031902799976553889 0.027987440913219253 0 0.03212452956368321 0.028122529508412025 0 0.032033525236364518 0.02799719362213356 0 0.030044935807054141 0.027049668992715308 0 0.031243871949408059 0.027850540006537992 0 0.031317092719095226 0.027746370449647298 0 0.021773991796690539 0.015975699191314207 0 0.021616128390432313 0.016292617328064092 0 0.021267940125904213 0.016250725321384361 0 0.031244386011870271 0.027764157481631985 0 0.031317092719095226 0.027746370449647298 0 0.031152724645239539 0.027700293584551824 0 0.031244386011870271 0.027764157481631985 0 0.031243871949408059 0.027850540006537992 0 0.031317092719095226 0.027746370449647298 0 0.021773991796690539 0.015975699191314207 0 0.022006180331696493 0.016284081539277906 0 0.021829125926119484 0.016313953277703973 0 0.021773991796690539 0.015975699191314207 0 0.021829125926119484 0.016313953277703973 0 0.021616128390432313 0.016292617328064092 0 0.031638884317309823 0.0278639135506305 0 0.03178130305830125 0.027931702428989683 0 0.031243871949408059 0.027850540006537992 0 0.031638884317309823 0.0278639135506305 0 0.031243871949408059 0.027850540006537992 0 0.03147582257677195 0.027796515689243888 0 0.031638884317309823 0.0278639135506305 0 0.031597025257465945 0.027772155023448854 0 0.03147582257677195 0.027796515689243888 0 0.021773991796690539 0.015975699191314207 0 0.022437939453815278 0.016504628051679654 0 0.022006180331696493 0.016284081539277906 0 0.022437939453815278 0.016504628051679654 0 0.022439193136372947 0.016813879904941924 0 0.02220227842313325 0.016694297720495733 0 0.022619055028369729 0.016714938488939905 0 0.022437939453815278 0.016504628051679654 0 0.022439193136372947 0.016813879904941924 0 0.02220227842313325 0.016694297720495733 0 0.0220260125124426 0.016516776880486656 0 0.021907057890347484 0.01680684610672253 0 0.022437939453815278 0.016504628051679654 0 0.02220227842313325 0.016694297720495733 0 0.0220260125124426 0.016516776880486656 0 0.022437939453815278 0.016504628051679654 0 0.0220260125124426 0.016516776880486656 0 0.022006180331696493 0.016284081539277906 0 0.0220260125124426 0.016516776880486656 0 0.022006180331696493 0.016284081539277906 0 0.021829125926119484 0.016313953277703973 0 0.021829125926119484 0.016313953277703973 0 0.021741087558500193 0.016503237076451936 0 0.021616128390432313 0.016292617328064092 0 0.0220260125124426 0.016516776880486656 0 0.021829125926119484 0.016313953277703973 0 0.021741087558500193 0.016503237076451936 0 0.0220260125124426 0.016516776880486656 0 0.021741087558500193 0.016503237076451936 0 0.021907057890347484 0.01680684610672253 0 0.021741087558500193 0.016503237076451936 0 0.021907057890347484 0.01680684610672253 0 0.021451569118479934 0.01685309438482566 0 0.021741087558500193 0.016503237076451936 0 0.021432404125040432 0.016497453290539716 0 0.021451569118479934 0.01685309438482566 0 0.021432404125040432 0.016497453290539716 0 0.021616128390432313 0.016292617328064092 0 0.021267940125904213 0.016250725321384361 0 0.021741087558500193 0.016503237076451936 0 0.021432404125040432 0.016497453290539716 0 0.021616128390432313 0.016292617328064092 0 0.021451569118479934 0.01685309438482566 0 0.021775863992128851 0.017147324846042908 0 0.021350976747932862 0.017467997638958607 0 0.021775863992128851 0.017147324846042908 0 0.021950006914256057 0.01754787682918596 0 0.021350976747932862 0.017467997638958607 0 0.021907057890347484 0.01680684610672253 0 0.021451569118479934 0.01685309438482566 0 0.021775863992128851 0.017147324846042908 0 0.021907057890347484 0.01680684610672253 0 0.021775863992128851 0.017147324846042908 0 0.02214972482468535 0.017036297826088537 0 0.021775863992128851 0.017147324846042908 0 0.02214972482468535 0.017036297826088537 0 0.021950006914256057 0.01754787682918596 0 0.02214972482468535 0.017036297826088537 0 0.022398399522071132 0.017487562817624897 0 0.021950006914256057 0.01754787682918596 0 0.022439193136372947 0.016813879904941924 0 0.02220227842313325 0.016694297720495733 0 0.02214972482468535 0.017036297826088537 0 0.02220227842313325 0.016694297720495733 0 0.021907057890347484 0.01680684610672253 0 0.02214972482468535 0.017036297826088537 0 0.022439193136372947 0.016813879904941924 0 0.02214972482468535 0.017036297826088537 0 0.022479059332101026 0.017082321341446129 0 0.022439193136372947 0.016813879904941924 0 0.022479059332101026 0.017082321341446129 0 0.022709113622757956 0.016947103941222688 0 0.022479059332101026 0.017082321341446129 0 0.022398399522071132 0.017487562817624897 0 0.022739511641528123 0.017252272142941321 0 0.02214972482468535 0.017036297826088537 0 0.022479059332101026 0.017082321341446129 0 0.022398399522071132 0.017487562817624897 0 0.022398399522071132 0.017487562817624897 0 0.022613589598645879 0.017863317743319115 0 0.022252871502353545 0.01804514254059672 0 0.022398399522071132 0.017487562817624897 0 0.021950006914256057 0.01754787682918596 0 0.022252871502353545 0.01804514254059672 0 0.021950006914256057 0.01754787682918596 0 0.021716137195475341 0.017930432767787753 0 0.021350976747932862 0.017467997638958607 0 0.021950006914256057 0.01754787682918596 0 0.021716137195475341 0.017930432767787753 0 0.022252871502353545 0.01804514254059672 0 0.023561844836819095 0.01740725886905246 0 0.023500519778867357 0.016747280796589537 0 0.02334562513368206 0.017158703309050324 0 0.023066666293973945 0.017321092966096619 0 0.02334562513368206 0.017158703309050324 0 0.02312895808262095 0.01708345609380511 0 0.023290036974289691 0.017382506518024299 0 0.023066666293973945 0.017321092966096619 0 0.02334562513368206 0.017158703309050324 0 0.023561844836819095 0.01740725886905246 0 0.023290036974289691 0.017382506518024299 0 0.02334562513368206 0.017158703309050324 0 0.023500519778867357 0.016747280796589537 0 0.02334562513368206 0.017158703309050324 0 0.023260785639016429 0.016996227952793846 0 0.02334562513368206 0.017158703309050324 0 0.023260785639016429 0.016996227952793846 0 0.02312895808262095 0.01708345609380511 0 0.023196566962974806 0.016878412547512052 0 0.023260785639016429 0.016996227952793846 0 0.02312895808262095 0.01708345609380511 0 0.023196566962974806 0.016878412547512052 0 0.02312895808262095 0.01708345609380511 0 0.022965763055548157 0.016923814713287962 0 0.022965763055548157 0.016923814713287962 0 0.02293093321158942 0.017094411136374738 0 0.022709113622757956 0.016947103941222688 0 0.02312895808262095 0.01708345609380511 0 0.022965763055548157 0.016923814713287962 0 0.02293093321158942 0.017094411136374738 0 0.022479059332101026 0.017082321341446129 0 0.022709113622757956 0.016947103941222688 0 0.022739511641528123 0.017252272142941321 0 0.02293093321158942 0.017094411136374738 0 0.022709113622757956 0.016947103941222688 0 0.022739511641528123 0.017252272142941321 0 0.023066666293973945 0.017321092966096619 0 0.02293093321158942 0.017094411136374738 0 0.022739511641528123 0.017252272142941321 0 0.023066666293973945 0.017321092966096619 0 0.022739511641528123 0.017252272142941321 0 0.022833342294761416 0.017575108781383998 0 0.023066666293973945 0.017321092966096619 0 0.02312895808262095 0.01708345609380511 0 0.02293093321158942 0.017094411136374738 0 0.023066666293973945 0.017321092966096619 0 0.022833342294761416 0.017575108781383998 0 0.023224628495888681 0.017650244375634311 0 0.022398399522071132 0.017487562817624897 0 0.022833342294761416 0.017575108781383998 0 0.022613589598645879 0.017863317743319115 0 0.022398399522071132 0.017487562817624897 0 0.022739511641528123 0.017252272142941321 0 0.022833342294761416 0.017575108781383998 0 0.022833342294761416 0.017575108781383998 0 0.022613589598645879 0.017863317743319115 0 0.02293792562694796 0.017870847691069031 0 0.022833342294761416 0.017575108781383998 0 0.02293792562694796 0.017870847691069031 0 0.023224628495888681 0.017650244375634311 0 0.02293792562694796 0.017870847691069031 0 0.023224628495888681 0.017650244375634311 0 0.023152988247976212 0.018122925763214223 0 0.023561844836819095 0.01740725886905246 0 0.023224628495888681 0.017650244375634311 0 0.023566956843995953 0.017952773354366632 0 0.023290036974289691 0.017382506518024299 0 0.023066666293973945 0.017321092966096619 0 0.023224628495888681 0.017650244375634311 0 0.023561844836819095 0.01740725886905246 0 0.023290036974289691 0.017382506518024299 0 0.023224628495888681 0.017650244375634311 0 0.023152988247976212 0.018122925763214223 0 0.023438698027297852 0.018544015957179895 0 0.023566956843995953 0.017952773354366632 0 0.023224628495888681 0.017650244375634311 0 0.023152988247976212 0.018122925763214223 0 0.023566956843995953 0.017952773354366632 0 0.02293792562694796 0.017870847691069031 0 0.023152988247976212 0.018122925763214223 0 0.022719190081535886 0.018236910676492923 0 0.022613589598645879 0.017863317743319115 0 0.02293792562694796 0.017870847691069031 0 0.022719190081535886 0.018236910676492923 0 0.023152988247976212 0.018122925763214223 0 0.022719190081535886 0.018236910676492923 0 0.022925040007637971 0.01863500685713413 0 0.022719190081535886 0.018236910676492923 0 0.022925040007637971 0.01863500685713413 0 0.022430158390451278 0.018587485038325951 0 0.022925040007637971 0.01863500685713413 0 0.022430158390451278 0.018587485038325951 0 0.022638676252551344 0.019152400385258703 0 0.023152988247976212 0.018122925763214223 0 0.022925040007637971 0.01863500685713413 0 0.023438698027297852 0.018544015957179895 0 0.022925040007637971 0.01863500685713413 0 0.023438698027297852 0.018544015957179895 0 0.023169573248783597 0.018984617904143675 0 0.021716137195475341 0.017930432767787753 0 0.021894541748281354 0.018439052184402775 0 0.021079253864141521 0.018193566908333902 0 0.021716137195475341 0.017930432767787753 0 0.021894541748281354 0.018439052184402775 0 0.022252871502353545 0.01804514254059672 0 0.022719190081535886 0.018236910676492923 0 0.022252871502353545 0.01804514254059672 0 0.022430158390451278 0.018587485038325951 0 0.021894541748281354 0.018439052184402775 0 0.022252871502353545 0.01804514254059672 0 0.022430158390451278 0.018587485038325951 0 0.022613589598645879 0.017863317743319115 0 0.022719190081535886 0.018236910676492923 0 0.022252871502353545 0.01804514254059672 0 0.021894541748281354 0.018439052184402775 0 0.022430158390451278 0.018587485038325951 0 0.022084797417546889 0.018943498949627914 0 0.022430158390451278 0.018587485038325951 0 0.022084797417546889 0.018943498949627914 0 0.022638676252551344 0.019152400385258703 0 0.021894541748281354 0.018439052184402775 0 0.022084797417546889 0.018943498949627914 0 0.021397466499677793 0.019157153147125027 0 0.022097205202575007 0.019436107895853868 0 0.021730778457131963 0.019907560260311763 0 0.021397466499677793 0.019157153147125027 0 0.022084797417546889 0.018943498949627914 0 0.022097205202575007 0.019436107895853868 0 0.021397466499677793 0.019157153147125027 0 0.022097205202575007 0.019436107895853868 0 0.022571874677692883 0.019721065380253176 0 0.022638676252551344 0.019152400385258703 0 0.022084797417546889 0.018943498949627914 0 0.022097205202575007 0.019436107895853868 0 0.022638676252551344 0.019152400385258703 0 0.022097205202575007 0.019436107895853868 0 0.022571874677692883 0.019721065380253176 0 0.021730778457131963 0.019907560260311763 0 0.023169573248783597 0.018984617904143675 0 0.022638676252551344 0.019152400385258703 0 0.023034288599407635 0.019478554836697626 0 0.023169573248783597 0.018984617904143675 0 0.023034288599407635 0.019478554836697626 0 0.023654721198126102 0.019046307912538973 0 0.022925040007637971 0.01863500685713413 0 0.023169573248783597 0.018984617904143675 0 0.022638676252551344 0.019152400385258703 0 0.022571874677692883 0.019721065380253176 0 0.023034288599407635 0.019478554836697626 0 0.022999311938365949 0.020048700304534626 0 0.022571874677692883 0.019721065380253176 0 0.022638676252551344 0.019152400385258703 0 0.023034288599407635 0.019478554836697626 0 0.023034288599407635 0.019478554836697626 0 0.023330177921675476 0.019617479200863257 0 0.023654721198126102 0.019046307912538973 0 0.023330177921675476 0.019617479200863257 0 0.024024313310856683 0.019325734232173822 0 0.023654721198126102 0.019046307912538973 0 0.023654721198126102 0.019046307912538973 0 0.023951982079443577 0.018419616583066217 0 0.024379458538260901 0.018953181751215097 0 0.024024313310856683 0.019325734232173822 0 0.023654721198126102 0.019046307912538973 0 0.024379458538260901 0.018953181751215097 0 0.023438698027297852 0.018544015957179895 0 0.023169573248783597 0.018984617904143675 0 0.023654721198126102 0.019046307912538973 0 0.02397568890499668 0.017461272600850133 0 0.023951982079443577 0.018419616583066217 0 0.024796228382119565 0.018401835196862008 0 0.023438698027297852 0.018544015957179895 0 0.023654721198126102 0.019046307912538973 0 0.023951982079443577 0.018419616583066217 0 0.02397568890499668 0.017461272600850133 0 0.023951982079443577 0.018419616583066217 0 0.023566956843995953 0.017952773354366632 0 0.023438698027297852 0.018544015957179895 0 0.023951982079443577 0.018419616583066217 0 0.023566956843995953 0.017952773354366632 0 0.026167117334362944 0.017769005839193761 0 0.024690074788499008 0.017287060477141437 0 0.024796228382119565 0.018401835196862008 0 0.023951982079443577 0.018419616583066217 0 0.024796228382119565 0.018401835196862008 0 0.024379458538260901 0.018953181751215097 0 0.02572033077635992 0.019661637398804152 0 0.024796228382119565 0.018401835196862008 0 0.024379458538260901 0.018953181751215097 0 0.02572033077635992 0.019661637398804152 0 0.024024313310856683 0.019325734232173822 0 0.024379458538260901 0.018953181751215097 0 0.027081041407500568 0.018801978367380959 0 0.02429693530356223 0.019224789902971388 0 0.028316084836814741 0.017761540145287646 0 0.024024313310856683 0.019325734232173822 0 0.025815401135734401 0.020093072758769259 0 0.028334643254783475 0.021006428719846565 0 0.028316084836814741 0.017761540145287646 0 0.025815401135734401 0.020093072758769259 0 0.025815401135734401 0.020093072758769259 0 0.023224854872831914 0.020346420850104421 0 0.025774023975131444 0.02228029255161464 0 0.028334643254783475 0.021006428719846565 0 0.025815401135734401 0.020093072758769259 0 0.025774023975131444 0.02228029255161464 0 0.023330177921675476 0.019617479200863257 0 0.023224854872831914 0.020346420850104421 0 0.022999311938365949 0.020048700304534626 0 0.023330177921675476 0.019617479200863257 0 0.024024313310856683 0.019325734232173822 0 0.023224854872831914 0.020346420850104421 0 0.024024313310856683 0.019325734232173822 0 0.025815401135734401 0.020093072758769259 0 0.023224854872831914 0.020346420850104421 0 0.023229589534980076 0.020452706501787897 0 0.023690900438150579 0.021161734513508404 0 0.023224854872831914 0.020346420850104421 0 0.022967872807204158 0.020242743647488258 0 0.022615183333955742 0.020038387197002194 0 0.023224854872831914 0.020346420850104421 0 0.022967872807204158 0.020242743647488258 0 0.022999311938365949 0.020048700304534626 0 0.022967872807204158 0.020242743647488258 0 0.022615183333955742 0.020038387197002194 0 0.022862622971270088 0.020126220468775699 0 0.023224854872831914 0.020346420850104421 0 0.022615183333955742 0.020038387197002194 0 0.021878607455391913 0.020099307357925804 0 0.022615183333955742 0.020038387197002194 0 0.021878607455391913 0.020099307357925804 0 0.02208627313752564 0.019512999283145125 0 0.022615183333955742 0.020038387197002194 0 0.02208627313752564 0.019512999283145125 0 0.022723019593456437 0.019755058187730868 0 0.022615183333955742 0.020038387197002194 0 0.022723019593456437 0.019755058187730868 0 0.022862622971270088 0.020126220468775699 0 0.021199454797434035 0.019572162238733044 0 0.021878607455391913 0.020099307357925804 0 0.02208627313752564 0.019512999283145125 0 0.028447928108179442 0.024336304883586849 0 0.028334643254783475 0.021006428719846565 0 0.025774023975131444 0.02228029255161464 0 0.028123767460092448 0.018641408807764166 0 0.023690900438150579 0.021161734513508404 0 0.021199454797434035 0.019572162238733044 0 0.02208627313752564 0.019512999283145125 0 0.021761487615644594 0.01856730460522928 0 0.028123767460092448 0.018641408807764166 0 0.023969541573399061 0.015233501645342255 0 0.029227032001130252 0.011467739712301406 0 0.027060929351256337 0.012781029670013443 0 0.028287112203155124 0.012554043740177885 0 0.02208627313752564 0.019512999283145125 0 0.022367681632340458 0.01908437212292757 0 0.021761487615644594 0.01856730460522928 0 0.02208627313752564 0.019512999283145125 0 0.022367681632340458 0.01908437212292757 0 0.022723019593456437 0.019755058187730868 0 0.023555541609905379 0.016166021292212066 0 0.023969541573399061 0.015233501645342255 0 0.022367681632340458 0.01908437212292757 0 0.021761487615644594 0.01856730460522928 0 0.022945228537327614 0.018387394894222198 0 0.024968882391267516 0.016127713821771503 0 0.027060929351256337 0.012781029670013443 0 0.028287112203155124 0.012554043740177885 0 0.028338867529563272 0.012865545400299286 0 0.028410695187699852 0.012513091717946834 0 0.02946467810463483 0.011338769418281087 0 0.030462149083274638 0.010658872615729139 0 0.028287112203155124 0.012554043740177885 0 0.02946467810463483 0.011338769418281087 0 0.028743176022570656 0.011999266070937369 0 0.028287112203155124 0.012554043740177885 0 0.02946467810463483 0.011338769418281087 0 0.028708457382919311 0.011745833705145066 0 0.028743176022570656 0.011999266070937369 0 0.028813832897108083 0.011987999681431877 0 0.028743176022570656 0.011999266070937369 0 0.028287112203155124 0.012554043740177885 0 0.025012484734165698 0.016985260700803331 0 0.023999608217832171 0.017587661340498061 0 0.024529909743622631 0.018893796187805408 0 0.023999608217832171 0.017587661340498061 0 0.022945228537327614 0.018387394894222198 0 0.023665626334044714 0.018808281706573109 0 0.023999608217832171 0.017587661340498061 0 0.023665626334044714 0.018808281706573109 0 0.024529909743622631 0.018893796187805408 0 0.023301031431018516 0.016076947685734849 0 0.023999608217832171 0.017587661340498061 0 0.022945228537327614 0.018387394894222198 0 0.023301031431018516 0.016076947685734849 0 0.021761487615644594 0.01856730460522928 0 0.022945228537327614 0.018387394894222198 0 0.022945228537327614 0.018387394894222198 0 0.022797883733406354 0.019232060250287425 0 0.023100052661163668 0.019524316805159279 0 0.022945228537327614 0.018387394894222198 0 0.023100052661163668 0.019524316805159279 0 0.023665626334044714 0.018808281706573109 0 0.022367681632340458 0.01908437212292757 0 0.022945228537327614 0.018387394894222198 0 0.022797883733406354 0.019232060250287425 0 0.022367681632340458 0.01908437212292757 0 0.022797883733406354 0.019232060250287425 0 0.022723019593456437 0.019755058187730868 0 0.022797883733406354 0.019232060250287425 0 0.022723019593456437 0.019755058187730868 0 0.023100052661163668 0.019524316805159279 0 0.022723019593456437 0.019755058187730868 0 0.023100052661163668 0.019524316805159279 0 0.022954269172890215 0.020175626817787139 0 0.023100052661163668 0.019524316805159279 0 0.023665626334044714 0.018808281706573109 0 0.023187724017262355 0.020677514706290402 0 0.023100052661163668 0.019524316805159279 0 0.023187724017262355 0.020677514706290402 0 0.022954269172890215 0.020175626817787139 0 0.023665626334044714 0.018808281706573109 0 0.023187724017262355 0.020677514706290402 0 0.024529909743622631 0.018893796187805408 0 0.023187724017262355 0.020677514706290402 0 0.022859256851843306 0.020395672788429308 0 0.021927440307414611 0.020452775101008906 0 0.023187724017262355 0.020677514706290402 0 0.022859256851843306 0.020395672788429308 0 0.022954269172890215 0.020175626817787139 0 0.022723019593456437 0.019755058187730868 0 0.022954269172890215 0.020175626817787139 0 0.022862622971270088 0.020126220468775699 0 0.022859256851843306 0.020395672788429308 0 0.022954269172890215 0.020175626817787139 0 0.022901990600159971 0.02026372580956223 0 0.022967872807204158 0.020242743647488258 0 0.022901990600159971 0.02026372580956223 0 0.022862622971270088 0.020126220468775699 0 0.022954269172890215 0.020175626817787139 0 0.022901990600159971 0.02026372580956223 0 0.022862622971270088 0.020126220468775699 0 0.022967872807204158 0.020242743647488258 0 0.022901990600159971 0.02026372580956223 0 0.022999311938365949 0.020048700304534626 0 0.022901990600159971 0.02026372580956223 0 0.022999311938365949 0.020048700304534626 0 0.022603193989315901 0.02013150204712353 0 0.022859256851843306 0.020395672788429308 0 0.022901990600159971 0.02026372580956223 0 0.022603193989315901 0.02013150204712353 0 0.022571874677692883 0.019721065380253176 0 0.022999311938365949 0.020048700304534626 0 0.022603193989315901 0.02013150204712353 0 0.023034288599407635 0.019478554836697626 0 0.023330177921675476 0.019617479200863257 0 0.022999311938365949 0.020048700304534626 0 0.022603193989315901 0.02013150204712353 0 0.021927440307414611 0.020452775101008906 0 0.021730778457131963 0.019907560260311763 0 0.022859256851843306 0.020395672788429308 0 0.022603193989315901 0.02013150204712353 0 0.021927440307414611 0.020452775101008906 0 0.022571874677692883 0.019721065380253176 0 0.022603193989315901 0.02013150204712353 0 0.021730778457131963 0.019907560260311763 0 0.020998404788795451 0.020254424170192627 0 0.021927440307414611 0.020452775101008906 0 0.021730778457131963 0.019907560260311763 0 0.020998404788795451 0.020254424170192627 0 0.02006579043637496 0.020697807477337252 0 0.021927440307414611 0.020452775101008906 0 0.020998404788795451 0.020254424170192627 0 0.02006579043637496 0.020697807477337252 0 0.020274936615889503 0.019963212931584567 0 0.02006579043637496 0.020697807477337252 0 0.021927440307414611 0.020452775101008906 0 0.020881126358872935 0.021861319846122454 0 0.017660481083352841 0.024836960907036802 0 0.017896081639366943 0.027150683450395868 0 0.016056006847160405 0.026245764027091591 0 0.01873760607482957 0.023344257125384696 0 0.020463141295032249 0.021265373774334215 0 0.023187724017262355 0.020677514706290402 0 0.021927440307414611 0.020452775101008906 0 0.020881126358872935 0.021861319846122454 0 0.023187724017262355 0.020677514706290402 0 0.024529909743622631 0.018893796187805408 0 0.027329697512882712 0.019755498320163885 0 0.024753946320825372 0.020437115439045313 0 0.020463141295032249 0.021265373774334215 0 0.020463141295032249 0.021265373774334215 0 0.023926090952679422 0.014749157011574738 0 0.018284966725505888 0.016283857185117576 0 0.018606176272173217 0.015640091022874499 0 0.018043081093207132 0.015284840806521871 0 0.024529909743622631 0.018893796187805408 0 0.027329697512882712 0.019755498320163885 0 0.02644873911834119 0.01645127043032759 0 0.025016044499494745 0.019067221597289959 0 0.023926090952679422 0.014749157011574738 0 0.025012484734165698 0.016985260700803331 0 0.024529909743622631 0.018893796187805408 0 0.026205216468725555 0.017228398130429635 0 0.01918243954616481 0.015270718904731686 0 0.019158095060232336 0.015988166102243948 0 0.019976548083737458 0.015729886746764524 0 0.01706457949921366 0.021974217972775392 0 0.016151289904176754 0.020582437245479809 0 0.018606176272173217 0.015640091022874499 0 0.01918243954616481 0.015270718904731686 0 0.019158095060232336 0.015988166102243948 0 0.017896081639366943 0.027150683450395868 0 0.015748408562543507 0.027626518944846867 0 0.016056006847160405 0.026245764027091591 0 0.018284966725505888 0.016283857185117576 0 0.018606176272173217 0.015640091022874499 0 0.019158095060232336 0.015988166102243948 0 0.020463141295032249 0.021265373774334215 0 0.01706457949921366 0.021974217972775392 0 0.015748408562543507 0.027626518944846867 0 0.0142759279665401 0.026298874657475053 0 0.013783507601078786 0.027934598918886836 0 0.015748408562543507 0.027626518944846867 0 0.0142759279665401 0.026298874657475053 0 0.016056006847160405 0.026245764027091591 0 0.0142759279665401 0.026298874657475053 0 0.016056006847160405 0.026245764027091591 0 0.014767880857151158 0.02496070486549239 0 0.0142759279665401 0.026298874657475053 0 0.014767880857151158 0.02496070486549239 0 0.013265367421029878 0.024490239788901681 0 0.017660481083352841 0.024836960907036802 0 0.016056006847160405 0.026245764027091591 0 0.014767880857151158 0.02496070486549239 0 0.017660481083352841 0.024836960907036802 0 0.014767880857151158 0.02496070486549239 0 0.013757634027233416 0.02295920526928243 0 0.014767880857151158 0.02496070486549239 0 0.013757634027233416 0.02295920526928243 0 0.013265367421029878 0.024490239788901681 0 0.013757634027233416 0.02295920526928243 0 0.012866765474560385 0.024196902764245569 0 0.013148431302024597 0.023804589551981267 0 0.013757634027233416 0.02295920526928243 0 0.012406375970874217 0.024444403250224889 0 0.011147059687629843 0.024768216786386459 0 0.013671438629224465 0.022849753152899794 0 0.013527883469817592 0.021972451487429264 0 0.013757634027233416 0.02295920526928243 0 0.012406375970874217 0.024444403250224889 0 0.012866765474560385 0.024196902764245569 0 0.012406375970874217 0.024444403250224889 0 0.011147059687629843 0.024768216786386459 0 0.011733099970358138 0.025304766929943753 0 0.012406375970874217 0.024444403250224889 0 0.01231830421731934 0.025152468254051982 0 0.012866765474560385 0.024196902764245569 0 0.012406375970874217 0.024444403250224889 0 0.01231830421731934 0.025152468254051982 0 0.011733099970358138 0.025304766929943753 0 0.013757634027233416 0.02295920526928243 0 0.016274732773634639 0.018414063368178607 0 0.017902251855371473 0.020449926723098279 0 0.016274732773634639 0.018414063368178607 0 0.017902251855371473 0.020449926723098279 0 0.018503934191249141 0.018419043827263233 0 0.01873760607482957 0.023344257125384696 0 0.017940183189415711 0.020102960043351339 0 0.017660481083352841 0.024836960907036802 0 0.013757634027233416 0.02295920526928243 0 0.017902251855371473 0.020449926723098279 0 0.017902251855371473 0.020449926723098279 0 0.020274936615889503 0.019963212931584567 0 0.019390505890554632 0.019276871026769886 0 0.02006579043637496 0.020697807477337252 0 0.017902251855371473 0.020449926723098279 0 0.020274936615889503 0.019963212931584567 0 0.020274936615889503 0.019963212931584567 0 0.021730778457131963 0.019907560260311763 0 0.021397466499677793 0.019157153147125027 0 0.020998404788795451 0.020254424170192627 0 0.020274936615889503 0.019963212931584567 0 0.021730778457131963 0.019907560260311763 0 0.021397466499677793 0.019157153147125027 0 0.020307567134714582 0.018894568389582547 0 0.021079253864141521 0.018193566908333902 0 0.020274936615889503 0.019963212931584567 0 0.021397466499677793 0.019157153147125027 0 0.020307567134714582 0.018894568389582547 0 0.020307567134714582 0.018894568389582547 0 0.020386362603233836 0.018153166504580678 0 0.021079253864141521 0.018193566908333902 0 0.021894541748281354 0.018439052184402775 0 0.021397466499677793 0.019157153147125027 0 0.021079253864141521 0.018193566908333902 0 0.017902251855371473 0.020449926723098279 0 0.019390505890554632 0.019276871026769886 0 0.018503934191249141 0.018419043827263233 0 0.020274936615889503 0.019963212931584567 0 0.020307567134714582 0.018894568389582547 0 0.019390505890554632 0.019276871026769886 0 0.020307567134714582 0.018894568389582547 0 0.019390505890554632 0.019276871026769886 0 0.01971686551256055 0.018038994522923017 0 0.020307567134714582 0.018894568389582547 0 0.020386362603233836 0.018153166504580678 0 0.01971686551256055 0.018038994522923017 0 0.019390505890554632 0.019276871026769886 0 0.018503934191249141 0.018419043827263233 0 0.01971686551256055 0.018038994522923017 0 0.018503934191249141 0.018419043827263233 0 0.019092866222465359 0.017496794446747715 0 0.01971686551256055 0.018038994522923017 0 0.018503934191249141 0.018419043827263233 0 0.019092866222465359 0.017496794446747715 0 0.018214794462109812 0.017239521048362932 0 0.01971686551256055 0.018038994522923017 0 0.01978983666965918 0.017219883826969866 0 0.020531445951668659 0.017555646717894145 0 0.019092866222465359 0.017496794446747715 0 0.01971686551256055 0.018038994522923017 0 0.01978983666965918 0.017219883826969866 0 0.019092866222465359 0.017496794446747715 0 0.01978983666965918 0.017219883826969866 0 0.01920299629484672 0.016858918959919793 0 0.01978983666965918 0.017219883826969866 0 0.020357205440970798 0.016840468699941168 0 0.019790723478441675 0.016591698348379171 0 0.01978983666965918 0.017219883826969866 0 0.01920299629484672 0.016858918959919793 0 0.019790723478441675 0.016591698348379171 0 0.019092866222465359 0.017496794446747715 0 0.01920299629484672 0.016858918959919793 0 0.018214794462109812 0.017239521048362932 0 0.01920299629484672 0.016858918959919793 0 0.018755971960402289 0.01650602108859479 0 0.018214794462109812 0.017239521048362932 0 0.021716137195475341 0.017930432767787753 0 0.021079253864141521 0.018193566908333902 0 0.021350976747932862 0.017467997638958607 0 0.021079253864141521 0.018193566908333902 0 0.021350976747932862 0.017467997638958607 0 0.020531445951668659 0.017555646717894145 0 0.020386362603233836 0.018153166504580678 0 0.01971686551256055 0.018038994522923017 0 0.020531445951668659 0.017555646717894145 0 0.020386362603233836 0.018153166504580678 0 0.021079253864141521 0.018193566908333902 0 0.020531445951668659 0.017555646717894145 0 0.020531445951668659 0.017555646717894145 0 0.020357205440970798 0.016840468699941168 0 0.020914954189936111 0.016954574109602123 0 0.01978983666965918 0.017219883826969866 0 0.020531445951668659 0.017555646717894145 0 0.020357205440970798 0.016840468699941168 0 0.021350976747932862 0.017467997638958607 0 0.020531445951668659 0.017555646717894145 0 0.020914954189936111 0.016954574109602123 0 0.021451569118479934 0.01685309438482566 0 0.021350976747932862 0.017467997638958607 0 0.020914954189936111 0.016954574109602123 0 0.026377932972430487 0.021027433174289629 0 0.023250351399363503 0.02568875959990246 0 0.021773991796690539 0.015975699191314207 0 0.020315925090995061 0.015794293364747823 0 0.020835370503848868 0.016045941675383594 0 0.031317092719095226 0.027746370449647298 0 0.030599115464291768 0.027731893741607148 0 0.031152724645239539 0.027700293584551824 0 0.021773991796690539 0.015975699191314207 0 0.020315925090995061 0.015794293364747823 0 0.019483004506666332 0.015192590259210216 0 0.021267940125904213 0.016250725321384361 0 0.021107017348880538 0.016560062815998609 0 0.020885343098032031 0.016293907753381975 0 0.021432404125040432 0.016497453290539716 0 0.021267940125904213 0.016250725321384361 0 0.021107017348880538 0.016560062815998609 0 0.021432404125040432 0.016497453290539716 0 0.021451569118479934 0.01685309438482566 0 0.021107017348880538 0.016560062815998609 0 0.021451569118479934 0.01685309438482566 0 0.020914954189936111 0.016954574109602123 0 0.021107017348880538 0.016560062815998609 0 0.020914954189936111 0.016954574109602123 0 0.021107017348880538 0.016560062815998609 0 0.020672215974223539 0.016501222639173887 0 0.021267940125904213 0.016250725321384361 0 0.020885343098032031 0.016293907753381975 0 0.020835370503848868 0.016045941675383594 0 0.021107017348880538 0.016560062815998609 0 0.020885343098032031 0.016293907753381975 0 0.020672215974223539 0.016501222639173887 0 0.020885343098032031 0.016293907753381975 0 0.020620855819482958 0.016223182147278602 0 0.020835370503848868 0.016045941675383594 0 0.020620855819482958 0.016223182147278602 0 0.020672215974223539 0.016501222639173887 0 0.020281371615489079 0.016240818165819574 0 0.020620855819482958 0.016223182147278602 0 0.020281371615489079 0.016240818165819574 0 0.020425525543392511 0.016034664094780108 0 0.020885343098032031 0.016293907753381975 0 0.020620855819482958 0.016223182147278602 0 0.020672215974223539 0.016501222639173887 0 0.020357205440970798 0.016840468699941168 0 0.020914954189936111 0.016954574109602123 0 0.020672215974223539 0.016501222639173887 0 0.020357205440970798 0.016840468699941168 0 0.020672215974223539 0.016501222639173887 0 0.020281371615489079 0.016240818165819574 0 0.020357205440970798 0.016840468699941168 0 0.020281371615489079 0.016240818165819574 0 0.019790723478441675 0.016591698348379171 0 0.020140180203097924 0.015978337766561612 0 0.020315925090995061 0.015794293364747823 0 0.019920685182583636 0.015848709435556808 0 0.020281371615489079 0.016240818165819574 0 0.020140180203097924 0.015978337766561612 0 0.019768423222317488 0.016070875150066336 0 0.020281371615489079 0.016240818165819574 0 0.020140180203097924 0.015978337766561612 0 0.020425525543392511 0.016034664094780108 0 0.020140180203097924 0.015978337766561612 0 0.020315925090995061 0.015794293364747823 0 0.020425525543392511 0.016034664094780108 0 0.020315925090995061 0.015794293364747823 0 0.020425525543392511 0.016034664094780108 0 0.020835370503848868 0.016045941675383594 0 0.020620855819482958 0.016223182147278602 0 0.020425525543392511 0.016034664094780108 0 0.020835370503848868 0.016045941675383594 0 0.021773991796690539 0.015975699191314207 0 0.021267940125904213 0.016250725321384361 0 0.020835370503848868 0.016045941675383594 0 0.018852654889635629 0.015985345344996685 0 0.018114299174234232 0.016574062971233761 0 0.01885718539476432 0.01505329805555904 0 0.018755971960402289 0.01650602108859479 0 0.018852654889635629 0.015985345344996685 0 0.018114299174234232 0.016574062971233761 0 0.019322373953449993 0.016311402455434474 0 0.019377049449157364 0.015913779828826812 0 0.018852654889635629 0.015985345344996685 0 0.018755971960402289 0.01650602108859479 0 0.019322373953449993 0.016311402455434474 0 0.018852654889635629 0.015985345344996685 0 0.01920299629484672 0.016858918959919793 0 0.018755971960402289 0.01650602108859479 0 0.019322373953449993 0.016311402455434474 0 0.01920299629484672 0.016858918959919793 0 0.019790723478441675 0.016591698348379171 0 0.019322373953449993 0.016311402455434474 0 0.020281371615489079 0.016240818165819574 0 0.019790723478441675 0.016591698348379171 0 0.019768423222317488 0.016070875150066336 0 0.019790723478441675 0.016591698348379171 0 0.019322373953449993 0.016311402455434474 0 0.019768423222317488 0.016070875150066336 0 0.019322373953449993 0.016311402455434474 0 0.019377049449157364 0.015913779828826812 0 0.019768423222317488 0.016070875150066336 0 0.019377049449157364 0.015913779828826812 0 0.019649716558127552 0.015827705148787185 0 0.019768423222317488 0.016070875150066336 0 0.020315925090995061 0.015794293364747823 0 0.019712323459512151 0.015594939867376589 0 0.019483004506666332 0.015192590259210216 0 0.019377049449157364 0.015913779828826812 0 0.019649716558127552 0.015827705148787185 0 0.01944840090390438 0.015646604767132092 0 0.020140180203097924 0.015978337766561612 0 0.019768423222317488 0.016070875150066336 0 0.019920685182583636 0.015848709435556808 0 0.019649716558127552 0.015827705148787185 0 0.019768423222317488 0.016070875150066336 0 0.019920685182583636 0.015848709435556808 0 0.020315925090995061 0.015794293364747823 0 0.019920685182583636 0.015848709435556808 0 0.019712323459512151 0.015594939867376589 0 0.019649716558127552 0.015827705148787185 0 0.019920685182583636 0.015848709435556808 0 0.019712323459512151 0.015594939867376589 0 0.019377049449157364 0.015913779828826812 0 0.01944840090390438 0.015646604767132092 0 0.019203051017852781 0.015562947326245663 0 0.019712323459512151 0.015594939867376589 0 0.01944840090390438 0.015646604767132092 0 0.019483004506666332 0.015192590259210216 0 0.01944840090390438 0.015646604767132092 0 0.019203051017852781 0.015562947326245663 0 0.019483004506666332 0.015192590259210216 0 0.019649716558127552 0.015827705148787185 0 0.019712323459512151 0.015594939867376589 0 0.01944840090390438 0.015646604767132092 0 0.019203051017852781 0.015562947326245663 0 0.018852654889635629 0.015985345344996685 0 0.01885718539476432 0.01505329805555904 0 0.019377049449157364 0.015913779828826812 0 0.019203051017852781 0.015562947326245663 0 0.018852654889635629 0.015985345344996685 0 0.016046510026019041 0.020800929216225044 0 0.02027390422408697 0.025071630902627023 0 0.010322704304032787 0.026443225015164301 0 0.011350160817619442 0.027463846643617607 0 0.011155838956453152 0.02591248041115302 0 0.016046510026019041 0.020800929216225044 0 0.015708126394557088 0.028809397359245884 0 0.010322704304032787 0.026443225015164301 0 0.011350160817619442 0.027463846643617607 0 0.011313167951204496 0.02899795358070744 0 0.011155838956453152 0.02591248041115302 0 0.010643613062056776 0.028526100107297052 0 0.011385846335184141 0.027640708266805151 0 0.011350160817619442 0.027463846643617607 0 0.011155838956453152 0.02591248041115302 0 0.012595637034398999 0.028602746994365897 0 0.011155838956453152 0.02591248041115302 0 0.011385846335184141 0.027640708266805151 0 0.011740536831189544 0.026770979470737904 0 0.011155819395240449 0.026130154128036973 0 0.011650733612480901 0.028601690192775246 0 0.011155838956453152 0.02591248041115302 0 0.01184542038267361 0.025850742821741712 0 0.011740536831189544 0.026770979470737904 0 0.01231830421731934 0.025152468254051982 0 0.01184542038267361 0.025850742821741712 0 0.011733099970358138 0.025304766929943753 0 0.011147059687629843 0.024768216786386459 0 0.011155838956453152 0.02591248041115302 0 0.011733099970358138 0.025304766929943753 0 0.011155838956453152 0.02591248041115302 0 0.01184542038267361 0.025850742821741712 0 0.011733099970358138 0.025304766929943753 0 0.013527883469817592 0.021972451487429264 0 0.016046510026019041 0.020800929216225044 0 0.011147059687629843 0.024768216786386459 0 0.010322704304032787 0.026443225015164301 0 0.011155838956453152 0.02591248041115302 0 0.016274732773634639 0.018414063368178607 0 0.017833646369983219 0.016325531648652223 0 0.018214794462109812 0.017239521048362932 0 0.016274732773634639 0.018414063368178607 0 0.018503934191249141 0.018419043827263233 0 0.018214794462109812 0.017239521048362932 0 0.018755971960402289 0.01650602108859479 0 0.018114299174234232 0.016574062971233761 0 0.018214794462109812 0.017239521048362932 0 0.016046510026019041 0.020800929216225044 0 0.016755202165401495 0.017327307605225453 0 0.02073818248545873 0.029294565522774027 0 0.020750442768731978 0.02920207801931559 0 0.020812175241394761 0.029366059182951623 0 0.02073818248545873 0.029294565522774027 0 0.020768134263291601 0.029372244797629 0 0.020812175241394761 0.029366059182951623 0 0.02073818248545873 0.029294565522774027 0 0.020750442768731978 0.02920207801931559 0 0.020721857377068137 0.029235515954704614 0 0.02073818248545873 0.029294565522774027 0 0.020721857377068137 0.029235515954704614 0 0.020703642803797516 0.029252501160029868 0 0.02073818248545873 0.029294565522774027 0 0.020707910598650205 0.029306295894734605 0 0.020724862401017726 0.029365005062564318 0 0.02073818248545873 0.029294565522774027 0 0.020768134263291601 0.029372244797629 0 0.020724862401017726 0.029365005062564318 0 0.02073818248545873 0.029294565522774027 0 0.020703642803797516 0.029252501160029868 0 0.020707910598650205 0.029306295894734605 0 0.012639891260724052 0.029396102588512878 0 0.012595637034398999 0.028602746994365897 0 0.013860166531025217 0.031921059503668726 0 0.015708126394557088 0.028809397359245884 0 0.016823775943187371 0.030532649932911004 0 0.012639891260724052 0.029396102588512878 0 0.012520496023440566 0.031764788579150195 0 0.013860166531025217 0.031921059503668726 0 0.012639891260724052 0.029396102588512878 0 0.01135031716814461 0.029012644610663985 0 0.012520496023440566 0.031764788579150195 0 0.011650733612480901 0.028601690192775246 0 0.012368851768065191 0.031648681170286762 0 0.012639891260724052 0.029396102588512878 0 0.012595637034398999 0.028602746994365897 0 0.011313167951204496 0.02899795358070744 0 0.011784826625082923 0.028713106462849809 0 0.015708126394557088 0.028809397359245884 0 0.010643613062056776 0.028526100107297052 0 0.011385846335184141 0.027640708266805151 0 0.011436151246554923 0.028578411480249619 0 0.011350160817619442 0.027463846643617607 0 0.012595637034398999 0.028602746994365897 0 0.011313167951204496 0.02899795358070744 0 0.017066210928503314 0.022820692250598927 0 0.018368070892368041 0.026181676068971624 0 0.016015266398248251 0.025478397634496702 0 0.020750442768731978 0.02920207801931559 0 0.020721857377068137 0.029235515954704614 0 0.020683399970718396 0.029182839920423292 0 0.015708126394557088 0.028809397359245884 0 0.02027390422408697 0.025071630902627023 0 0.020721857377068137 0.029235515954704614 0 0.020683399970718396 0.029182839920423292 0 0.020703642803797516 0.029252501160029868 0 0.021033251070602069 0.028448290402526645 0 0.020786522751673708 0.028382840840584244 0 0.02068564545278823 0.029265895597474535 0 0.023250351399363503 0.02568875959990246 0 0.026350114471880598 0.027476155000161939 0 0.02027390422408697 0.025071630902627023 0 0.023250351399363503 0.02568875959990246 0 0.019203051017852781 0.015562947326245663 0 0.01885718539476432 0.01505329805555904 0 0.019483004506666332 0.015192590259210216 0 0.030599115464291768 0.027731893741607148 0 0.031152724645239539 0.027700293584551824 0 0.030959322261839298 0.027528617754720479 0 0.030599115464291768 0.027731893741607148 0 0.030959322261839298 0.027528617754720479 0 0.030877024452230156 0.027146210389795748 0 0.031152724645239539 0.027700293584551824 0 0.030959322261839298 0.027528617754720479 0 0.031186894288380534 0.027497234007979918 0 0.030959322261839298 0.027528617754720479 0 0.030877024452230156 0.027146210389795748 0 0.031186894288380534 0.027497234007979918 0 0.030877024452230156 0.027146210389795748 0 0.03146734101800612 0.027309077509522769 0 0.031186894288380534 0.027497234007979918 0 0.02027390422408697 0.025071630902627023 0 0.020560569822580435 0.030630774336002371 0 0.020683399970718396 0.029182839920423292 0 0.020703642803797516 0.029252501160029868 0 0.02068564545278823 0.029265895597474535 0 0.020786522751673708 0.028382840840584244 0 0.020504033551708763 0.029268853175537863 0 0.02068564545278823 0.029265895597474535 0 0.020504033551708763 0.029268853175537863 0 0.02068564545278823 0.029265895597474535 0 0.020652406107602522 0.029384142188930557 0 0.02068564545278823 0.029265895597474535 0 0.020707910598650205 0.029306295894734605 0 0.020652406107602522 0.029384142188930557 0 0.020703642803797516 0.029252501160029868 0 0.02068564545278823 0.029265895597474535 0 0.020707910598650205 0.029306295894734605 0 0.020707910598650205 0.029306295894734605 0 0.020652406107602522 0.029384142188930557 0 0.020724862401017726 0.029365005062564318 0 0.020652406107602522 0.029384142188930557 0 0.020476987200371766 0.029602174340597448 0 0.020709627639403733 0.029479822618623596 0 0.020652406107602522 0.029384142188930557 0 0.020709627639403733 0.029479822618623596 0 0.020724862401017726 0.029365005062564318 0 0.020504033551708763 0.029268853175537863 0 0.020652406107602522 0.029384142188930557 0 0.020476987200371766 0.029602174340597448 0 0.030877024452230156 0.027146210389795748 0 0.031075811138221297 0.026542710017858281 0 0.031454599288666493 0.026897919781835512 0 0.026350114471880598 0.027476155000161939 0 0.024145767593976179 0.033364323293632918 0 0.024145767593976179 0.033364323293632918 0 0.01977223776310074 0.035216982997241027 0 0.021830982588867842 0.039750151042580159 0 0.019863011346312368 0.040100792997133011 0 0.020147695071061116 0.038880763485411758 0 0.019863011346312368 0.040100792997133011 0 0.018986447178514065 0.039568730663210497 0 0.020147695071061116 0.038880763485411758 0 0.019863011346312368 0.040100792997133011 0 0.018986447178514065 0.039568730663210497 0 0.017890715850025288 0.04042989288255272 0 0.018986447178514065 0.039568730663210497 0 0.018573271515704134 0.039133816898012527 0 0.018989573123179056 0.038704683695771659 0 0.020709627639403733 0.029479822618623596 0 0.020768134263291601 0.029372244797629 0 0.020822452025602897 0.029427657489621669 0 0.01977223776310074 0.035216982997241027 0 0.018561146720138314 0.033489285903103468 0 0.020709627639403733 0.029479822618623596 0 0.020768134263291601 0.029372244797629 0 0.020724862401017726 0.029365005062564318 0 0.012520496023440566 0.031764788579150195 0 0.013033780192919602 0.032687735280763061 0 0.013860166531025217 0.031921059503668726 0 0.016823775943187371 0.030532649932911004 0 0.018561146720138314 0.033489285903103468 0 0.020768134263291601 0.029372244797629 0 0.020812175241394761 0.029366059182951623 0 0.020822452025602897 0.029427657489621669 0 0.018073700386232967 0.039719898665510928 0 0.01756928139774187 0.038069477104796336 0 0.017470715240358529 0.039487482252871763 0 0.017890715850025288 0.04042989288255272 0 0.018073700386232967 0.039719898665510928 0 0.017470715240358529 0.039487482252871763 0 0.018986447178514065 0.039568730663210497 0 0.017890715850025288 0.04042989288255272 0 0.018073700386232967 0.039719898665510928 0 0.018561146720138314 0.033489285903103468 0 0.015779159241673283 0.036837921392778673 0 0.018073700386232967 0.039719898665510928 0 0.018573271515704134 0.039133816898012527 0 0.018313640173473207 0.038648758362433588 0 0.018986447178514065 0.039568730663210497 0 0.018073700386232967 0.039719898665510928 0 0.018573271515704134 0.039133816898012527 0 0.018041862011678036 0.039627106408593328 0 0.017640904444821651 0.038162346273471051 0 0.018073700386232967 0.039719898665510928 0 0.018313640173473207 0.038648758362433588 0 0.017703826195406822 0.038202897627065698 0 0.018573271515704134 0.039133816898012527 0 0.018313640173473207 0.038648758362433588 0 0.018989573123179056 0.038704683695771659 0 0.018313640173473207 0.038648758362433588 0 0.018989573123179056 0.038704683695771659 0 0.018548688948296362 0.037978288305810765 0 0.018313640173473207 0.038648758362433588 0 0.017703826195406822 0.038202897627065698 0 0.018548688948296362 0.037978288305810765 0 0.018989573123179056 0.038704683695771659 0 0.019350445754142975 0.038001101362388857 0 0.020147695071061116 0.038880763485411758 0 0.018986447178514065 0.039568730663210497 0 0.018989573123179056 0.038704683695771659 0 0.020147695071061116 0.038880763485411758 0 0.018989573123179056 0.038704683695771659 0 0.019350445754142975 0.038001101362388857 0 0.018548688948296362 0.037978288305810765 0 0.019350445754142975 0.038001101362388857 0 0.019029543762790136 0.037225247837289421 0 0.020190191004043196 0.037538481543503754 0 0.019350445754142975 0.038001101362388857 0 0.019029543762790136 0.037225247837289421 0 0.018548688948296362 0.037978288305810765 0 0.017703826195406822 0.038202897627065698 0 0.018150301040739406 0.037235092281193316 0 0.017237635873490538 0.036627284704121479 0 0.017703826195406822 0.038202897627065698 0 0.018548688948296362 0.037978288305810765 0 0.018150301040739406 0.037235092281193316 0 0.019029543762790136 0.037225247837289421 0 0.018548688948296362 0.037978288305810765 0 0.018150301040739406 0.037235092281193316 0 0.019029543762790136 0.037225247837289421 0 0.018150301040739406 0.037235092281193316 0 0.018237090138359873 0.036118561135441082 0 0.018150301040739406 0.037235092281193316 0 0.018237090138359873 0.036118561135441082 0 0.017237635873490538 0.036627284704121479 0 0.019029543762790136 0.037225247837289421 0 0.018237090138359873 0.036118561135441082 0 0.019706245047395501 0.036250217484202582 0 0.019029543762790136 0.037225247837289421 0 0.019706245047395501 0.036250217484202582 0 0.020190191004043196 0.037538481543503754 0 0.01866999215168668 0.034999961554778261 0 0.020594784251469378 0.034999983031677728 0 0.019706245047395501 0.036250217484202582 0 0.018237090138359873 0.036118561135441082 0 0.01866999215168668 0.034999961554778261 0 0.019706245047395501 0.036250217484202582 0 0.018237090138359873 0.036118561135441082 0 0.01866999215168668 0.034999961554778261 0 0.016745206032678223 0.034999988530001601 0 0.020594784251469378 0.034999983031677728 0 0.021517955213974878 0.036641235365943783 0 0.02251978689318123 0.034999891481030505 0 0.020594784251469378 0.034999983031677728 0 0.019706245047395501 0.036250217484202582 0 0.021517955213974878 0.036641235365943783 0 0.019706245047395501 0.036250217484202582 0 0.021517955213974878 0.036641235365943783 0 0.020190191004043196 0.037538481543503754 0 0.021517955213974878 0.036641235365943783 0 0.02126226244911416 0.038189688386550166 0 0.022624186594401321 0.038082325816787443 0 0.021517955213974878 0.036641235365943783 0 0.020190191004043196 0.037538481543503754 0 0.02126226244911416 0.038189688386550166 0 0.020190191004043196 0.037538481543503754 0 0.020147695071061116 0.038880763485411758 0 0.02126226244911416 0.038189688386550166 0 0.019350445754142975 0.038001101362388857 0 0.020190191004043196 0.037538481543503754 0 0.020147695071061116 0.038880763485411758 0 0.021830982588867842 0.039750151042580159 0 0.020147695071061116 0.038880763485411758 0 0.02126226244911416 0.038189688386550166 0 0.023158434273892057 0.03885208922161229 0 0.023413835768385245 0.037773415417391119 0 0.024242770456448716 0.038762948269824515 0 0.021830982588867842 0.039750151042580159 0 0.02126226244911416 0.038189688386550166 0 0.022624186594401321 0.038082325816787443 0 0.024145767593976179 0.033364323293632918 0 0.022557306443022351 0.039276181453064316 0 0.023413835768385245 0.037773415417391119 0 0.024533305133465636 0.037489187634884145 0 0.024242770456448716 0.038762948269824515 0 0.022557306443022351 0.039276181453064316 0 0.023788606941468816 0.035759184523012931 0 0.023413835768385245 0.037773415417391119 0 0.023567603833449031 0.0362965053324407 0 0.024533305133465636 0.037489187634884145 0 0.021517955213974878 0.036641235365943783 0 0.022624186594401321 0.038082325816787443 0 0.023567603833449031 0.0362965053324407 0 0.023567603833449031 0.0362965053324407 0 0.02251978689318123 0.034999891481030505 0 0.024444732449131017 0.0349999679238241 0 0.021517955213974878 0.036641235365943783 0 0.023567603833449031 0.0362965053324407 0 0.02251978689318123 0.034999891481030505 0 0.024444732449131017 0.0349999679238241 0 0.024743203152629723 0.036131998279708179 0 0.026369415792843083 0.034999919901602977 0 0.023567603833449031 0.0362965053324407 0 0.024444732449131017 0.0349999679238241 0 0.024743203152629723 0.036131998279708179 0 0.024743203152629723 0.036131998279708179 0 0.025722950195130326 0.036898836046038989 0 0.024533305133465636 0.037489187634884145 0 0.023567603833449031 0.0362965053324407 0 0.024743203152629723 0.036131998279708179 0 0.024533305133465636 0.037489187634884145 0 0.024743203152629723 0.036131998279708179 0 0.025722950195130326 0.036898836046038989 0 0.026369415792843083 0.034999919901602977 0 0.025722950195130326 0.036898836046038989 0 0.025727430314912269 0.038705884241773077 0 0.026836554936797156 0.037559217229211003 0 0.025722950195130326 0.036898836046038989 0 0.024533305133465636 0.037489187634884145 0 0.025727430314912269 0.038705884241773077 0 0.024533305133465636 0.037489187634884145 0 0.025727430314912269 0.038705884241773077 0 0.024242770456448716 0.038762948269824515 0 0.033142976412970093 0.026261523305990048 0 0.032791120381732292 0.026988405225049739 0 0.034039384429762017 0.026978962893989662 0 0.032865078265971778 0.027001836117582553 0 0.03385081820170352 0.027376647956623253 0 0.032791120381732292 0.026988405225049739 0 0.032726341561384147 0.02714303680675674 0 0.033420445988748819 0.026923530681714301 0 0.032791120381732292 0.026988405225049739 0 0.032017386412304373 0.027041279013729026 0 0.032726341561384147 0.02714303680675674 0 0.032791120381732292 0.026988405225049739 0 0.03194331070995321 0.026376945338872242 0 0.032017386412304373 0.027041279013729026 0 0.033142976412970093 0.026261523305990048 0 0.032791120381732292 0.026988405225049739 0 0.03194331070995321 0.026376945338872242 0 0.029338896666877147 0.032478287377615267 0 0.028768743626063457 0.032440379456202539 0 0.024145767593976179 0.033364323293632918 0 0.028768743626063457 0.032440379456202539 0 0.031075811138221297 0.026542710017858281 0 0.03194331070995321 0.026376945338872242 0 0.031454599288666493 0.026897919781835512 0 0.03194331070995321 0.026376945338872242 0 0.031454599288666493 0.026897919781835512 0 0.032017386412304373 0.027041279013729026 0 0.032017386412304373 0.027041279013729026 0 0.03190101595851267 0.027343294168307698 0 0.032326681450728222 0.027358403941907354 0 0.032017386412304373 0.027041279013729026 0 0.03190101595851267 0.027343294168307698 0 0.03146734101800612 0.027309077509522769 0 0.03190101595851267 0.027343294168307698 0 0.03146734101800612 0.027309077509522769 0 0.031668295013391821 0.027573525528178298 0 0.03190101595851267 0.027343294168307698 0 0.032001821070250451 0.027502139480018298 0 0.032326681450728222 0.027358403941907354 0 0.031454599288666493 0.026897919781835512 0 0.032017386412304373 0.027041279013729026 0 0.03146734101800612 0.027309077509522769 0 0.030877024452230156 0.027146210389795748 0 0.031454599288666493 0.026897919781835512 0 0.03146734101800612 0.027309077509522769 0 0.03146734101800612 0.027309077509522769 0 0.031186894288380534 0.027497234007979918 0 0.031394230619517273 0.027552704445312985 0 0.031186894288380534 0.027497234007979918 0 0.031394230619517273 0.027552704445312985 0 0.031265233712513857 0.027678901817073276 0 0.03146734101800612 0.027309077509522769 0 0.031394230619517273 0.027552704445312985 0 0.031668295013391821 0.027573525528178298 0 0.031394230619517273 0.027552704445312985 0 0.031421194386513918 0.027704186478781721 0 0.031668295013391821 0.027573525528178298 0 0.031597025257465945 0.027772155023448854 0 0.031421194386513918 0.027704186478781721 0 0.031668295013391821 0.027573525528178298 0 0.031597025257465945 0.027772155023448854 0 0.03147582257677195 0.027796515689243888 0 0.031421194386513918 0.027704186478781721 0 0.031243871949408059 0.027850540006537992 0 0.03147582257677195 0.027796515689243888 0 0.031421194386513918 0.027704186478781721 0 0.031152724645239539 0.027700293584551824 0 0.031186894288380534 0.027497234007979918 0 0.031265233712513857 0.027678901817073276 0 0.031394230619517273 0.027552704445312985 0 0.031421194386513918 0.027704186478781721 0 0.031265233712513857 0.027678901817073276 0 0.031243871949408059 0.027850540006537992 0 0.031421194386513918 0.027704186478781721 0 0.031265233712513857 0.027678901817073276 0 0.031244386011870271 0.027764157481631985 0 0.031243871949408059 0.027850540006537992 0 0.031265233712513857 0.027678901817073276 0 0.031244386011870271 0.027764157481631985 0 0.031152724645239539 0.027700293584551824 0 0.031265233712513857 0.027678901817073276 0 0.032001821070250451 0.027502139480018298 0 0.031909731203272326 0.027665945510075642 0 0.032200853976541273 0.027573553138229734 0 0.03190101595851267 0.027343294168307698 0 0.032001821070250451 0.027502139480018298 0 0.031668295013391821 0.027573525528178298 0 0.032001821070250451 0.027502139480018298 0 0.031668295013391821 0.027573525528178298 0 0.031909731203272326 0.027665945510075642 0 0.031597025257465945 0.027772155023448854 0 0.031668295013391821 0.027573525528178298 0 0.031738592442522029 0.027694490166627041 0 0.031668295013391821 0.027573525528178298 0 0.031738592442522029 0.027694490166627041 0 0.031909731203272326 0.027665945510075642 0 0.031597025257465945 0.027772155023448854 0 0.031738592442522029 0.027694490166627041 0 0.031789087051202446 0.027781673411063107 0 0.031738592442522029 0.027694490166627041 0 0.031789087051202446 0.027781673411063107 0 0.031909731203272326 0.027665945510075642 0 0.031975583295536701 0.027815542030955369 0 0.031909731203272326 0.027665945510075642 0 0.032095838651667458 0.027730398415350962 0 0.031909731203272326 0.027665945510075642 0 0.032095838651667458 0.027730398415350962 0 0.032200853976541273 0.027573553138229734 0 0.031975583295536701 0.027815542030955369 0 0.031789087051202446 0.027781673411063107 0 0.031909731203272326 0.027665945510075642 0 0.032528724077613515 0.027581310300814576 0 0.032868930724969957 0.027308540340418186 0 0.032326681450728222 0.027358403941907354 0 0.032268700951309244 0.027763247569082817 0 0.032095838651667458 0.027730398415350962 0 0.032200853976541273 0.027573553138229734 0 0.032268700951309244 0.027763247569082817 0 0.032200853976541273 0.027573553138229734 0 0.032528724077613515 0.027581310300814576 0 0.032200853976541273 0.027573553138229734 0 0.032528724077613515 0.027581310300814576 0 0.032326681450728222 0.027358403941907354 0 0.032001821070250451 0.027502139480018298 0 0.032200853976541273 0.027573553138229734 0 0.032326681450728222 0.027358403941907354 0 0.032517413115683722 0.0278015972789778 0 0.032268700951309244 0.027763247569082817 0 0.032528724077613515 0.027581310300814576 0 0.032973548786723546 0.027682041658065308 0 0.032528724077613515 0.027581310300814576 0 0.032868930724969957 0.027308540340418186 0 0.032973548786723546 0.027682041658065308 0 0.032868930724969957 0.027308540340418186 0 0.033420445988748819 0.026923530681714301 0 0.032973548786723546 0.027682041658065308 0 0.032517413115683722 0.0278015972789778 0 0.032528724077613515 0.027581310300814576 0 0.032868930724969957 0.027308540340418186 0 0.032726341561384147 0.02714303680675674 0 0.033420445988748819 0.026923530681714301 0 0.032868930724969957 0.027308540340418186 0 0.032726341561384147 0.02714303680675674 0 0.032326681450728222 0.027358403941907354 0 0.032017386412304373 0.027041279013729026 0 0.032726341561384147 0.02714303680675674 0 0.032326681450728222 0.027358403941907354 0 0.03385081820170352 0.027376647956623253 0 0.034904916890582595 0.027501567233704744 0 0.034286229401579348 0.027860557477602677 0 0.0353651300565095 0.027936286277375429 0 0.035006480957114589 0.027403288211237449 0 0.03381363551767242 0.027559709044363844 0 0.032973548786723546 0.027682041658065308 0 0.033420445988748819 0.026923530681714301 0 0.03381363551767242 0.027559709044363844 0 0.033420445988748819 0.026923530681714301 0 0.034444394343154605 0.027087315263076863 0 0.035648092892389585 0.027510372013030568 0 0.034904916890582595 0.027501567233704744 0 0.035717321171209029 0.02747254358645014 0 0.0353651300565095 0.027936286277375429 0 0.035727773215313702 0.027640383875691198 0 0.035727773215313702 0.027640383875691198 0 0.035564912995214006 0.027612717921183298 0 0.035883170694638429 0.027603151618212564 0 0.035564912995214006 0.027612717921183298 0 0.035715966934386105 0.027573411032442759 0 0.035883170694638429 0.027603151618212564 0 0.0353651300565095 0.027936286277375429 0 0.035727773215313702 0.027640383875691198 0 0.035564912995214006 0.027612717921183298 0 0.0353651300565095 0.027936286277375429 0 0.035564912995214006 0.027612717921183298 0 0.035006480957114589 0.027403288211237449 0 0.035564912995214006 0.027612717921183298 0 0.035489834744246815 0.02738304608216113 0 0.035006480957114589 0.027403288211237449 0 0.035564912995214006 0.027612717921183298 0 0.035715966934386105 0.027573411032442759 0 0.035489834744246815 0.02738304608216113 0 0.035715966934386105 0.027573411032442759 0 0.035489834744246815 0.02738304608216113 0 0.035729941682041397 0.027573871667998181 0 0.035489834744246815 0.02738304608216113 0 0.035580427044429576 0.027381975861040048 0 0.035729941682041397 0.027573871667998181 0 0.035489834744246815 0.02738304608216113 0 0.035580427044429576 0.027381975861040048 0 0.035387546383501001 0.027155380179014248 0 0.035489834744246815 0.02738304608216113 0 0.035151613885817896 0.027144287549884016 0 0.035006480957114589 0.027403288211237449 0 0.035489834744246815 0.02738304608216113 0 0.035151613885817896 0.027144287549884016 0 0.035387546383501001 0.027155380179014248 0 0.035151613885817896 0.027144287549884016 0 0.035387546383501001 0.027155380179014248 0 0.035033128264700876 0.026807676393794371 0 0.034754871543538179 0.026964277730879047 0 0.034039384429762017 0.026978962893989662 0 0.034473225981552599 0.026450486614681672 0 0.034754871543538179 0.026964277730879047 0 0.035006480957114589 0.027403288211237449 0 0.034039384429762017 0.026978962893989662 0 0.035151613885817896 0.027144287549884016 0 0.034754871543538179 0.026964277730879047 0 0.035033128264700876 0.026807676393794371 0 0.035151613885817896 0.027144287549884016 0 0.034754871543538179 0.026964277730879047 0 0.035006480957114589 0.027403288211237449 0 0.032791120381732292 0.026988405225049739 0 0.034286229401579348 0.027860557477602677 0 0.034039384429762017 0.026978962893989662 0 0.034286229401579348 0.027860557477602677 0 0.035006480957114589 0.027403288211237449 0 0.034039384429762017 0.026978962893989662 0 0.033142976412970093 0.026261523305990048 0 0.034039384429762017 0.026978962893989662 0 0.034473225981552599 0.026450486614681672 0 0.029338896666877147 0.032478287377615267 0 0.030809297268868004 0.032801469232565307 0 0.025727430314912269 0.038705884241773077 0 0.027540043496473116 0.038518825007756906 0 0.026836554936797156 0.037559217229211003 0 0.027540043496473116 0.038518825007756906 0 0.028298182580418 0.037539638273029981 0 0.02942339051895226 0.038163289945140441 0 0.030809297268868004 0.032801469232565307 0 0.0332090845218391 0.029979896173665688 0 0.034754871543538179 0.026964277730879047 0 0.034473225981552599 0.026450486614681672 0 0.035033128264700876 0.026807676393794371 0 0.027540043496473116 0.038518825007756906 0 0.028298182580418 0.037539638273029981 0 0.026836554936797156 0.037559217229211003 0 0.028298182580418 0.037539638273029981 0 0.026836554936797156 0.037559217229211003 0 0.02736452069019326 0.0364128221558324 0 0.025722950195130326 0.036898836046038989 0 0.026836554936797156 0.037559217229211003 0 0.02736452069019326 0.0364128221558324 0 0.025722950195130326 0.036898836046038989 0 0.02736452069019326 0.0364128221558324 0 0.026369415792843083 0.034999919901602977 0 0.02736452069019326 0.0364128221558324 0 0.028294329240727365 0.034999887769436529 0 0.02905562625537967 0.036634156951092754 0 0.028298182580418 0.037539638273029981 0 0.02736452069019326 0.0364128221558324 0 0.02905562625537967 0.036634156951092754 0 0.02736452069019326 0.0364128221558324 0 0.028294329240727365 0.034999887769436529 0 0.026369415792843083 0.034999919901602977 0 0.029789231593570862 0.035887292294869977 0 0.030218856362147745 0.034999876537528889 0 0.030814945029691024 0.035897491571700448 0 0.030219152443066829 0.03500005332111731 0 0.030982426433583742 0.036197389078103298 0 0.028294329240727365 0.034999887769436529 0 0.029789231593570862 0.035887292294869977 0 0.02905562625537967 0.036634156951092754 0 0.028294329240727365 0.034999887769436529 0 0.029789231593570862 0.035887292294869977 0 0.030218856362147745 0.034999876537528889 0 0.029789231593570862 0.035887292294869977 0 0.030333383705088601 0.036532260358738987 0 0.030814945029691024 0.035897491571700448 0 0.02905562625537967 0.036634156951092754 0 0.030333383705088601 0.036532260358738987 0 0.030477806844464054 0.037463676382254729 0 0.029789231593570862 0.035887292294869977 0 0.02905562625537967 0.036634156951092754 0 0.030333383705088601 0.036532260358738987 0 0.032596529074264205 0.032561371856357407 0 0.0332090845218391 0.029979896173665688 0 0.02905562625537967 0.036634156951092754 0 0.030477806844464054 0.037463676382254729 0 0.02942339051895226 0.038163289945140441 0 0.035442458597877299 0.027152737430122999 0 0.034579324686852618 0.027626770961003758 0 0.035474329343472541 0.027379398368736516 0 0.028298182580418 0.037539638273029981 0 0.02905562625537967 0.036634156951092754 0 0.02942339051895226 0.038163289945140441 0 0.034473225981552599 0.026450486614681672 0 0.035543449528513592 0.026633298080121739 0 0.035033128264700876 0.026807676393794371 0 0.035387546383501001 0.027155380179014248 0 0.035389243484562759 0.027083010700281813 0 0.035033128264700876 0.026807676393794371 0 0.0332090845218391 0.029979896173665688 0 0.03606703129174671 0.026333352376632105 0 0.035389243484562759 0.027083010700281813 0 0.035474329343472541 0.027379398368736516 0 0.03547737778426565 0.027253155695730329 0 0.0332090845218391 0.029979896173665688 0 0.036093961729846469 0.02727216761906523 0 0.035474329343472541 0.027379398368736516 0 0.03547737778426565 0.027253155695730329 0 0.035549264257903682 0.027371477765102917 0 0.035387546383501001 0.027155380179014248 0 0.035389243484562759 0.027083010700281813 0 0.03547737778426565 0.027253155695730329 0 0.035580427044429576 0.027381975861040048 0 0.035387546383501001 0.027155380179014248 0 0.03547737778426565 0.027253155695730329 0 0.035580427044429576 0.027381975861040048 0 0.03547737778426565 0.027253155695730329 0 0.035549264257903682 0.027371477765102917 0 0.035580427044429576 0.027381975861040048 0 0.035549264257903682 0.027371477765102917 0 0.035676133671900763 0.027456993764112446 0 0.035580427044429576 0.027381975861040048 0 0.035676133671900763 0.027456993764112446 0 0.035775737880102278 0.027618095177153346 0 0.035676133671900763 0.027456993764112446 0 0.035837625647393567 0.027578820810693284 0 0.035775737880102278 0.027618095177153346 0 0.035676133671900763 0.027456993764112446 0 0.035773930038079077 0.027355556816105363 0 0.035616949592639426 0.027345465624512205 0 0.035676133671900763 0.027456993764112446 0 0.035773930038079077 0.027355556816105363 0 0.035837625647393567 0.027578820810693284 0 0.035549264257903682 0.027371477765102917 0 0.035676133671900763 0.027456993764112446 0 0.035616949592639426 0.027345465624512205 0 0.035474329343472541 0.027379398368736516 0 0.035549264257903682 0.027371477765102917 0 0.035616949592639426 0.027345465624512205 0 0.035773930038079077 0.027355556816105363 0 0.036105907628356297 0.027539518193489997 0 0.035837625647393567 0.027578820810693284 0 0.036105907628356297 0.027539518193489997 0 0.035837625647393567 0.027578820810693284 0 0.035958332495512252 0.027924450288568829 0 0.034625564877303873 0.034591193305255161 0 0.036393160596681171 0.032754871325459484 0 0.035773930038079077 0.027355556816105363 0 0.036105907628356297 0.027539518193489997 0 0.035763064367060983 0.027038952076724482 0 0.038259750648402459 0.032831537381354088 0 0.03797051678796947 0.033023050947260622 0 0.036846250691503657 0.032335754215774018 0 0.037170080952788995 0.031029598772453214 0 0.038259750648402459 0.032831537381354088 0 0.036846250691503657 0.032335754215774018 0 0.036951136258035769 0.028680692283463365 0 0.034167990936528378 0.033327073160970618 0 0.032596529074264205 0.032561371856357407 0 0.034167990936528378 0.033327073160970618 0 0.035442458597877299 0.027152737430122999 0 0.035659032220811335 0.027209509918716835 0 0.035763064367060983 0.027038952076724482 0 0.030333383705088601 0.036532260358738987 0 0.030477806844464054 0.037463676382254729 0 0.031462310762210836 0.036790257947694346 0 0.035773930038079077 0.027355556816105363 0 0.035659032220811335 0.027209509918716835 0 0.035763064367060983 0.027038952076724482 0 0.035442458597877299 0.027152737430122999 0 0.035616949592639426 0.027345465624512205 0 0.035659032220811335 0.027209509918716835 0 0.035442458597877299 0.027152737430122999 0 0.035474329343472541 0.027379398368736516 0 0.035616949592639426 0.027345465624512205 0 0.035773930038079077 0.027355556816105363 0 0.035616949592639426 0.027345465624512205 0 0.035659032220811335 0.027209509918716835 0 0.030333383705088601 0.036532260358738987 0 0.031462310762210836 0.036790257947694346 0 0.030814945029691024 0.035897491571700448 0 0.0315960253387901 0.036215452095286496 0 0.031762574568603312 0.036700850091702424 0 0.030951942664864351 0.036013580182335088 0 0.034167990936528378 0.033327073160970618 0 0.030982426433583742 0.036197389078103298 0 0.031676346017144204 0.036993429858551176 0 0.031762574568603312 0.036700850091702424 0 0.030951942664864351 0.036013580182335088 0 0.035259179011933081 0.034113200560837831 0 0.035067727944275255 0.034242068580819934 0 0.034990760810992658 0.033941577458719001 0 0.034167990936528378 0.033327073160970618 0 0.034625564877303873 0.034591193305255161 0 0.031676346017144204 0.036993429858551176 0 0.031762574568603312 0.036700850091702424 0 0.031955751429817068 0.036807058349482343 0 0.031762574568603312 0.036700850091702424 0 0.031950266627547845 0.036809719879893503 0 0.031973076116674493 0.036371169784654801 0 0.03408723448439064 0.034648408931118556 0 0.034625564877303873 0.034591193305255161 0 0.034625564877303873 0.034591193305255161 0 0.03419195709755584 0.035119878673194729 0 0.031950266627547845 0.036809719879893503 0 0.032715762081383298 0.036303824737155113 0 0.031973076116674493 0.036371169784654801 0 0.0315960253387901 0.036215452095286496 0 0.031973076116674493 0.036371169784654801 0 0.031839591369812785 0.03582180790459414 0 0.032715762081383298 0.036303824737155113 0 0.031973076116674493 0.036371169784654801 0 0.031839591369812785 0.03582180790459414 0 0.0315960253387901 0.036215452095286496 0 0.031762574568603312 0.036700850091702424 0 0.031973076116674493 0.036371169784654801 0 0.032715762081383298 0.036303824737155113 0 0.031839591369812785 0.03582180790459414 0 0.032327986208743983 0.034999954589091033 0 0.03419195709755584 0.035119878673194729 0 0.03232806693335849 0.035001192310990657 0 0.030219202769209471 0.034999991187233598 0 0.031839591369812785 0.03582180790459414 0 0.032327986208743983 0.034999954589091033 0 0.030219202769209471 0.034999991187233598 0 0.031839591369812785 0.03582180790459414 0 0.030951942664864351 0.036013580182335088 0 0.0315960253387901 0.036215452095286496 0 0.031839591369812785 0.03582180790459414 0 0.030951942664864351 0.036013580182335088 0 0.032329098745444249 0.034999525433731159 0 0.034999742780349473 0.034999855572751377 0 0.034690406047604962 0.034986374205072501 0 0.034999742780349473 0.034999855572751377 0 0.035574648351033175 0.03335382814027768 0 0.034999430427980961 0.031284119064368766 0 0.034999742780349473 0.034999855572751377 0 0.034690406047604962 0.034986374205072501 0 0.035574648351033175 0.03335382814027768 0 0.034690406047604962 0.034986374205072501 0 0.035954895190653473 0.034386908344626835 0 0.035574648351033175 0.03335382814027768 0 0.034717971437383352 0.035028927610857116 0 0.034893686071078261 0.034973613767526848 0 0.032792794247583884 0.036346645633523203 0 0.032329098745444249 0.034999525433731159 0 0.033720992136348028 0.035719814754454557 0 0.032329098745444249 0.034999525433731159 0 0.034690406047604962 0.034986374205072501 0 0.033720992136348028 0.035719814754454557 0 0.03419195709755584 0.035119878673194729 0 0.034893686071078261 0.034973613767526848 0 0.03419195709755584 0.035119878673194729 0 0.036393160596681171 0.032754871325459484 0 0.035954895190653473 0.034386908344626835 0 0.036264663370789013 0.033495812317842273 0 0.035574648351033175 0.03335382814027768 0 0.036932151753815083 0.033763360158752996 0 0.036264663370789013 0.033495812317842273 0 0.036593482587897692 0.032505838666660042 0 0.036932151753815083 0.033763360158752996 0 0.035954895190653473 0.034386908344626835 0 0.036264663370789013 0.033495812317842273 0 0.036264663370789013 0.033495812317842273 0 0.035574648351033175 0.03335382814027768 0 0.036593482587897692 0.032505838666660042 0 0.035574648351033175 0.03335382814027768 0 0.03573485841896698 0.031924433158628994 0 0.034999430427980961 0.031284119064368766 0 0.035574648351033175 0.03335382814027768 0 0.03573485841896698 0.031924433158628994 0 0.036593482587897692 0.032505838666660042 0 0.035836027689155905 0.031862873429814462 0 0.036393160596681171 0.032754871325459484 0 0.036393160596681171 0.032754871325459484 0 0.03644676002835795 0.030262192794361029 0 0.037170080952788995 0.031029598772453214 0 0.036846250691503657 0.032335754215774018 0 0.036295645128057809 0.030300999221481786 0 0.035908954621578233 0.031766007401398219 0 0.036964802126630267 0.032392367162983909 0 0.036295645128057809 0.030300999221481786 0 0.035908954621578233 0.031766007401398219 0 0.034999896431907276 0.031283431169646859 0 0.036295645128057809 0.030300999221481786 0 0.035836027689155905 0.031862873429814462 0 0.035000185500693587 0.031283508995865156 0 0.035982041964773101 0.028916824162949394 0 0.034999875670173396 0.029219321402413748 0 0.036295645128057809 0.030300999221481786 0 0.034999896431907276 0.031283431169646859 0 0.034999875670173396 0.029219321402413748 0 0.036295645128057809 0.030300999221481786 0 0.035982041964773101 0.028916824162949394 0 0.034999875670173396 0.029219321402413748 0 0.035787287305552841 0.027926874464992899 0 0.035982041964773101 0.028916824162949394 0 0.036047589420146638 0.028177810173887551 0 0.035787287305552841 0.027926874464992899 0 0.035982041964773101 0.028916824162949394 0 0.036047589420146638 0.028177810173887551 0 0.036038303663423824 0.028125344742448103 0 0.036105907628356297 0.027539518193489997 0 0.035982041964773101 0.028916824162949394 0 0.035958332495512252 0.027924450288568829 0 0.037170080952788995 0.031029598772453214 0 0.035982041964773101 0.028916824162949394 0 0.036295645128057809 0.030300999221481786 0 0.036951136258035769 0.028680692283463365 0 0.035939618214246988 0.029072947042648605 0 0.035982041964773101 0.028916824162949394 0 0.035958332495512252 0.027924450288568829 0 0.036038303663423824 0.028125344742448103 0 0.035837625647393567 0.027578820810693284 0 0.035958332495512252 0.027924450288568829 0 0.035775737880102278 0.027618095177153346 0 0.035958332495512252 0.027924450288568829 0 0.035775737880102278 0.027618095177153346 0 0.03592514419049609 0.027821494443122853 0 0.035958332495512252 0.027924450288568829 0 0.036038303663423824 0.028125344742448103 0 0.03592514419049609 0.027821494443122853 0 0.035580427044429576 0.027381975861040048 0 0.035775737880102278 0.027618095177153346 0 0.035729941682041397 0.027573871667998181 0 0.035775737880102278 0.027618095177153346 0 0.035729941682041397 0.027573871667998181 0 0.03592514419049609 0.027821494443122853 0 0.035715966934386105 0.027573411032442759 0 0.035729941682041397 0.027573871667998181 0 0.035878575400763078 0.027677571375390193 0 0.035729941682041397 0.027573871667998181 0 0.035878575400763078 0.027677571375390193 0 0.03592514419049609 0.027821494443122853 0 0.035878575400763078 0.027677571375390193 0 0.03592514419049609 0.027821494443122853 0 0.036092261327268199 0.027790248643412022 0 0.035715966934386105 0.027573411032442759 0 0.035878575400763078 0.027677571375390193 0 0.035883170694638429 0.027603151618212564 0 0.036047589420146638 0.028177810173887551 0 0.036038303663423824 0.028125344742448103 0 0.036092261327268199 0.027790248643412022 0 0.036038303663423824 0.028125344742448103 0 0.03592514419049609 0.027821494443122853 0 0.036092261327268199 0.027790248643412022 0 0.036047589420146638 0.028177810173887551 0 0.036092261327268199 0.027790248643412022 0 0.036166954693317842 0.027584959602477435 0 0.036092261327268199 0.027790248643412022 0 0.03612300463057061 0.027438525676871547 0 0.036166954693317842 0.027584959602477435 0 0.036092261327268199 0.027790248643412022 0 0.035883170694638429 0.027603151618212564 0 0.03612300463057061 0.027438525676871547 0 0.035727773215313702 0.027640383875691198 0 0.035883170694638429 0.027603151618212564 0 0.03612300463057061 0.027438525676871547 0 0.035878575400763078 0.027677571375390193 0 0.036092261327268199 0.027790248643412022 0 0.035883170694638429 0.027603151618212564 0 0.036556902760627674 0.026979266038333581 0 0.035717321171209029 0.02747254358645014 0 0.03612300463057061 0.027438525676871547 0 0.035717321171209029 0.02747254358645014 0 0.035727773215313702 0.027640383875691198 0 0.03612300463057061 0.027438525676871547 0 0.036556902760627674 0.026979266038333581 0 0.03612300463057061 0.027438525676871547 0 0.036166954693317842 0.027584959602477435 0 0.036556902760627674 0.026979266038333581 0 0.035941606945411465 0.026805459245070596 0 0.036166954693317842 0.027584959602477435 0 0.035941606945411465 0.026805459245070596 0 0.034999889976922431 0.027158389559090172 0 0.035787287305552841 0.027926874464992899 0 0.034999875670173396 0.029219321402413748 0 0.034999889976922431 0.027158389559090172 0 0.035787287305552841 0.027926874464992899 0 0.036047589420146638 0.028177810173887551 0 0.035787287305552841 0.027926874464992899 0 0.036166954693317842 0.027584959602477435 0 0.035941606945411465 0.026805459245070596 0 0.035787287305552841 0.027926874464992899 0 0.036166954693317842 0.027584959602477435 0 0.011041833964098927 0.031305296387245773 0 0.01161392424927124 0.0299324596582198 0 0.010561350177079305 0.031303868990002384 0 0.01269684959831959 0.029132386143989407 0 0.015887616697684195 0.02818451146475531 0 0.011041833964098927 0.031305296387245773 0 0.010561350177079305 0.031303868990002384 0 0.010814225822043132 0.031753093500425232 0 0.011041833964098927 0.031305296387245773 0 0.0097074843006946642 0.03199015541502194 0 0.010577161983503548 0.031675883680308874 0 0.011041833964098927 0.031305296387245773 0 0.0097074843006946642 0.03199015541502194 0 0.0096463779739956405 0.032303923146703752 0 0.011041833964098927 0.031305296387245773 0 0.0096463779739956405 0.032303923146703752 0 0.010037571705298219 0.032552067881069631 0 0.0093146997855972063 0.032269440195463357 0 0.0096463779739956405 0.032303923146703752 0 0.010037571705298219 0.032552067881069631 0 0.020487658479610951 0.024540703408994786 0 0.020051130317638499 0.024060606658489858 0 0.019870285418187139 0.026002625133772741 0 0.020487658479610951 0.024540703408994786 0 0.020051130317638499 0.024060606658489858 0 0.020166111329131216 0.023140075159653967 0 0.010980691203065277 0.031885581839883388 0 0.01269684959831959 0.029132386143989407 0 0.020051130317638499 0.024060606658489858 0 0.019604330070982692 0.024119340863886302 0 0.019870285418187139 0.026002625133772741 0 0.020051130317638499 0.024060606658489858 0 0.019604330070982692 0.024119340863886302 0 0.019712544196253061 0.023123182041821025 0 0.019604330070982692 0.024119340863886302 0 0.019134694741137357 0.023071091874854566 0 0.019712544196253061 0.023123182041821025 0 0.019061874243823371 0.024399360247507822 0 0.019134694741137357 0.023071091874854566 0 0.018164566729923379 0.023418297390081357 0 0.019604330070982692 0.024119340863886302 0 0.019061874243823371 0.024399360247507822 0 0.019134694741137357 0.023071091874854566 0 0.018794684227830198 0.025492727978323283 0 0.019870285418187139 0.026002625133772741 0 0.018456708131116745 0.026718749171067882 0 0.019061874243823371 0.024399360247507822 0 0.018794684227830198 0.025492727978323283 0 0.019870285418187139 0.026002625133772741 0 0.019061874243823371 0.024399360247507822 0 0.018794684227830198 0.025492727978323283 0 0.017901920479297964 0.024975159385158034 0 0.018794684227830198 0.025492727978323283 0 0.018456708131116745 0.026718749171067882 0 0.017901920479297964 0.024975159385158034 0 0.019604330070982692 0.024119340863886302 0 0.019061874243823371 0.024399360247507822 0 0.019870285418187139 0.026002625133772741 0 0.010561350177079305 0.031303868990002384 0 0.010595655082543372 0.032283118245817609 0 0.0095054852974748773 0.033174925126956342 0 0.015887616697684195 0.02818451146475531 0 0.014148356562235783 0.03094334531545281 0 0.010561350177079305 0.031303868990002384 0 0.010595655082543372 0.032283118245817609 0 0.010814225822043132 0.031753093500425232 0 0.019870285418187139 0.026002625133772741 0 0.018456708131116745 0.026718749171067882 0 0.019047094117226639 0.0283639152039372 0 0.0095054852974748773 0.033174925126956342 0 0.010830699801657311 0.03300361708145489 0 0.0095619805152361605 0.035148550292789418 0 0.010595655082543372 0.032283118245817609 0 0.0095054852974748773 0.033174925126956342 0 0.010830699801657311 0.03300361708145489 0 0.010595655082543372 0.032283118245817609 0 0.010830699801657311 0.03300361708145489 0 0.010753268496388904 0.032100539334448647 0 0.0081833667873764341 0.035804807968907448 0 0.0068387440980152885 0.035020772532813674 0 0.0071946989870916057 0.035284919204112059 0 0.010830699801657311 0.03300361708145489 0 0.010753268496388904 0.032100539334448647 0 0.010483222120895728 0.031304901441658477 0 0.0081833667873764341 0.035804807968907448 0 0.0065542850382505546 0.034524634454755919 0 0.0068387440980152885 0.035020772532813674 0 0.0094145963394379004 0.03435084672844111 0 0.0085926963952785013 0.032926508717002471 0 0.010595655082543372 0.032283118245817609 0 0.010753268496388904 0.032100539334448647 0 0.010814225822043132 0.031753093500425232 0 0.010753268496388904 0.032100539334448647 0 0.010700261924989438 0.031726051397094258 0 0.010483222120895728 0.031304901441658477 0 0.011041833964098927 0.031305296387245773 0 0.010814225822043132 0.031753093500425232 0 0.010577161983503548 0.031675883680308874 0 0.010753268496388904 0.032100539334448647 0 0.010700261924989438 0.031726051397094258 0 0.010814225822043132 0.031753093500425232 0 0.010700261924989438 0.031726051397094258 0 0.010814225822043132 0.031753093500425232 0 0.010577161983503548 0.031675883680308874 0 0.0097074843006946642 0.03199015541502194 0 0.010577161983503548 0.031675883680308874 0 0.010483222120895728 0.031304901441658477 0 0.0067377736667179958 0.034497386877645669 0 0.0065542850382505546 0.034524634454755919 0 0.0081448184976768527 0.03180742777543704 0 0.010700261924989438 0.031726051397094258 0 0.010577161983503548 0.031675883680308874 0 0.010483222120895728 0.031304901441658477 0 0.0067377736667179958 0.034497386877645669 0 0.0065542850382505546 0.034524634454755919 0 0.0068387440980152885 0.035020772532813674 0 0.0068387440980152885 0.035020772532813674 0 0.0066262766326666122 0.035224386009047044 0 0.0071946989870916057 0.035284919204112059 0 0.0067377736667179958 0.034497386877645669 0 0.0068387440980152885 0.035020772532813674 0 0.0066716816567827329 0.034966879964627828 0 0.0068387440980152885 0.035020772532813674 0 0.0066716816567827329 0.034966879964627828 0 0.0066262766326666122 0.035224386009047044 0 0.0067377736667179958 0.034497386877645669 0 0.0066716816567827329 0.034966879964627828 0 0.0065610056487002359 0.035116892009641111 0 0.0066716816567827329 0.034966879964627828 0 0.0065610056487002359 0.035116892009641111 0 0.0066262766326666122 0.035224386009047044 0 0.0067377736667179958 0.034497386877645669 0 0.0065610056487002359 0.035116892009641111 0 0.0068849868259019753 0.035211729202771547 0 0.0067377736667179958 0.034497386877645669 0 0.0078750537506695108 0.031652506225438949 0 0.0081448184976768527 0.03180742777543704 0 0.0065197246921439109 0.034255787688335509 0 0.0075051196308871708 0.03345997695032913 0 0.0078750537506695108 0.031652506225438949 0 0.0072912535323676059 0.03173005203245393 0 0.0066105046683738134 0.031332501468353716 0 0.0078750537506695108 0.031652506225438949 0 0.0072912535323676059 0.03173005203245393 0 0.0081448184976768527 0.03180742777543704 0 0.0072912535323676059 0.03173005203245393 0 0.0081448184976768527 0.03180742777543704 0 0.0068772995965855378 0.032779864033780477 0 0.0085926963952785013 0.032926508717002471 0 0.0082871768169948887 0.031964020652019726 0 0.0097074843006946642 0.03199015541502194 0 0.010483222120895728 0.031304901441658477 0 0.0081448184976768527 0.03180742777543704 0 0.0066105046683738134 0.031332501468353716 0 0.0053960781418715903 0.031381707040986216 0 0.0057530494583891362 0.029948966919253164 0 0.0053960781418715903 0.031381707040986216 0 0.0057530494583891362 0.029948966919253164 0 0.0044232845537360479 0.030750203850074903 0 0.0053960781418715903 0.031381707040986216 0 0.0044232845537360479 0.030750203850074903 0 0.0042635180525746486 0.031603153953923303 0 0.0078750537506695108 0.031652506225438949 0 0.0066105046683738134 0.031332501468353716 0 0.0057530494583891362 0.029948966919253164 0 0.0075051196308871708 0.03345997695032913 0 0.0053373431809754747 0.032921599794241238 0 0.0072912535323676059 0.03173005203245393 0 0.0062855922963279531 0.031925683473821714 0 0.0068772995965855378 0.032779864033780477 0 0.0072912535323676059 0.03173005203245393 0 0.0066105046683738134 0.031332501468353716 0 0.0062855922963279531 0.031925683473821714 0 0.0066105046683738134 0.031332501468353716 0 0.0062855922963279531 0.031925683473821714 0 0.0053960781418715903 0.031381707040986216 0 0.0053960781418715903 0.031381707040986216 0 0.0048288370192927001 0.032738356599244553 0 0.0042635180525746486 0.031603153953923303 0 0.0062855922963279531 0.031925683473821714 0 0.0053960781418715903 0.031381707040986216 0 0.0048288370192927001 0.032738356599244553 0 0.0048288370192927001 0.032738356599244553 0 0.0068772995965855378 0.032779864033780477 0 0.0046053301785051581 0.034904884775142662 0 0.0062855922963279531 0.031925683473821714 0 0.0048288370192927001 0.032738356599244553 0 0.0068772995965855378 0.032779864033780477 0 0.0068772995965855378 0.032779864033780477 0 0.009033578400744072 0.032907160224768806 0 0.0073466352540111505 0.035124581936005733 0 0.0097074843006946642 0.03199015541502194 0 0.0096463779739956405 0.032303923146703752 0 0.009033578400744072 0.032907160224768806 0 0.0097074843006946642 0.03199015541502194 0 0.0081448184976768527 0.03180742777543704 0 0.009033578400744072 0.032907160224768806 0 0.0081448184976768527 0.03180742777543704 0 0.0068772995965855378 0.032779864033780477 0 0.009033578400744072 0.032907160224768806 0 0.0093146997855972063 0.032269440195463357 0 0.0096463779739956405 0.032303923146703752 0 0.009033578400744072 0.032907160224768806 0 0.0093146997855972063 0.032269440195463357 0 0.009033578400744072 0.032907160224768806 0 0.0089725273048713652 0.031470781359692619 0 0.009033578400744072 0.032907160224768806 0 0.0089725273048713652 0.031470781359692619 0 0.010180907325266199 0.031463025367714961 0 0.0090653335493162505 0.032922404532463867 0 0.0086391732532364665 0.03323884085609758 0 0.010180907325266199 0.031463025367714961 0 0.0097876170776661636 0.030517190314817609 0 0.010748343975124029 0.030286304888791603 0 0.0089725273048713652 0.031470781359692619 0 0.010180907325266199 0.031463025367714961 0 0.0097876170776661636 0.030517190314817609 0 0.0089725273048713652 0.031470781359692619 0 0.0097876170776661636 0.030517190314817609 0 0.009063518631144506 0.030412374111132338 0 0.0068772995965855378 0.032779864033780477 0 0.0073466352540111505 0.035124581936005733 0 0.0046053301785051581 0.034904884775142662 0 0.0086391732532364665 0.03323884085609758 0 0.0091349155341018742 0.033963352307168571 0 0.0073466352540111505 0.035124581936005733 0 0.0046053301785051581 0.034904884775142662 0 0.0059220305888288277 0.036882397177014685 0 0.0046053301785051581 0.034904884775142662 0 0.0059220305888288277 0.036882397177014685 0 0.0039795268253202043 0.036966088472694732 0 0.0091349155341018742 0.033963352307168571 0 0.0021399146647332352 0.030891303912499942 0 0.0059220305888288277 0.036882397177014685 0 0.003931719978474052 0.038407180358565801 0 0.0039795268253202043 0.036966088472694732 0 0.010748343975124029 0.030286304888791603 0 0.010687561623282568 0.029429199054736378 0 0.0099656926148155092 0.029573452932907082 0 0.010687561623282568 0.029429199054736378 0 0.0099656926148155092 0.029573452932907082 0 0.010136961205171036 0.028872039569147627 0 0.010748343975124029 0.030286304888791603 0 0.010687561623282568 0.029429199054736378 0 0.011307154974449495 0.029239086007824155 0 0.0059220305888288277 0.036882397177014685 0 0.0044050666734078252 0.038848560955007258 0 0.003931719978474052 0.038407180358565801 0 0.0021399146647332352 0.030891303912499942 0 0.0050999746821424581 0.036829321459656235 0 0.009063518631144506 0.030412374111132338 0 0.0092840738288303259 0.0297954563390831 0 0.0085455390027017186 0.029528934516993975 0 0.0097876170776661636 0.030517190314817609 0 0.009063518631144506 0.030412374111132338 0 0.0092840738288303259 0.0297954563390831 0 0.0097876170776661636 0.030517190314817609 0 0.010748343975124029 0.030286304888791603 0 0.0099656926148155092 0.029573452932907082 0 0.0097876170776661636 0.030517190314817609 0 0.0092840738288303259 0.0297954563390831 0 0.0099656926148155092 0.029573452932907082 0 0.0099656926148155092 0.029573452932907082 0 0.0096792906617414291 0.028858408161411407 0 0.0093655474947403183 0.029201271401991823 0 0.0099656926148155092 0.029573452932907082 0 0.010136961205171036 0.028872039569147627 0 0.0096792906617414291 0.028858408161411407 0 0.0096792906617414291 0.028858408161411407 0 0.0093386306954925061 0.028744119787037673 0 0.0093655474947403183 0.029201271401991823 0 0.0092840738288303259 0.0297954563390831 0 0.0099656926148155092 0.029573452932907082 0 0.0093655474947403183 0.029201271401991823 0 0.0092840738288303259 0.0297954563390831 0 0.0093655474947403183 0.029201271401991823 0 0.008962751401592875 0.029270230702424634 0 0.0092840738288303259 0.0297954563390831 0 0.008962751401592875 0.029270230702424634 0 0.0085455390027017186 0.029528934516993975 0 0.0093655474947403183 0.029201271401991823 0 0.008962751401592875 0.029270230702424634 0 0.0090013269959703501 0.028905896755861714 0 0.0093386306954925061 0.028744119787037673 0 0.0093655474947403183 0.029201271401991823 0 0.0090013269959703501 0.028905896755861714 0 0.0091083858336497691 0.028375711706533392 0 0.0093386306954925061 0.028744119787037673 0 0.0090013269959703501 0.028905896755861714 0 0.0084954268444424486 0.028369979413616752 0 0.0090013269959703501 0.028905896755861714 0 0.007939934800254669 0.02898615291167328 0 0.008834292906785007 0.028140111155673886 0 0.0093178509390051054 0.027643646455373694 0 0.008962751401592875 0.029270230702424634 0 0.0090013269959703501 0.028905896755861714 0 0.0086437850023452657 0.028897439690356925 0 0.0093178509390051054 0.027643646455373694 0 0.014027597099993901 0.024441423778118754 0 0.0076480711142819322 0.028275921895516271 0 0.007939934800254669 0.02898615291167328 0 0.0064680182127943202 0.028947320608883016 0 0.012107430531427103 0.025876416419352389 0 0.012042439218201971 0.025868839484114899 0 0.012090691455807259 0.025982681406036993 0 0.020510790609435638 0.021073802909931952 0 0.020744130283338321 0.02159689549226464 0 0.02022080771806483 0.021440289580362391 0 0.014027597099993901 0.024441423778118754 0 0.012105030868144578 0.026351182604561735 0 0.008962751401592875 0.029270230702424634 0 0.0086437850023452657 0.028897439690356925 0 0.0085455390027017186 0.029528934516993975 0 0.0093178509390051054 0.027643646455373694 0 0.012105030868144578 0.026351182604561735 0 0.020510790609435638 0.021073802909931952 0 0.02022080771806483 0.021440289580362391 0 0.019755530795090674 0.020969857450861308 0 0.014027597099993901 0.024441423778118754 0 0.016979091292119764 0.019454267637432972 0 0.02022080771806483 0.021440289580362391 0 0.020053043051235005 0.021785851586263498 0 0.019771903028440951 0.021397469466496091 0 0.02022080771806483 0.021440289580362391 0 0.020421388667400855 0.021935321711782755 0 0.020053043051235005 0.021785851586263498 0 0.020744130283338321 0.02159689549226464 0 0.02022080771806483 0.021440289580362391 0 0.020421388667400855 0.021935321711782755 0 0.020421388667400855 0.021935321711782755 0 0.020053043051235005 0.021785851586263498 0 0.020247170578610165 0.022308953084020731 0 0.009063518631144506 0.030412374111132338 0 0.0085511003395582624 0.028748008677143333 0 0.0083593768907890709 0.030987135194127956 0 0.020744130283338321 0.02159689549226464 0 0.020421388667400855 0.021935321711782755 0 0.020794858945187421 0.022680114420960931 0 0.0087996232002167593 0.030792873134039004 0 0.012105030868144578 0.026351182604561735 0 0.012105030868144578 0.026351182604561735 0 0.015175488579734784 0.026284974576469177 0 0.0089725273048713652 0.031470781359692619 0 0.009063518631144506 0.030412374111132338 0 0.0083593768907890709 0.030987135194127956 0 0.020421388667400855 0.021935321711782755 0 0.020794858945187421 0.022680114420960931 0 0.020247170578610165 0.022308953084020731 0 0.020053043051235005 0.021785851586263498 0 0.020247170578610165 0.022308953084020731 0 0.019809611005800237 0.022239573835077398 0 0.020247170578610165 0.022308953084020731 0 0.020166111329131216 0.023140075159653967 0 0.019809611005800237 0.022239573835077398 0 0.020794858945187421 0.022680114420960931 0 0.020247170578610165 0.022308953084020731 0 0.020166111329131216 0.023140075159653967 0 0.020487658479610951 0.024540703408994786 0 0.020794858945187421 0.022680114420960931 0 0.020166111329131216 0.023140075159653967 0 0.01269684959831959 0.029132386143989407 0 0.015175488579734784 0.026284974576469177 0 0.0084054795200516983 0.031714067796551039 0 0.0089725273048713652 0.031470781359692619 0 0.0083593768907890709 0.030987135194127956 0 0.01269684959831959 0.029132386143989407 0 0.0076948781055340126 0.032831756362199864 0 0.0093146997855972063 0.032269440195463357 0 0.010037571705298219 0.032552067881069631 0 0.0089725273048713652 0.031470781359692619 0 0.019447226892970224 0.022385459775917313 0 0.019134694741137357 0.023071091874854566 0 0.019163005618233107 0.021744723871189961 0 0.019134694741137357 0.023071091874854566 0 0.019163005618233107 0.021744723871189961 0 0.018704872494619156 0.022034218241847914 0 0.019447226892970224 0.022385459775917313 0 0.019134694741137357 0.023071091874854566 0 0.019712544196253061 0.023123182041821025 0 0.020166111329131216 0.023140075159653967 0 0.019712544196253061 0.023123182041821025 0 0.019809611005800237 0.022239573835077398 0 0.019447226892970224 0.022385459775917313 0 0.019712544196253061 0.023123182041821025 0 0.019809611005800237 0.022239573835077398 0 0.020051130317638499 0.024060606658489858 0 0.020166111329131216 0.023140075159653967 0 0.019712544196253061 0.023123182041821025 0 0.019447226892970224 0.022385459775917313 0 0.019809611005800237 0.022239573835077398 0 0.019393777619123271 0.021793988006202775 0 0.019809611005800237 0.022239573835077398 0 0.019393777619123271 0.021793988006202775 0 0.019509688634578852 0.021555638212449883 0 0.019447226892970224 0.022385459775917313 0 0.019393777619123271 0.021793988006202775 0 0.019163005618233107 0.021744723871189961 0 0.019393777619123271 0.021793988006202775 0 0.019163005618233107 0.021744723871189961 0 0.01919476934958966 0.021300470090920329 0 0.01919476934958966 0.021300470090920329 0 0.019262313709435673 0.021272111533387671 0 0.019509688634578852 0.021555638212449883 0 0.019393777619123271 0.021793988006202775 0 0.01919476934958966 0.021300470090920329 0 0.019509688634578852 0.021555638212449883 0 0.019262313709435673 0.021272111533387671 0 0.019509688634578852 0.021555638212449883 0 0.019392945011382022 0.021232297869244042 0 0.020053043051235005 0.021785851586263498 0 0.019509688634578852 0.021555638212449883 0 0.019771903028440951 0.021397469466496091 0 0.020053043051235005 0.021785851586263498 0 0.019809611005800237 0.022239573835077398 0 0.019509688634578852 0.021555638212449883 0 0.019509688634578852 0.021555638212449883 0 0.019771903028440951 0.021397469466496091 0 0.019392945011382022 0.021232297869244042 0 0.016979091292119764 0.019454267637432972 0 0.01473464610823815 0.017764446258046216 0 0.019456270769461471 0.021117046817028206 0 0.019392945011382022 0.021232297869244042 0 0.019318506683322755 0.021114729101182686 0 0.02022080771806483 0.021440289580362391 0 0.019771903028440951 0.021397469466496091 0 0.019755530795090674 0.020969857450861308 0 0.019771903028440951 0.021397469466496091 0 0.019755530795090674 0.020969857450861308 0 0.019392945011382022 0.021232297869244042 0 0.016979091292119764 0.019454267637432972 0 0.019565019012607824 0.020963342037671601 0 0.01473464610823815 0.017764446258046216 0 0.017976303401552499 0.015189744148726973 0 0.019271533397133295 0.021184689694265298 0 0.019318506683322755 0.021114729101182686 0 0.019247580639796067 0.021124100504145513 0 0.019262313709435673 0.021272111533387671 0 0.019271533397133295 0.021184689694265298 0 0.019392945011382022 0.021232297869244042 0 0.019271533397133295 0.021184689694265298 0 0.019392945011382022 0.021232297869244042 0 0.019318506683322755 0.021114729101182686 0 0.019262313709435673 0.021272111533387671 0 0.019271533397133295 0.021184689694265298 0 0.019303238494619304 0.021140934845930694 0 0.019271533397133295 0.021184689694265298 0 0.019247580639796067 0.021124100504145513 0 0.019303238494619304 0.021140934845930694 0 0.017976303401552499 0.015189744148726973 0 0.020319692182462944 0.019033372720194206 0 0.02243510620966788 0.013602049081933638 0 0.02161521088498013 0.016547366319483298 0 0.020888836711476712 0.014661324665031937 0 0.021157564178537171 0.01351807489738918 0 0.02243510620966788 0.013602049081933638 0 0.020888836711476712 0.014661324665031937 0 0.020906059772779654 0.014621546248087711 0 0.017976303401552499 0.015189744148726973 0 0.020319692182462944 0.019033372720194206 0 0.019883177980609242 0.01993856479854236 0 0.019303238494619304 0.021140934845930694 0 0.019208913401429526 0.020919209765027438 0 0.019672334919267294 0.020224251215537725 0 0.01919476934958966 0.021300470090920329 0 0.019262313709435673 0.021272111533387671 0 0.019303238494619304 0.021140934845930694 0 0.01919476934958966 0.021300470090920329 0 0.019303238494619304 0.021140934845930694 0 0.019208913401429526 0.020919209765027438 0 0.02161521088498013 0.016547366319483298 0 0.018955080890648169 0.017984125770405011 0 0.019664107811886739 0.015266216247212758 0 0.02161521088498013 0.016547366319483298 0 0.018955080890648169 0.017984125770405011 0 0.019672334919267294 0.020224251215537725 0 0.02161521088498013 0.016547366319483298 0 0.019664107811886739 0.015266216247212758 0 0.020888836711476712 0.014661324665031937 0 0.02008865129993417 0.013566874023705532 0 0.021157564178537171 0.01351807489738918 0 0.020888836711476712 0.014661324665031937 0 0.019170767836329893 0.013039005612354109 0 0.02008865129993417 0.013566874023705532 0 0.019664107811886739 0.015266216247212758 0 0.02008865129993417 0.013566874023705532 0 0.019664107811886739 0.015266216247212758 0 0.020888836711476712 0.014661324665031937 0 0.019170767836329893 0.013039005612354109 0 0.017985320971543966 0.013692464374577488 0 0.018081446003535079 0.016196262556787962 0 0.019170767836329893 0.013039005612354109 0 0.019664107811886739 0.015266216247212758 0 0.018081446003535079 0.016196262556787962 0 0.017366368806741295 0.011735594874173159 0 0.017985320971543966 0.013692464374577488 0 0.016570203934886729 0.016026587546897158 0 0.017985320971543966 0.013692464374577488 0 0.016570203934886729 0.016026587546897158 0 0.018081446003535079 0.016196262556787962 0 0.016638000797637928 0.017835032458138795 0 0.018081446003535079 0.016196262556787962 0 0.017391565041928871 0.019013644337472272 0 0.016570203934886729 0.016026587546897158 0 0.016638000797637928 0.017835032458138795 0 0.018081446003535079 0.016196262556787962 0 0.018955080890648169 0.017984125770405011 0 0.019664107811886739 0.015266216247212758 0 0.018081446003535079 0.016196262556787962 0 0.018955080890648169 0.017984125770405011 0 0.018081446003535079 0.016196262556787962 0 0.017391565041928871 0.019013644337472272 0 0.018955080890648169 0.017984125770405011 0 0.017391565041928871 0.019013644337472272 0 0.018183632073243493 0.020350173539946188 0 0.017391565041928871 0.019013644337472272 0 0.017314837315449017 0.020259590219364788 0 0.018183632073243493 0.020350173539946188 0 0.017314837315449017 0.020259590219364788 0 0.018183632073243493 0.020350173539946188 0 0.017377186980369632 0.021110739440329932 0 0.017391565041928871 0.019013644337472272 0 0.015745898512784174 0.019279643971384552 0 0.016467948814194749 0.020619523190922223 0 0.016638000797637928 0.017835032458138795 0 0.017391565041928871 0.019013644337472272 0 0.015745898512784174 0.019279643971384552 0 0.017391565041928871 0.019013644337472272 0 0.017314837315449017 0.020259590219364788 0 0.016467948814194749 0.020619523190922223 0 0.015745898512784174 0.019279643971384552 0 0.016467948814194749 0.020619523190922223 0 0.015039368519787905 0.020776838343834304 0 0.016467948814194749 0.020619523190922223 0 0.015719872107958579 0.021800157282577289 0 0.015039368519787905 0.020776838343834304 0 0.016467948814194749 0.020619523190922223 0 0.016650085751472737 0.021921777907395988 0 0.017377186980369632 0.021110739440329932 0 0.016467948814194749 0.020619523190922223 0 0.016650085751472737 0.021921777907395988 0 0.015719872107958579 0.021800157282577289 0 0.017377186980369632 0.021110739440329932 0 0.017804726955662702 0.02160109805164186 0 0.016318508788454505 0.023745787853793523 0 0.018183632073243493 0.020350173539946188 0 0.017377186980369632 0.021110739440329932 0 0.017804726955662702 0.02160109805164186 0 0.017314837315449017 0.020259590219364788 0 0.016467948814194749 0.020619523190922223 0 0.017377186980369632 0.021110739440329932 0 0.018183632073243493 0.020350173539946188 0 0.017804726955662702 0.02160109805164186 0 0.018734126666738262 0.021192798811026276 0 0.017804726955662702 0.02160109805164186 0 0.018076423018928554 0.022241510792890624 0 0.018734126666738262 0.021192798811026276 0 0.017804726955662702 0.02160109805164186 0 0.018076423018928554 0.022241510792890624 0 0.017158508608868261 0.023275818845107779 0 0.018076423018928554 0.022241510792890624 0 0.018704872494619156 0.022034218241847914 0 0.018164566729923379 0.023418297390081357 0 0.019134694741137357 0.023071091874854566 0 0.018704872494619156 0.022034218241847914 0 0.018164566729923379 0.023418297390081357 0 0.018076423018928554 0.022241510792890624 0 0.018704872494619156 0.022034218241847914 0 0.018734126666738262 0.021192798811026276 0 0.019163005618233107 0.021744723871189961 0 0.018704872494619156 0.022034218241847914 0 0.019208913401429526 0.020919209765027438 0 0.018704872494619156 0.022034218241847914 0 0.019208913401429526 0.020919209765027438 0 0.018734126666738262 0.021192798811026276 0 0.019163005618233107 0.021744723871189961 0 0.01919476934958966 0.021300470090920329 0 0.019208913401429526 0.020919209765027438 0 0.019208913401429526 0.020919209765027438 0 0.019672334919267294 0.020224251215537725 0 0.018734126666738262 0.021192798811026276 0 0.018955080890648169 0.017984125770405011 0 0.018183632073243493 0.020350173539946188 0 0.019672334919267294 0.020224251215537725 0 0.018183632073243493 0.020350173539946188 0 0.019672334919267294 0.020224251215537725 0 0.018734126666738262 0.021192798811026276 0 0.0142759279665401 0.026298874657475053 0 0.013783507601078786 0.027934598918886836 0 0.012766693391217014 0.025773520601941425 0 0.011284161113063081 0.019014309019442368 0 0.011967208973068128 0.019334163881515331 0 0.011891912040537756 0.020190146301491414 0 0.016151289904176754 0.020582437245479809 0 0.01198526275400443 0.023393567448632829 0 0.020302549579272453 0.015033971383189437 0 0.019976548083737458 0.015729886746764524 0 0.020892344801253224 0.015416152845399933 0 0.011284161113063081 0.019014309019442368 0 0.012464798855519457 0.018625973074163804 0 0.011967208973068128 0.019334163881515331 0 0.016151289904176754 0.020582437245479809 0 0.015644213194583676 0.015423644543111096 0 0.015644213194583676 0.015423644543111096 0 0.015432552895717233 0.012955770331869482 0 0.015644213194583676 0.015423644543111096 0 0.012078179133269518 0.019140630925345042 0 0.012464798855519457 0.018625973074163804 0 0.011967208973068128 0.019334163881515331 0 0.012887063755511217 0.019882108603896727 0 0.011967208973068128 0.019334163881515331 0 0.012887063755511217 0.019882108603896727 0 0.011891912040537756 0.020190146301491414 0 0.010984240749553668 0.014670109433977884 0 0.012124908844366088 0.018104612665031446 0 0.013794734084697519 0.016222277334852174 0 0.012124908844366088 0.018104612665031446 0 0.013794734084697519 0.016222277334852174 0 0.014775904774549768 0.017825202755852185 0 0.017366368806741295 0.011735594874173159 0 0.013794734084697519 0.016222277334852174 0 0.011386183232240886 0.013119647470312778 0 0.010984240749553668 0.014670109433977884 0 0.013794734084697519 0.016222277334852174 0 0.012259244642877755 0.014299250560229085 0 0.013171632873476351 0.015562877264655734 0 0.015432552895717233 0.012955770331869482 0 0.017366368806741295 0.011735594874173159 0 0.016570203934886729 0.016026587546897158 0 0.013794734084697519 0.016222277334852174 0 0.016570203934886729 0.016026587546897158 0 0.013794734084697519 0.016222277334852174 0 0.014775904774549768 0.017825202755852185 0 0.016638000797637928 0.017835032458138795 0 0.015745898512784174 0.019279643971384552 0 0.014775904774549768 0.017825202755852185 0 0.016570203934886729 0.016026587546897158 0 0.016638000797637928 0.017835032458138795 0 0.014775904774549768 0.017825202755852185 0 0.015745898512784174 0.019279643971384552 0 0.014775904774549768 0.017825202755852185 0 0.01421660933126475 0.019480629190284527 0 0.015745898512784174 0.019279643971384552 0 0.01421660933126475 0.019480629190284527 0 0.015039368519787905 0.020776838343834304 0 0.015719872107958579 0.021800157282577289 0 0.015039368519787905 0.020776838343834304 0 0.014528615141514602 0.022042925274871103 0 0.015039368519787905 0.020776838343834304 0 0.014528615141514602 0.022042925274871103 0 0.013440138777772052 0.021301906246422569 0 0.01421660933126475 0.019480629190284527 0 0.015039368519787905 0.020776838343834304 0 0.013440138777772052 0.021301906246422569 0 0.012078179133269518 0.019140630925345042 0 0.013468105397582707 0.021142438305141308 0 0.012887063755511217 0.019882108603896727 0 0.013440138777772052 0.021301906246422569 0 0.012499333462817902 0.021526968199792277 0 0.012124908844366088 0.018104612665031446 0 0.014775904774549768 0.017825202755852185 0 0.01421660933126475 0.019480629190284527 0 0.012124908844366088 0.018104612665031446 0 0.01421660933126475 0.019480629190284527 0 0.013440138777772052 0.021301906246422569 0 0.012722650875018653 0.022887843940219182 0 0.01198526275400443 0.023393567448632829 0 0.012887063755511217 0.019882108603896727 0 0.012499333462817902 0.021526968199792277 0 0.011891912040537756 0.020190146301491414 0 0.012787562748157864 0.024207831698356864 0 0.013265367421029878 0.024490239788901681 0 0.012766693391217014 0.025773520601941425 0 0.012787562748157864 0.024207831698356864 0 0.013265367421029878 0.024490239788901681 0 0.012998818960210837 0.024107785320882404 0 0.0142759279665401 0.026298874657475053 0 0.013265367421029878 0.024490239788901681 0 0.012766693391217014 0.025773520601941425 0 0.01231830421731934 0.025152468254051982 0 0.012765200952703035 0.025158755797475143 0 0.012866765474560385 0.024196902764245569 0 0.012765200952703035 0.025158755797475143 0 0.012986019597136243 0.024382721323634751 0 0.012866765474560385 0.024196902764245569 0 0.012986019597136243 0.024382721323634751 0 0.012866765474560385 0.024196902764245569 0 0.013148431302024597 0.023804589551981267 0 0.013757634027233416 0.02295920526928243 0 0.013265367421029878 0.024490239788901681 0 0.013148431302024597 0.023804589551981267 0 0.013265367421029878 0.024490239788901681 0 0.013148431302024597 0.023804589551981267 0 0.012998818960210837 0.024107785320882404 0 0.012986019597136243 0.024382721323634751 0 0.013148431302024597 0.023804589551981267 0 0.012998818960210837 0.024107785320882404 0 0.012986019597136243 0.024382721323634751 0 0.012998818960210837 0.024107785320882404 0 0.013151158952168349 0.024363742197636137 0 0.012787562748157864 0.024207831698356864 0 0.012998818960210837 0.024107785320882404 0 0.013151158952168349 0.024363742197636137 0 0.012986019597136243 0.024382721323634751 0 0.013151158952168349 0.024363742197636137 0 0.013220132026193624 0.025087410560804758 0 0.012765200952703035 0.025158755797475143 0 0.012986019597136243 0.024382721323634751 0 0.013220132026193624 0.025087410560804758 0 0.013151158952168349 0.024363742197636137 0 0.013220132026193624 0.025087410560804758 0 0.013927832966772441 0.024563980065108321 0 0.013220132026193624 0.025087410560804758 0 0.013927832966772441 0.024563980065108321 0 0.013738039619043066 0.026088467350051207 0 0.013927832966772441 0.024563980065108321 0 0.014949055311325987 0.026105482510557509 0 0.013738039619043066 0.026088467350051207 0 0.012787562748157864 0.024207831698356864 0 0.013151158952168349 0.024363742197636137 0 0.013927832966772441 0.024563980065108321 0 0.014528615141514602 0.022042925274871103 0 0.013440138777772052 0.021301906246422569 0 0.013538150841035497 0.023675921735541429 0 0.013440138777772052 0.021301906246422569 0 0.012499333462817902 0.021526968199792277 0 0.013538150841035497 0.023675921735541429 0 0.012722650875018653 0.022887843940219182 0 0.013745034859325897 0.024201377376806475 0 0.013538150841035497 0.023675921735541429 0 0.015225505976367354 0.022821222902480558 0 0.015398813073625768 0.0242213316688068 0 0.014528615141514602 0.022042925274871103 0 0.013538150841035497 0.023675921735541429 0 0.015225505976367354 0.022821222902480558 0 0.015719872107958579 0.021800157282577289 0 0.014528615141514602 0.022042925274871103 0 0.015225505976367354 0.022821222902480558 0 0.013538150841035497 0.023675921735541429 0 0.015398813073625768 0.0242213316688068 0 0.014949055311325987 0.026105482510557509 0 0.013745034859325897 0.024201377376806475 0 0.014879744988278366 0.025977910005342227 0 0.015398813073625768 0.0242213316688068 0 0.014949055311325987 0.026105482510557509 0 0.016273123166050171 0.026657333338249031 0 0.014949055311325987 0.026105482510557509 0 0.014240713190022694 0.026840513814930522 0 0.013738039619043066 0.026088467350051207 0 0.014949055311325987 0.026105482510557509 0 0.014821278995639949 0.027381411279689075 0 0.014240713190022694 0.026840513814930522 0 0.014949055311325987 0.026105482510557509 0 0.014821278995639949 0.027381411279689075 0 0.016273123166050171 0.026657333338249031 0 0.014821278995639949 0.027381411279689075 0 0.016273123166050171 0.026657333338249031 0 0.015008315224725592 0.029455189379784374 0 0.014821278995639949 0.027381411279689075 0 0.013807673667833944 0.027773836554043699 0 0.015008315224725592 0.029455189379784374 0 0.014821278995639949 0.027381411279689075 0 0.013807673667833944 0.027773836554043699 0 0.014240713190022694 0.026840513814930522 0 0.013807673667833944 0.027773836554043699 0 0.013366891739653041 0.026952717292559786 0 0.014240713190022694 0.026840513814930522 0 0.013807673667833944 0.027773836554043699 0 0.013366891739653041 0.026952717292559786 0 0.012738342361979156 0.027951190048760306 0 0.013366891739653041 0.026952717292559786 0 0.014240713190022694 0.026840513814930522 0 0.013738039619043066 0.026088467350051207 0 0.012765200952703035 0.025158755797475143 0 0.013220132026193624 0.025087410560804758 0 0.012893505489735788 0.026314457185013896 0 0.013366891739653041 0.026952717292559786 0 0.013738039619043066 0.026088467350051207 0 0.012893505489735788 0.026314457185013896 0 0.013220132026193624 0.025087410560804758 0 0.013738039619043066 0.026088467350051207 0 0.012893505489735788 0.026314457185013896 0 0.013366891739653041 0.026952717292559786 0 0.012893505489735788 0.026314457185013896 0 0.012738342361979156 0.027951190048760306 0 0.012893505489735788 0.026314457185013896 0 0.012738342361979156 0.027951190048760306 0 0.01223550373297764 0.027189393312878438 0 0.012738342361979156 0.027951190048760306 0 0.01223550373297764 0.027189393312878438 0 0.011889308124454604 0.028111337596220712 0 0.01223550373297764 0.027189393312878438 0 0.011385846335184141 0.027640708266805151 0 0.011889308124454604 0.028111337596220712 0 0.01223550373297764 0.027189393312878438 0 0.011385846335184141 0.027640708266805151 0 0.011740536831189544 0.026770979470737904 0 0.01223550373297764 0.027189393312878438 0 0.011740536831189544 0.026770979470737904 0 0.012316149673747235 0.02606568349869947 0 0.01184542038267361 0.025850742821741712 0 0.011740536831189544 0.026770979470737904 0 0.012316149673747235 0.02606568349869947 0 0.012893505489735788 0.026314457185013896 0 0.01223550373297764 0.027189393312878438 0 0.012316149673747235 0.02606568349869947 0 0.012765200952703035 0.025158755797475143 0 0.012893505489735788 0.026314457185013896 0 0.012316149673747235 0.02606568349869947 0 0.01231830421731934 0.025152468254051982 0 0.012765200952703035 0.025158755797475143 0 0.012316149673747235 0.02606568349869947 0 0.01231830421731934 0.025152468254051982 0 0.01184542038267361 0.025850742821741712 0 0.012316149673747235 0.02606568349869947 0 0.016713160893364262 0.024788146756995456 0 0.017158508608868261 0.023275818845107779 0 0.014973123265990585 0.024699271395618103 0 0.016713160893364262 0.024788146756995456 0 0.014973123265990585 0.024699271395618103 0 0.015494752742961571 0.026505921000604903 0 0.016713160893364262 0.024788146756995456 0 0.015494752742961571 0.026505921000604903 0 0.017091183694352585 0.026270659327988954 0 0.016713160893364262 0.024788146756995456 0 0.017901920479297964 0.024975159385158034 0 0.017091183694352585 0.026270659327988954 0 0.018456708131116745 0.026718749171067882 0 0.017901920479297964 0.024975159385158034 0 0.017091183694352585 0.026270659327988954 0 0.016713160893364262 0.024788146756995456 0 0.017901920479297964 0.024975159385158034 0 0.018164566729923379 0.023418297390081357 0 0.019061874243823371 0.024399360247507822 0 0.017901920479297964 0.024975159385158034 0 0.018164566729923379 0.023418297390081357 0 0.018076423018928554 0.022241510792890624 0 0.018164566729923379 0.023418297390081357 0 0.017158508608868261 0.023275818845107779 0 0.017804726955662702 0.02160109805164186 0 0.017158508608868261 0.023275818845107779 0 0.014973123265990585 0.024699271395618103 0 0.016713160893364262 0.024788146756995456 0 0.018164566729923379 0.023418297390081357 0 0.017158508608868261 0.023275818845107779 0 0.017593967697018067 0.021843283980595315 0 0.016399867990973507 0.024568675954236931 0 0.017804726955662702 0.02160109805164186 0 0.016318508788454505 0.023745787853793523 0 0.017737584431812531 0.024289094712040937 0 0.017334788025069992 0.02125946936312146 0 0.01667366764551444 0.02368718312915824 0 0.016650085751472737 0.021921777907395988 0 0.017377186980369632 0.021110739440329932 0 0.017020206396897827 0.023632515357664481 0 0.016650085751472737 0.021921777907395988 0 0.016115145670111592 0.022820455108147609 0 0.017020206396897827 0.023632515357664481 0 0.015398813073625768 0.0242213316688068 0 0.016115145670111592 0.022820455108147609 0 0.017020206396897827 0.023632515357664481 0 0.016650085751472737 0.021921777907395988 0 0.015719872107958579 0.021800157282577289 0 0.016115145670111592 0.022820455108147609 0 0.015719872107958579 0.021800157282577289 0 0.015225505976367354 0.022821222902480558 0 0.016115145670111592 0.022820455108147609 0 0.015225505976367354 0.022821222902480558 0 0.015398813073625768 0.0242213316688068 0 0.016115145670111592 0.022820455108147609 0 0.016318508788454505 0.023745787853793523 0 0.016679181265526598 0.025527238226011172 0 0.015446804084852963 0.026796062697655831 0 0.015398813073625768 0.0242213316688068 0 0.017020206396897827 0.023632515357664481 0 0.016273123166050171 0.026657333338249031 0 0.01667366764551444 0.02368718312915824 0 0.015844817639095683 0.026735492275776034 0 0.016318508788454505 0.023745787853793523 0 0.017737584431812531 0.024289094712040937 0 0.016679181265526598 0.025527238226011172 0 0.017737584431812531 0.024289094712040937 0 0.016679181265526598 0.025527238226011172 0 0.01742213928105342 0.027417296292394956 0 0.016679181265526598 0.025527238226011172 0 0.015446804084852963 0.026796062697655831 0 0.01742213928105342 0.027417296292394956 0 0.016399867990973507 0.024568675954236931 0 0.015145474067228255 0.028065122199071854 0 0.015446804084852963 0.026796062697655831 0 0.016105944963736019 0.028461918343390728 0 0.015008315224725592 0.029455189379784374 0 0.015844817639095683 0.026735492275776034 0 0.01507238604706046 0.029292807894487169 0 0.015446804084852963 0.026796062697655831 0 0.016105944963736019 0.028461918343390728 0 0.01742213928105342 0.027417296292394956 0 0.012918904351670684 0.028545581393569511 0 0.016432346492501065 0.028933883572392335 0 0.014014803292126883 0.030980906428057113 0 0.012918904351670684 0.028545581393569511 0 0.015494752742961571 0.026505921000604903 0 0.016432346492501065 0.028933883572392335 0 0.015494752742961571 0.026505921000604903 0 0.017091183694352585 0.026270659327988954 0 0.016432346492501065 0.028933883572392335 0 0.014973123265990585 0.024699271395618103 0 0.012918904351670684 0.028545581393569511 0 0.015494752742961571 0.026505921000604903 0 0.018456708131116745 0.026718749171067882 0 0.017091183694352585 0.026270659327988954 0 0.016432346492501065 0.028933883572392335 0 0.018456708131116745 0.026718749171067882 0 0.019047094117226639 0.0283639152039372 0 0.016432346492501065 0.028933883572392335 0 0.019047094117226639 0.0283639152039372 0 0.016432346492501065 0.028933883572392335 0 0.016312736236544355 0.032349189317566494 0 0.014148356562235783 0.03094334531545281 0 0.012870639228318171 0.033960047411647071 0 0.0095054852974748773 0.033174925126956342 0 0.0093419765671731159 0.035914710714885709 0 0.0095619805152361605 0.035148550292789418 0 0.0093419765671731159 0.035914710714885709 0 0.0094749412605215754 0.035736294806989477 0 0.0095619805152361605 0.035148550292789418 0 0.0093419765671731159 0.035914710714885709 0 0.0094749412605215754 0.035736294806989477 0 0.0099746976763586473 0.035854158483983108 0 0.0094749412605215754 0.035736294806989477 0 0.0099746976763586473 0.035854158483983108 0 0.0095011791011766177 0.035792728838510632 0 0.012870639228318171 0.033960047411647071 0 0.011656566756550534 0.035658708190004697 0 0.0093419765671731159 0.035914710714885709 0 0.0099746976763586473 0.035854158483983108 0 0.011517617771327518 0.035812839794796894 0 0.016312736236544355 0.032349189317566494 0 0.010988777366455304 0.033927274480111416 0 0.011517617771327518 0.035812839794796894 0 0.016432346492501065 0.028933883572392335 0 0.016312736236544355 0.032349189317566494 0 0.014014803292126883 0.030980906428057113 0 0.016312736236544355 0.032349189317566494 0 0.014014803292126883 0.030980906428057113 0 0.010988777366455304 0.033927274480111416 0 0.015145474067228255 0.028065122199071854 0 0.013986867304450106 0.032054530217137812 0 0.012918904351670684 0.028545581393569511 0 0.014014803292126883 0.030980906428057113 0 0.010988777366455304 0.033927274480111416 0 0.016105944963736019 0.028461918343390728 0 0.01742213928105342 0.027417296292394956 0 0.016852927523734254 0.030207333072278894 0 0.016105944963736019 0.028461918343390728 0 0.016852927523734254 0.030207333072278894 0 0.015008315224725592 0.029455189379784374 0 0.015199502697866313 0.031566353027634976 0 0.016852927523734254 0.030207333072278894 0 0.015008315224725592 0.029455189379784374 0 0.010988777366455304 0.033927274480111416 0 0.011254908406738725 0.036589379430221274 0 0.011517617771327518 0.035812839794796894 0 0.015199502697866313 0.031566353027634976 0 0.016852927523734254 0.030207333072278894 0 0.015801554774336039 0.03310210892207878 0 0.011254908406738725 0.036589379430221274 0 0.011517617771327518 0.035812839794796894 0 0.010816357558917817 0.03593537327037874 0 0.013986867304450106 0.032054530217137812 0 0.013482326370328056 0.034682378730244275 0 0.015199502697866313 0.031566353027634976 0 0.015801554774336039 0.03310210892207878 0 0.014416660723290427 0.033709819414781003 0 0.015199502697866313 0.031566353027634976 0 0.014416660723290427 0.033709819414781003 0 0.014080320535866473 0.032917649168201273 0 0.015801554774336039 0.03310210892207878 0 0.014416660723290427 0.033709819414781003 0 0.012831984706973918 0.035546908663771914 0 0.014416660723290427 0.033709819414781003 0 0.014080320535866473 0.032917649168201273 0 0.013758246743383487 0.034448962461214094 0 0.013482326370328056 0.034682378730244275 0 0.012963591901450243 0.035340648231750586 0 0.011254908406738725 0.036589379430221274 0 0.011367269068300944 0.03612848480619725 0 0.010630470858592714 0.036132500956814757 0 0.011254908406738725 0.036589379430221274 0 0.011367269068300944 0.03612848480619725 0 0.012831984706973918 0.035546908663771914 0 0.011367269068300944 0.03612848480619725 0 0.010630470858592714 0.036132500956814757 0 0.010358848702485475 0.036056998830552842 0 0.010630470858592714 0.036132500956814757 0 0.0095649219118240231 0.036050587997995244 0 0.0099864740571024048 0.0359550869645709 0 0.010630470858592714 0.036132500956814757 0 0.0095649219118240231 0.036050587997995244 0 0.010358848702485475 0.036056998830552842 0 0.0095649219118240231 0.036050587997995244 0 0.0099864740571024048 0.0359550869645709 0 0.0094432526072582672 0.035892952086617878 0 0.0099864740571024048 0.0359550869645709 0 0.0094432526072582672 0.035892952086617878 0 0.0095011791011766177 0.035792728838510632 0 0.0099746976763586473 0.035854158483983108 0 0.0099864740571024048 0.0359550869645709 0 0.0095011791011766177 0.035792728838510632 0 0.0099746976763586473 0.035854158483983108 0 0.0099864740571024048 0.0359550869645709 0 0.010816357558917817 0.03593537327037874 0 0.011254908406738725 0.036589379430221274 0 0.010630470858592714 0.036132500956814757 0 0.010816357558917817 0.03593537327037874 0 0.0099746976763586473 0.035854158483983108 0 0.011517617771327518 0.035812839794796894 0 0.010816357558917817 0.03593537327037874 0 0.010630470858592714 0.036132500956814757 0 0.0099864740571024048 0.0359550869645709 0 0.010816357558917817 0.03593537327037874 0 0.01143071374017139 0.029689338407745264 0 0.012150715466429624 0.030905787692569332 0 0.010848324373899203 0.031366248302927328 0 0.010643613062056776 0.028526100107297052 0 0.01143071374017139 0.029689338407745264 0 0.010848324373899203 0.031366248302927328 0 0.010643613062056776 0.028526100107297052 0 0.01143071374017139 0.029689338407745264 0 0.011436151246554923 0.028578411480249619 0 0.011385846335184141 0.027640708266805151 0 0.011436151246554923 0.028578411480249619 0 0.011889308124454604 0.028111337596220712 0 0.012738342361979156 0.027951190048760306 0 0.011889308124454604 0.028111337596220712 0 0.011815416217846932 0.028982526273580642 0 0.011436151246554923 0.028578411480249619 0 0.011889308124454604 0.028111337596220712 0 0.011815416217846932 0.028982526273580642 0 0.01143071374017139 0.029689338407745264 0 0.011436151246554923 0.028578411480249619 0 0.011815416217846932 0.028982526273580642 0 0.01143071374017139 0.029689338407745264 0 0.011815416217846932 0.028982526273580642 0 0.012430843366787871 0.029456253042784996 0 0.012738342361979156 0.027951190048760306 0 0.011815416217846932 0.028982526273580642 0 0.012430843366787871 0.029456253042784996 0 0.012738342361979156 0.027951190048760306 0 0.012430843366787871 0.029456253042784996 0 0.013431931420437653 0.029141079595738043 0 0.012430843366787871 0.029456253042784996 0 0.012908054908849628 0.030366694548205547 0 0.013431931420437653 0.029141079595738043 0 0.012430843366787871 0.029456253042784996 0 0.012908054908849628 0.030366694548205547 0 0.012150715466429624 0.030905787692569332 0 0.01143071374017139 0.029689338407745264 0 0.012430843366787871 0.029456253042784996 0 0.012150715466429624 0.030905787692569332 0 0.012908054908849628 0.030366694548205547 0 0.012150715466429624 0.030905787692569332 0 0.01299122987603986 0.031750592401836718 0 0.013703142461358654 0.030421287193931341 0 0.014233557764078706 0.031409216987940067 0 0.01299122987603986 0.031750592401836718 0 0.012908054908849628 0.030366694548205547 0 0.013703142461358654 0.030421287193931341 0 0.01299122987603986 0.031750592401836718 0 0.012908054908849628 0.030366694548205547 0 0.013703142461358654 0.030421287193931341 0 0.013431931420437653 0.029141079595738043 0 0.013807673667833944 0.027773836554043699 0 0.012738342361979156 0.027951190048760306 0 0.013431931420437653 0.029141079595738043 0 0.013807673667833944 0.027773836554043699 0 0.013431931420437653 0.029141079595738043 0 0.015008315224725592 0.029455189379784374 0 0.013703142461358654 0.030421287193931341 0 0.013431931420437653 0.029141079595738043 0 0.015008315224725592 0.029455189379784374 0 0.013703142461358654 0.030421287193931341 0 0.015008315224725592 0.029455189379784374 0 0.014233557764078706 0.031409216987940067 0 0.015199502697866313 0.031566353027634976 0 0.015008315224725592 0.029455189379784374 0 0.014233557764078706 0.031409216987940067 0 0.014233557764078706 0.031409216987940067 0 0.014080320535866473 0.032917649168201273 0 0.013372913944328194 0.033119670133679578 0 0.015199502697866313 0.031566353027634976 0 0.014233557764078706 0.031409216987940067 0 0.014080320535866473 0.032917649168201273 0 0.014080320535866473 0.032917649168201273 0 0.013372913944328194 0.033119670133679578 0 0.013758246743383487 0.034448962461214094 0 0.013372913944328194 0.033119670133679578 0 0.013302878931962392 0.03440715137610071 0 0.013758246743383487 0.034448962461214094 0 0.013372913944328194 0.033119670133679578 0 0.012690312504243968 0.033447444784105877 0 0.013302878931962392 0.03440715137610071 0 0.013372913944328194 0.033119670133679578 0 0.01299122987603986 0.031750592401836718 0 0.012690312504243968 0.033447444784105877 0 0.014233557764078706 0.031409216987940067 0 0.013372913944328194 0.033119670133679578 0 0.01299122987603986 0.031750592401836718 0 0.01299122987603986 0.031750592401836718 0 0.012093406170663725 0.032285588709384208 0 0.012690312504243968 0.033447444784105877 0 0.012150715466429624 0.030905787692569332 0 0.01299122987603986 0.031750592401836718 0 0.012093406170663725 0.032285588709384208 0 0.012690312504243968 0.033447444784105877 0 0.011651703618800224 0.033879775144937653 0 0.012835696302630225 0.034519442658025007 0 0.012093406170663725 0.032285588709384208 0 0.012690312504243968 0.033447444784105877 0 0.011651703618800224 0.033879775144937653 0 0.014588628099943974 0.034379065883947367 0 0.013625202674305403 0.033974281577457334 0 0.013860166531025217 0.031921059503668726 0 0.013129463006371378 0.034092146916322792 0 0.012368851768065191 0.031648681170286762 0 0.012093406170663725 0.032285588709384208 0 0.011651703618800224 0.033879775144937653 0 0.010848324373899203 0.031366248302927328 0 0.013033780192919602 0.032687735280763061 0 0.013625202674305403 0.033974281577457334 0 0.013860166531025217 0.031921059503668726 0 0.012150715466429624 0.030905787692569332 0 0.012093406170663725 0.032285588709384208 0 0.010848324373899203 0.031366248302927328 0 0.01756928139774187 0.038069477104796336 0 0.016797808369513566 0.03792695836847975 0 0.017123606189751679 0.036548644954829609 0 0.017640904444821651 0.038162346273471051 0 0.01718120301714704 0.036577508154789516 0 0.01558006135225758 0.03656162182105973 0 0.015559592487697988 0.036029336252593164 0 0.01756928139774187 0.038069477104796336 0 0.017470715240358529 0.039487482252871763 0 0.016797808369513566 0.03792695836847975 0 0.014588628099943974 0.034379065883947367 0 0.013625202674305403 0.033974281577457334 0 0.014444508691629138 0.035307322394266295 0 0.015779159241673283 0.036837921392778673 0 0.01558006135225758 0.03656162182105973 0 0.013129463006371378 0.034092146916322792 0 0.013949960147874784 0.035411237878164442 0 0.011651703618800224 0.033879775144937653 0 0.012835696302630225 0.034519442658025007 0 0.012935380356433115 0.03540190043235282 0 0.014588628099943974 0.034379065883947367 0 0.014444508691629138 0.035307322394266295 0 0.014914001067894265 0.035619057994655118 0 0.012835696302630225 0.034519442658025007 0 0.012935380356433115 0.03540190043235282 0 0.013407504622527789 0.035137096710584265 0 0.014444508691629138 0.035307322394266295 0 0.014914001067894265 0.035619057994655118 0 0.014929561785704391 0.035668617301938953 0 0.012935380356433115 0.03540190043235282 0 0.013407504622527789 0.035137096710584265 0 0.013754526544651417 0.035483856821284888 0 0.013407504622527789 0.035137096710584265 0 0.01352925592337033 0.035418410612982988 0 0.013754526544651417 0.035483856821284888 0 0.012835696302630225 0.034519442658025007 0 0.013407504622527789 0.035137096710584265 0 0.013302878931962392 0.03440715137610071 0 0.012690312504243968 0.033447444784105877 0 0.012835696302630225 0.034519442658025007 0 0.013302878931962392 0.03440715137610071 0 0.013407504622527789 0.035137096710584265 0 0.013302878931962392 0.03440715137610071 0 0.013531027484870669 0.035057014855104894 0 0.013302878931962392 0.03440715137610071 0 0.013758246743383487 0.034448962461214094 0 0.013531027484870669 0.035057014855104894 0 0.013407504622527789 0.035137096710584265 0 0.013531027484870669 0.035057014855104894 0 0.01352925592337033 0.035418410612982988 0 0.013531027484870669 0.035057014855104894 0 0.01352925592337033 0.035418410612982988 0 0.012831984706973918 0.035546908663771914 0 0.01352925592337033 0.035418410612982988 0 0.013732646862036475 0.035406111505853446 0 0.012657204785947042 0.035429011747634243 0 0.01352925592337033 0.035418410612982988 0 0.013732646862036475 0.035406111505853446 0 0.013754526544651417 0.035483856821284888 0 0.013732646862036475 0.035406111505853446 0 0.013609609226575985 0.034999620202178734 0 0.012657204785947042 0.035429011747634243 0 0.013732646862036475 0.035406111505853446 0 0.013609609226575985 0.034999620202178734 0 0.014772148368363845 0.035405893982552422 0 0.013609609226575985 0.034999620202178734 0 0.014772148368363845 0.035405893982552422 0 0.015502917111012513 0.034999848521881642 0 0.013732646862036475 0.035406111505853446 0 0.014772148368363845 0.035405893982552422 0 0.013754526544651417 0.035483856821284888 0 0.012935380356433115 0.03540190043235282 0 0.014772148368363845 0.035405893982552422 0 0.013754526544651417 0.035483856821284888 0 0.013949960147874784 0.035411237878164442 0 0.014611605004443796 0.035376662314721953 0 0.014914001067894265 0.035619057994655118 0 0.014772148368363845 0.035405893982552422 0 0.014929561785704391 0.035668617301938953 0 0.016180099782907416 0.03648941016621636 0 0.015506023792706191 0.034999975667214189 0 0.016744905805630379 0.034999971717561106 0 0.014772148368363845 0.035405893982552422 0 0.014929561785704391 0.035668617301938953 0 0.015502917111012513 0.034999848521881642 0 0.015559592487697988 0.036029336252593164 0 0.015505694894833881 0.035000103809427897 0 0.016745179397487389 0.035000307845036722 0 0.01718120301714704 0.036577508154789516 0 0.018237090138359873 0.036118561135441082 0 0.016745206032678223 0.034999988530001601 0 0.017237635873490538 0.036627284704121479 0 0.016180099782907416 0.03648941016621636 0 0.016744905805630379 0.034999971717561106 0 0.017123606189751679 0.036548644954829609 0 0.016797808369513566 0.03792695836847975 0 0.016180099782907416 0.03648941016621636 0 0.017123606189751679 0.036548644954829609 0 0.010285777460396921 0.035748468524264561 0 0.012831984706973918 0.035546908663771914 0 0.011054218898994949 0.035418654047007912 0 0.010285777460396921 0.035748468524264561 0 0.0090438110017916646 0.035646051911793014 0 0.0092254359616533253 0.036101033867482805 0 0.010285777460396921 0.035748468524264561 0 0.010358848702485475 0.036056998830552842 0 0.0092254359616533253 0.036101033867482805 0 0.0095649219118240231 0.036050587997995244 0 0.010358848702485475 0.036056998830552842 0 0.0092254359616533253 0.036101033867482805 0 0.010285777460396921 0.035748468524264561 0 0.010358848702485475 0.036056998830552842 0 0.012831984706973918 0.035546908663771914 0 0.011367269068300944 0.03612848480619725 0 0.010358848702485475 0.036056998830552842 0 0.012831984706973918 0.035546908663771914 0 0.014416660723290427 0.033709819414781003 0 0.013758246743383487 0.034448962461214094 0 0.012831984706973918 0.035546908663771914 0 0.013758246743383487 0.034448962461214094 0 0.013531027484870669 0.035057014855104894 0 0.012831984706973918 0.035546908663771914 0 0.01352925592337033 0.035418410612982988 0 0.012831984706973918 0.035546908663771914 0 0.012657204785947042 0.035429011747634243 0 0.012831984706973918 0.035546908663771914 0 0.012657204785947042 0.035429011747634243 0 0.011054218898994949 0.035418654047007912 0 0.013609609226575985 0.034999620202178734 0 0.012657204785947042 0.035429011747634243 0 0.011713527706277718 0.034999279138387733 0 0.012657204785947042 0.035429011747634243 0 0.011713527706277718 0.034999279138387733 0 0.011054218898994949 0.035418654047007912 0 0.011713527706277718 0.034999279138387733 0 0.011054218898994949 0.035418654047007912 0 0.0098174316071122786 0.034999354766688293 0 0.010285777460396921 0.035748468524264561 0 0.011054218898994949 0.035418654047007912 0 0.0090438110017916646 0.035646051911793014 0 0.0098174316071122786 0.034999354766688293 0 0.0079211218592229789 0.034999468884673514 0 0.0090438110017916646 0.035646051911793014 0 0.011054218898994949 0.035418654047007912 0 0.0098174316071122786 0.034999354766688293 0 0.0090438110017916646 0.035646051911793014 0 0.0079211218592229789 0.034999468884673514 0 0.0071685686757249302 0.035590668194521155 0 0.0090438110017916646 0.035646051911793014 0 0.0079211218592229789 0.034999468884673514 0 0.0071685686757249302 0.035590668194521155 0 0.0060248228301140764 0.034999517725600629 0 0.0071685686757249302 0.035590668194521155 0 0.0062265908132965054 0.03619717683815369 0 0.0081454871024683895 0.036263415865798246 0 0.0071685686757249302 0.035590668194521155 0 0.0090438110017916646 0.035646051911793014 0 0.0081454871024683895 0.036263415865798246 0 0.0060248228301140764 0.034999517725600629 0 0.0052358220093583893 0.035702657592697515 0 0.0041285287834479135 0.034999639769876065 0 0.0071685686757249302 0.035590668194521155 0 0.0060248228301140764 0.034999517725600629 0 0.0052358220093583893 0.035702657592697515 0 0.0071685686757249302 0.035590668194521155 0 0.0052358220093583893 0.035702657592697515 0 0.0062265908132965054 0.03619717683815369 0 0.0052358220093583893 0.035702657592697515 0 0.0049095023924989331 0.036547014455220544 0 0.0062265908132965054 0.03619717683815369 0 0.0046144846007345275 0.036089127403005981 0 0.005662058785204184 0.036913393439174061 0 0.0049095023924989331 0.036547014455220544 0 0.0062265908132965054 0.03619717683815369 0 0.0057771136256383176 0.036963890454643246 0 0.0062265908132965054 0.03619717683815369 0 0.0057771136256383176 0.036963890454643246 0 0.0081454871024683895 0.036263415865798246 0 0.0057771136256383176 0.036963890454643246 0 0.0081454871024683895 0.036263415865798246 0 0.0064075119362694824 0.037519992120715585 0 0.0057771136256383176 0.036963890454643246 0 0.0064075119362694824 0.037519992120715585 0 0.0051857475330036908 0.037580844634783214 0 0.0057771136256383176 0.036963890454643246 0 0.0051857475330036908 0.037580844634783214 0 0.0043270932017115708 0.036644891351526626 0 0.0043332669490066637 0.035560467292229551 0 0.0057771136256383176 0.036963890454643246 0 0.0043270932017115708 0.036644891351526626 0 0.0090438110017916646 0.035646051911793014 0 0.0081454871024683895 0.036263415865798246 0 0.0092254359616533253 0.036101033867482805 0 0.0081455187097972306 0.036151970419507053 0 0.0079175637468663334 0.036974452820207712 0 0.0081454871024683895 0.036263415865798246 0 0.0089793772895469005 0.036076572369783365 0 0.0090061714447889785 0.035983821482648483 0 0.0081454871024683895 0.036263415865798246 0 0.0090061714447889785 0.035983821482648483 0 0.0091474621318913679 0.036032241830679559 0 0.0095649219118240231 0.036050587997995244 0 0.0092254359616533253 0.036101033867482805 0 0.0089793772895469005 0.036076572369783365 0 0.0081454871024683895 0.036263415865798246 0 0.0092254359616533253 0.036101033867482805 0 0.0089793772895469005 0.036076572369783365 0 0.0095649219118240231 0.036050587997995244 0 0.0089793772895469005 0.036076572369783365 0 0.0091448011780688315 0.035929747725777228 0 0.0095649219118240231 0.036050587997995244 0 0.0091448011780688315 0.035929747725777228 0 0.0094432526072582672 0.035892952086617878 0 0.0091448011780688315 0.035929747725777228 0 0.0094432526072582672 0.035892952086617878 0 0.0091634567679081333 0.03574326407425709 0 0.0094432526072582672 0.035892952086617878 0 0.0091634567679081333 0.03574326407425709 0 0.0095011791011766177 0.035792728838510632 0 0.0091634567679081333 0.03574326407425709 0 0.0090662829705330794 0.035799806617985958 0 0.0089224030205231168 0.035515187499836932 0 0.0090662829705330794 0.035799806617985958 0 0.0091230382032439841 0.035690475483520147 0 0.0089224030205231168 0.035515187499836932 0 0.0091448011780688315 0.035929747725777228 0 0.0091634567679081333 0.03574326407425709 0 0.0090662829705330794 0.035799806617985958 0 0.0090662829705330794 0.035799806617985958 0 0.0090061714447889785 0.035983821482648483 0 0.0091357537136536587 0.035836705396282684 0 0.0091448011780688315 0.035929747725777228 0 0.0090662829705330794 0.035799806617985958 0 0.0090061714447889785 0.035983821482648483 0 0.0089793772895469005 0.036076572369783365 0 0.0091448011780688315 0.035929747725777228 0 0.0090061714447889785 0.035983821482648483 0 0.0091474621318913679 0.036032241830679559 0 0.0091357537136536587 0.035836705396282684 0 0.0093440379838030212 0.035703564093516507 0 0.0079175637468663334 0.036974452820207712 0 0.0062162782061234026 0.035965188346773813 0 0.0090061714447889785 0.035983821482648483 0 0.0091474621318913679 0.036032241830679559 0 0.0091357537136536587 0.035836705396282684 0 0.0051857475330036908 0.037580844634783214 0 0.00514948223105593 0.038874376116017385 0 0.0040817360928713294 0.037774769622927189 0 0.0064075119362694824 0.037519992120715585 0 0.0051857475330036908 0.037580844634783214 0 0.00514948223105593 0.038874376116017385 0 0.0091357537136536587 0.035836705396282684 0 0.0093440379838030212 0.035703564093516507 0 0.0091230382032439841 0.035690475483520147 0 0.0093440379838030212 0.035703564093516507 0 0.0091230382032439841 0.035690475483520147 0 0.0091600246117821867 0.035496791315893818 0 0.0090662829705330794 0.035799806617985958 0 0.0091357537136536587 0.035836705396282684 0 0.0091230382032439841 0.035690475483520147 0 0.0091230382032439841 0.035690475483520147 0 0.0091600246117821867 0.035496791315893818 0 0.0089224030205231168 0.035515187499836932 0 0.0091600246117821867 0.035496791315893818 0 0.0084793219942842953 0.035177487971643398 0 0.0089224030205231168 0.035515187499836932 0 0.0082832756627252389 0.035005795757072654 0 0.0084734636008893839 0.035186420573217102 0 0.0063612613243874466 0.033528118498508439 0 0.006446548452376283 0.034812514402083959 0 0.0053021837470985551 0.035101541245315067 0 0.0062162782061234026 0.035965188346773813 0 0.0053750989959828474 0.034739754570522835 0 0.0062162782061234026 0.035965188346773813 0 0.0082832756627252389 0.035005795757072654 0 0.0063612613243874466 0.033528118498508439 0 0.0073088921367563692 0.034467498922409495 0 0.006446548452376283 0.034812514402083959 0 0.0073088921367563692 0.034467498922409495 0 0.006446548452376283 0.034812514402083959 0 0.0068269635440157544 0.035200896169264431 0 0.006446548452376283 0.034812514402083959 0 0.0061620277432693858 0.035555366412570497 0 0.0053021837470985551 0.035101541245315067 0 0.006446548452376283 0.034812514402083959 0 0.0068269635440157544 0.035200896169264431 0 0.0061620277432693858 0.035555366412570497 0 0.0068269635440157544 0.035200896169264431 0 0.0066262766326666122 0.035224386009047044 0 0.0071946989870916057 0.035284919204112059 0 0.0065610056487002359 0.035116892009641111 0 0.0066262766326666122 0.035224386009047044 0 0.0061620277432693858 0.035555366412570497 0 0.0068269635440157544 0.035200896169264431 0 0.0066262766326666122 0.035224386009047044 0 0.0061620277432693858 0.035555366412570497 0 0.0073088921367563692 0.034467498922409495 0 0.0076094003665264668 0.03524236132634688 0 0.0084793219942842953 0.035177487971643398 0 0.0073088921367563692 0.034467498922409495 0 0.0068269635440157544 0.035200896169264431 0 0.0076094003665264668 0.03524236132634688 0 0.0081833667873764341 0.035804807968907448 0 0.0076094003665264668 0.03524236132634688 0 0.0084793219942842953 0.035177487971643398 0 0.0068269635440157544 0.035200896169264431 0 0.0076094003665264668 0.03524236132634688 0 0.0071946989870916057 0.035284919204112059 0 0.0081833667873764341 0.035804807968907448 0 0.0076094003665264668 0.03524236132634688 0 0.0071946989870916057 0.035284919204112059 0 0.0094145963394379004 0.03435084672844111 0 0.0094566104746653442 0.035075207472096304 0 0.0081833667873764341 0.035804807968907448 0 0.0084793219942842953 0.035177487971643398 0 0.0090745667125342565 0.035286286302794595 0 0.0081833667873764341 0.035804807968907448 0 0.0090745667125342565 0.035286286302794595 0 0.0095619805152361605 0.035148550292789418 0 0.0094749412605215754 0.035736294806989477 0 0.0090745667125342565 0.035286286302794595 0 0.0095619805152361605 0.035148550292789418 0 0.0094749412605215754 0.035736294806989477 0 0.0090745667125342565 0.035286286302794595 0 0.0091986432305919286 0.035603391579612641 0 0.0094749412605215754 0.035736294806989477 0 0.0095011791011766177 0.035792728838510632 0 0.0091986432305919286 0.035603391579612641 0 0.0091634567679081333 0.03574326407425709 0 0.0095011791011766177 0.035792728838510632 0 0.0091986432305919286 0.035603391579612641 0 0.0091634567679081333 0.03574326407425709 0 0.0091986432305919286 0.035603391579612641 0 0.0089224030205231168 0.035515187499836932 0 0.0084793219942842953 0.035177487971643398 0 0.0090745667125342565 0.035286286302794595 0 0.0089224030205231168 0.035515187499836932 0 0.0090745667125342565 0.035286286302794595 0 0.0091986432305919286 0.035603391579612641 0 0.0089224030205231168 0.035515187499836932 0 0.0036446648557973181 0.036055642767500437 0 0.0035643535944237278 0.035765414532223552 0 0.0032383408796826459 0.03604888343075454 0 0.0036446648557973181 0.036055642767500437 0 0.0035643535944237278 0.035765414532223552 0 0.0039252295496833307 0.035754457575245716 0 0.0035643535944237278 0.035765414532223552 0 0.0039252295496833307 0.035754457575245716 0 0.0039729647598009989 0.035577269611097397 0 0.0035643535944237278 0.035765414532223552 0 0.0032383408796826459 0.03604888343075454 0 0.0032099325663397221 0.035793409116060555 0 0.0029567274114464968 0.035990743521319681 0 0.0032383408796826459 0.03604888343075454 0 0.0032099325663397221 0.035793409116060555 0 0.0029567274114464968 0.035990743521319681 0 0.0029242564047420052 0.035780638209044542 0 0.0027052499357985691 0.035939846356296115 0 0.0029567274114464968 0.035990743521319681 0 0.0029242564047420052 0.035780638209044542 0 0.0032099325663397221 0.035793409116060555 0 0.0029567274114464968 0.035990743521319681 0 0.0029397830234786917 0.036259986012061429 0 0.002721660030423052 0.03617172063486733 0 0.0029567274114464968 0.035990743521319681 0 0.0032383408796826459 0.03604888343075454 0 0.0029397830234786917 0.036259986012061429 0 0.0053373431809754747 0.032921599794241238 0 0.0027043189779385099 0.033023098536374626 0 0.0031965602627482218 0.03655311209859486 0 0.0029397830234786917 0.036259986012061429 0 0.0026212827503334334 0.036495332283659962 0 0.0032383408796826459 0.03604888343075454 0 0.0031965602627482218 0.03655311209859486 0 0.0029397830234786917 0.036259986012061429 0 0.0036446648557973181 0.036055642767500437 0 0.0031965602627482218 0.03655311209859486 0 0.0040611739721075702 0.036455922811601545 0 0.0053373431809754747 0.032921599794241238 0 0.0054732380705542543 0.036204899000617061 0 0.0068849868259019753 0.035211729202771547 0 0.007416205728018938 0.035358662624863882 0 0.0069658050130900918 0.035440933348326778 0 0.0036446648557973181 0.036055642767500437 0 0.0032383408796826459 0.03604888343075454 0 0.0031965602627482218 0.03655311209859486 0 0.0068849868259019753 0.035211729202771547 0 0.0069658050130900918 0.035440933348326778 0 0.0061620277432693858 0.035555366412570497 0 0.0036446648557973181 0.036055642767500437 0 0.0040611739721075702 0.036455922811601545 0 0.0041023495932793414 0.035907394798318483 0 0.0040611739721075702 0.036455922811601545 0 0.0046602040204753335 0.035797397463135948 0 0.0041023495932793414 0.035907394798318483 0 0.0046602040204753335 0.035797397463135948 0 0.0061620277432693858 0.035555366412570497 0 0.0050972159167312747 0.035485830420212153 0 0.0065610056487002359 0.035116892009641111 0 0.0068849868259019753 0.035211729202771547 0 0.0061620277432693858 0.035555366412570497 0 0.0040611739721075702 0.036455922811601545 0 0.0046602040204753335 0.035797397463135948 0 0.0061620277432693858 0.035555366412570497 0 0.0054732380705542543 0.036204899000617061 0 0.006093999602029429 0.035581834435695243 0 0.0061620277432693858 0.035555366412570497 0 0.0053021837470985551 0.035101541245315067 0 0.0050972159167312747 0.035485830420212153 0 0.0046780265833652494 0.03533254350111343 0 0.0053021837470985551 0.035101541245315067 0 0.0045445192250222069 0.035365420471969847 0 0.0053021837470985551 0.035101541245315067 0 0.0050972159167312747 0.035485830420212153 0 0.0044996430689783424 0.035541427420925704 0 0.0053021837470985551 0.035101541245315067 0 0.0044996430689783424 0.035541427420925704 0 0.0045445192250222069 0.035365420471969847 0 0.0041023495932793414 0.035907394798318483 0 0.0039252295496833307 0.035754457575245716 0 0.0044996430689783424 0.035541427420925704 0 0.0036446648557973181 0.036055642767500437 0 0.0041023495932793414 0.035907394798318483 0 0.0039252295496833307 0.035754457575245716 0 0.0046602040204753335 0.035797397463135948 0 0.0041023495932793414 0.035907394798318483 0 0.0044996430689783424 0.035541427420925704 0 0.0046602040204753335 0.035797397463135948 0 0.0050972159167312747 0.035485830420212153 0 0.0044996430689783424 0.035541427420925704 0 0.0044996430689783424 0.035541427420925704 0 0.0039729647598009989 0.035577269611097397 0 0.0045445192250222069 0.035365420471969847 0 0.0039252295496833307 0.035754457575245716 0 0.0044996430689783424 0.035541427420925704 0 0.0039729647598009989 0.035577269611097397 0 0.0039729647598009989 0.035577269611097397 0 0.0039897131441064982 0.035483999286034185 0 0.0034597346814684809 0.035624682347167487 0 0.0039897131441064982 0.035483999286034185 0 0.003536908527829639 0.035617368401036548 0 0.0034597346814684809 0.035624682347167487 0 0.0039729647598009989 0.035577269611097397 0 0.0039897131441064982 0.035483999286034185 0 0.0045445192250222069 0.035365420471969847 0 0.0046780265833652494 0.03533254350111343 0 0.0045445192250222069 0.035365420471969847 0 0.004146429166373226 0.03543434159504557 0 0.0039897131441064982 0.035483999286034185 0 0.0045445192250222069 0.035365420471969847 0 0.004146429166373226 0.03543434159504557 0 0.0062162782061234026 0.035965188346773813 0 0.0040448715319865314 0.036706430202490738 0 0.0051857475330036908 0.037580844634783214 0 0.0040817360928713294 0.037774769622927189 0 0.0043270932017115708 0.036644891351526626 0 0.0039897131441064982 0.035483999286034185 0 0.004146429166373226 0.03543434159504557 0 0.003536908527829639 0.035617368401036548 0 0.004146429166373226 0.03543434159504557 0 0.003536908527829639 0.035617368401036548 0 0.003291102226007982 0.036077172603217217 0 0.0040448715319865314 0.036706430202490738 0 0.0034795392822408338 0.036171061929396543 0 0.003536908527829639 0.035617368401036548 0 0.0031841481059575794 0.0357119283223385 0 0.003291102226007982 0.036077172603217217 0 0.003536908527829639 0.035617368401036548 0 0.0034597346814684809 0.035624682347167487 0 0.0030792676032720652 0.035635576823140697 0 0.0031841481059575794 0.0357119283223385 0 0.0030792676032720652 0.035635576823140697 0 0.0028285924918426452 0.035664663609912425 0 0.003536908527829639 0.035617368401036548 0 0.0031841481059575794 0.0357119283223385 0 0.0030792676032720652 0.035635576823140697 0 0.0034597346814684809 0.035624682347167487 0 0.0030955386734663362 0.035682129816436738 0 0.0030792676032720652 0.035635576823140697 0 0.0034597346814684809 0.035624682347167487 0 0.0032099325663397221 0.035793409116060555 0 0.0030955386734663362 0.035682129816436738 0 0.0035643535944237278 0.035765414532223552 0 0.0034597346814684809 0.035624682347167487 0 0.0032099325663397221 0.035793409116060555 0 0.0035643535944237278 0.035765414532223552 0 0.0039729647598009989 0.035577269611097397 0 0.0034597346814684809 0.035624682347167487 0 0.0029242564047420052 0.035780638209044542 0 0.0032099325663397221 0.035793409116060555 0 0.0030955386734663362 0.035682129816436738 0 0.0030955386734663362 0.035682129816436738 0 0.0028275978115436455 0.035627524563723742 0 0.0030792676032720652 0.035635576823140697 0 0.0029242564047420052 0.035780638209044542 0 0.0030955386734663362 0.035682129816436738 0 0.0028275978115436455 0.035627524563723742 0 0.0028275978115436455 0.035627524563723742 0 0.0030792676032720652 0.035635576823140697 0 0.0026478087941172288 0.035562213566258681 0 0.0030792676032720652 0.035635576823140697 0 0.0028285924918426452 0.035664663609912425 0 0.0026478087941172288 0.035562213566258681 0 0.0025630264290331366 0.035579075872291345 0 0.0028285924918426452 0.035664663609912425 0 0.0026478087941172288 0.035562213566258681 0 0.0025630264290331366 0.035579075872291345 0 0.0028285924918426452 0.035664663609912425 0 0.0025978367392244617 0.035655347030320944 0 0.0031841481059575794 0.0357119283223385 0 0.0029108172068378112 0.035801513858715328 0 0.0028285924918426452 0.035664663609912425 0 0.0031841481059575794 0.0357119283223385 0 0.0029108172068378112 0.035801513858715328 0 0.003291102226007982 0.036077172603217217 0 0.0029108172068378112 0.035801513858715328 0 0.0028285924918426452 0.035664663609912425 0 0.0025978367392244617 0.035655347030320944 0 0.0029108172068378112 0.035801513858715328 0 0.0025978367392244617 0.035655347030320944 0 0.0026457972798098754 0.0356052359578772 0 0.0025978367392244617 0.035655347030320944 0 0.0026457972798098754 0.0356052359578772 0 0.002256760769170411 0.035544337907281967 0 0.0025978367392244617 0.035655347030320944 0 0.002371280864233518 0.035573931448362274 0 0.002256760769170411 0.035544337907281967 0 0.002371280864233518 0.035573931448362274 0 0.0021328877615503974 0.035523379089539522 0 0.0025285010574720673 0.03556064281358455 0 0.002371280864233518 0.035573931448362274 0 0.0021328877615503974 0.035523379089539522 0 0.002256760769170411 0.035544337907281967 0 0.0025630264290331366 0.035579075872291345 0 0.002371280864233518 0.035573931448362274 0 0.0025285010574720673 0.03556064281358455 0 0.0025630264290331366 0.035579075872291345 0 0.0025978367392244617 0.035655347030320944 0 0.002371280864233518 0.035573931448362274 0 0.0040817360928713294 0.037774769622927189 0 0.0043270932017115708 0.036644891351526626 0 0.003291102226007982 0.036077172603217217 0 0.0043270932017115708 0.036644891351526626 0 0.003291102226007982 0.036077172603217217 0 0.0032469957714989202 0.035713668979616683 0 0.0029108172068378112 0.035801513858715328 0 0.003291102226007982 0.036077172603217217 0 0.0032469957714989202 0.035713668979616683 0 0.0029108172068378112 0.035801513858715328 0 0.0026457972798098754 0.0356052359578772 0 0.0032469957714989202 0.035713668979616683 0 0.0026457972798098754 0.0356052359578772 0 0.0032469957714989202 0.035713668979616683 0 0.0027360587862707902 0.035393652610374894 0 0.0043332669490066637 0.035560467292229551 0 0.0043270932017115708 0.036644891351526626 0 0.0032469957714989202 0.035713668979616683 0 0.0052358220093583893 0.035702657592697515 0 0.0049095023924989331 0.036547014455220544 0 0.0035885397174475861 0.035928167299268787 0 0.0043332669490066637 0.035560467292229551 0 0.0032469957714989202 0.035713668979616683 0 0.0031972111718146369 0.035148322881982892 0 0.0046144846007345275 0.036089127403005981 0 0.0034024088555973295 0.035534773210920245 0 0.0032469957714989202 0.035713668979616683 0 0.0031972111718146369 0.035148322881982892 0 0.0027360587862707902 0.035393652610374894 0 0.0034024088555973295 0.035534773210920245 0 0.0022321280731235713 0.035000076786109516 0 0.0035885397174475861 0.035928167299268787 0 0.0022320594659380197 0.035000012855959876 0 0.0041285287834479135 0.034999639769876065 0 0.0031972111718146369 0.035148322881982892 0 0.0027360587862707902 0.035393652610374894 0 0.0022308832845353622 0.034999275530287519 0 0.0052358220093583893 0.035702657592697515 0 0.0035885397174475861 0.035928167299268787 0 0.0041285287834479135 0.034999639769876065 0 0.0019862552935730349 0.035523442887453009 0 0.0021328877615503974 0.035523379089539522 0 0.0025285010574720673 0.03556064281358455 0 0.0019032239932694893 0.035465204018267228 0 0.0018495666603697155 0.03551761494006507 0 0.0021328877615503974 0.035523379089539522 0 0.0018495666603697155 0.03551761494006507 0 0.0017557161758070276 0.035524320008477835 0 0.0015193117803109729 0.035335845016660532 0 0.0019032239932694893 0.035465204018267228 0 0.0018495666603697155 0.03551761494006507 0 0.0015193117803109729 0.035335845016660532 0 0.0018495666603697155 0.03551761494006507 0 0.0019862552935730349 0.035523442887453009 0 0.0021328877615503974 0.035523379089539522 0 0.0012494635369447295 0.035798260504227082 0 0.00073238803728621486 0.035772190144030477 0 0.0019032239932694893 0.035465204018267228 0 0.0021328877615503974 0.035523379089539522 0 0.002256760769170411 0.035544337907281967 0 0.0026457972798098754 0.0356052359578772 0 0.002256760769170411 0.035544337907281967 0 0.0021918250006001654 0.035425224329517585 0 0.0026457972798098754 0.0356052359578772 0 0.0027360587862707902 0.035393652610374894 0 0.0021918250006001654 0.035425224329517585 0 0.0019032239932694893 0.035465204018267228 0 0.002256760769170411 0.035544337907281967 0 0.0021918250006001654 0.035425224329517585 0 0.0019032239932694893 0.035465204018267228 0 0.0021918250006001654 0.035425224329517585 0 0.0015193117803109729 0.035335845016660532 0 0.0022308832845353622 0.034999275530287519 0 0.00067491326687887552 0.034999967170431891 0 0.0015193117803109729 0.035335845016660532 0 0.0027360587862707902 0.035393652610374894 0 0.0022308832845353622 0.034999275530287519 0 0.0021918250006001654 0.035425224329517585 0 0.0022308832845353622 0.034999275530287519 0 0.0021918250006001654 0.035425224329517585 0 0.0015193117803109729 0.035335845016660532 0 0.0017557161758070276 0.035524320008477835 0 0.00067491326687887552 0.034999967170431891 0 0.0015193117803109729 0.035335845016660532 0 0.00073238803728621486 0.035772190144030477 0 0.000672083766966117 0.035000049262758438 0 0.00017287120778026595 0.036271608118459545 0 0.0006717264235310313 0.034999994846624971 0 -0.001087684768289565 0.034999995246687135 0 0.00017287120778026595 0.036271608118459545 0 -0.001087684768289565 0.034999995246687135 0 -0.001730346553526059 0.035891003084955422 0 0.00073238803728621486 0.035772190144030477 0 -0.0018136708002748692 0.035900683450249084 0 -3.5312228853773358e-05 0.036153562692916141 0 -0.001472032562415048 0.036886600528503947 0 -0.00065869767876895898 0.037671846353666563 0 -3.5312228853773358e-05 0.036153562692916141 0 -0.001472032562415048 0.036886600528503947 0 -0.0016198451542994382 0.035821246349438292 0 -0.001472032562415048 0.036886600528503947 0 -0.0016198451542994382 0.035821246349438292 0 -0.0025669653829163866 0.03671871570721065 0 -0.001087684768289565 0.034999995246687135 0 -0.001730346553526059 0.035891003084955422 0 -0.0028471331848621642 0.035000005897477274 0 -0.0016198451542994382 0.035821246349438292 0 -0.0034321618798565478 0.035417323677510305 0 -0.0032983040004827898 0.036271763408305208 0 -0.0018136708002748692 0.035900683450249084 0 -0.0035278227765509645 0.035461856086648418 0 -0.001730346553526059 0.035891003084955422 0 -0.0028471331848621642 0.035000005897477274 0 -0.0036359177111848612 0.035509317756365844 0 -0.0028471331848621642 0.035000005897477274 0 -0.0036359177111848612 0.035509317756365844 0 -0.0046065174442855052 0.034999973507007155 0 -0.0034321618798565478 0.035417323677510305 0 -0.0042080630574509933 0.036068999089707759 0 -0.0032983040004827898 0.036271763408305208 0 -0.0032983040004827898 0.036271763408305208 0 -0.0040582336496409622 0.037030945582704498 0 -0.0025669653829163866 0.03671871570721065 0 -0.002512519831317451 0.036122791020827931 0 -0.0032119152458587354 0.036891245337662089 0 -0.0042080630574509933 0.036068999089707759 0 -0.0032983040004827898 0.036271763408305208 0 -0.0040582336496409622 0.037030945582704498 0 -0.0016198451542994382 0.035821246349438292 0 -0.0032983040004827898 0.036271763408305208 0 -0.0025669653829163866 0.03671871570721065 0 -0.001472032562415048 0.036886600528503947 0 -0.0025669653829163866 0.03671871570721065 0 -0.0024787621291380399 0.037994507520975045 0 -0.0036560789653792237 0.036860697104284038 0 -0.0025669653829163866 0.03671871570721065 0 -0.0024787621291380399 0.037994507520975045 0 -0.002512519831317451 0.036122791020827931 0 -0.00041429919719217754 0.036089734933201015 0 0.00049075932878398149 0.033398027503937736 0 0.0007738526211778482 0.034713209887990974 0 0.0014551082221472692 0.03428627003136922 0 0.0007738526211778482 0.034713209887990974 0 0.0014551082221472692 0.03428627003136922 0 0.0013518537453753579 0.035338033990404409 0 -0.001472032562415048 0.036886600528503947 0 -0.0024787621291380399 0.037994507520975045 0 -0.00065869767876895898 0.037671846353666563 0 -0.00041429919719217754 0.036089734933201015 0 0.00087798888057440713 0.03656829673773191 0 -0.0024787621291380399 0.037994507520975045 0 -0.00065869767876895898 0.037671846353666563 0 -0.0012378389897643391 0.039134349931950918 0 0.00090235698140933714 0.036764812562305196 0 0.00087798888057440713 0.03656829673773191 0 0.0025630264290331366 0.035579075872291345 0 0.0026478087941172288 0.035562213566258681 0 0.0025285010574720673 0.03556064281358455 0 0.0026478087941172288 0.035562213566258681 0 0.0025285010574720673 0.03556064281358455 0 0.0025509670560730242 0.035547375971820394 0 0.00073238803728621486 0.035772190144030477 0 0.00090235698140933714 0.036764812562305196 0 -0.0085455447532982835 0.036774018309310902 0 -0.0081004817816543468 0.036766263506357713 0 -0.0085140843395298069 0.036217518787670634 0 -0.0081004817816543468 0.036766263506357713 0 -0.0085140843395298069 0.036217518787670634 0 -0.0075183267358751565 0.036360486822190771 0 -0.0085140843395298069 0.036217518787670634 0 -0.0080012299433614657 0.035687279578057077 0 -0.0075183267358751565 0.036360486822190771 0 -0.0078554212739472846 0.034999945280931463 0 -0.0080012299433614657 0.035687279578057077 0 -0.0093448152047791028 0.034999962794513707 0 -0.0085140843395298069 0.036217518787670634 0 -0.0080012299433614657 0.035687279578057077 0 -0.0093448152047791028 0.034999962794513707 0 -0.0078554212739472846 0.034999945280931463 0 -0.0080012299433614657 0.035687279578057077 0 -0.0068743434971584383 0.03574352509680704 0 -0.0080012299433614657 0.035687279578057077 0 -0.0068743434971584383 0.03574352509680704 0 -0.0075183267358751565 0.036360486822190771 0 -0.0078554212739472846 0.034999945280931463 0 -0.0068743434971584383 0.03574352509680704 0 -0.0063662420942948118 0.034999889796592937 0 -0.0064838136993662695 0.036490545039077234 0 -0.0061515651150327944 0.03712617118017373 0 -0.0073257552323347675 0.03725286563244605 0 -0.0068743434971584383 0.03574352509680704 0 -0.0075183267358751565 0.036360486822190771 0 -0.0064838136993662695 0.036490545039077234 0 -0.0081004817816543468 0.036766263506357713 0 -0.0075183267358751565 0.036360486822190771 0 -0.0073257552323347675 0.03725286563244605 0 -0.0075183267358751565 0.036360486822190771 0 -0.0064838136993662695 0.036490545039077234 0 -0.0073257552323347675 0.03725286563244605 0 -0.0068743434971584383 0.03574352509680704 0 -0.0064838136993662695 0.036490545039077234 0 -0.0054050819374538879 0.035920549012114465 0 -0.0064838136993662695 0.036490545039077234 0 -0.0054050819374538879 0.035920549012114465 0 -0.0061335873945319074 0.037145874387283201 0 -0.0057612716228524546 0.036440267080693652 0 -0.0047673074713984803 0.035514206601952709 0 -0.0063658945789769389 0.03499992567462247 0 -0.0055284178996663821 0.035111234008188164 0 -0.0046065174442855052 0.034999973507007155 0 -0.0068743434971584383 0.03574352509680704 0 -0.0063662420942948118 0.034999889796592937 0 -0.0054050819374538879 0.035920549012114465 0 -0.0063656132923105239 0.035000291521685135 0 -0.0054871649072360676 0.035957719717913485 0 -0.0063658945789769389 0.03499992567462247 0 -0.0055284178996663821 0.035111234008188164 0 -0.0052426778075050969 0.036006850589801083 0 -0.0035278227765509645 0.035461856086648418 0 -0.005428844173471936 0.035123697989547856 0 -0.0042080630574509933 0.036068999089707759 0 -0.0055284178996663821 0.035111234008188164 0 -0.0052426778075050969 0.036006850589801083 0 -0.0034321618798565478 0.035417323677510305 0 -0.0042080630574509933 0.036068999089707759 0 -0.0055284178996663821 0.035111234008188164 0 -0.0036359177111848612 0.035509317756365844 0 -0.0055284178996663821 0.035111234008188164 0 -0.0046065174442855052 0.034999973507007155 0 -0.002512519831317451 0.036122791020827931 0 -0.0054871649072360676 0.035957719717913485 0 -0.0043531877295369462 0.036911433715243872 0 -0.0054050819374538879 0.035920549012114465 0 -0.0061335873945319074 0.037145874387283201 0 -0.0042080630574509933 0.036068999089707759 0 -0.0040582336496409622 0.037030945582704498 0 -0.0052426778075050969 0.036006850589801083 0 -0.002512519831317451 0.036122791020827931 0 -0.0047673074713984803 0.035514206601952709 0 0.00049075932878398149 0.033398027503937736 0 -7.3609811315048475e-05 0.034607572138224248 0 -0.00069750984502661934 0.033557214898636493 0 0.00049075932878398149 0.033398027503937736 0 0.0007738526211778482 0.034713209887990974 0 -7.3609811315048475e-05 0.034607572138224248 0 -0.006981785307995131 0.037604091416787624 0 -0.0075029466332435339 0.036810305673478046 0 -0.0077670117623561833 0.037394367504715975 0 -0.006981785307995131 0.037604091416787624 0 -0.0077670117623561833 0.037394367504715975 0 -0.0079486351466073121 0.038138037190259384 0 -0.0034626241749905412 0.035941368091291052 0 -0.0047673074713984803 0.035514206601952709 0 -0.0075029466332435339 0.036810305673478046 0 -0.0080988951046180521 0.036974371762270947 0 -0.0077670117623561833 0.037394367504715975 0 -0.0047673074713984803 0.035514206601952709 0 -0.0080903063961423761 0.037151468993224884 0 -0.0080988951046180521 0.036974371762270947 0 -0.0077670117623561833 0.037394367504715975 0 -0.0083787682203418541 0.037530403839171098 0 -0.0077670117623561833 0.037394367504715975 0 -0.0083787682203418541 0.037530403839171098 0 -0.0079486351466073121 0.038138037190259384 0 -0.0083787682203418541 0.037530403839171098 0 -0.0092140953986836836 0.036580818694536762 0 -0.0091918533752402033 0.037082521657405228 0 -0.0083787682203418541 0.037530403839171098 0 -0.0089017487958678136 0.038125978381198106 0 -0.0091670370743315299 0.037497942439384473 0 -0.0083787682203418541 0.037530403839171098 0 -0.0091918533752402033 0.037082521657405228 0 -0.0091670370743315299 0.037497942439384473 0 -0.0083787682203418541 0.037530403839171098 0 -0.008513654029774503 0.037208856532161133 0 -0.00865816374100996 0.037223810294873649 0 -0.0080903063961423761 0.037151468993224884 0 -0.0082614510990436808 0.037179066568861725 0 -0.0080988951046180521 0.036974371762270947 0 -0.0083787682203418541 0.037530403839171098 0 -0.008513654029774503 0.037208856532161133 0 -0.0084139937393091155 0.037498210360322186 0 -0.0089498055183721368 0.036906808734085535 0 -0.0081004817816543468 0.036766263506357713 0 -0.0073257552323347675 0.03725286563244605 0 -0.008513654029774503 0.037208856532161133 0 -0.0085455447532982835 0.036774018309310902 0 -0.008513654029774503 0.037208856532161133 0 -0.00865816374100996 0.037223810294873649 0 -0.0085455447532982835 0.036774018309310902 0 -0.0081004817816543468 0.036766263506357713 0 -0.008513654029774503 0.037208856532161133 0 -0.0083787682203418541 0.037530403839171098 0 -0.0089017487958678136 0.038125978381198106 0 -0.0079486351466073121 0.038138037190259384 0 -0.008840131773630933 0.038869435525279196 0 -0.0089017487958678136 0.038125978381198106 0 -0.0079486351466073121 0.038138037190259384 0 -0.0079865782488912403 0.033253146106061483 0 -0.0061430896033090945 0.033495676665250163 0 -0.008840131773630933 0.038869435525279196 0 -0.0079486351466073121 0.038138037190259384 0 -0.0078052534002687624 0.039032080143021584 0 -0.0079486351466073121 0.038138037190259384 0 -0.0071955365642419871 0.038488418426680659 0 -0.0078052534002687624 0.039032080143021584 0 -0.0071955365642419871 0.038488418426680659 0 -0.0068382023112736863 0.039203921458804365 0 -0.0078052534002687624 0.039032080143021584 0 -0.006981785307995131 0.037604091416787624 0 -0.0079486351466073121 0.038138037190259384 0 -0.0071955365642419871 0.038488418426680659 0 -0.0034626241749905412 0.035941368091291052 0 -0.0029399320268266066 0.037676234309126179 0 0.0007738526211778482 0.034713209887990974 0 -7.3609811315048475e-05 0.034607572138224248 0 0.00057178251730640578 0.035588060154599907 0 -0.006981785307995131 0.037604091416787624 0 -0.0071955365642419871 0.038488418426680659 0 -0.0064198210112284652 0.038493300190047937 0 -0.0071955365642419871 0.038488418426680659 0 -0.0068382023112736863 0.039203921458804365 0 -0.0064198210112284652 0.038493300190047937 0 -0.0022469681435350482 0.028201672870350119 0 -0.00075063822430189561 0.029278736646072275 0 -0.0017501635949306825 0.030554235503805503 0 -0.0022469681435350482 0.028201672870350119 0 -0.0038983135725654855 0.030251630893637752 0 -0.0017501635949306825 0.030554235503805503 0 -0.0022469681435350482 0.028201672870350119 0 -0.0038983135725654855 0.030251630893637752 0 -0.0046439088528411462 0.027911199743661352 0 -0.0048581720418317204 0.033608652163907911 0 -0.0061430896033090945 0.033495676665250163 0 -0.0046439088528411462 0.027911199743661352 0 -0.0058882490205270886 0.029506730341709329 0 -0.0069128171174635692 0.028978340917317134 0 -0.0038983135725654855 0.030251630893637752 0 -0.0046439088528411462 0.027911199743661352 0 -0.0058882490205270886 0.029506730341709329 0 -0.0038983135725654855 0.030251630893637752 0 -0.0058882490205270886 0.029506730341709329 0 -0.0056190422689861696 0.030447011594889196 0 -0.0058882490205270886 0.029506730341709329 0 -0.0056190422689861696 0.030447011594889196 0 -0.0074665302337568601 0.030303472971986652 0 -0.0058882490205270886 0.029506730341709329 0 -0.0074665302337568601 0.030303472971986652 0 -0.0079919564342173371 0.030256451851702931 0 -0.0058882490205270886 0.029506730341709329 0 -0.0069128171174635692 0.028978340917317134 0 -0.0079919564342173371 0.030256451851702931 0 -0.007107449219176382 0.027631737712401138 0 -0.0069128171174635692 0.028978340917317134 0 -0.0088703770291891273 0.028816475264873135 0 -0.007107449219176382 0.027631737712401138 0 -0.0046439088528411462 0.027911199743661352 0 -0.0069128171174635692 0.028978340917317134 0 0.0022476403466613927 0.035548010853012027 0 0.0019615679422661358 0.035728473196877122 0 0.0023393997493660599 0.035749328195335495 0 0.0022476403466613927 0.035548010853012027 0 0.0023393997493660599 0.035749328195335495 0 0.0024564718128001852 0.035615391036800545 0 0.0022476403466613927 0.035548010853012027 0 0.0024564718128001852 0.035615391036800545 0 0.0025315288098139255 0.035525358836892659 0 0.0022476403466613927 0.035548010853012027 0 0.0019615679422661358 0.035728473196877122 0 0.0018769169065508439 0.035216964518238705 0 0.0019615679422661358 0.035728473196877122 0 0.0022606607234634986 0.03597800737836411 0 0.0019312738927677209 0.036144239254733701 0 0.0019615679422661358 0.035728473196877122 0 0.0023393997493660599 0.035749328195335495 0 0.0022606607234634986 0.03597800737836411 0 0.0023393997493660599 0.035749328195335495 0 0.0025010941753155305 0.035880432626092543 0 0.0022606607234634986 0.03597800737836411 0 0.0025010941753155305 0.035880432626092543 0 0.0026961592147533848 0.035746327784199214 0 0.0025323982501450053 0.035715651704820515 0 0.0023393997493660599 0.035749328195335495 0 0.0025010941753155305 0.035880432626092543 0 0.0025323982501450053 0.035715651704820515 0 0.0029242564047420052 0.035780638209044542 0 0.0026961592147533848 0.035746327784199214 0 0.0027052499357985691 0.035939846356296115 0 0.0025010941753155305 0.035880432626092543 0 0.0026961592147533848 0.035746327784199214 0 0.0027052499357985691 0.035939846356296115 0 0.0029242564047420052 0.035780638209044542 0 0.0028275978115436455 0.035627524563723742 0 0.0026961592147533848 0.035746327784199214 0 0.0028275978115436455 0.035627524563723742 0 0.0026961592147533848 0.035746327784199214 0 0.0026239359276209137 0.035614809718521434 0 0.0023393997493660599 0.035749328195335495 0 0.0025323982501450053 0.035715651704820515 0 0.0024564718128001852 0.035615391036800545 0 0.0026961592147533848 0.035746327784199214 0 0.0025323982501450053 0.035715651704820515 0 0.0026239359276209137 0.035614809718521434 0 0.0025323982501450053 0.035715651704820515 0 0.0026239359276209137 0.035614809718521434 0 0.0024564718128001852 0.035615391036800545 0 0.0025315288098139255 0.035525358836892659 0 0.0026188567795031792 0.035559299271226842 0 0.0025509670560730242 0.035547375971820394 0 0.0026478087941172288 0.035562213566258681 0 0.0026188567795031792 0.035559299271226842 0 0.0025509670560730242 0.035547375971820394 0 0.0026239359276209137 0.035614809718521434 0 0.0024564718128001852 0.035615391036800545 0 0.0025315288098139255 0.035525358836892659 0 0.0028275978115436455 0.035627524563723742 0 0.0026478087941172288 0.035562213566258681 0 0.0026188567795031792 0.035559299271226842 0 0.0026239359276209137 0.035614809718521434 0 0.0025315288098139255 0.035525358836892659 0 0.0026188567795031792 0.035559299271226842 0 0.0028275978115436455 0.035627524563723742 0 0.0026239359276209137 0.035614809718521434 0 0.0026188567795031792 0.035559299271226842 0 0.0014551082221472692 0.03428627003136922 0 0.0023853351398633784 0.035152512417292184 0 0.0018769169065508439 0.035216964518238705 0 0.0022476403466613927 0.035548010853012027 0 0.0023853351398633784 0.035152512417292184 0 0.0018769169065508439 0.035216964518238705 0 0.0022476403466613927 0.035548010853012027 0 0.0025315288098139255 0.035525358836892659 0 0.0024181739040964822 0.03541702652902539 0 0.0019654046192950233 0.03523555175620572 0 0.00087798888057440713 0.03656829673773191 0 0.0013820079924445079 0.036445318808887829 0 0.00087798888057440713 0.03656829673773191 0 0.0014551082221472692 0.03428627003136922 0 0.0018769169065508439 0.035216964518238705 0 0.0013518537453753579 0.035338033990404409 0 0.0019615679422661358 0.035728473196877122 0 0.0018769169065508439 0.035216964518238705 0 0.0013518537453753579 0.035338033990404409 0 0.0007738526211778482 0.034713209887990974 0 0.0013518537453753579 0.035338033990404409 0 0.00057178251730640578 0.035588060154599907 0 0.00057178251730640578 0.035588060154599907 0 0.0011697895488090317 0.035822234135010789 0 0.0011649576840965009 0.036429732115024392 0 0.0013518537453753579 0.035338033990404409 0 0.00057178251730640578 0.035588060154599907 0 0.0011697895488090317 0.035822234135010789 0 0.0019615679422661358 0.035728473196877122 0 0.0013518537453753579 0.035338033990404409 0 0.0015947458130895764 0.035918833662187656 0 0.0013518537453753579 0.035338033990404409 0 0.0011697895488090317 0.035822234135010789 0 0.0015947458130895764 0.035918833662187656 0 0.0019615679422661358 0.035728473196877122 0 0.0015947458130895764 0.035918833662187656 0 0.0019312738927677209 0.036144239254733701 0 0.0011697895488090317 0.035822234135010789 0 0.0015947458130895764 0.035918833662187656 0 0.0011649576840965009 0.036429732115024392 0 0.0015947458130895764 0.035918833662187656 0 0.0011649576840965009 0.036429732115024392 0 0.0019312738927677209 0.036144239254733701 0 -0.0014433591325428356 0.034618221878729719 0 0.00221606480611846 0.032743853615119126 0 0.0011649576840965009 0.036429732115024392 0 0.0019644176314167648 0.036503722253241166 0 0.0019312738927677209 0.036144239254733701 0 -0.0022469681435350482 0.028201672870350119 0 4.4362570099862907e-05 0.028632627964714802 0 -0.00075063822430189561 0.029278736646072275 0 -0.0029399320268266066 0.037676234309126179 0 -0.0014433591325428356 0.034618221878729719 0 -0.0048581720418317204 0.033608652163907911 0 -0.0014433591325428356 0.034618221878729719 0 -0.0068382023112736863 0.039203921458804365 0 -0.0064198210112284652 0.038493300190047937 0 -0.005863282732252062 0.039384469133124732 0 -0.0014433591325428356 0.034618221878729719 0 -0.001850521464494798 0.031635258697487442 0 -0.00075063822430189561 0.029278736646072275 0 -8.8310497205161984e-05 0.029944586709616243 0 -0.0017501635949306825 0.030554235503805503 0 -0.00075063822430189561 0.029278736646072275 0 -8.8310497205161984e-05 0.029944586709616243 0 0.00028507851434835993 0.029078408034285543 0 4.4362570099862907e-05 0.028632627964714802 0 -0.00075063822430189561 0.029278736646072275 0 0.00028507851434835993 0.029078408034285543 0 7.7696659969802586e-05 0.02869566754831146 0 0.00028507851434835993 0.029078408034285543 0 0.0017609785748475295 0.029129240956165158 0 0.0010380156897383977 0.029523107247029039 0 0.00028507851434835993 0.029078408034285543 0 0.0017609785748475295 0.029129240956165158 0 -8.8310497205161984e-05 0.029944586709616243 0 0.0010380156897383977 0.029523107247029039 0 0.00028507851434835993 0.029078408034285543 0 -8.8310497205161984e-05 0.029944586709616243 0 0.0010380156897383977 0.029523107247029039 0 0.0007920614165551267 0.030262723479849596 0 0.00221606480611846 0.032743853615119126 0 0.0027043189779385099 0.033023098536374626 0 0.0010380156897383977 0.029523107247029039 0 0.0028783575392765611 0.030160704685037933 0 0.0007920614165551267 0.030262723479849596 0 0.0010380156897383977 0.029523107247029039 0 0.0017609785748475295 0.029129240956165158 0 0.0028783575392765611 0.030160704685037933 0 0.0017609785748475295 0.029129240956165158 0 0.0028783575392765611 0.030160704685037933 0 0.003375164859023391 0.02958092556399932 0 0.0019644176314167648 0.036503722253241166 0 0.0024264432343962428 0.036191343887055458 0 0.0026212827503334334 0.036495332283659962 0 0.0019644176314167648 0.036503722253241166 0 0.0019312738927677209 0.036144239254733701 0 0.0024264432343962428 0.036191343887055458 0 0.0022606607234634986 0.03597800737836411 0 0.0019312738927677209 0.036144239254733701 0 0.0024264432343962428 0.036191343887055458 0 0.0025010941753155305 0.035880432626092543 0 0.0022606607234634986 0.03597800737836411 0 0.0024264432343962428 0.036191343887055458 0 0.0029567274114464968 0.035990743521319681 0 0.0027052499357985691 0.035939846356296115 0 0.002721660030423052 0.03617172063486733 0 0.0025010941753155305 0.035880432626092543 0 0.0027052499357985691 0.035939846356296115 0 0.0024264432343962428 0.036191343887055458 0 0.0027052499357985691 0.035939846356296115 0 0.0024264432343962428 0.036191343887055458 0 0.002721660030423052 0.03617172063486733 0 0.0024264432343962428 0.036191343887055458 0 0.002721660030423052 0.03617172063486733 0 0.0026212827503334334 0.036495332283659962 0 0.0029397830234786917 0.036259986012061429 0 0.002721660030423052 0.03617172063486733 0 0.0026212827503334334 0.036495332283659962 0 0.0053373431809754747 0.032921599794241238 0 0.0031060405179973117 0.029681268537141921 0 0.0050169859212574235 0.030056766037248894 0 0.0028783575392765611 0.030160704685037933 0 0.003375164859023391 0.02958092556399932 0 0.0033092070597843474 0.029887668754081276 0 0.0044232845537360479 0.030750203850074903 0 0.0033043347540916397 0.031373968744805227 0 0.0057530494583891362 0.029948966919253164 0 0.0033092070597843474 0.029887668754081276 0 0.0044232845537360479 0.030750203850074903 0 0.0044232845537360479 0.030750203850074903 0 0.0042635180525746486 0.031603153953923303 0 0.0033043347540916397 0.031373968744805227 0 0.0031060405179973117 0.029681268537141921 0 0.00091037461576561572 0.030329380359195673 0 0.0033092070597843474 0.029887668754081276 0 0.0021254691022834895 0.030966007728610905 0 0.0033043347540916397 0.031373968744805227 0 0.0033092070597843474 0.029887668754081276 0 0.0021254691022834895 0.030966007728610905 0 0.0007920614165551267 0.030262723479849596 0 0.0020846277578059837 0.03223155063474932 0 0.0033043347540916397 0.031373968744805227 0 0.0034777664065739232 0.032388929390363599 0 0.0021254691022834895 0.030966007728610905 0 0.0020846277578059837 0.03223155063474932 0 0.0033043347540916397 0.031373968744805227 0 0.0021254691022834895 0.030966007728610905 0 0.0020846277578059837 0.03223155063474932 0 0.00098003360878085922 0.031339582742478521 0 0.0048288370192927001 0.032738356599244553 0 0.0042635180525746486 0.031603153953923303 0 0.0034777664065739232 0.032388929390363599 0 0.0042635180525746486 0.031603153953923303 0 0.0033043347540916397 0.031373968744805227 0 0.0034777664065739232 0.032388929390363599 0 0.0048288370192927001 0.032738356599244553 0 0.0034777664065739232 0.032388929390363599 0 0.0026777949888209724 0.033680823062595289 0 0.0048288370192927001 0.032738356599244553 0 0.0046053301785051581 0.034904884775142662 0 0.0026777949888209724 0.033680823062595289 0 0.0020846277578059837 0.03223155063474932 0 0.0034777664065739232 0.032388929390363599 0 0.0026777949888209724 0.033680823062595289 0 0.0020846277578059837 0.03223155063474932 0 0.0026777949888209724 0.033680823062595289 0 0.00070168471755876962 0.033245138125037633 0 -0.00093326836725823425 0.031818129656957211 0 -0.0047051628119941374 0.029286148295349871 0 -0.0037990468758003506 0.032248671128780132 0 -8.3816777353190361e-05 0.033220948033377447 0 -0.0028462463946108104 0.03161047136256441 0 0.0008534480348302752 0.034559483617017439 0 0.00070168471755876962 0.033245138125037633 0 -0.00099722804254802865 0.033820582371623505 0 0.0026777949888209724 0.033680823062595289 0 0.0008534480348302752 0.034559483617017439 0 0.00070168471755876962 0.033245138125037633 0 0.00070168471755876962 0.033245138125037633 0 -0.00089274074972821034 0.032792768724729499 0 0.00020547276586271418 0.032152299372612506 0 0.00070168471755876962 0.033245138125037633 0 -0.00089274074972821034 0.032792768724729499 0 -0.00099722804254802865 0.033820582371623505 0 0.00020547276586271418 0.032152299372612506 0 -0.0003228671526679672 0.031023581081009496 0 -0.0014695460298722375 0.031831221444727692 0 -0.00089274074972821034 0.032792768724729499 0 0.00020547276586271418 0.032152299372612506 0 -0.0014695460298722375 0.031831221444727692 0 0.00020547276586271418 0.032152299372612506 0 0.00098003360878085922 0.031339582742478521 0 -0.0003228671526679672 0.031023581081009496 0 0.0020846277578059837 0.03223155063474932 0 0.00070168471755876962 0.033245138125037633 0 0.00020547276586271418 0.032152299372612506 0 0.0020846277578059837 0.03223155063474932 0 0.00020547276586271418 0.032152299372612506 0 0.00098003360878085922 0.031339582742478521 0 0.0021254691022834895 0.030966007728610905 0 0.00098003360878085922 0.031339582742478521 0 0.0007920614165551267 0.030262723479849596 0 0.00098003360878085922 0.031339582742478521 0 0.0007920614165551267 0.030262723479849596 0 -0.0003228671526679672 0.031023581081009496 0 -8.8310497205161984e-05 0.029944586709616243 0 -0.0003228671526679672 0.031023581081009496 0 -0.0017501635949306825 0.030554235503805503 0 -8.8310497205161984e-05 0.029944586709616243 0 0.0007920614165551267 0.030262723479849596 0 -0.0003228671526679672 0.031023581081009496 0 -0.0003228671526679672 0.031023581081009496 0 -0.0017501635949306825 0.030554235503805503 0 -0.0014695460298722375 0.031831221444727692 0 -0.0017501635949306825 0.030554235503805503 0 -0.0030652265393023735 0.031469370054649934 0 -0.0014695460298722375 0.031831221444727692 0 -0.0038983135725654855 0.030251630893637752 0 -0.0017501635949306825 0.030554235503805503 0 -0.0030652265393023735 0.031469370054649934 0 -0.0038983135725654855 0.030251630893637752 0 -0.0030652265393023735 0.031469370054649934 0 -0.005229215564629559 0.031796086121430214 0 -0.005048904625723002 0.030962567715290514 0 -0.0063182911497898881 0.030762225169038426 0 -0.0030652265393023735 0.031469370054649934 0 -0.0030599342902915476 0.032886969196870355 0 -0.005229215564629559 0.031796086121430214 0 -0.00089274074972821034 0.032792768724729499 0 -0.0030599342902915476 0.032886969196870355 0 -0.0014695460298722375 0.031831221444727692 0 -0.0030652265393023735 0.031469370054649934 0 -0.0030599342902915476 0.032886969196870355 0 -0.0014695460298722375 0.031831221444727692 0 -0.0074665302337568601 0.030303472971986652 0 -0.0071389016755527834 0.030096791795911348 0 -0.0073937334987632724 0.02977841970924084 0 -0.0056190422689861696 0.030447011594889196 0 -0.0074665302337568601 0.030303472971986652 0 -0.005229215564629559 0.031796086121430214 0 -0.0073580786931767769 0.03031120079869205 0 -0.0063182911497898881 0.030762225169038426 0 -0.0038983135725654855 0.030251630893637752 0 -0.0056190422689861696 0.030447011594889196 0 -0.005229215564629559 0.031796086121430214 0 -0.007175323242055694 0.029014585344780696 0 -0.0073937334987632724 0.02977841970924084 0 -0.0073598040822306192 0.029361184062044892 0 -0.0073937334987632724 0.02977841970924084 0 -0.0072606838455244425 0.029647148898312332 0 -0.0073598040822306192 0.029361184062044892 0 -0.0080121344433841737 0.030961480459483118 0 -0.0080997870584923488 0.029784630473820715 0 -0.0071389016755527834 0.030096791795911348 0 -0.0072606838455244425 0.029647148898312332 0 -0.0070880165811002139 0.029381206246823912 0 -0.0071389016755527834 0.030096791795911348 0 -0.0073937334987632724 0.02977841970924084 0 -0.0072606838455244425 0.029647148898312332 0 -0.0072606838455244425 0.029647148898312332 0 -0.0070880165811002139 0.029381206246823912 0 -0.0073598040822306192 0.029361184062044892 0 -0.0070880165811002139 0.029381206246823912 0 -0.0073598040822306192 0.029361184062044892 0 -0.0072992127579751785 0.029290140488125768 0 -0.0073598040822306192 0.029361184062044892 0 -0.0072992127579751785 0.029290140488125768 0 -0.0070846301466189424 0.029730970497717633 0 -0.0070880165811002139 0.029381206246823912 0 -0.0072992127579751785 0.029290140488125768 0 -0.007075622412222534 0.028992565968580901 0 -0.0080997870584923488 0.029784630473820715 0 -0.0079632690881546245 0.028878490606594222 0 -0.007175323242055694 0.029014585344780696 0 -0.0047051628119941374 0.029286148295349871 0 -0.0070846301466189424 0.029730970497717633 0 -0.005048904625723002 0.030962567715290514 0 -0.0028462463946108104 0.03161047136256441 0 -0.00089274074972821034 0.032792768724729499 0 -0.0030599342902915476 0.032886969196870355 0 -0.00099722804254802865 0.033820582371623505 0 -0.007175323242055694 0.029014585344780696 0 -0.0073598040822306192 0.029361184062044892 0 -0.0070846301466189424 0.029730970497717633 0 -0.0072992127579751785 0.029290140488125768 0 -0.0070846301466189424 0.029730970497717633 0 -0.0073560794903839528 0.029205562250941272 0 -0.0071360595154270224 0.029712847157309041 0 -0.0068787219751962917 0.031342678716593186 0 -0.0070846301466189424 0.029730970497717633 0 -0.0078310051471599251 0.028888800508922129 0 -0.0073560794903839528 0.029205562250941272 0 -0.0047051628119941374 0.029286148295349871 0 -0.0070846301466189424 0.029730970497717633 0 -0.0037990468758003506 0.032248671128780132 0 -0.0070846301466189424 0.029730970497717633 0 -0.0060685217581067661 0.033480659062862655 0 -0.0037990468758003506 0.032248671128780132 0 -0.0060685217581067661 0.033480659062862655 0 -0.0037990468758003506 0.032248671128780132 0 -0.0035451143199303928 0.035002696568277945 0 -0.0073560794903839528 0.029205562250941272 0 -0.0075448548674420194 0.028627041077686821 0 -0.0073769991914246404 0.028867277299746967 0 -0.0078310051471599251 0.028888800508922129 0 -0.0073560794903839528 0.029205562250941272 0 -0.0075448548674420194 0.028627041077686821 0 -0.0075448548674420194 0.028627041077686821 0 -0.0077710189724913619 0.028468824519121735 0 -0.0075722544844733326 0.028220711404130776 0 -0.0078310051471599251 0.028888800508922129 0 -0.0075448548674420194 0.028627041077686821 0 -0.0077710189724913619 0.028468824519121735 0 -0.0060685217581067661 0.033480659062862655 0 -0.0048820828043554141 0.03684663398272825 0 -0.0035451143199303928 0.035002696568277945 0 -0.0068787219751962917 0.031342678716593186 0 -0.0065334646519307664 0.031532902354885768 0 -0.0078310051471599251 0.028888800508922129 0 -0.0077710189724913619 0.028468824519121735 0 -0.0079855733121604391 0.02828169314509861 0 -0.0077710189724913619 0.028468824519121735 0 -0.0080084486670098376 0.028271607661002188 0 -0.007769741665315192 0.028219855065042695 0 -0.0085070767624598736 0.028396458300991662 0 -0.0065334646519307664 0.031532902354885768 0 -0.0048820828043554141 0.03684663398272825 0 -0.0025844367796827123 0.036856451158018021 0 -0.0035451143199303928 0.035002696568277945 0 -0.0072992127579751785 0.029290140488125768 0 -0.007075622412222534 0.028992565968580901 0 -0.0073769991914246404 0.028867277299746967 0 -0.007075622412222534 0.028992565968580901 0 -0.0073769991914246404 0.028867277299746967 0 -0.0074756332994251806 0.028388882622964021 0 -0.0072992127579751785 0.029290140488125768 0 -0.0073560794903839528 0.029205562250941272 0 -0.0073769991914246404 0.028867277299746967 0 -0.0074756332994251806 0.028388882622964021 0 -0.0076896030760568576 0.028146442575815604 0 -0.0074122480547576955 0.028090595562023864 0 -0.0075448548674420194 0.028627041077686821 0 -0.0074756332994251806 0.028388882622964021 0 -0.0075722544844733326 0.028220711404130776 0 -0.0075448548674420194 0.028627041077686821 0 -0.0073769991914246404 0.028867277299746967 0 -0.0074756332994251806 0.028388882622964021 0 -0.0079632690881546245 0.028878490606594222 0 -0.0077435762224608616 0.028286524939410699 0 -0.007075622412222534 0.028992565968580901 0 -0.0074756332994251806 0.028388882622964021 0 -0.0076896030760568576 0.028146442575815604 0 -0.0088964178261547473 0.028687212063163679 0 -0.0076896030760568576 0.028146442575815604 0 -0.0083812878267692896 0.028028783725043194 0 -0.0076896030760568576 0.028146442575815604 0 -0.0075574515296586986 0.028156224687773262 0 -0.0083812878267692896 0.028028783725043194 0 -0.0076896030760568576 0.028146442575815604 0 -0.0075574515296586986 0.028156224687773262 0 -0.0074122480547576955 0.028090595562023864 0 -0.0075574515296586986 0.028156224687773262 0 -0.0074122480547576955 0.028090595562023864 0 -0.0072830946141956843 0.027789562988585891 0 -0.0074756332994251806 0.028388882622964021 0 -0.0074122480547576955 0.028090595562023864 0 -0.0075722544844733326 0.028220711404130776 0 -0.0074122480547576955 0.028090595562023864 0 -0.0075722544844733326 0.028220711404130776 0 -0.0075370897194078756 0.027731638348699874 0 -0.0073778230249388795 0.027600327524977021 0 -0.0072830946141956843 0.027789562988585891 0 -0.006749308326953243 0.027094249423568067 0 -0.0074122480547576955 0.028090595562023864 0 -0.0073778230249388795 0.027600327524977021 0 -0.0075370897194078756 0.027731638348699874 0 -0.0073778230249388795 0.027600327524977021 0 -0.0075532683691595867 0.027326171212611675 0 -0.0072403942323742577 0.026829649247905388 0 -0.0073778230249388795 0.027600327524977021 0 -0.0075370897194078756 0.027731638348699874 0 -0.0075532683691595867 0.027326171212611675 0 -0.0074122480547576955 0.028090595562023864 0 -0.0073778230249388795 0.027600327524977021 0 -0.0072830946141956843 0.027789562988585891 0 -0.0075574515296586986 0.028156224687773262 0 -0.0084837467955083557 0.028715937430670819 0 -0.0071706185404109002 0.029931384916510897 0 -0.0070559177981409727 0.029132013344375641 0 -0.0083659995033369457 0.026075971638363081 0 -0.0075574515296586986 0.028156224687773262 0 -0.0072830946141956843 0.027789562988585891 0 -0.006749308326953243 0.027094249423568067 0 -0.0065621294730681115 0.031505888213844049 0 -0.0071237327844088953 0.029029920943069266 0 -0.0085786864902281136 0.029635000577477311 0 -0.0065334646519307664 0.031532902354885768 0 -0.0077386848238281654 0.027922523812500658 0 -0.0077782754424121246 0.027900169768865585 0 -0.0080084486670098376 0.028271607661002188 0 -0.0081527777556658146 0.02749607384265251 0 -0.0077782754424121246 0.027900169768865585 0 -0.0080084486670098376 0.028271607661002188 0 -0.007769741665315192 0.028219855065042695 0 -0.0077782754424121246 0.027900169768865585 0 -0.007769741665315192 0.028219855065042695 0 -0.0075722544844733326 0.028220711404130776 0 -0.0077782754424121246 0.027900169768865585 0 -0.0075722544844733326 0.028220711404130776 0 -0.0075200728096103562 0.027215945566490513 0 -0.0077710189724913619 0.028468824519121735 0 -0.007769741665315192 0.028219855065042695 0 -0.0075722544844733326 0.028220711404130776 0 -0.0075722544844733326 0.028220711404130776 0 -0.0075370897194078756 0.027731638348699874 0 -0.0080493047622065828 0.027290123028156383 0 -0.0075737241070905443 0.028144502942319127 0 -0.007781286450432974 0.027231146700627883 0 -0.0075370897194078756 0.027731638348699874 0 -0.0075532683691595867 0.027326171212611675 0 -0.0080493047622065828 0.027290123028156383 0 -0.0075532683691595867 0.027326171212611675 0 -0.0080493047622065828 0.027290123028156383 0 -0.0076272081072518063 0.026944193607476071 0 -0.0077782754424121246 0.027900169768865585 0 -0.0075200728096103562 0.027215945566490513 0 -0.0081527777556658146 0.02749607384265251 0 -0.0071237327844088953 0.029029920943069266 0 -0.0085786864902281136 0.029635000577477311 0 -0.0086513229139184213 0.027951345713335622 0 -0.0085786864902281136 0.029635000577477311 0 -0.0086513229139184213 0.027951345713335622 0 -0.01047324745449745 0.027780543846084069 0 -0.0048820828043554141 0.03684663398272825 0 -0.0020263655990026387 0.038729158075695228 0 -0.0025844367796827123 0.036856451158018021 0 -0.0065334646519307664 0.031532902354885768 0 -0.0050173506239942212 0.03457743810425435 0 -0.0020263655990026387 0.038729158075695228 0 -0.0025844367796827123 0.036856451158018021 0 -0.00080324646189459351 0.037480684743599682 0 -0.0025844367796827123 0.036856451158018021 0 -0.00080324646189459351 0.037480684743599682 0 -0.0017790592167145412 0.036016904419662862 0 -0.0020263655990026387 0.038729158075695228 0 -0.00080324646189459351 0.037480684743599682 0 0.00016083278020366287 0.0385232168685819 0 -0.00080324646189459351 0.037480684743599682 0 0.001309401709644736 0.037508093123773824 0 0.00054047203688076901 0.036183702491315854 0 -0.00080324646189459351 0.037480684743599682 0 0.00016083278020366287 0.0385232168685819 0 0.001309401709644736 0.037508093123773824 0 -0.00080324646189459351 0.037480684743599682 0 -0.0017790592167145412 0.036016904419662862 0 0.00054047203688076901 0.036183702491315854 0 0.00016083278020366287 0.0385232168685819 0 0.0019387268577800321 0.03871880478469724 0 0.00026726551403900769 0.040127864537704568 0 -0.0050173506239942212 0.03457743810425435 0 -0.0054430934631398498 0.034040113528543275 0 -0.0020263655990026387 0.038729158075695228 0 0.00016083278020366287 0.0385232168685819 0 0.00026726551403900769 0.040127864537704568 0 0.0019387268577800321 0.03871880478469724 0 0.00026726551403900769 0.040127864537704568 0 0.0019785498015137824 0.039897785654040452 0 0.0019387268577800321 0.03871880478469724 0 0.0034453674154570142 0.038915746022565409 0 0.0019785498015137824 0.039897785654040452 0 0.00016083278020366287 0.0385232168685819 0 0.0019387268577800321 0.03871880478469724 0 0.001309401709644736 0.037508093123773824 0 0.0036616304145745925 0.038712710227473149 0 0.0034453674154570142 0.038915746022565409 0 0.0034639024213469591 0.038318724681354117 0 0.0036616304145745925 0.038712710227473149 0 0.0034453674154570142 0.038915746022565409 0 0.003931719978474052 0.038407180358565801 0 0.0037404559752428758 0.038671752847278147 0 0.0036616304145745925 0.038712710227473149 0 0.003931719978474052 0.038407180358565801 0 0.0019387268577800321 0.03871880478469724 0 0.0034453674154570142 0.038915746022565409 0 0.0032876823311501205 0.03809565785400626 0 0.0019387268577800321 0.03871880478469724 0 0.0032876823311501205 0.03809565785400626 0 0.002863551565016215 0.037481433792302753 0 0.0034453674154570142 0.038915746022565409 0 0.0032876823311501205 0.03809565785400626 0 0.003931719978474052 0.038407180358565801 0 0.0032876823311501205 0.03809565785400626 0 0.003931719978474052 0.038407180358565801 0 0.0039795268253202043 0.036966088472694732 0 0.0032876823311501205 0.03809565785400626 0 0.002863551565016215 0.037481433792302753 0 0.0039795268253202043 0.036966088472694732 0 0.002863551565016215 0.037481433792302753 0 0.0039795268253202043 0.036966088472694732 0 0.0028321565973576921 0.036256068640403233 0 0.001309401709644736 0.037508093123773824 0 0.0028321565973576921 0.036256068640403233 0 0.00054047203688076901 0.036183702491315854 0 0.0019387268577800321 0.03871880478469724 0 0.002863551565016215 0.037481433792302753 0 0.001309401709644736 0.037508093123773824 0 0.002863551565016215 0.037481433792302753 0 0.001309401709644736 0.037508093123773824 0 0.0028321565973576921 0.036256068640403233 0 0.0028321565973576921 0.036256068640403233 0 0.0021269870580233057 0.035044977283811014 0 0.00054047203688076901 0.036183702491315854 0 0.0046053301785051581 0.034904884775142662 0 0.0028321565973576921 0.036256068640403233 0 0.0021269870580233057 0.035044977283811014 0 0.0046053301785051581 0.034904884775142662 0 0.0039795268253202043 0.036966088472694732 0 0.0028321565973576921 0.036256068640403233 0 0.0046053301785051581 0.034904884775142662 0 0.0026777949888209724 0.033680823062595289 0 0.0021269870580233057 0.035044977283811014 0 0.0026777949888209724 0.033680823062595289 0 0.0008534480348302752 0.034559483617017439 0 0.0021269870580233057 0.035044977283811014 0 -0.00093326836725823425 0.031818129656957211 0 0.0021269870580233057 0.035044977283811014 0 -0.0012062201592645558 0.034478858581977231 0 -8.3816777353190361e-05 0.033220948033377447 0 0.0019726356296868052 0.034885229209834161 0 -0.00093326836725823425 0.031818129656957211 0 -0.0012062201592645558 0.034478858581977231 0 -0.0037990468758003506 0.032248671128780132 0 -0.0012062201592645558 0.034478858581977231 0 -0.0037990468758003506 0.032248671128780132 0 -0.0035451143199303928 0.035002696568277945 0 -0.0012062201592645558 0.034478858581977231 0 -0.0035451143199303928 0.035002696568277945 0 -0.0017790592167145412 0.036016904419662862 0 -0.0025844367796827123 0.036856451158018021 0 -0.0035451143199303928 0.035002696568277945 0 -0.0017790592167145412 0.036016904419662862 0 -0.0012062201592645558 0.034478858581977231 0 -0.0017790592167145412 0.036016904419662862 0 0.00054047203688076901 0.036183702491315854 0 0.0021269870580233057 0.035044977283811014 0 -0.0012062201592645558 0.034478858581977231 0 0.00054047203688076901 0.036183702491315854 0 -0.0094887409110425078 0.026939762978497792 0 -0.0084343671404250396 0.0271888283199898 0 -0.0085791957635018949 0.026170068865196544 0 -0.0094887409110425078 0.026939762978497792 0 -0.0085791957635018949 0.026170068865196544 0 -0.0094090194345734096 0.026109592371114532 0 -0.0094887409110425078 0.026939762978497792 0 -0.0094090194345734096 0.026109592371114532 0 -0.010179667789370569 0.026215686469726458 0 -0.0073029158164251186 0.028838164314605005 0 -0.007219611374330092 0.02916363594893228 0 -0.0075390867101329043 0.029018675753089373 0 -0.0085544159814229248 0.027798166967325191 0 -0.0071404154982020159 0.028515950321240852 0 -0.007219611374330092 0.02916363594893228 0 -0.0069545974157864086 0.02919071505793859 0 -0.0070876562697616049 0.02940754790679536 0 -0.0073029158164251186 0.028838164314605005 0 -0.007219611374330092 0.02916363594893228 0 -0.0069545974157864086 0.02919071505793859 0 -0.012109544477036804 0.021292761275561237 0 -0.012371539823872884 0.021165200716709222 0 -0.012423428157097493 0.021342889987740699 0 -0.0084343671404250396 0.0271888283199898 0 -0.0080833636426767604 0.02687307249457932 0 -0.0076372599215302405 0.027418673214712128 0 -0.0071404154982020159 0.028515950321240852 0 -0.0094567968817232794 0.026758756696773633 0 -0.010305641506723705 0.023628859412244574 0 -0.0094567968817232794 0.026758756696773633 0 -0.012109544477036804 0.021292761275561237 0 -0.012423428157097493 0.021342889987740699 0 -0.012421218861152298 0.021388798884118172 0 -0.012109544477036804 0.021292761275561237 0 -0.012096971106137557 0.021419639128504683 0 -0.012421218861152298 0.021388798884118172 0 -0.0084343671404250396 0.0271888283199898 0 -0.0080833636426767604 0.02687307249457932 0 -0.0085791957635018949 0.026170068865196544 0 -0.012109544477036804 0.021292761275561237 0 -0.012096971106137557 0.021419639128504683 0 -0.011736624114441893 0.021407588867251508 0 -0.010305641506723705 0.023628859412244574 0 -0.01010056541763623 0.023882544375115288 0 -0.011982988363649074 0.021529794914878685 0 -0.012096971106137557 0.021419639128504683 0 -0.011736624114441893 0.021407588867251508 0 -0.011982988363649074 0.021529794914878685 0 -0.011711799064720993 0.021640513955243558 0 -0.011736624114441893 0.021407588867251508 0 -0.012096971106137557 0.021419639128504683 0 -0.012421218861152298 0.021388798884118172 0 -0.012328291212891512 0.021497970617996544 0 -0.011982988363649074 0.021529794914878685 0 -0.012096971106137557 0.021419639128504683 0 -0.012328291212891512 0.021497970617996544 0 -0.011982988363649074 0.021529794914878685 0 -0.01204759016400244 0.021682960032019402 0 -0.012328291212891512 0.021497970617996544 0 -0.01204759016400244 0.021682960032019402 0 -0.011711799064720993 0.021640513955243558 0 -0.011735481139451161 0.021744712099193604 0 -0.011982988363649074 0.021529794914878685 0 -0.01204759016400244 0.021682960032019402 0 -0.011711799064720993 0.021640513955243558 0 -0.011711799064720993 0.021640513955243558 0 -0.011736624114441893 0.021407588867251508 0 -0.011413707836952723 0.021671033544202935 0 -0.011711799064720993 0.021640513955243558 0 -0.011413707836952723 0.021671033544202935 0 -0.011444380718390091 0.021809804120806593 0 -0.01010056541763623 0.023882544375115288 0 -0.010282606386821229 0.023456525521377038 0 -0.0085791957635018949 0.026170068865196544 0 -0.0094090194345734096 0.026109592371114532 0 -0.0091064045488921039 0.025306725922865304 0 -0.0094090194345734096 0.026109592371114532 0 -0.0091064045488921039 0.025306725922865304 0 -0.010047491838584138 0.025722002215237821 0 -0.0091064045488921039 0.025306725922865304 0 -0.010047491838584138 0.025722002215237821 0 -0.0097741152097825905 0.024045689867075663 0 -0.010047491838584138 0.025722002215237821 0 -0.010924790396225207 0.025134069542970303 0 -0.0097741152097825905 0.024045689867075663 0 -0.010047491838584138 0.025722002215237821 0 -0.010924790396225207 0.025134069542970303 0 -0.010678990228127384 0.026248564309445204 0 -0.010924790396225207 0.025134069542970303 0 -0.010678990228127384 0.026248564309445204 0 -0.011202566078063927 0.025822513132447798 0 -0.010678990228127384 0.026248564309445204 0 -0.010179667789370569 0.026215686469726458 0 -0.011036775172906084 0.026383485581625614 0 -0.010678990228127384 0.026248564309445204 0 -0.010032075316362158 0.027121637212522368 0 -0.011036775172906084 0.026383485581625614 0 -0.010047491838584138 0.025722002215237821 0 -0.010678990228127384 0.026248564309445204 0 -0.010179667789370569 0.026215686469726458 0 -0.0094090194345734096 0.026109592371114532 0 -0.010047491838584138 0.025722002215237821 0 -0.010179667789370569 0.026215686469726458 0 -0.013076371027552618 0.025666891871621505 0 -0.014566875812334396 0.024101588728349606 0 -0.012331103788247044 0.024605381188450598 0 -0.011096063296294074 0.027138485560128715 0 -0.0083659995033369457 0.026075971638363081 0 -0.010924790396225207 0.025134069542970303 0 -0.011202566078063927 0.025822513132447798 0 -0.012331103788247044 0.024605381188450598 0 -0.013076371027552618 0.025666891871621505 0 -0.011202566078063927 0.025822513132447798 0 -0.012331103788247044 0.024605381188450598 0 -0.010678990228127384 0.026248564309445204 0 -0.011202566078063927 0.025822513132447798 0 -0.010032075316362158 0.027121637212522368 0 -0.0088828709436852612 0.027637823744602736 0 -0.0092878150575883955 0.027403872584107983 0 -0.0084837467955083557 0.028715937430670819 0 -0.010032075316362158 0.027121637212522368 0 -0.0088059333137938019 0.027697764454809006 0 -0.010032075316362158 0.027121637212522368 0 -0.0088059333137938019 0.027697764454809006 0 -0.011036775172906084 0.026383485581625614 0 -0.013076371027552618 0.025666891871621505 0 -0.011202566078063927 0.025822513132447798 0 -0.010032075316362158 0.027121637212522368 0 -0.011096063296294074 0.027138485560128715 0 -0.01008200681437676 0.027174494841854847 0 -0.0075574515296586986 0.028156224687773262 0 -0.0088059333137938019 0.027697764454809006 0 -0.0083812878267692896 0.028028783725043194 0 -0.0075574515296586986 0.028156224687773262 0 -0.0084837467955083557 0.028715937430670819 0 -0.0088059333137938019 0.027697764454809006 0 -0.0088059333137938019 0.027697764454809006 0 -0.0083812878267692896 0.028028783725043194 0 -0.0083005163831635798 0.028241714282551886 0 -0.0083812878267692896 0.028028783725043194 0 -0.0083005163831635798 0.028241714282551886 0 -0.0083539762070848154 0.02847960609945787 0 -0.0083005163831635798 0.028241714282551886 0 -0.0083539762070848154 0.02847960609945787 0 -0.0078187697090648049 0.028636990739930888 0 -0.0088059333137938019 0.027697764454809006 0 -0.0083005163831635798 0.028241714282551886 0 -0.0076333409149055495 0.028320251905242507 0 -0.0080462864270363886 0.029000612988229205 0 -0.0083539762070848154 0.02847960609945787 0 -0.0078187697090648049 0.028636990739930888 0 -0.0080462864270363886 0.029000612988229205 0 -0.0078187697090648049 0.028636990739930888 0 -0.0076472483843577207 0.029266861124078111 0 -0.0080462864270363886 0.029000612988229205 0 -0.0083539762070848154 0.02847960609945787 0 -0.0085221357668594181 0.029304315066474386 0 -0.0088964178261547473 0.028687212063163679 0 -0.0083812878267692896 0.028028783725043194 0 -0.0083539762070848154 0.02847960609945787 0 -0.0088964178261547473 0.028687212063163679 0 -0.0083539762070848154 0.02847960609945787 0 -0.0085221357668594181 0.029304315066474386 0 -0.0094887409110425078 0.026939762978497792 0 -0.010179667789370569 0.026215686469726458 0 -0.011036775172906084 0.026383485581625614 0 -0.0085544159814229248 0.027798166967325191 0 -0.0092878150575883955 0.027403872584107983 0 -0.0073029158164251186 0.028838164314605005 0 -0.0076333409149055495 0.028320251905242507 0 -0.007584815205570322 0.028697895408006876 0 -0.0083005163831635798 0.028241714282551886 0 -0.0076333409149055495 0.028320251905242507 0 -0.0078187697090648049 0.028636990739930888 0 -0.0076333409149055495 0.028320251905242507 0 -0.0078187697090648049 0.028636990739930888 0 -0.007584815205570322 0.028697895408006876 0 -0.0078187697090648049 0.028636990739930888 0 -0.0071297452137425721 0.029303683500597436 0 -0.0076472483843577207 0.029266861124078111 0 -0.0078187697090648049 0.028636990739930888 0 -0.0075390867101329043 0.029018675753089373 0 -0.007584815205570322 0.028697895408006876 0 -0.0077938919116326711 0.028697835131906477 0 -0.0073530507615007139 0.029152278956837543 0 -0.0073029158164251186 0.028838164314605005 0 -0.0075390867101329043 0.029018675753089373 0 -0.007584815205570322 0.028697895408006876 0 -0.0071297452137425721 0.029303683500597436 0 -0.0074214967829851607 0.029949595402213841 0 -0.0069393086428507465 0.030208527708130734 0 -0.0073530507615007139 0.029152278956837543 0 -0.0070684023103812429 0.029596975290482049 0 -0.0076472483843577207 0.029266861124078111 0 -0.0074214967829851607 0.029949595402213841 0 -0.0078973211191805202 0.029569474381391066 0 -0.0071297452137425721 0.029303683500597436 0 -0.0076472483843577207 0.029266861124078111 0 -0.0074214967829851607 0.029949595402213841 0 -0.0074214967829851607 0.029949595402213841 0 -0.0079275075694093394 0.030502517440438481 0 -0.007227762339921992 0.030573104735687518 0 -0.0074214967829851607 0.029949595402213841 0 -0.007227762339921992 0.030573104735687518 0 -0.0069393086428507465 0.030208527708130734 0 -0.0091440287158635006 0.030124151409368537 0 -0.0088964178261547473 0.028687212063163679 0 -0.0085221357668594181 0.029304315066474386 0 -0.0080462864270363886 0.029000612988229205 0 -0.0085221357668594181 0.029304315066474386 0 -0.0078973211191805202 0.029569474381391066 0 -0.0080462864270363886 0.029000612988229205 0 -0.0076472483843577207 0.029266861124078111 0 -0.0078973211191805202 0.029569474381391066 0 -0.0074214967829851607 0.029949595402213841 0 -0.0078973211191805202 0.029569474381391066 0 -0.0079275075694093394 0.030502517440438481 0 -0.0085221357668594181 0.029304315066474386 0 -0.0078973211191805202 0.029569474381391066 0 -0.0079275075694093394 0.030502517440438481 0 -0.0091440287158635006 0.030124151409368537 0 -0.0085221357668594181 0.029304315066474386 0 -0.0079275075694093394 0.030502517440438481 0 -0.0088840782584674802 0.032075005385646144 0 -0.0091440287158635006 0.030124151409368537 0 -0.0084591869494457846 0.03132238730325481 0 -0.0091440287158635006 0.030124151409368537 0 -0.0079275075694093394 0.030502517440438481 0 -0.0084591869494457846 0.03132238730325481 0 -0.0079275075694093394 0.030502517440438481 0 -0.0084591869494457846 0.03132238730325481 0 -0.0076607304309254786 0.03133448811968987 0 -0.0084591869494457846 0.03132238730325481 0 -0.0088214936611571981 0.031996144523373703 0 -0.0076607304309254786 0.03133448811968987 0 -0.0089829073902259037 0.03204269519801508 0 -0.0099119737091914028 0.032148439049355999 0 -0.0088214936611571981 0.031996144523373703 0 -0.012072882375595301 0.033069005389683818 0 -0.010202225567707661 0.031616301341348199 0 -0.0088214936611571981 0.031996144523373703 0 -0.0087581917593247943 0.031236571205123718 0 -0.010202225567707661 0.031616301341348199 0 -0.0088840782584674802 0.032075005385646144 0 -0.0088214936611571981 0.031996144523373703 0 -0.0087581917593247943 0.031236571205123718 0 -0.0088840782584674802 0.032075005385646144 0 -0.0084591869494457846 0.03132238730325481 0 -0.0088214936611571981 0.031996144523373703 0 -0.007227762339921992 0.030573104735687518 0 -0.0070464887562219783 0.030817550340772992 0 -0.0068660122140061577 0.030441142394454907 0 -0.007227762339921992 0.030573104735687518 0 -0.0068660122140061577 0.030441142394454907 0 -0.0069393086428507465 0.030208527708130734 0 -0.0079275075694093394 0.030502517440438481 0 -0.007227762339921992 0.030573104735687518 0 -0.0076607304309254786 0.03133448811968987 0 -0.0099119737091914028 0.032148439049355999 0 -0.010564613649497604 0.031946597530477128 0 -0.007227762339921992 0.030573104735687518 0 -0.0076607304309254786 0.03133448811968987 0 -0.0070464887562219783 0.030817550340772992 0 -0.012072882375595301 0.033069005389683818 0 -0.014100345476607478 0.033043661382036488 0 -0.013945401122355284 0.032522305231270969 0 -0.014100345476607478 0.033043661382036488 0 -0.013947839940563088 0.033202612231259761 0 -0.014012124372032805 0.03321972838871759 0 -0.010564613649497604 0.031946597530477128 0 -0.010455258230973414 0.03181031284793074 0 -0.0070464887562219783 0.030817550340772992 0 -0.0068016295597517007 0.030445714362236129 0 -0.0068660122140061577 0.030441142394454907 0 -0.0068016295597517007 0.030445714362236129 0 -0.0067664852058166719 0.030296571529907921 0 -0.0068660122140061577 0.030441142394454907 0 -0.0067664852058166719 0.030296571529907921 0 -0.0068660122140061577 0.030441142394454907 0 -0.0066872347743126221 0.030149676112700793 0 -0.0068660122140061577 0.030441142394454907 0 -0.0069393086428507465 0.030208527708130734 0 -0.0066872347743126221 0.030149676112700793 0 -0.0069393086428507465 0.030208527708130734 0 -0.0066872347743126221 0.030149676112700793 0 -0.0068056530448876319 0.029820703238075522 0 -0.006884507429560492 0.029932885490323007 0 -0.0070684023103812429 0.029596975290482049 0 -0.0070951808097735689 0.029736558620222054 0 -0.0070876562697616049 0.02940754790679536 0 -0.0073265991445973329 0.029382686621502639 0 -0.007219611374330092 0.02916363594893228 0 -0.0070876562697616049 0.02940754790679536 0 -0.0073265991445973329 0.029382686621502639 0 -0.0071297452137425721 0.029303683500597436 0 -0.0069393086428507465 0.030208527708130734 0 -0.0068056530448876319 0.029820703238075522 0 -0.007219611374330092 0.02916363594893228 0 -0.0075390867101329043 0.029018675753089373 0 -0.0073265991445973329 0.029382686621502639 0 -0.0068371451761736913 0.029585158976985618 0 -0.0066382079827154612 0.029826946298689545 0 -0.006590699242846154 0.02949248462947144 0 -0.0069545974157864086 0.02919071505793859 0 -0.0068371451761736913 0.029585158976985618 0 -0.006590699242846154 0.02949248462947144 0 -0.0069545974157864086 0.02919071505793859 0 -0.0070876562697616049 0.02940754790679536 0 -0.0068371451761736913 0.029585158976985618 0 -0.0070951808097735689 0.029736558620222054 0 -0.0070876562697616049 0.02940754790679536 0 -0.0068371451761736913 0.029585158976985618 0 -0.0070951808097735689 0.029736558620222054 0 -0.0068371451761736913 0.029585158976985618 0 -0.0067651009096107119 0.030107436996735567 0 -0.006884507429560492 0.029932885490323007 0 -0.0067615574016046008 0.03009429697566263 0 -0.0068371451761736913 0.029585158976985618 0 -0.0066382079827154612 0.029826946298689545 0 -0.0067651009096107119 0.030107436996735567 0 -0.0066382079827154612 0.029826946298689545 0 -0.0067651009096107119 0.030107436996735567 0 -0.0066115094731494413 0.030066189914546348 0 -0.0067651009096107119 0.030107436996735567 0 -0.0067057482849079281 0.030195998432066919 0 -0.0066115094731494413 0.030066189914546348 0 -0.0067651009096107119 0.030107436996735567 0 -0.0067569960948376546 0.030274191504085689 0 -0.0067057482849079281 0.030195998432066919 0 -0.0067664852058166719 0.030296571529907921 0 -0.0067651009096107119 0.030107436996735567 0 -0.0067569960948376546 0.030274191504085689 0 -0.0067664852058166719 0.030296571529907921 0 -0.0066872347743126221 0.030149676112700793 0 -0.0067651009096107119 0.030107436996735567 0 -0.0068016295597517007 0.030445714362236129 0 -0.0067664852058166719 0.030296571529907921 0 -0.0067569960948376546 0.030274191504085689 0 -0.013947839940563088 0.033202612231259761 0 -0.013520490119311775 0.033275068608428625 0 -0.013802211409629464 0.033266724666794617 0 -0.010455258230973414 0.03181031284793074 0 -0.00987022864628289 0.03187709926107847 0 -0.0068016295597517007 0.030445714362236129 0 -0.0067569960948376546 0.030274191504085689 0 -0.00673074780393936 0.030279938549607633 0 -0.0067057482849079281 0.030195998432066919 0 -0.00673074780393936 0.030279938549607633 0 -0.006640822789637498 0.030193444068392902 0 -0.0067569960948376546 0.030274191504085689 0 -0.0067057482849079281 0.030195998432066919 0 -0.00673074780393936 0.030279938549607633 0 -0.013520490119311775 0.033275068608428625 0 -0.013611245985815196 0.033559930942503292 0 -0.013381351698091567 0.033469713968281578 0 -0.013757500860223992 0.033777848435660368 0 -0.013896865515359414 0.034350505287630215 0 -0.013919614499639304 0.034154640317566744 0 -0.0137253546565869 0.033652584859744157 0 -0.013505618113782761 0.034008207212005891 0 -0.013611245985815196 0.033559930942503292 0 -0.013381351698091567 0.033469713968281578 0 -0.01339555074411968 0.033614316223704643 0 -0.013611245985815196 0.033559930942503292 0 -0.013442699536849935 0.033844608135868488 0 -0.01339555074411968 0.033614316223704643 0 -0.013948892203758277 0.034006071107696483 0 -0.01389099101320952 0.033698714489237891 0 -0.013957456797992514 0.03387057219979852 0 -0.013948892203758277 0.034006071107696483 0 -0.01389099101320952 0.033698714489237891 0 -0.013919614499639304 0.034154640317566744 0 -0.013757500860223992 0.033777848435660368 0 -0.01389099101320952 0.033698714489237891 0 -0.013919614499639304 0.034154640317566744 0 -0.013520490119311775 0.033275068608428625 0 -0.013611245985815196 0.033559930942503292 0 -0.013802211409629464 0.033266724666794617 0 -0.01389099101320952 0.033698714489237891 0 -0.013802211409629464 0.033266724666794617 0 -0.013930007707750099 0.033368881901839259 0 -0.0137253546565869 0.033652584859744157 0 -0.013813263351878245 0.033304120761710562 0 -0.013757500860223992 0.033777848435660368 0 -0.01389099101320952 0.033698714489237891 0 -0.013802211409629464 0.033266724666794617 0 -0.013947839940563088 0.033202612231259761 0 -0.013802211409629464 0.033266724666794617 0 -0.013930007707750099 0.033368881901839259 0 -0.013947839940563088 0.033202612231259761 0 -0.014012124372032805 0.03321972838871759 0 -0.013930007707750099 0.033368881901839259 0 -0.014012124372032805 0.03321972838871759 0 -0.014014290770154441 0.033112922482114261 0 -0.013952072991377046 0.033487781788104312 0 -0.014012124372032805 0.03321972838871759 0 -0.013930007707750099 0.033368881901839259 0 -0.013952072991377046 0.033487781788104312 0 -0.01389099101320952 0.033698714489237891 0 -0.013930007707750099 0.033368881901839259 0 -0.013952072991377046 0.033487781788104312 0 -0.014100345476607478 0.033043661382036488 0 -0.014012124372032805 0.03321972838871759 0 -0.014014290770154441 0.033112922482114261 0 -0.014014290770154441 0.033112922482114261 0 -0.013960885836206643 0.033462709303788307 0 -0.013963757347405941 0.032816021834962114 0 -0.014014290770154441 0.033112922482114261 0 -0.013968275739228186 0.033661572647661224 0 -0.01396101145773612 0.033541512067882071 0 -0.014014290770154441 0.033112922482114261 0 -0.013968275739228186 0.033661572647661224 0 -0.013960885836206643 0.033462709303788307 0 -0.014014290770154441 0.033112922482114261 0 -0.013952072991377046 0.033487781788104312 0 -0.01396101145773612 0.033541512067882071 0 -0.013952072991377046 0.033487781788104312 0 -0.01396101145773612 0.033541512067882071 0 -0.013957456797992514 0.03387057219979852 0 -0.01389099101320952 0.033698714489237891 0 -0.013952072991377046 0.033487781788104312 0 -0.013957456797992514 0.03387057219979852 0 -0.013968275739228186 0.033661572647661224 0 -0.01396101145773612 0.033541512067882071 0 -0.013957456797992514 0.03387057219979852 0 -0.013957456797992514 0.03387057219979852 0 -0.014001802456014302 0.034241727128373804 0 -0.014022621851926266 0.034328087132957291 0 -0.013968275739228186 0.033661572647661224 0 -0.013957456797992514 0.03387057219979852 0 -0.014001802456014302 0.034241727128373804 0 -0.014001802456014302 0.034241727128373804 0 -0.014065315430011103 0.034506824543542598 0 -0.014022621851926266 0.034328087132957291 0 -0.013960885836206643 0.033462709303788307 0 -0.013979237688042967 0.034050989030910389 0 -0.014013617467698596 0.033925241561882313 0 -0.013968275739228186 0.033661572647661224 0 -0.014001802456014302 0.034241727128373804 0 -0.013979237688042967 0.034050989030910389 0 -0.013968275739228186 0.033661572647661224 0 -0.013960885836206643 0.033462709303788307 0 -0.013979237688042967 0.034050989030910389 0 -0.014001802456014302 0.034241727128373804 0 -0.013979237688042967 0.034050989030910389 0 -0.014021470617485318 0.034557551794257353 0 -0.013979237688042967 0.034050989030910389 0 -0.01400813318273954 0.034256575570318609 0 -0.014021470617485318 0.034557551794257353 0 -0.01400813318273954 0.034256575570318609 0 -0.014013617467698596 0.033925241561882313 0 -0.014054506280746792 0.034486654945232759 0 -0.013979237688042967 0.034050989030910389 0 -0.01400813318273954 0.034256575570318609 0 -0.014013617467698596 0.033925241561882313 0 -0.014021470617485318 0.034557551794257353 0 -0.014023060360133165 0.034963098506602973 0 -0.014118825256486091 0.035112185594010581 0 -0.01400813318273954 0.034256575570318609 0 -0.014021470617485318 0.034557551794257353 0 -0.014054506280746792 0.034486654945232759 0 -0.014021470617485318 0.034557551794257353 0 -0.014054506280746792 0.034486654945232759 0 -0.014023060360133165 0.034963098506602973 0 -0.014021470617485318 0.034557551794257353 0 -0.01409559422677358 0.034704482119563188 0 -0.014118825256486091 0.035112185594010581 0 -0.014001802456014302 0.034241727128373804 0 -0.014065315430011103 0.034506824543542598 0 -0.01409559422677358 0.034704482119563188 0 -0.014065315430011103 0.034506824543542598 0 -0.01409559422677358 0.034704482119563188 0 -0.01417452591684756 0.034731493181380572 0 -0.014001802456014302 0.034241727128373804 0 -0.014021470617485318 0.034557551794257353 0 -0.01409559422677358 0.034704482119563188 0 -0.01409559422677358 0.034704482119563188 0 -0.01417452591684756 0.034731493181380572 0 -0.014243714560055956 0.035000934830781143 0 -0.014065315430011103 0.034506824543542598 0 -0.01417452591684756 0.034731493181380572 0 -0.014022621851926266 0.034328087132957291 0 -0.01417452591684756 0.034731493181380572 0 -0.014295043708552524 0.034867780990422544 0 -0.014082518753641042 0.034540970577987148 0 -0.01417452591684756 0.034731493181380572 0 -0.014082518753641042 0.034540970577987148 0 -0.014022621851926266 0.034328087132957291 0 -0.01417452591684756 0.034731493181380572 0 -0.014295043708552524 0.034867780990422544 0 -0.014434658930341843 0.035097606337801762 0 -0.014295043708552524 0.034867780990422544 0 -0.014127657848197341 0.03468794235801307 0 -0.014297313921587973 0.03492167354585908 0 -0.014295043708552524 0.034867780990422544 0 -0.014127657848197341 0.03468794235801307 0 -0.014082518753641042 0.034540970577987148 0 -0.014127657848197341 0.03468794235801307 0 -0.014082518753641042 0.034540970577987148 0 -0.013896865515359414 0.034350505287630215 0 -0.014082518753641042 0.034540970577987148 0 -0.013896865515359414 0.034350505287630215 0 -0.013919614499639304 0.034154640317566744 0 -0.013948892203758277 0.034006071107696483 0 -0.013919614499639304 0.034154640317566744 0 -0.014022621851926266 0.034328087132957291 0 -0.013948892203758277 0.034006071107696483 0 -0.013957456797992514 0.03387057219979852 0 -0.014022621851926266 0.034328087132957291 0 -0.014082518753641042 0.034540970577987148 0 -0.013919614499639304 0.034154640317566744 0 -0.014022621851926266 0.034328087132957291 0 -0.0069128171174635692 0.028978340917317134 0 -0.0088703770291891273 0.028816475264873135 0 -0.0079919564342173371 0.030256451851702931 0 -0.0088703770291891273 0.028816475264873135 0 -0.0079919564342173371 0.030256451851702931 0 -0.0096686422879202812 0.030416446785086565 0 -0.0079919564342173371 0.030256451851702931 0 -0.0087581917593247943 0.031236571205123718 0 -0.0096686422879202812 0.030416446785086565 0 -0.0074665302337568601 0.030303472971986652 0 -0.0071389016755527834 0.030096791795911348 0 -0.0079919564342173371 0.030256451851702931 0 -0.0088840782584674802 0.032075005385646144 0 -0.0079919564342173371 0.030256451851702931 0 -0.0087581917593247943 0.031236571205123718 0 -0.0080121344433841737 0.030961480459483118 0 -0.0080146675771122916 0.030224099277806254 0 -0.0087581917593247943 0.031236571205123718 0 -0.0096686422879202812 0.030416446785086565 0 -0.010202225567707661 0.031616301341348199 0 -0.012072882375595301 0.033069005389683818 0 -0.010202225567707661 0.031616301341348199 0 -0.011475313213208148 0.031433131285003107 0 -0.0096686422879202812 0.030416446785086565 0 -0.010202225567707661 0.031616301341348199 0 -0.011475313213208148 0.031433131285003107 0 -0.0088703770291891273 0.028816475264873135 0 -0.010996208063654356 0.029739727317600523 0 -0.009994746798945596 0.02707362866705874 0 -0.0088703770291891273 0.028816475264873135 0 -0.0096686422879202812 0.030416446785086565 0 -0.010996208063654356 0.029739727317600523 0 -0.0096686422879202812 0.030416446785086565 0 -0.011475313213208148 0.031433131285003107 0 -0.010996208063654356 0.029739727317600523 0 -0.010996208063654356 0.029739727317600523 0 -0.013647109424183675 0.031711844220619234 0 -0.013528862967325033 0.028651357200504091 0 -0.013830364542769577 0.031852394236707833 0 -0.013933819954861331 0.030479537293623828 0 -0.011475313213208148 0.031433131285003107 0 -0.010996208063654356 0.029739727317600523 0 -0.013647109424183675 0.031711844220619234 0 -0.013647109424183675 0.031711844220619234 0 -0.01403439191751658 0.03319094928778215 0 -0.014650775476828668 0.033309558534496055 0 -0.012072882375595301 0.033069005389683818 0 -0.011475313213208148 0.031433131285003107 0 -0.013647109424183675 0.031711844220619234 0 -0.012072882375595301 0.033069005389683818 0 -0.013647109424183675 0.031711844220619234 0 -0.013945401122355284 0.032522305231270969 0 -0.013647109424183675 0.031711844220619234 0 -0.013945401122355284 0.032522305231270969 0 -0.013963757347405941 0.032816021834962114 0 -0.014014290770154441 0.033112922482114261 0 -0.013945401122355284 0.032522305231270969 0 -0.013963757347405941 0.032816021834962114 0 -0.014100345476607478 0.033043661382036488 0 -0.014014290770154441 0.033112922482114261 0 -0.013945401122355284 0.032522305231270969 0 -0.013647109424183675 0.031711844220619234 0 -0.013963757347405941 0.032816021834962114 0 -0.01403439191751658 0.03319094928778215 0 -0.013960885836206643 0.033462709303788307 0 -0.013963757347405941 0.032816021834962114 0 -0.01403439191751658 0.03319094928778215 0 -0.013960885836206643 0.033462709303788307 0 -0.01403439191751658 0.03319094928778215 0 -0.014013617467698596 0.033925241561882313 0 -0.01403439191751658 0.03319094928778215 0 -0.014258517220887737 0.033867618633358812 0 -0.014013617467698596 0.033925241561882313 0 -0.01403439191751658 0.03319094928778215 0 -0.014258517220887737 0.033867618633358812 0 -0.014650775476828668 0.033309558534496055 0 -0.014258517220887737 0.033867618633358812 0 -0.014290654823421589 0.034537743746113736 0 -0.014811372693329675 0.03437373695856457 0 -0.014258517220887737 0.033867618633358812 0 -0.0141441605685944 0.034261563459658265 0 -0.014290654823421589 0.034537743746113736 0 -0.014258517220887737 0.033867618633358812 0 -0.0141441605685944 0.034261563459658265 0 -0.014013617467698596 0.033925241561882313 0 -0.0141441605685944 0.034261563459658265 0 -0.014013617467698596 0.033925241561882313 0 -0.014054506280746792 0.034486654945232759 0 -0.014124079717431499 0.034758188463697159 0 -0.014290654823421589 0.034537743746113736 0 -0.013972665202634982 0.035309841432812648 0 -0.0141441605685944 0.034261563459658265 0 -0.014054506280746792 0.034486654945232759 0 -0.014124079717431499 0.034758188463697159 0 -0.014054506280746792 0.034486654945232759 0 -0.014124079717431499 0.034758188463697159 0 -0.014023060360133165 0.034963098506602973 0 -0.0141441605685944 0.034261563459658265 0 -0.014124079717431499 0.034758188463697159 0 -0.014290654823421589 0.034537743746113736 0 -0.014290654823421589 0.034537743746113736 0 -0.014442656369322553 0.034503670450283103 0 -0.013972665202634982 0.035309841432812648 0 -0.011125533884799541 0.038354117023538498 0 -0.010424943771514398 0.037916570695838252 0 -0.011060084706242125 0.037220616972315143 0 -0.012552305872073231 0.033950507479087511 0 -0.012540234692228933 0.036770016883341444 0 -0.014258963830203596 0.034021875380279246 0 -0.012552305872073231 0.033950507479087511 0 -0.01336472457360288 0.026366284783380534 0 -0.013528862967325033 0.028651357200504091 0 -0.009994746798945596 0.02707362866705874 0 -0.014258517220887737 0.033867618633358812 0 -0.014811372693329675 0.03437373695856457 0 -0.014650775476828668 0.033309558534496055 0 -0.012552305872073231 0.033950507479087511 0 -0.013933819954861331 0.030479537293623828 0 -0.012552305872073231 0.033950507479087511 0 -0.0099722090267584853 0.032697396327286299 0 -0.010996208063654356 0.029739727317600523 0 -0.013528862967325033 0.028651357200504091 0 -0.009994746798945596 0.02707362866705874 0 -0.010001235845739269 0.038645117395454141 0 -0.010424943771514398 0.037916570695838252 0 -0.0096782822425465452 0.037740997110689324 0 -0.011125533884799541 0.038354117023538498 0 -0.010001235845739269 0.038645117395454141 0 -0.010424943771514398 0.037916570695838252 0 -0.0089017487958678136 0.038125978381198106 0 -0.010001235845739269 0.038645117395454141 0 -0.0096782822425465452 0.037740997110689324 0 -0.0089017487958678136 0.038125978381198106 0 -0.0091670370743315299 0.037497942439384473 0 -0.0096782822425465452 0.037740997110689324 0 -0.008840131773630933 0.038869435525279196 0 -0.0089017487958678136 0.038125978381198106 0 -0.010001235845739269 0.038645117395454141 0 -0.007107449219176382 0.027631737712401138 0 -0.0088703770291891273 0.028816475264873135 0 -0.009994746798945596 0.02707362866705874 0 -0.0079865782488912403 0.033253146106061483 0 -0.0099722090267584853 0.032697396327286299 0 -0.0092140953986836836 0.036580818694536762 0 -0.0097742740305429218 0.036551717372119687 0 -0.0094851785707505513 0.036784934891265574 0 -0.0097742740305429218 0.036551717372119687 0 -0.0094851785707505513 0.036784934891265574 0 -0.0096577877150264384 0.037057951054564095 0 -0.0097742740305429218 0.036551717372119687 0 -0.0096577877150264384 0.037057951054564095 0 -0.010277313162039744 0.036672601746910338 0 -0.0092140953986836836 0.036580818694536762 0 -0.0094851785707505513 0.036784934891265574 0 -0.0091918533752402033 0.037082521657405228 0 -0.0094851785707505513 0.036784934891265574 0 -0.0091918533752402033 0.037082521657405228 0 -0.0096577877150264384 0.037057951054564095 0 -0.0091918533752402033 0.037082521657405228 0 -0.0091670370743315299 0.037497942439384473 0 -0.0096577877150264384 0.037057951054564095 0 -0.0091670370743315299 0.037497942439384473 0 -0.0096782822425465452 0.037740997110689324 0 -0.0096577877150264384 0.037057951054564095 0 -0.0096782822425465452 0.037740997110689324 0 -0.0096577877150264384 0.037057951054564095 0 -0.010226876976942727 0.037319645921793786 0 -0.010424943771514398 0.037916570695838252 0 -0.010226876976942727 0.037319645921793786 0 -0.011060084706242125 0.037220616972315143 0 -0.010226876976942727 0.037319645921793786 0 -0.010277313162039744 0.036672601746910338 0 -0.011060084706242125 0.037220616972315143 0 -0.010424943771514398 0.037916570695838252 0 -0.0096782822425465452 0.037740997110689324 0 -0.010226876976942727 0.037319645921793786 0 -0.0096577877150264384 0.037057951054564095 0 -0.010226876976942727 0.037319645921793786 0 -0.010277313162039744 0.036672601746910338 0 -0.010277313162039744 0.036672601746910338 0 -0.011060084706242125 0.037220616972315143 0 -0.011074012745287217 0.036124582094590046 0 -0.013972665202634982 0.035309841432812648 0 -0.013484723894172585 0.03555338900241977 0 -0.012978912403191854 0.035606254546608103 0 -0.012540234692228933 0.036770016883341444 0 -0.011992973009842858 0.035643539345604387 0 -0.014124079717431499 0.034758188463697159 0 -0.013972665202634982 0.035309841432812648 0 -0.014023060360133165 0.034963098506602973 0 -0.013972665202634982 0.035309841432812648 0 -0.014023060360133165 0.034963098506602973 0 -0.013894578416765889 0.035386454200268105 0 -0.013972665202634982 0.035309841432812648 0 -0.013484723894172585 0.03555338900241977 0 -0.013894578416765889 0.035386454200268105 0 -0.013484723894172585 0.03555338900241977 0 -0.013032599807680408 0.035466298326464675 0 -0.012978912403191854 0.035606254546608103 0 -0.013484723894172585 0.03555338900241977 0 -0.013032599807680408 0.035466298326464675 0 -0.013954860367242928 0.035529906609195916 0 -0.013032599807680408 0.035466298326464675 0 -0.011293059335125777 0.034999740820949921 0 -0.013341799910004833 0.034999483433995747 0 -0.011289324501559889 0.03499982636011751 0 -0.011074012745287217 0.036124582094590046 0 -0.010835180359468006 0.03500002774391027 0 -0.013032599807680408 0.035466298326464675 0 -0.011293059335125777 0.034999740820949921 0 -0.012978912403191854 0.035606254546608103 0 -0.011290670581732403 0.035000013137370674 0 -0.011992973009842858 0.035643539345604387 0 -0.010277313162039744 0.036672601746910338 0 -0.011074012745287217 0.036124582094590046 0 -0.010017079890258811 0.035788749424087038 0 -0.0097742740305429218 0.036551717372119687 0 -0.010277313162039744 0.036672601746910338 0 -0.010017079890258811 0.035788749424087038 0 -0.010834116152102922 0.035000205848437001 0 -0.009869190407424927 0.035999151840151032 0 -0.010834277042330202 0.034999993450668086 0 -0.0093448152047791028 0.034999962794513707 0 -0.0097261971418113134 0.036222824928962345 0 -0.011074012745287217 0.036124582094590046 0 -0.010835180359468006 0.03500002774391027 0 -0.010017079890258811 0.035788749424087038 0 -0.0085140843395298069 0.036217518787670634 0 -0.0093448152047791028 0.034999962794513707 0 -0.0097261971418113134 0.036222824928962345 0 -0.0089498055183721368 0.036906808734085535 0 -0.009869190407424927 0.035999151840151032 0 -0.0092140953986836836 0.036580818694536762 0 -0.0097742740305429218 0.036551717372119687 0 -0.010017079890258811 0.035788749424087038 0 -0.0085455447532982835 0.036774018309310902 0 -0.0085140843395298069 0.036217518787670634 0 -0.0097261971418113134 0.036222824928962345 0 -0.0085455447532982835 0.036774018309310902 0 -0.00865816374100996 0.037223810294873649 0 -0.0097261971418113134 0.036222824928962345 0 -0.014824160745512899 0.035354939241306206 0 -0.014402410027833722 0.035243346949222744 0 -0.014357113327533902 0.035443748665445397 0 -0.014824160745512899 0.035354939241306206 0 -0.014357113327533902 0.035443748665445397 0 -0.015239070799697057 0.035474359182515222 0 -0.014824160745512899 0.035354939241306206 0 -0.014615040755054575 0.035179187875514488 0 -0.015610880412977023 0.035446083574137838 0 -0.014824160745512899 0.035354939241306206 0 -0.014615040755054575 0.035179187875514488 0 -0.014434658930341843 0.035097606337801762 0 -0.014295043708552524 0.034867780990422544 0 -0.014615040755054575 0.035179187875514488 0 -0.014297313921587973 0.03492167354585908 0 -0.014295043708552524 0.034867780990422544 0 -0.014615040755054575 0.035179187875514488 0 -0.014434658930341843 0.035097606337801762 0 -0.014824160745512899 0.035354939241306206 0 -0.014434658930341843 0.035097606337801762 0 -0.014402410027833722 0.035243346949222744 0 -0.014434658930341843 0.035097606337801762 0 -0.014402410027833722 0.035243346949222744 0 -0.014243714560055956 0.035000934830781143 0 -0.01417452591684756 0.034731493181380572 0 -0.014434658930341843 0.035097606337801762 0 -0.014243714560055956 0.035000934830781143 0 -0.014402410027833722 0.035243346949222744 0 -0.014118825256486091 0.035112185594010581 0 -0.014357113327533902 0.035443748665445397 0 -0.01409559422677358 0.034704482119563188 0 -0.014243714560055956 0.035000934830781143 0 -0.014118825256486091 0.035112185594010581 0 -0.014402410027833722 0.035243346949222744 0 -0.014243714560055956 0.035000934830781143 0 -0.014118825256486091 0.035112185594010581 0 -0.014023060360133165 0.034963098506602973 0 -0.014118825256486091 0.035112185594010581 0 -0.013894578416765889 0.035386454200268105 0 -0.013484723894172585 0.03555338900241977 0 -0.013894578416765889 0.035386454200268105 0 -0.013954860367242928 0.035529906609195916 0 -0.014118825256486091 0.035112185594010581 0 -0.013894578416765889 0.035386454200268105 0 -0.014357113327533902 0.035443748665445397 0 -0.013894578416765889 0.035386454200268105 0 -0.014357113327533902 0.035443748665445397 0 -0.013954860367242928 0.035529906609195916 0 -0.014357113327533902 0.035443748665445397 0 -0.013954860367242928 0.035529906609195916 0 -0.015239070799697057 0.035474359182515222 0 -0.013032599807680408 0.035466298326464675 0 -0.013954860367242928 0.035529906609195916 0 -0.013341799910004833 0.034999483433995747 0 -0.013954860367242928 0.035529906609195916 0 -0.013341799910004833 0.034999483433995747 0 -0.015393193036349766 0.034999383505790439 0 -0.013954860367242928 0.035529906609195916 0 -0.015393193036349766 0.034999383505790439 0 -0.015239070799697057 0.035474359182515222 0 -0.015393193036349766 0.034999383505790439 0 -0.015239070799697057 0.035474359182515222 0 -0.017439932908994489 0.034999928700253008 0 -0.014824160745512899 0.035354939241306206 0 -0.015239070799697057 0.035474359182515222 0 -0.015610880412977023 0.035446083574137838 0 -0.015239070799697057 0.035474359182515222 0 -0.017439932908994489 0.034999928700253008 0 -0.015610880412977023 0.035446083574137838 0 -0.017444691123554852 0.034999997134100659 0 -0.017985558279750735 0.035520610401378938 0 -0.019019625937717572 0.034999879308054836 0 -0.017444691123554852 0.034999997134100659 0 -0.017985558279750735 0.035520610401378938 0 -0.017948152785882663 0.036582894905612527 0 -0.017444042939749653 0.035000081301727416 0 -0.016691115752883477 0.03579746006894418 0 -0.017985558279750735 0.035520610401378938 0 -0.019112040540207358 0.036052412236201058 0 -0.018594213889268591 0.036224801089797885 0 -0.017985558279750735 0.035520610401378938 0 -0.019019625937717572 0.034999879308054836 0 -0.019112040540207358 0.036052412236201058 0 -0.019019625937717572 0.034999879308054836 0 -0.019112040540207358 0.036052412236201058 0 -0.019951283524394414 0.035654078980120144 0 -0.019112040540207358 0.036052412236201058 0 -0.020082919066206767 0.03654960525035033 0 -0.019951283524394414 0.035654078980120144 0 -0.019112040540207358 0.036052412236201058 0 -0.01884999510678502 0.036532946935177966 0 -0.018594213889268591 0.036224801089797885 0 -0.019112040540207358 0.036052412236201058 0 -0.01884999510678502 0.036532946935177966 0 -0.019407151977051115 0.03673534523335175 0 -0.01884999510678502 0.036532946935177966 0 -0.019407151977051115 0.03673534523335175 0 -0.019070100008846461 0.037115201713983227 0 -0.019112040540207358 0.036052412236201058 0 -0.019407151977051115 0.03673534523335175 0 -0.020082919066206767 0.03654960525035033 0 -0.018012237643072384 0.035503820205034252 0 -0.018387975781756358 0.037002326016307902 0 -0.017985558279750735 0.035520610401378938 0 -0.017948152785882663 0.036582894905612527 0 -0.018141239732240182 0.036818007985747706 0 -0.017985558279750735 0.035520610401378938 0 -0.018594213889268591 0.036224801089797885 0 -0.018436556727736673 0.036778275885046834 0 -0.01884999510678502 0.036532946935177966 0 -0.018594213889268591 0.036224801089797885 0 -0.018436556727736673 0.036778275885046834 0 -0.01884999510678502 0.036532946935177966 0 -0.018436556727736673 0.036778275885046834 0 -0.019070100008846461 0.037115201713983227 0 -0.018436556727736673 0.036778275885046834 0 -0.019070100008846461 0.037115201713983227 0 -0.018618109923791214 0.038006554066994339 0 -0.014615040755054575 0.035179187875514488 0 -0.015610880412977023 0.035446083574137838 0 -0.01441916989924689 0.035134396635096411 0 -0.016691115752883477 0.03579746006894418 0 -0.016992835402728331 0.036983469443339363 0 -0.018387975781756358 0.037002326016307902 0 -0.016992835402728331 0.036983469443339363 0 -0.017948152785882663 0.036582894905612527 0 -0.018141239732240182 0.036818007985747706 0 -0.018250640293965205 0.037996602022825177 0 -0.019407151977051115 0.03673534523335175 0 -0.020035553682172316 0.03757341135091305 0 -0.020082919066206767 0.03654960525035033 0 -0.019407151977051115 0.03673534523335175 0 -0.019070100008846461 0.037115201713983227 0 -0.020035553682172316 0.03757341135091305 0 -0.019070100008846461 0.037115201713983227 0 -0.018618109923791214 0.038006554066994339 0 -0.020035553682172316 0.03757341135091305 0 -0.02050070804477433 0.038042867249719371 0 -0.01756149661056728 0.037045123116445595 0 -0.020035553682172316 0.03757341135091305 0 -0.019894588950689528 0.038030409520163413 0 -0.020211278307527728 0.037938257961374643 0 -0.018618109923791214 0.038006554066994339 0 -0.020035553682172316 0.03757341135091305 0 -0.018858249814153894 0.039110273876327671 0 -0.016992835402728331 0.036983469443339363 0 -0.015727703572919392 0.035699750146669658 0 -0.014615040755054575 0.035179187875514488 0 -0.01441916989924689 0.035134396635096411 0 -0.014297313921587973 0.03492167354585908 0 -0.01441916989924689 0.035134396635096411 0 -0.014040233907152722 0.034765463736656989 0 -0.014297313921587973 0.03492167354585908 0 -0.016992835402728331 0.036983469443339363 0 -0.01756149661056728 0.037045123116445595 0 -0.020850980090643029 0.037598426038319803 0 -0.021193896726603736 0.037701590730513102 0 -0.02091522388477399 0.038016275246832508 0 -0.020850980090643029 0.037598426038319803 0 -0.020518183598072476 0.037866537184103079 0 -0.02091522388477399 0.038016275246832508 0 -0.020518183598072476 0.037866537184103079 0 -0.020035553682172316 0.03757341135091305 0 -0.020211278307527728 0.037938257961374643 0 -0.020850980090643029 0.037598426038319803 0 -0.020518183598072476 0.037866537184103079 0 -0.020035553682172316 0.03757341135091305 0 -0.020035553682172316 0.03757341135091305 0 -0.020829489312875243 0.037041178247548462 0 -0.020082919066206767 0.03654960525035033 0 -0.020850980090643029 0.037598426038319803 0 -0.020035553682172316 0.03757341135091305 0 -0.020829489312875243 0.037041178247548462 0 -0.020880708111002077 0.037069396429931026 0 -0.021877000521017088 0.037440384522368864 0 -0.020850980090643029 0.037598426038319803 0 -0.020829489312875243 0.037041178247548462 0 -0.021351092422379474 0.037250479684349802 0 -0.020829489312875243 0.037041178247548462 0 -0.021439404873423072 0.035988893411785863 0 -0.02229675882294108 0.037621685911118183 0 -0.020829489312875243 0.037041178247548462 0 -0.021439404873423072 0.035988893411785863 0 -0.020082919066206767 0.03654960525035033 0 -0.021439404873423072 0.035988893411785863 0 -0.020082919066206767 0.03654960525035033 0 -0.019951283524394414 0.035654078980120144 0 -0.021439404873423072 0.035988893411785863 0 -0.020594819392415583 0.035000001140126198 0 -0.019951283524394414 0.035654078980120144 0 -0.019019625937717572 0.034999879308054836 0 -0.020594819392415583 0.035000001140126198 0 -0.019951283524394414 0.035654078980120144 0 -0.021439404873423072 0.035988893411785863 0 -0.020594819392415583 0.035000001140126198 0 -0.02216954891016042 0.034999708665680335 0 -0.021439404873423072 0.035988893411785863 0 -0.02216954891016042 0.034999708665680335 0 -0.022734284461969286 0.035781671533664371 0 -0.022170277858556103 0.035000108056689974 0 -0.023638320736105015 0.035531812637292874 0 -0.02216954891016042 0.034999708665680335 0 -0.022734284461969286 0.035781671533664371 0 -0.023570357666872693 0.035440958578367161 0 -0.022169948921442775 0.034999996852463529 0 -0.024048253421556386 0.03499999790537902 0 -0.02369339984104098 0.035620431423578049 0 -0.022734284461969286 0.035781671533664371 0 -0.023570357666872693 0.035440958578367161 0 -0.02340579233622855 0.036185398113314504 0 -0.022734284461969286 0.035781671533664371 0 -0.02340579233622855 0.036185398113314504 0 -0.02274478195859397 0.036489098136437088 0 -0.02340579233622855 0.036185398113314504 0 -0.023691246565146741 0.036958307301241299 0 -0.02274478195859397 0.036489098136437088 0 -0.021439404873423072 0.035988893411785863 0 -0.022734284461969286 0.035781671533664371 0 -0.02274478195859397 0.036489098136437088 0 -0.021439404873423072 0.035988893411785863 0 -0.02274478195859397 0.036489098136437088 0 -0.02229675882294108 0.037621685911118183 0 -0.025926735046952969 0.034999908123716054 0 -0.026217264282289446 0.035990087011493671 0 -0.025254890263583501 0.036204503146477343 0 -0.024048253421556386 0.03499999790537902 0 -0.02369339984104098 0.035620431423578049 0 -0.025254890263583501 0.036204503146477343 0 -0.023570357666872693 0.035440958578367161 0 -0.02340579233622855 0.036185398113314504 0 -0.025171501505543713 0.03596888641872658 0 -0.024048253421556386 0.03499999790537902 0 -0.025926735046952969 0.034999908123716054 0 -0.025254890263583501 0.036204503146477343 0 -0.023638320736105015 0.035531812637292874 0 -0.025236684736036363 0.036085009455575946 0 -0.02340579233622855 0.036185398113314504 0 -0.023691246565146741 0.036958307301241299 0 -0.025171501505543713 0.03596888641872658 0 -0.023691246565146741 0.036958307301241299 0 -0.025171501505543713 0.03596888641872658 0 -0.025028825688591029 0.037452872913097998 0 -0.025236684736036363 0.036085009455575946 0 -0.02670291145396006 0.036567778907491418 0 -0.025171501505543713 0.03596888641872658 0 -0.026181999174469638 0.03701801442280582 0 -0.026836563726568227 0.036584603491438807 0 -0.026217264282289446 0.035990087011493671 0 -0.025254890263583501 0.036204503146477343 0 -0.026836563726568227 0.036584603491438807 0 -0.025171501505543713 0.03596888641872658 0 -0.026181999174469638 0.03701801442280582 0 -0.025028825688591029 0.037452872913097998 0 -0.026132913089616464 0.037834210517896337 0 -0.025028825688591029 0.037452872913097998 0 -0.025301403397420257 0.038760819960220468 0 -0.026132913089616464 0.037834210517896337 0 -0.026181999174469638 0.03701801442280582 0 -0.025028825688591029 0.037452872913097998 0 -0.023691246565146741 0.036958307301241299 0 -0.025028825688591029 0.037452872913097998 0 -0.023764603768910635 0.038191050445163438 0 -0.022140325621289505 0.037739141773996045 0 -0.022581454076387449 0.037613620403450995 0 -0.021938697037592561 0.037413903932810293 0 -0.025899277476945443 0.037150475284247295 0 -0.022532984258881082 0.037816232132768142 0 -0.025028825688591029 0.037452872913097998 0 -0.025301403397420257 0.038760819960220468 0 -0.023764603768910635 0.038191050445163438 0 -0.028349037252140118 0.036602556126246376 0 -0.028014237284232042 0.035990948635183151 0 -0.027384923370127167 0.03628800447814183 0 -0.027354110713738413 0.036737173270470644 0 -0.027666866287683615 0.036461472243594702 0 -0.027246020237085947 0.036569989769367872 0 -0.025899277476945443 0.037150475284247295 0 -0.027976721433521524 0.036537820837184654 0 -0.027666866287683615 0.036461472243594702 0 -0.027384923370127167 0.03628800447814183 0 -0.027246020237085947 0.036569989769367872 0 -0.026744252547312202 0.037238448573095745 0 -0.025899277476945443 0.037150475284247295 0 -0.023691246565146741 0.036958307301241299 0 -0.02229675882294108 0.037621685911118183 0 -0.023764603768910635 0.038191050445163438 0 -0.021877000521017088 0.037440384522368864 0 -0.022532984258881082 0.037816232132768142 0 -0.023691246565146741 0.036958307301241299 0 -0.02274478195859397 0.036489098136437088 0 -0.02229675882294108 0.037621685911118183 0 -0.022140325621289505 0.037739141773996045 0 -0.021938697037592561 0.037413903932810293 0 -0.021768644423028841 0.037856927070967834 0 -0.021938697037592561 0.037413903932810293 0 -0.021507814095445669 0.037620193226411407 0 -0.021768644423028841 0.037856927070967834 0 -0.021351092422379474 0.037250479684349802 0 -0.021938697037592561 0.037413903932810293 0 -0.021507814095445669 0.037620193226411407 0 -0.021351092422379474 0.037250479684349802 0 -0.021507814095445669 0.037620193226411407 0 -0.021193896726603736 0.037701590730513102 0 -0.021507814095445669 0.037620193226411407 0 -0.021193896726603736 0.037701590730513102 0 -0.021355685481944837 0.038003048023775646 0 -0.020850980090643029 0.037598426038319803 0 -0.021351092422379474 0.037250479684349802 0 -0.021193896726603736 0.037701590730513102 0 -0.021193896726603736 0.037701590730513102 0 -0.021355685481944837 0.038003048023775646 0 -0.02091522388477399 0.038016275246832508 0 -0.021355685481944837 0.038003048023775646 0 -0.021149277600733114 0.038280473242210379 0 -0.021380429654503558 0.038320854376094921 0 -0.021355685481944837 0.038003048023775646 0 -0.021149277600733114 0.038280473242210379 0 -0.02091522388477399 0.038016275246832508 0 -0.021355685481944837 0.038003048023775646 0 -0.021598843580110969 0.038245518259909621 0 -0.021380429654503558 0.038320854376094921 0 -0.021507814095445669 0.037620193226411407 0 -0.021355685481944837 0.038003048023775646 0 -0.021768644423028841 0.037856927070967834 0 -0.021768644423028841 0.037856927070967834 0 -0.021598843580110969 0.038245518259909621 0 -0.022066841773524411 0.038140681866486954 0 -0.022140325621289505 0.037739141773996045 0 -0.021768644423028841 0.037856927070967834 0 -0.022066841773524411 0.038140681866486954 0 -0.021355685481944837 0.038003048023775646 0 -0.021768644423028841 0.037856927070967834 0 -0.021598843580110969 0.038245518259909621 0 -0.029775727322785817 0.034510153560015348 0 -0.029268076967967505 0.035360080535179896 0 -0.029253022155418092 0.034676912000264945 0 -0.021598843580110969 0.038245518259909621 0 -0.021581108468649874 0.038592741549674861 0 -0.022066841773524411 0.038140681866486954 0 -0.025323847534544919 0.036385904403230022 0 -0.025637649933766448 0.036781988153892747 0 -0.021598843580110969 0.038245518259909621 0 -0.021581108468649874 0.038592741549674861 0 -0.021447668016956314 0.038541693483545018 0 -0.025323847534544919 0.036385904403230022 0 -0.023553833587118676 0.036453972671915524 0 -0.021563341856444884 0.038572574988607902 0 -0.021447668016956314 0.038541693483545018 0 -0.021300305627816939 0.038585796993038532 0 -0.021447668016956314 0.038541693483545018 0 -0.021273070903667337 0.038448096006934447 0 -0.021380429654503558 0.038320854376094921 0 -0.021447668016956314 0.038541693483545018 0 -0.021273070903667337 0.038448096006934447 0 -0.021300305627816939 0.038585796993038532 0 -0.021273070903667337 0.038448096006934447 0 -0.021149277600733114 0.038280473242210379 0 -0.021087901896235346 0.038507096516391774 0 -0.021273070903667337 0.038448096006934447 0 -0.021300305627816939 0.038585796993038532 0 -0.021087901896235346 0.038507096516391774 0 -0.021273070903667337 0.038448096006934447 0 -0.021149277600733114 0.038280473242210379 0 -0.021380429654503558 0.038320854376094921 0 -0.021598843580110969 0.038245518259909621 0 -0.021447668016956314 0.038541693483545018 0 -0.021380429654503558 0.038320854376094921 0 -0.028349037252140118 0.036602556126246376 0 -0.028014237284232042 0.035990948635183151 0 -0.02849290597962811 0.03556143401192665 0 -0.027771020795168081 0.035439527698591926 0 -0.028014237284232042 0.035990948635183151 0 -0.027384923370127167 0.03628800447814183 0 -0.027771020795168081 0.035439527698591926 0 -0.028014237284232042 0.035990948635183151 0 -0.02849290597962811 0.03556143401192665 0 -0.025899277476945443 0.037150475284247295 0 -0.025637649933766448 0.036781988153892747 0 -0.022140325621289505 0.037739141773996045 0 -0.022581454076387449 0.037613620403450995 0 -0.022066841773524411 0.038140681866486954 0 -0.028349037252140118 0.036602556126246376 0 -0.02849290597962811 0.03556143401192665 0 -0.029268076967967505 0.035360080535179896 0 -0.02849290597962811 0.03556143401192665 0 -0.029268076967967505 0.035360080535179896 0 -0.028836027206705427 0.034555558997059817 0 -0.029268076967967505 0.035360080535179896 0 -0.029253022155418092 0.034676912000264945 0 -0.028836027206705427 0.034555558997059817 0 -0.029253022155418092 0.034676912000264945 0 -0.028836027206705427 0.034555558997059817 0 -0.029165540937181846 0.034356121518450418 0 -0.027771020795168081 0.035439527698591926 0 -0.02849290597962811 0.03556143401192665 0 -0.028836027206705427 0.034555558997059817 0 -0.028950469782691737 0.034366016929379559 0 -0.028836027206705427 0.034555558997059817 0 -0.028924368454396748 0.034435944376359759 0 -0.028370866437246556 0.034936435667604397 0 -0.028784071129031526 0.034570452978453688 0 -0.028953355179524808 0.034425177450305273 0 -0.028905222149153961 0.034416703586279712 0 -0.029031210494835136 0.034472274945874244 0 -0.028836027206705427 0.034555558997059817 0 -0.028924368454396748 0.034435944376359759 0 -0.028887958680836205 0.034385423045137697 0 -0.028924368454396748 0.034435944376359759 0 -0.028953355179524808 0.034425177450305273 0 -0.028887958680836205 0.034385423045137697 0 -0.028483388737299446 0.033641048249349902 0 -0.030841523459564233 0.031607527505729968 0 -0.030900643345673814 0.032386467213636284 0 -0.029594485747852093 0.031903895256830316 0 -0.028868991952963385 0.032733784768808172 0 -0.030841523459564233 0.031607527505729968 0 -0.032014242433920821 0.028441154026769295 0 -0.030841523459564233 0.031607527505729968 0 -0.029707171648134526 0.033263982440957143 0 -0.028836027206705427 0.034555558997059817 0 -0.028887958680836205 0.034385423045137697 0 -0.029165540937181846 0.034356121518450418 0 -0.033997162067078826 0.025341929782888739 0 -0.032879984845555925 0.025506822149754516 0 -0.033452293739427943 0.026168856371320329 0 -0.030841523459564233 0.031607527505729968 0 -0.032003061356947568 0.030005018464204641 0 -0.033997162067078826 0.025341929782888739 0 -0.034996156851783422 0.025753733585747011 0 -0.034561144402350787 0.026446726832012872 0 -0.033997162067078826 0.025341929782888739 0 -0.034561144402350787 0.026446726832012872 0 -0.033452293739427943 0.026168856371320329 0 -0.021563341856444884 0.038572574988607902 0 -0.021300305627816939 0.038585796993038532 0 -0.02110996169819369 0.038744897911921823 0 -0.028284249594483786 0.031430755734937539 0 -0.028868991952963385 0.032733784768808172 0 -0.026835546304975429 0.033070809214485138 0 -0.025323847534544919 0.036385904403230022 0 -0.025838546997925045 0.031951995736282789 0 -0.021563341856444884 0.038572574988607902 0 -0.021094667070936931 0.039018698258520806 0 -0.02110996169819369 0.038744897911921823 0 -0.021300305627816939 0.038585796993038532 0 -0.02110996169819369 0.038744897911921823 0 -0.021087901896235346 0.038507096516391774 0 -0.028284249594483786 0.031430755734937539 0 -0.029594485747852093 0.031903895256830316 0 -0.028868991952963385 0.032733784768808172 0 -0.025323847534544919 0.036385904403230022 0 -0.029707171648134526 0.033263982440957143 0 -0.029775727322785817 0.034510153560015348 0 -0.029253022155418092 0.034676912000264945 0 -0.029165540937181846 0.034356121518450418 0 -0.032879984845555925 0.025506822149754516 0 -0.03251424458490202 0.026312853689479606 0 -0.033452293739427943 0.026168856371320329 0 -0.032879984845555925 0.025506822149754516 0 -0.031815875630566828 0.025706460939649154 0 -0.03251424458490202 0.026312853689479606 0 -0.032014242433920821 0.028441154026769295 0 -0.025838546997925045 0.031951995736282789 0 -0.023936874195287641 0.029494725537829152 0 -0.022710190493898268 0.029678745339561226 0 -0.023055608055469402 0.030442570302458193 0 -0.025838546997925045 0.031951995736282789 0 -0.021372323000467604 0.034454974845896692 0 -0.025838546997925045 0.031951995736282789 0 -0.027757258877723425 0.027782398330373107 0 -0.021094667070936931 0.039018698258520806 0 -0.020608477485483043 0.038789922591517992 0 -0.020627532449496219 0.039081979517376256 0 -0.02110996169819369 0.038744897911921823 0 -0.020823910919337541 0.038579252201071244 0 -0.020608477485483043 0.038789922591517992 0 -0.021094667070936931 0.039018698258520806 0 -0.02110996169819369 0.038744897911921823 0 -0.020608477485483043 0.038789922591517992 0 -0.02110996169819369 0.038744897911921823 0 -0.020823910919337541 0.038579252201071244 0 -0.021087901896235346 0.038507096516391774 0 -0.020608477485483043 0.038789922591517992 0 -0.020041915103414024 0.03856667554746606 0 -0.020490972518055869 0.038445226801096723 0 -0.020823910919337541 0.038579252201071244 0 -0.020608477485483043 0.038789922591517992 0 -0.020490972518055869 0.038445226801096723 0 -0.021372323000467604 0.034454974845896692 0 -0.018869633807785897 0.034177492400741298 0 -0.020608477485483043 0.038789922591517992 0 -0.020627532449496219 0.039081979517376256 0 -0.020197035304045066 0.039127061099332637 0 -0.022710190493898268 0.029678745339561226 0 -0.022035007807478253 0.029993129003070329 0 -0.021452824122644737 0.029897143833818765 0 -0.022503138232183882 0.030167036665954744 0 -0.022710190493898268 0.029678745339561226 0 -0.023055608055469402 0.030442570302458193 0 -0.022503138232183882 0.030167036665954744 0 -0.022710190493898268 0.029678745339561226 0 -0.022035007807478253 0.029993129003070329 0 -0.022035007807478253 0.029993129003070329 0 -0.021452824122644737 0.029897143833818765 0 -0.021483219801200795 0.03004593518592083 0 -0.015113474807713559 0.03083268989403903 0 -0.015399264337635079 0.030813952426758148 0 -0.015074022346261056 0.030642468181772284 0 -0.022035007807478253 0.029993129003070329 0 -0.021541075420916014 0.030032170839979076 0 -0.021613431921446314 0.030327095733705539 0 -0.013054027937918579 0.033348061810260905 0 -0.01317019714051325 0.033476468633412179 0 -0.013114236840982042 0.033616196640596244 0 -0.018869633807785897 0.034177492400741298 0 -0.015016911157825316 0.03444401545666554 0 -0.021582204734545737 0.031005125625213778 0 -0.018114624104264603 0.031960815895424023 0 -0.018114624104264603 0.031960815895424023 0 -0.01795572950154076 0.030618314348820612 0 -0.013054027937918579 0.033348061810260905 0 -0.01305130118105304 0.033318643069216024 0 -0.013138224818845121 0.033311959195622812 0 -0.018869633807785897 0.034177492400741298 0 -0.018114624104264603 0.031960815895424023 0 -0.013054027937918579 0.033348061810260905 0 -0.013154438989988568 0.033335431512780594 0 -0.013190795821898936 0.033401632160531811 0 -0.013054027937918579 0.033348061810260905 0 -0.013138224818845121 0.033311959195622812 0 -0.013154438989988568 0.033335431512780594 0 -0.018114624104264603 0.031960815895424023 0 -0.010979891681153374 0.031108750778432535 0 -0.010979891681153374 0.031108750778432535 0 -0.011300837467875491 0.031472779405130324 0 -0.013054027937918579 0.033348061810260905 0 -0.01317019714051325 0.033476468633412179 0 -0.013190795821898936 0.033401632160531811 0 -0.013520490119311775 0.033275068608428625 0 -0.013133007767190046 0.0333122777702144 0 -0.013269246298588515 0.033374653964305938 0 -0.00987022864628289 0.03187709926107847 0 -0.010979891681153374 0.031108750778432535 0 -0.013520490119311775 0.033275068608428625 0 -0.013269246298588515 0.033374653964305938 0 -0.013381351698091567 0.033469713968281578 0 -0.013154438989988568 0.033335431512780594 0 -0.013269246298588515 0.033374653964305938 0 -0.013190795821898936 0.033401632160531811 0 -0.013133007767190046 0.0333122777702144 0 -0.013154438989988568 0.033335431512780594 0 -0.013269246298588515 0.033374653964305938 0 -0.013269246298588515 0.033374653964305938 0 -0.013236211194807904 0.033455601682670803 0 -0.013190795821898936 0.033401632160531811 0 -0.01317019714051325 0.033476468633412179 0 -0.013236211194807904 0.033455601682670803 0 -0.013190795821898936 0.033401632160531811 0 -0.01317019714051325 0.033476468633412179 0 -0.013224687246119296 0.033506433516666913 0 -0.013207310376435353 0.033561041709260143 0 -0.01317019714051325 0.033476468633412179 0 -0.013236211194807904 0.033455601682670803 0 -0.013224687246119296 0.033506433516666913 0 -0.013236211194807904 0.033455601682670803 0 -0.013224687246119296 0.033506433516666913 0 -0.01328405960768345 0.033532566997889042 0 -0.013236211194807904 0.033455601682670803 0 -0.013381351698091567 0.033469713968281578 0 -0.01328405960768345 0.033532566997889042 0 -0.013269246298588515 0.033374653964305938 0 -0.013236211194807904 0.033455601682670803 0 -0.013381351698091567 0.033469713968281578 0 -0.013248973513820947 0.033725736633851915 0 -0.013188730866201665 0.03363163838315604 0 -0.013213229331576558 0.033892434876134789 0 -0.013207551305255298 0.033461679436669868 0 -0.014288285456856445 0.034506346866223635 0 -0.013381351698091567 0.033469713968281578 0 -0.01339555074411968 0.033614316223704643 0 -0.01328405960768345 0.033532566997889042 0 -0.01339555074411968 0.033614316223704643 0 -0.013272300412273287 0.033626865704257033 0 -0.01328405960768345 0.033532566997889042 0 -0.013272300412273287 0.033626865704257033 0 -0.01328405960768345 0.033532566997889042 0 -0.013207310376435353 0.033561041709260143 0 -0.013224687246119296 0.033506433516666913 0 -0.01328405960768345 0.033532566997889042 0 -0.013207310376435353 0.033561041709260143 0 -0.013272300412273287 0.033626865704257033 0 -0.013207310376435353 0.033561041709260143 0 -0.013188730866201665 0.03363163838315604 0 -0.013272300412273287 0.033626865704257033 0 -0.013248973513820947 0.033725736633851915 0 -0.013188730866201665 0.03363163838315604 0 -0.013248973513820947 0.033725736633851915 0 -0.013321520295218863 0.033714309244300612 0 -0.013296727736229755 0.033834278774018248 0 -0.013272300412273287 0.033626865704257033 0 -0.013248973513820947 0.033725736633851915 0 -0.013321520295218863 0.033714309244300612 0 -0.01339555074411968 0.033614316223704643 0 -0.013272300412273287 0.033626865704257033 0 -0.013321520295218863 0.033714309244300612 0 -0.013442699536849935 0.033844608135868488 0 -0.01339555074411968 0.033614316223704643 0 -0.013321520295218863 0.033714309244300612 0 -0.017058088185508365 0.035669596909061095 0 -0.017093706008919133 0.035417873001835097 0 -0.017195864091532644 0.03590196587054055 0 -0.016989963985183505 0.034929020634886287 0 -0.017058088185508365 0.035669596909061095 0 -0.017093706008919133 0.035417873001835097 0 -0.013188730866201665 0.03363163838315604 0 -0.013114236840982042 0.033616196640596244 0 -0.013247517939511171 0.034021508466863644 0 -0.018869633807785897 0.034177492400741298 0 -0.018696873690052233 0.037758733444858007 0 -0.015016911157825316 0.03444401545666554 0 -0.014288285456856445 0.034506346866223635 0 -0.020608477485483043 0.038789922591517992 0 -0.020197035304045066 0.039127061099332637 0 -0.020041915103414024 0.03856667554746606 0 -0.01317019714051325 0.033476468633412179 0 -0.013207310376435353 0.033561041709260143 0 -0.013114236840982042 0.033616196640596244 0 -0.013207310376435353 0.033561041709260143 0 -0.013188730866201665 0.03363163838315604 0 -0.013114236840982042 0.033616196640596244 0 -0.017058088185508365 0.035669596909061095 0 -0.017195864091532644 0.03590196587054055 0 -0.017165820525070676 0.036389115985063787 0 -0.018696873690052233 0.037758733444858007 0 -0.01756149661056728 0.037045123116445595 0 -0.020041915103414024 0.03856667554746606 0 -0.020229111239663915 0.038222614589712808 0 -0.020490972518055869 0.038445226801096723 0 -0.020041915103414024 0.03856667554746606 0 -0.020229111239663915 0.038222614589712808 0 -0.019894588950689528 0.038030409520163413 0 -0.013442699536849935 0.033844608135868488 0 -0.013257897891992113 0.034005951604915083 0 -0.013260982293331685 0.034153334601567817 0 -0.013505618113782761 0.034008207212005891 0 -0.015727703572919392 0.035699750146669658 0 -0.013442699536849935 0.033844608135868488 0 -0.013321520295218863 0.033714309244300612 0 -0.013296727736229755 0.033834278774018248 0 -0.013442699536849935 0.033844608135868488 0 -0.013296727736229755 0.033834278774018248 0 -0.013257897891992113 0.034005951604915083 0 -0.013248973513820947 0.033725736633851915 0 -0.013296727736229755 0.033834278774018248 0 -0.013213229331576558 0.033892434876134789 0 -0.013220407881441699 0.033899571526741536 0 -0.013257897891992113 0.034005951604915083 0 -0.013260982293331685 0.034153334601567817 0 -0.013296727736229755 0.033834278774018248 0 -0.013213229331576558 0.033892434876134789 0 -0.013257897891992113 0.034005951604915083 0 -0.014288285456856445 0.034506346866223635 0 -0.015727703572919392 0.035699750146669658 0 -0.014288285456856445 0.034506346866223635 0 -0.013807216178204684 0.033946625767571015 0 -0.014127657848197341 0.03468794235801307 0 -0.013896865515359414 0.034350505287630215 0 -0.014040233907152722 0.034765463736656989 0 -0.016667633641948666 0.037055356193226155 0 -0.016581671453792125 0.036294399892215237 0 -0.016514641286414881 0.036385196007303 0 -0.017195864091532644 0.03590196587054055 0 -0.017215996886088297 0.036324509232629421 0 -0.017165820525070676 0.036389115985063787 0 -0.015727703572919392 0.035699750146669658 0 -0.01756149661056728 0.037045123116445595 0 -0.014127657848197341 0.03468794235801307 0 -0.014040233907152722 0.034765463736656989 0 -0.014297313921587973 0.03492167354585908 0 -0.020229111239663915 0.038222614589712808 0 -0.019894588950689528 0.038030409520163413 0 -0.020211278307527728 0.037938257961374643 0 -0.020229111239663915 0.038222614589712808 0 -0.020211278307527728 0.037938257961374643 0 -0.02055629187147779 0.038159415456544124 0 -0.020518183598072476 0.037866537184103079 0 -0.020211278307527728 0.037938257961374643 0 -0.02055629187147779 0.038159415456544124 0 -0.020518183598072476 0.037866537184103079 0 -0.02055629187147779 0.038159415456544124 0 -0.02091522388477399 0.038016275246832508 0 -0.021149277600733114 0.038280473242210379 0 -0.02091522388477399 0.038016275246832508 0 -0.020834061993790686 0.038335237345407898 0 -0.02055629187147779 0.038159415456544124 0 -0.02091522388477399 0.038016275246832508 0 -0.020834061993790686 0.038335237345407898 0 -0.021149277600733114 0.038280473242210379 0 -0.020834061993790686 0.038335237345407898 0 -0.021087901896235346 0.038507096516391774 0 -0.020823910919337541 0.038579252201071244 0 -0.020834061993790686 0.038335237345407898 0 -0.021087901896235346 0.038507096516391774 0 -0.020823910919337541 0.038579252201071244 0 -0.020834061993790686 0.038335237345407898 0 -0.020490972518055869 0.038445226801096723 0 -0.020229111239663915 0.038222614589712808 0 -0.02055629187147779 0.038159415456544124 0 -0.020490972518055869 0.038445226801096723 0 -0.02055629187147779 0.038159415456544124 0 -0.020834061993790686 0.038335237345407898 0 -0.020490972518055869 0.038445226801096723 0 -0.03499465545614093 0.034998138278141147 0 -0.034137323175766864 0.033701026995375062 0 -0.035091082114549137 0.030805653501430767 0 -0.03499465545614093 0.034998138278141147 0 -0.034999407643717423 0.029229273908601534 0 -0.035091082114549137 0.030805653501430767 0 -0.034137323175766864 0.033701026995375062 0 -0.034791649016857343 0.032088053208866867 0 -0.035091082114549137 0.030805653501430767 0 -0.034567159066953825 0.031371349508346344 0 -0.034865204547681883 0.030227661210908943 0 -0.03499465545614093 0.034998138278141147 0 -0.034137323175766864 0.033701026995375062 0 -0.031262273980859193 0.034997357367873308 0 -0.034137323175766864 0.033701026995375062 0 -0.033313868227888767 0.033729139085892396 0 -0.034180711431199544 0.032485971386651297 0 -0.034137323175766864 0.033701026995375062 0 -0.031262273980859193 0.034997357367873308 0 -0.033313868227888767 0.033729139085892396 0 -0.031250240691358108 0.034999697282167869 0 -0.032501011979802659 0.03488052470861628 0 -0.031262273980859193 0.034997357367873308 0 -0.033313868227888767 0.033729139085892396 0 -0.035058713638340011 0.033618740008397964 0 -0.033313868227888767 0.033729139085892396 0 -0.034180711431199544 0.032485971386651297 0 -0.035058713638340011 0.033618740008397964 0 -0.034180711431199544 0.032485971386651297 0 -0.034856368113167002 0.030673470542569074 0 -0.035403469737952685 0.031774471538609052 0 -0.034362816393353264 0.032310139620690188 0 -0.034567159066953825 0.031371349508346344 0 -0.034137323175766864 0.033701026995375062 0 -0.034180711431199544 0.032485971386651297 0 -0.034791649016857343 0.032088053208866867 0 -0.034334959923549201 0.030577861444048362 0 -0.034856368113167002 0.030673470542569074 0 -0.034806825048999096 0.02981761761468122 0 -0.034180711431199544 0.032485971386651297 0 -0.034334959923549201 0.030577861444048362 0 -0.034856368113167002 0.030673470542569074 0 -0.034856368113167002 0.030673470542569074 0 -0.036289535181160772 0.030491598798025672 0 -0.035403469737952685 0.031774471538609052 0 -0.034856368113167002 0.030673470542569074 0 -0.036289535181160772 0.030491598798025672 0 -0.035172377814947184 0.029762157529635257 0 -0.036289535181160772 0.030491598798025672 0 -0.036745372621648051 0.031666394449252983 0 -0.035403469737952685 0.031774471538609052 0 -0.033240625032604491 0.034414524809097922 0 -0.031089504472331893 0.033399852286107312 0 -0.036289535181160772 0.030491598798025672 0 -0.036745372621648051 0.031666394449252983 0 -0.037662995024063096 0.029847655033964294 0 -0.029099857867502507 0.037294283340198499 0 -0.028927875393131595 0.037043844100370232 0 -0.03008629981849192 0.036358019525241342 0 -0.029099857867502507 0.037294283340198499 0 -0.028927875393131595 0.037043844100370232 0 -0.028865703535430318 0.037282215321797443 0 -0.034180711431199544 0.032485971386651297 0 -0.035403469737952685 0.031774471538609052 0 -0.035058713638340011 0.033618740008397964 0 -0.036745372621648051 0.031666394449252983 0 -0.035403469737952685 0.031774471538609052 0 -0.035058713638340011 0.033618740008397964 0 -0.033240625032604491 0.034414524809097922 0 -0.032501011979802659 0.03488052470861628 0 -0.031249325272534514 0.034999976336977941 0 -0.03008629981849192 0.036358019525241342 0 -0.029527076230193551 0.034999932775101918 0 -0.029527076230193551 0.034999932775101918 0 -0.028902388894392724 0.035997492435691864 0 -0.027805292225383187 0.034999966547546106 0 -0.03008629981849192 0.036358019525241342 0 -0.029527076230193551 0.034999932775101918 0 -0.028902388894392724 0.035997492435691864 0 -0.028927875393131595 0.037043844100370232 0 -0.03008629981849192 0.036358019525241342 0 -0.028902388894392724 0.035997492435691864 0 -0.028927875393131595 0.037043844100370232 0 -0.028902388894392724 0.035997492435691864 0 -0.028117609561437936 0.036398763964339852 0 -0.02751315364909836 0.036493917969869755 0 -0.026970305459808198 0.036275733974376098 0 -0.027152707189897311 0.036728680575451117 0 -0.02751315364909836 0.036493917969869755 0 -0.02780449279694093 0.035000127248273567 0 -0.027085551907871982 0.035812068814065769 0 -0.028902388894392724 0.035997492435691864 0 -0.028117609561437936 0.036398763964339852 0 -0.027805292225383187 0.034999966547546106 0 -0.027747098878575946 0.036466521647366967 0 -0.027804874047668789 0.03500013396283394 0 -0.025926735046952969 0.034999908123716054 0 -0.02780449279694093 0.035000127248273567 0 -0.027085551907871982 0.035812068814065769 0 -0.025926735046952969 0.034999908123716054 0 -0.026217264282289446 0.035990087011493671 0 -0.027085551907871982 0.035812068814065769 0 -0.026217264282289446 0.035990087011493671 0 -0.026970305459808198 0.036275733974376098 0 -0.026836563726568227 0.036584603491438807 0 -0.026217264282289446 0.035990087011493671 0 -0.027085551907871982 0.035812068814065769 0 -0.026970305459808198 0.036275733974376098 0 -0.02751315364909836 0.036493917969869755 0 -0.027085551907871982 0.035812068814065769 0 -0.026970305459808198 0.036275733974376098 0 -0.026970305459808198 0.036275733974376098 0 -0.026836563726568227 0.036584603491438807 0 -0.027152707189897311 0.036728680575451117 0 -0.026989229704689244 0.036777029894765854 0 -0.026836563726568227 0.036584603491438807 0 -0.027152707189897311 0.036728680575451117 0 -0.026181999174469638 0.03701801442280582 0 -0.026989229704689244 0.036777029894765854 0 -0.026836563726568227 0.036584603491438807 0 -0.026132913089616464 0.037834210517896337 0 -0.026181999174469638 0.03701801442280582 0 -0.026989229704689244 0.036777029894765854 0 -0.026744252547312202 0.037238448573095745 0 -0.026990987184035926 0.036852398899079493 0 -0.027354110713738413 0.036737173270470644 0 -0.027134536802184375 0.036733729821146671 0 -0.027246020237085947 0.036569989769367872 0 -0.027354110713738413 0.036737173270470644 0 -0.026989229704689244 0.036777029894765854 0 -0.027134536802184375 0.036733729821146671 0 -0.026989229704689244 0.036777029894765854 0 -0.027134536802184375 0.036733729821146671 0 -0.027152707189897311 0.036728680575451117 0 -0.028927875393131595 0.037043844100370232 0 -0.028117609561437936 0.036398763964339852 0 -0.028251180516239528 0.037700218016639378 0 -0.027747098878575946 0.036466521647366967 0 -0.028314264543984904 0.036817243377081844 0 -0.02751315364909836 0.036493917969869755 0 -0.027152707189897311 0.036728680575451117 0 -0.027117173532421872 0.036778220165506276 0 -0.028813469371298566 0.037143963124490059 0 -0.028314264543984904 0.036817243377081844 0 -0.027134536802184375 0.036733729821146671 0 -0.027152707189897311 0.036728680575451117 0 -0.027117173532421872 0.036778220165506276 0 -0.029099857867502507 0.037294283340198499 0 -0.028865703535430318 0.037282215321797443 0 -0.028895332714434452 0.037398566778258376 0 -0.028314264543984904 0.036817243377081844 0 -0.031089504472331893 0.033399852286107312 0 -0.028909866274573572 0.034507437644771315 0 -0.028973280190097806 0.034411352200580239 0 -0.028915943114417798 0.03439642738903656 0 -0.028314264543984904 0.036817243377081844 0 -0.028098550054071358 0.035262181714536801 0 -0.027134536802184375 0.036733729821146671 0 -0.027073280608381049 0.036394473766043989 0 -0.027246020237085947 0.036569989769367872 0 -0.027134536802184375 0.036733729821146671 0 -0.027117173532421872 0.036778220165506276 0 -0.027073280608381049 0.036394473766043989 0 -0.027073280608381049 0.036394473766043989 0 -0.027384923370127167 0.03628800447814183 0 -0.027246020237085947 0.036569989769367872 0 -0.028969887205049869 0.034378838156765498 0 -0.028915943114417798 0.03439642738903656 0 -0.028999723338963095 0.034348576170472066 0 -0.028950469782691737 0.034366016929379559 0 -0.028973280190097806 0.034411352200580239 0 -0.028969887205049869 0.034378838156765498 0 -0.027771020795168081 0.035439527698591926 0 -0.027073280608381049 0.036394473766043989 0 -0.027384923370127167 0.03628800447814183 0 -0.028370866437246556 0.034936435667604397 0 -0.028098550054071358 0.035262181714536801 0 -0.028973280190097806 0.034411352200580239 0 -0.028969887205049869 0.034378838156765498 0 -0.028915943114417798 0.03439642738903656 0 -0.031089504472331893 0.033399852286107312 0 -0.028278188825542991 0.034807912135065545 0 -0.031089504472331893 0.033399852286107312 0 -0.033505683437573361 0.031100977833795708 0 -0.029223308345880536 0.034024370321606476 0 -0.029193922853606797 0.034352958935858095 0 -0.028999723338963095 0.034348576170472066 0 -0.028950469782691737 0.034366016929379559 0 -0.028969887205049869 0.034378838156765498 0 -0.028999723338963095 0.034348576170472066 0 -0.028950469782691737 0.034366016929379559 0 -0.028924368454396748 0.034435944376359759 0 -0.028999723338963095 0.034348576170472066 0 -0.028924368454396748 0.034435944376359759 0 -0.028953355179524808 0.034425177450305273 0 -0.029030442472137249 0.034414571632402191 0 -0.029193922853606797 0.034352958935858095 0 -0.028999723338963095 0.034348576170472066 0 -0.029030442472137249 0.034414571632402191 0 -0.028924368454396748 0.034435944376359759 0 -0.028999723338963095 0.034348576170472066 0 -0.029030442472137249 0.034414571632402191 0 -0.028953355179524808 0.034425177450305273 0 -0.029030442472137249 0.034414571632402191 0 -0.029031210494835136 0.034472274945874244 0 -0.029030442472137249 0.034414571632402191 0 -0.029031210494835136 0.034472274945874244 0 -0.029210324708430227 0.034491473469197793 0 -0.032003061356947568 0.030005018464204641 0 -0.03295000204660363 0.030028798322848226 0 -0.034996156851783422 0.025753733585747011 0 -0.036042301749757394 0.026394836685434787 0 -0.035656549993050651 0.026684340664389933 0 -0.03295000204660363 0.030028798322848226 0 -0.034238078674873537 0.029662459315724355 0 -0.03608359081040656 0.026489068030199635 0 -0.03608157456856366 0.026586362205395203 0 -0.036368151641943396 0.026771588894009768 0 -0.03295000204660363 0.030028798322848226 0 -0.033172751824087403 0.029081544274396236 0 -0.029193922853606797 0.034352958935858095 0 -0.029030442472137249 0.034414571632402191 0 -0.029210324708430227 0.034491473469197793 0 -0.033505683437573361 0.031100977833795708 0 -0.03295000204660363 0.030028798322848226 0 -0.037200349127697853 0.02811645747774745 0 -0.036279109989301145 0.027228560081484242 0 -0.036117744563535767 0.02804663433614183 0 -0.037200349127697853 0.02811645747774745 0 -0.036628293042123304 0.026895953288896064 0 -0.036279109989301145 0.027228560081484242 0 -0.036279109989301145 0.027228560081484242 0 -0.036125460592680819 0.026970616741009455 0 -0.036221562817534088 0.026911851378508517 0 -0.036279109989301145 0.027228560081484242 0 -0.036368151641943396 0.026771588894009768 0 -0.036221562817534088 0.026911851378508517 0 -0.036628293042123304 0.026895953288896064 0 -0.036279109989301145 0.027228560081484242 0 -0.036368151641943396 0.026771588894009768 0 -0.036279109989301145 0.027228560081484242 0 -0.035894542203300225 0.027431352798349233 0 -0.036125460592680819 0.026970616741009455 0 -0.036279109989301145 0.027228560081484242 0 -0.036117744563535767 0.02804663433614183 0 -0.035894542203300225 0.027431352798349233 0 -0.036117744563535767 0.02804663433614183 0 -0.03650820374229511 0.029014957512311076 0 -0.035494483491703914 0.028927192298619384 0 -0.037662995024063096 0.029847655033964294 0 -0.037200349127697853 0.02811645747774745 0 -0.03650820374229511 0.029014957512311076 0 -0.037200349127697853 0.02811645747774745 0 -0.036117744563535767 0.02804663433614183 0 -0.03650820374229511 0.029014957512311076 0 -0.036289535181160772 0.030491598798025672 0 -0.037662995024063096 0.029847655033964294 0 -0.03650820374229511 0.029014957512311076 0 -0.036284652971119699 0.030424937011366768 0 -0.035397991700756838 0.029377062176541908 0 -0.036289535181160772 0.030491598798025672 0 -0.03650820374229511 0.029014957512311076 0 -0.035494483491703914 0.028927192298619384 0 -0.034856368113167002 0.030673470542569074 0 -0.035172377814947184 0.029762157529635257 0 -0.034806825048999096 0.02981761761468122 0 -0.035172377814947184 0.029762157529635257 0 -0.034806825048999096 0.02981761761468122 0 -0.03519696505357605 0.029080337409567929 0 -0.035397991700756838 0.029377062176541908 0 -0.035256262625844061 0.028502510403821426 0 -0.035494483491703914 0.028927192298619384 0 -0.03534332214905251 0.028012287851506352 0 -0.035638904540235508 0.027934061106715535 0 -0.036117744563535767 0.02804663433614183 0 -0.035494483491703914 0.028927192298619384 0 -0.035638904540235508 0.027934061106715535 0 -0.036117744563535767 0.02804663433614183 0 -0.035638904540235508 0.027934061106715535 0 -0.035894542203300225 0.027431352798349233 0 -0.035638904540235508 0.027934061106715535 0 -0.035894542203300225 0.027431352798349233 0 -0.03556381712019456 0.027497889105261072 0 -0.035894542203300225 0.027431352798349233 0 -0.035799315425252373 0.027118443380397334 0 -0.036125460592680819 0.026970616741009455 0 -0.035894542203300225 0.027431352798349233 0 -0.03556381712019456 0.027497889105261072 0 -0.035799315425252373 0.027118443380397334 0 -0.03556381712019456 0.027497889105261072 0 -0.035481381713310549 0.026849441112566898 0 -0.035799315425252373 0.027118443380397334 0 -0.03534332214905251 0.028012287851506352 0 -0.035638904540235508 0.027934061106715535 0 -0.03556381712019456 0.027497889105261072 0 -0.035256262625844061 0.028502510403821426 0 -0.0352261861352577 0.027753251080766643 0 -0.03534332214905251 0.028012287851506352 0 -0.03556381712019456 0.027497889105261072 0 -0.035322664069138782 0.027663759365505476 0 -0.03556381712019456 0.027497889105261072 0 -0.035322664069138782 0.027663759365505476 0 -0.035481381713310549 0.026849441112566898 0 -0.03499955275226637 0.026325164113841153 0 -0.035322664069138782 0.027663759365505476 0 -0.035481381713310549 0.026849441112566898 0 -0.03499955275226637 0.026325164113841153 0 -0.034999654516113129 0.027773575978606673 0 -0.035322664069138782 0.027663759365505476 0 -0.034999654516113129 0.027773575978606673 0 -0.035322664069138782 0.027663759365505476 0 -0.034998845829200959 0.0292235519574231 0 -0.03519696505357605 0.029080337409567929 0 -0.034998845829200959 0.0292235519574231 0 -0.034734205845558315 0.029668458179480113 0 -0.03519696505357605 0.029080337409567929 0 -0.035322664069138782 0.027663759365505476 0 -0.034998845829200959 0.0292235519574231 0 -0.034806825048999096 0.02981761761468122 0 -0.03519696505357605 0.029080337409567929 0 -0.034734205845558315 0.029668458179480113 0 -0.034334959923549201 0.030577861444048362 0 -0.034806825048999096 0.02981761761468122 0 -0.034734205845558315 0.029668458179480113 0 -0.034999792650966373 0.029224765477345257 0 -0.034865204547681883 0.030227661210908943 0 -0.034999916200245486 0.022550658795187209 0 -0.036608555269380907 0.02340554404931584 0 -0.036175478403231306 0.021620031549008996 0 -0.036608555269380907 0.02340554404931584 0 -0.037365793727769943 0.022100080287400316 0 -0.036175478403231306 0.021620031549008996 0 -0.034999916200245486 0.022550658795187209 0 -0.036608555269380907 0.02340554404931584 0 -0.034999903185935315 0.024436518670490254 0 -0.034999953585665246 0.026322510527487131 0 -0.034999903185935315 0.024436518670490254 0 -0.036613820296855532 0.025332508954636897 0 -0.03500004096452488 0.026322846517074769 0 -0.035997316804752752 0.026086113715535951 0 -0.036608555269380907 0.02340554404931584 0 -0.034999903185935315 0.024436518670490254 0 -0.036613820296855532 0.025332508954636897 0 -0.036608555269380907 0.02340554404931584 0 -0.036613820296855532 0.025332508954636897 0 -0.038110225849882731 0.024327716282734429 0 -0.035997316804752752 0.026086113715535951 0 -0.036980291374795485 0.025611004646398226 0 -0.035481381713310549 0.026849441112566898 0 -0.035799315425252373 0.027118443380397334 0 -0.035893359944884302 0.026870781572881121 0 -0.035799315425252373 0.027118443380397334 0 -0.035893359944884302 0.026870781572881121 0 -0.036125460592680819 0.026970616741009455 0 -0.038110225849882731 0.024327716282734429 0 -0.038067045372403845 0.023021098436455119 0 -0.039449754709696146 0.023273604608442404 0 -0.036608555269380907 0.02340554404931584 0 -0.038110225849882731 0.024327716282734429 0 -0.038067045372403845 0.023021098436455119 0 -0.036608555269380907 0.02340554404931584 0 -0.038067045372403845 0.023021098436455119 0 -0.037365793727769943 0.022100080287400316 0 -0.038067045372403845 0.023021098436455119 0 -0.037365793727769943 0.022100080287400316 0 -0.038839160386579738 0.022075864435456893 0 -0.037365793727769943 0.022100080287400316 0 -0.038839160386579738 0.022075864435456893 0 -0.038170889767120887 0.021173913108079281 0 -0.038839160386579738 0.022075864435456893 0 -0.04001432560319014 0.021818304453241854 0 -0.03959355742657622 0.020873921945343439 0 -0.04001432560319014 0.021818304453241854 0 -0.039449754709696146 0.023273604608442404 0 -0.040390443989180437 0.02217676321595425 0 -0.03778911059442832 0.02516899690586245 0 -0.037961110699626363 0.024895583377666647 0 -0.038067045372403845 0.023021098436455119 0 -0.038839160386579738 0.022075864435456893 0 -0.039449754709696146 0.023273604608442404 0 -0.038839160386579738 0.022075864435456893 0 -0.04001432560319014 0.021818304453241854 0 -0.039449754709696146 0.023273604608442404 0 -0.035893359944884302 0.026870781572881121 0 -0.036231072002859584 0.027029031443086188 0 -0.036125460592680819 0.026970616741009455 0 -0.036980291374795485 0.025611004646398226 0 -0.03778911059442832 0.02516899690586245 0 -0.036125460592680819 0.026970616741009455 0 -0.036221562817534088 0.026911851378508517 0 -0.036141489477617271 0.026907207344185304 0 -0.036187817090277692 0.026791525298088089 0 -0.036221562817534088 0.026911851378508517 0 -0.036141489477617271 0.026907207344185304 0 -0.036368151641943396 0.026771588894009768 0 -0.036187817090277692 0.026791525298088089 0 -0.036221562817534088 0.026911851378508517 0 -0.03608157456856366 0.026586362205395203 0 -0.036368151641943396 0.026771588894009768 0 -0.036187817090277692 0.026791525298088089 0 -0.036187817090277692 0.026791525298088089 0 -0.036141489477617271 0.026907207344185304 0 -0.036020237751700074 0.026756159791815535 0 -0.036231072002859584 0.027029031443086188 0 -0.036141489477617271 0.026907207344185304 0 -0.035779205805568773 0.027106004410849299 0 -0.036231072002859584 0.027029031443086188 0 -0.036125460592680819 0.026970616741009455 0 -0.036141489477617271 0.026907207344185304 0 -0.036231072002859584 0.027029031443086188 0 -0.035779205805568773 0.027106004410849299 0 -0.035669078478330472 0.027611523577268319 0 -0.035779205805568773 0.027106004410849299 0 -0.035278039477055809 0.027051365597089153 0 -0.035669078478330472 0.027611523577268319 0 -0.035779205805568773 0.027106004410849299 0 -0.035656549993050651 0.026684340664389933 0 -0.035278039477055809 0.027051365597089153 0 -0.036141489477617271 0.026907207344185304 0 -0.035656549993050651 0.026684340664389933 0 -0.036020237751700074 0.026756159791815535 0 -0.036141489477617271 0.026907207344185304 0 -0.035779205805568773 0.027106004410849299 0 -0.035656549993050651 0.026684340664389933 0 -0.03608157456856366 0.026586362205395203 0 -0.035656549993050651 0.026684340664389933 0 -0.036020237751700074 0.026756159791815535 0 -0.036042301749757394 0.026394836685434787 0 -0.03608157456856366 0.026586362205395203 0 -0.035656549993050651 0.026684340664389933 0 -0.03608157456856366 0.026586362205395203 0 -0.036187817090277692 0.026791525298088089 0 -0.036020237751700074 0.026756159791815535 0 -0.034996156851783422 0.025753733585747011 0 -0.035656549993050651 0.026684340664389933 0 -0.034561144402350787 0.026446726832012872 0 -0.035656549993050651 0.026684340664389933 0 -0.035278039477055809 0.027051365597089153 0 -0.034561144402350787 0.026446726832012872 0 -0.035278039477055809 0.027051365597089153 0 -0.035669078478330472 0.027611523577268319 0 -0.03455586643228159 0.027312093721042541 0 -0.035278039477055809 0.027051365597089153 0 -0.034561144402350787 0.026446726832012872 0 -0.03455586643228159 0.027312093721042541 0 -0.037961110699626363 0.024895583377666647 0 -0.037346620069254051 0.024658077687341941 0 -0.035669078478330472 0.027611523577268319 0 -0.03455586643228159 0.027312093721042541 0 -0.034495488617237079 0.028039240865407745 0 -0.04001432560319014 0.021818304453241854 0 -0.040390443989180437 0.02217676321595425 0 -0.040723675737476817 0.021440573504892358 0 -0.040390443989180437 0.02217676321595425 0 -0.040723675737476817 0.021440573504892358 0 -0.040232367858995033 0.021269283989204222 0 -0.040723675737476817 0.021440573504892358 0 -0.040232367858995033 0.021269283989204222 0 -0.04002333982949912 0.021662639872409191 0 -0.040723675737476817 0.021440573504892358 0 -0.040205180826867089 0.022528736222874879 0 -0.04002333982949912 0.021662639872409191 0 -0.04001432560319014 0.021818304453241854 0 -0.040723675737476817 0.021440573504892358 0 -0.03959355742657622 0.020873921945343439 0 -0.040723675737476817 0.021440573504892358 0 -0.040555842747165588 0.020369036458118675 0 -0.03959355742657622 0.020873921945343439 0 -0.040555842747165588 0.020369036458118675 0 -0.040577685163238578 0.019454828846983574 0 -0.039948645685830599 0.019947176753258095 0 -0.040555842747165588 0.020369036458118675 0 -0.041830481208799848 0.02026680914765483 0 -0.041178361110598596 0.019713271906554496 0 -0.040723675737476817 0.021440573504892358 0 -0.040555842747165588 0.020369036458118675 0 -0.041830481208799848 0.02026680914765483 0 -0.040801802347043017 0.021373774662310125 0 -0.041046395902236826 0.021696289789841439 0 -0.041830481208799848 0.02026680914765483 0 -0.041747476228032217 0.019411797151733443 0 -0.041178361110598596 0.019713271906554496 0 -0.041747476228032217 0.019411797151733443 0 -0.041178361110598596 0.019713271906554496 0 -0.041199468225210749 0.019108054877701779 0 -0.041747476228032217 0.019411797151733443 0 -0.041199468225210749 0.019108054877701779 0 -0.041727767949245549 0.018771704483012665 0 -0.041199468225210749 0.019108054877701779 0 -0.041727767949245549 0.018771704483012665 0 -0.041144659417188915 0.018319137287671573 0 -0.041727767949245549 0.018771704483012665 0 -0.041144659417188915 0.018319137287671573 0 -0.041915743693361242 0.017883961862504738 0 -0.040508979495173923 0.01796075415461491 0 -0.04054212392264453 0.018751864394397761 0 -0.039740031052661058 0.018249748743479833 0 -0.041144659417188915 0.018319137287671573 0 -0.040508979495173923 0.01796075415461491 0 -0.040955304535131049 0.017466627433468388 0 -0.041144659417188915 0.018319137287671573 0 -0.040508979495173923 0.01796075415461491 0 -0.04054212392264453 0.018751864394397761 0 -0.041199468225210749 0.019108054877701779 0 -0.041144659417188915 0.018319137287671573 0 -0.04054212392264453 0.018751864394397761 0 -0.04054212392264453 0.018751864394397761 0 -0.040577685163238578 0.019454828846983574 0 -0.039964386374655589 0.019174585763962998 0 -0.041199468225210749 0.019108054877701779 0 -0.04054212392264453 0.018751864394397761 0 -0.040577685163238578 0.019454828846983574 0 -0.040555842747165588 0.020369036458118675 0 -0.041178361110598596 0.019713271906554496 0 -0.040577685163238578 0.019454828846983574 0 -0.041178361110598596 0.019713271906554496 0 -0.041199468225210749 0.019108054877701779 0 -0.040577685163238578 0.019454828846983574 0 -0.040577685163238578 0.019454828846983574 0 -0.039964386374655589 0.019174585763962998 0 -0.039948645685830599 0.019947176753258095 0 -0.039964386374655589 0.019174585763962998 0 -0.039740031052661058 0.018249748743479833 0 -0.039195799117997393 0.019354863911566777 0 -0.039964386374655589 0.019174585763962998 0 -0.039195799117997393 0.019354863911566777 0 -0.039948645685830599 0.019947176753258095 0 -0.04054212392264453 0.018751864394397761 0 -0.039964386374655589 0.019174585763962998 0 -0.039740031052661058 0.018249748743479833 0 -0.040508979495173923 0.01796075415461491 0 -0.039740031052661058 0.018249748743479833 0 -0.039947229475468429 0.017652556698086359 0 -0.039740031052661058 0.018249748743479833 0 -0.038814454585855182 0.018142773474216455 0 -0.039359587810406819 0.017582902611077741 0 -0.039740031052661058 0.018249748743479833 0 -0.038814454585855182 0.018142773474216455 0 -0.039195799117997393 0.019354863911566777 0 -0.038814454585855182 0.018142773474216455 0 -0.039195799117997393 0.019354863911566777 0 -0.038047775204142341 0.018865364391388185 0 -0.039195799117997393 0.019354863911566777 0 -0.03959355742657622 0.020873921945343439 0 -0.038344982653386109 0.020001856461183711 0 -0.03959355742657622 0.020873921945343439 0 -0.038170889767120887 0.021173913108079281 0 -0.038344982653386109 0.020001856461183711 0 -0.040555842747165588 0.020369036458118675 0 -0.039948645685830599 0.019947176753258095 0 -0.03959355742657622 0.020873921945343439 0 -0.039195799117997393 0.019354863911566777 0 -0.039948645685830599 0.019947176753258095 0 -0.03959355742657622 0.020873921945343439 0 -0.038839160386579738 0.022075864435456893 0 -0.03959355742657622 0.020873921945343439 0 -0.038170889767120887 0.021173913108079281 0 -0.037365793727769943 0.022100080287400316 0 -0.038170889767120887 0.021173913108079281 0 -0.037075512766273723 0.02019678761207808 0 -0.038170889767120887 0.021173913108079281 0 -0.037075512766273723 0.02019678761207808 0 -0.038344982653386109 0.020001856461183711 0 -0.039195799117997393 0.019354863911566777 0 -0.038344982653386109 0.020001856461183711 0 -0.038047775204142341 0.018865364391388185 0 -0.037075512766273723 0.02019678761207808 0 -0.038344982653386109 0.020001856461183711 0 -0.038047775204142341 0.018865364391388185 0 -0.038814454585855182 0.018142773474216455 0 -0.038047775204142341 0.018865364391388185 0 -0.037900879227145225 0.017438039324500037 0 -0.038047775204142341 0.018865364391388185 0 -0.037001512696950269 0.018251129703270509 0 -0.037900879227145225 0.017438039324500037 0 -0.037075512766273723 0.02019678761207808 0 -0.038047775204142341 0.018865364391388185 0 -0.037001512696950269 0.018251129703270509 0 -0.037075512766273723 0.02019678761207808 0 -0.037001512696950269 0.018251129703270509 0 -0.036189193370518194 0.019094044489799889 0 -0.037001512696950269 0.018251129703270509 0 -0.036189193370518194 0.019094044489799889 0 -0.035967565788554576 0.017767448140191915 0 -0.037001512696950269 0.018251129703270509 0 -0.035967565788554576 0.017767448140191915 0 -0.036605453558106738 0.016947252643245425 0 -0.035967565788554576 0.017767448140191915 0 -0.034999895517493905 0.018778953549603947 0 -0.034999926240761634 0.016893109576825511 0 -0.036189193370518194 0.019094044489799889 0 -0.035967565788554576 0.017767448140191915 0 -0.034999895517493905 0.018778953549603947 0 -0.036189193370518194 0.019094044489799889 0 -0.034999895517493905 0.018778953549603947 0 -0.034999941987763739 0.020664791201277115 0 -0.037075512766273723 0.02019678761207808 0 -0.036189193370518194 0.019094044489799889 0 -0.034999941987763739 0.020664791201277115 0 -0.037075512766273723 0.02019678761207808 0 -0.034999941987763739 0.020664791201277115 0 -0.036175478403231306 0.021620031549008996 0 -0.037365793727769943 0.022100080287400316 0 -0.037075512766273723 0.02019678761207808 0 -0.036175478403231306 0.021620031549008996 0 -0.034999916200245486 0.022550658795187209 0 -0.034999941987763739 0.020664791201277115 0 -0.036175478403231306 0.021620031549008996 0 -0.027762707789348199 0.025125058130287675 0 -0.029841565522606403 0.025055161865071573 0 -0.027239236453951793 0.02220218340177902 0 -0.027762707789348199 0.025125058130287675 0 -0.027422891032066833 0.025907778126854349 0 -0.026567249325135579 0.022786662832430221 0 -0.020173022452952497 0.024794427039487518 0 -0.017068506465085884 0.026829233201807794 0 -0.020173022452952497 0.024794427039487518 0 -0.028959016628930166 0.024072585237426353 0 -0.027762707789348199 0.025125058130287675 0 -0.027422891032066833 0.025907778126854349 0 -0.028855438398106614 0.025390992311851886 0 -0.027724230875196175 0.025837658558384696 0 -0.028855438398106614 0.025390992311851886 0 -0.028928172410767495 0.026528684365253803 0 -0.031656491579821498 0.027546842501864642 0 -0.031545063946949614 0.027082152558619305 0 -0.032047852065324088 0.027189758961630724 0 -0.029841565522606403 0.025055161865071573 0 -0.028855438398106614 0.025390992311851886 0 -0.02990054466884861 0.026424724387290946 0 -0.027762707789348199 0.025125058130287675 0 -0.029841565522606403 0.025055161865071573 0 -0.028855438398106614 0.025390992311851886 0 -0.028928172410767495 0.026528684365253803 0 -0.02990054466884861 0.026424724387290946 0 -0.030040099315381878 0.027280950860164018 0 -0.02990054466884861 0.026424724387290946 0 -0.030040099315381878 0.027280950860164018 0 -0.032100522500406639 0.028110139668062663 0 -0.029841565522606403 0.025055161865071573 0 -0.02990054466884861 0.026424724387290946 0 -0.032100522500406639 0.028110139668062663 0 -0.028855438398106614 0.025390992311851886 0 -0.028928172410767495 0.026528684365253803 0 -0.02990054466884861 0.026424724387290946 0 -0.030040099315381878 0.027280950860164018 0 -0.028220368705240358 0.02768900699936298 0 -0.029961390977548012 0.028225525608927344 0 -0.028928172410767495 0.026528684365253803 0 -0.030040099315381878 0.027280950860164018 0 -0.028220368705240358 0.02768900699936298 0 -0.013416008763061442 0.020795248403536012 0 -0.013142720634071169 0.021196078366647182 0 -0.013533902995613523 0.021382040259112688 0 -0.027724230875196175 0.025837658558384696 0 -0.028928172410767495 0.026528684365253803 0 -0.028220368705240358 0.02768900699936298 0 -0.020173022452952497 0.024794427039487518 0 -0.02085653286950688 0.024431429603974354 0 -0.020173022452952497 0.024794427039487518 0 -0.012499289137926235 0.024583063554534261 0 -0.013416008763061442 0.020795248403536012 0 -0.013142720634071169 0.021196078366647182 0 -0.012783601844440419 0.021004280349338898 0 -0.013142720634071169 0.021196078366647182 0 -0.012783601844440419 0.021004280349338898 0 -0.012908252793122519 0.021389114170171513 0 -0.012783601844440419 0.021004280349338898 0 -0.012613859186456937 0.021273654237486221 0 -0.012908252793122519 0.021389114170171513 0 -0.012499289137926235 0.024583063554534261 0 -0.0094567968817232794 0.026758756696773633 0 -0.012783601844440419 0.021004280349338898 0 -0.012371539823872884 0.021165200716709222 0 -0.012613859186456937 0.021273654237486221 0 -0.013150978562616246 0.028085741544535702 0 -0.010694823363517136 0.028924049303480234 0 -0.012813311856342741 0.026568269073487187 0 -0.0094567968817232794 0.026758756696773633 0 -0.008495677510844098 0.029015260471201541 0 -0.0066382079827154612 0.029826946298689545 0 -0.0064867881074435535 0.029836807740520437 0 -0.0066115094731494413 0.030066189914546348 0 -0.0066382079827154612 0.029826946298689545 0 -0.006590699242846154 0.02949248462947144 0 -0.0064867881074435535 0.029836807740520437 0 -0.015594752012876382 0.027226695344276467 0 -0.013150978562616246 0.028085741544535702 0 -0.012813311856342741 0.026568269073487187 0 -0.008495677510844098 0.029015260471201541 0 -0.017068506465085884 0.026829233201807794 0 -0.015594752012876382 0.027226695344276467 0 -0.012813311856342741 0.026568269073487187 0 -0.014917587391612155 0.024210279222398951 0 -0.0064867881074435535 0.029836807740520437 0 -0.0065279982937169892 0.030036937966759422 0 -0.0064816053219830883 0.030034883359688062 0 -0.0065279982937169892 0.030036937966759422 0 -0.0065074995884132989 0.030144244027299604 0 -0.0064816053219830883 0.030034883359688062 0 -0.015937692654347045 0.028686071300621046 0 -0.017068506465085884 0.026829233201807794 0 -0.0064867881074435535 0.029836807740520437 0 -0.0065279982937169892 0.030036937966759422 0 -0.0066115094731494413 0.030066189914546348 0 -0.0065279982937169892 0.030036937966759422 0 -0.0066115094731494413 0.030066189914546348 0 -0.0065689388959502219 0.030157621368294578 0 -0.00673074780393936 0.030279938549607633 0 -0.0065786068558226565 0.030246566686154084 0 -0.006640822789637498 0.030193444068392902 0 -0.0067057482849079281 0.030195998432066919 0 -0.0066115094731494413 0.030066189914546348 0 -0.006640822789637498 0.030193444068392902 0 -0.0066115094731494413 0.030066189914546348 0 -0.006640822789637498 0.030193444068392902 0 -0.0065689388959502219 0.030157621368294578 0 -0.0065786068558226565 0.030246566686154084 0 -0.006640822789637498 0.030193444068392902 0 -0.0065689388959502219 0.030157621368294578 0 -0.018151969489675932 0.029177667022263522 0 -0.017799029382728628 0.028757256156406494 0 -0.01738528478514852 0.025647131112807253 0 -0.017778424982032207 0.028863035700660785 0 -0.017531056713703325 0.028563006540758079 0 -0.018112750960982044 0.030486644526334209 0 -0.015937692654347045 0.028686071300621046 0 -0.01875746968556341 0.029107316367785397 0 -0.0065279982937169892 0.030036937966759422 0 -0.0065074995884132989 0.030144244027299604 0 -0.0065689388959502219 0.030157621368294578 0 -0.0065786068558226565 0.030246566686154084 0 -0.0065074995884132989 0.030144244027299604 0 -0.0065689388959502219 0.030157621368294578 0 -0.015937692654347045 0.028686071300621046 0 -0.01795572950154076 0.030618314348820612 0 -0.015399264337635079 0.030813952426758148 0 -0.015010761365576584 0.030307399789175158 0 -0.015074022346261056 0.030642468181772284 0 -0.010979891681153374 0.031108750778432535 0 -0.015937692654347045 0.028686071300621046 0 -0.01875746968556341 0.029107316367785397 0 -0.01795572950154076 0.030618314348820612 0 -0.022035007807478253 0.029993129003070329 0 -0.021613431921446314 0.030327095733705539 0 -0.022212873570722998 0.030543512414967968 0 -0.030869162118061615 0.026792181085925171 0 -0.031576346438474227 0.026799512467788712 0 -0.031350001071362751 0.026254685412540432 0 -0.021832174752279932 0.030942178053725306 0 -0.021613431921446314 0.030327095733705539 0 -0.022212873570722998 0.030543512414967968 0 -0.022503138232183882 0.030167036665954744 0 -0.022035007807478253 0.029993129003070329 0 -0.022212873570722998 0.030543512414967968 0 -0.022503138232183882 0.030167036665954744 0 -0.022212873570722998 0.030543512414967968 0 -0.023055608055469402 0.030442570302458193 0 -0.022212873570722998 0.030543512414967968 0 -0.022201975004016109 0.031356040440827314 0 -0.023055608055469402 0.030442570302458193 0 -0.024535247853266631 0.026996675458925961 0 -0.027757258877723425 0.027782398330373107 0 -0.021832174752279932 0.030942178053725306 0 -0.022212873570722998 0.030543512414967968 0 -0.022201975004016109 0.031356040440827314 0 -0.01875746968556341 0.029107316367785397 0 -0.024535247853266631 0.026996675458925961 0 -0.01875746968556341 0.029107316367785397 0 -0.021654388823222362 0.025493858723525057 0 -0.028031602894167108 0.024335396835092015 0 -0.021654388823222362 0.025493858723525057 0 -0.027762707789348199 0.025125058130287675 0 -0.02676169930214602 0.022555324262050397 0 -0.026567249325135579 0.022786662832430221 0 -0.017799029382728628 0.028757256156406494 0 -0.016972100903486217 0.02612444713808737 0 -0.01738528478514852 0.025647131112807253 0 -0.031429523631681604 0.026062626304425383 0 -0.024535247853266631 0.026996675458925961 0 -0.020958389720824418 0.02814722733423182 0 -0.020597344660905147 0.026961088034816196 0 -0.020282531784041297 0.027325972490570394 0 -0.027762707789348199 0.025125058130287675 0 -0.026903193959791395 0.022591714384889217 0 -0.027239236453951793 0.02220218340177902 0 -0.021654388823222362 0.025493858723525057 0 -0.024535247853266631 0.026996675458925961 0 -0.021654388823222362 0.025493858723525057 0 -0.017068506465085884 0.026829233201807794 0 -0.031576346438474227 0.026799512467788712 0 -0.031955098420932498 0.026523758884250955 0 -0.032047852065324088 0.027189758961630724 0 -0.030869162118061615 0.026792181085925171 0 -0.031545063946949614 0.027082152558619305 0 -0.031576346438474227 0.026799512467788712 0 -0.031656491579821498 0.027546842501864642 0 -0.030869162118061615 0.026792181085925171 0 -0.031545063946949614 0.027082152558619305 0 -0.031545063946949614 0.027082152558619305 0 -0.031576346438474227 0.026799512467788712 0 -0.032047852065324088 0.027189758961630724 0 -0.031815875630566828 0.025706460939649154 0 -0.031350001071362751 0.026254685412540432 0 -0.031955098420932498 0.026523758884250955 0 -0.031576346438474227 0.026799512467788712 0 -0.031350001071362751 0.026254685412540432 0 -0.031955098420932498 0.026523758884250955 0 -0.031815875630566828 0.025706460939649154 0 -0.031955098420932498 0.026523758884250955 0 -0.03251424458490202 0.026312853689479606 0 -0.031955098420932498 0.026523758884250955 0 -0.03251424458490202 0.026312853689479606 0 -0.032424645111610056 0.02683463440670613 0 -0.03251424458490202 0.026312853689479606 0 -0.03309370905782822 0.026815783037841059 0 -0.032424645111610056 0.02683463440670613 0 -0.03251424458490202 0.026312853689479606 0 -0.03309370905782822 0.026815783037841059 0 -0.033452293739427943 0.026168856371320329 0 -0.03309370905782822 0.026815783037841059 0 -0.033528756981302116 0.027481261062627469 0 -0.032667862715536254 0.027343658999561347 0 -0.03309370905782822 0.026815783037841059 0 -0.032424645111610056 0.02683463440670613 0 -0.032667862715536254 0.027343658999561347 0 -0.032047852065324088 0.027189758961630724 0 -0.032424645111610056 0.02683463440670613 0 -0.032667862715536254 0.027343658999561347 0 -0.031955098420932498 0.026523758884250955 0 -0.032047852065324088 0.027189758961630724 0 -0.032424645111610056 0.02683463440670613 0 -0.034561144402350787 0.026446726832012872 0 -0.033452293739427943 0.026168856371320329 0 -0.033864238185531241 0.026811398571780533 0 -0.03309370905782822 0.026815783037841059 0 -0.033452293739427943 0.026168856371320329 0 -0.033864238185531241 0.026811398571780533 0 -0.03309370905782822 0.026815783037841059 0 -0.033864238185531241 0.026811398571780533 0 -0.033528756981302116 0.027481261062627469 0 -0.033864238185531241 0.026811398571780533 0 -0.03455586643228159 0.027312093721042541 0 -0.033528756981302116 0.027481261062627469 0 -0.034561144402350787 0.026446726832012872 0 -0.033864238185531241 0.026811398571780533 0 -0.03455586643228159 0.027312093721042541 0 -0.03455586643228159 0.027312093721042541 0 -0.033528756981302116 0.027481261062627469 0 -0.034495488617237079 0.028039240865407745 0 -0.038458306955986975 0.020933031695536269 0 -0.040232367858995033 0.021269283989204222 0 -0.039349667530766255 0.021526123193757182 0 -0.035706320369747885 0.024640144698123975 0 -0.037346620069254051 0.024658077687341941 0 -0.033528756981302116 0.027481261062627469 0 -0.033327621660597141 0.028270299203515901 0 -0.034495488617237079 0.028039240865407745 0 -0.040232367858995033 0.021269283989204222 0 -0.04002333982949912 0.021662639872409191 0 -0.039349667530766255 0.021526123193757182 0 -0.032047852065324088 0.027189758961630724 0 -0.032215312871572435 0.027632519522567518 0 -0.032667862715536254 0.027343658999561347 0 -0.031656491579821498 0.027546842501864642 0 -0.032047852065324088 0.027189758961630724 0 -0.032215312871572435 0.027632519522567518 0 -0.033528756981302116 0.027481261062627469 0 -0.032667862715536254 0.027343658999561347 0 -0.032751021552927265 0.0277909301657841 0 -0.032215312871572435 0.027632519522567518 0 -0.032667862715536254 0.027343658999561347 0 -0.032751021552927265 0.0277909301657841 0 -0.033327621660597141 0.028270299203515901 0 -0.032751021552927265 0.0277909301657841 0 -0.032100522500406639 0.028110139668062663 0 -0.033528756981302116 0.027481261062627469 0 -0.033327621660597141 0.028270299203515901 0 -0.032751021552927265 0.0277909301657841 0 -0.032215312871572435 0.027632519522567518 0 -0.032751021552927265 0.0277909301657841 0 -0.032100522500406639 0.028110139668062663 0 -0.031429523631681604 0.026062626304425383 0 -0.031834470990057602 0.02803943835977768 0 -0.030040099315381878 0.027280950860164018 0 -0.032100522500406639 0.028110139668062663 0 -0.031009868314365956 0.028065912919259885 0 -0.031656491579821498 0.027546842501864642 0 -0.032215312871572435 0.027632519522567518 0 -0.032100522500406639 0.028110139668062663 0 -0.032100522500406639 0.028110139668062663 0 -0.031869796070318875 0.028631333188197258 0 -0.031009868314365956 0.028065912919259885 0 -0.031869796070318875 0.028631333188197258 0 -0.031009868314365956 0.028065912919259885 0 -0.029961390977548012 0.028225525608927344 0 -0.038458306955986975 0.020933031695536269 0 -0.03556716641900648 0.021765075419508628 0 -0.038455064862554587 0.021920982474441842 0 -0.03556716641900648 0.021765075419508628 0 -0.03561900257124459 0.022724849836615532 0 -0.038455064862554587 0.021920982474441842 0 -0.033327621660597141 0.028270299203515901 0 -0.032100522500406639 0.028110139668062663 0 -0.031869796070318875 0.028631333188197258 0 -0.038314329603044865 0.022258274333547885 0 -0.037614672269365046 0.022006142170466807 0 -0.035706320369747885 0.024640144698123975 0 -0.034517803816920281 0.025404984179469917 0 -0.037588623000299484 0.021798598390208909 0 -0.03800686118546303 0.022008387368887081 0 -0.038455064862554587 0.021920982474441842 0 -0.03800686118546303 0.022008387368887081 0 -0.038264370534341792 0.022045633396649274 0 -0.038455064862554587 0.021920982474441842 0 -0.03800686118546303 0.022008387368887081 0 -0.038264370534341792 0.022045633396649274 0 -0.038236204789056719 0.02216240419634578 0 -0.038264370534341792 0.022045633396649274 0 -0.038236204789056719 0.02216240419634578 0 -0.038429913357537572 0.022042886783866806 0 -0.03800686118546303 0.022008387368887081 0 -0.038236204789056719 0.02216240419634578 0 -0.038030418237042625 0.022297160301639279 0 -0.03800686118546303 0.022008387368887081 0 -0.037711974998330622 0.022106789393258226 0 -0.038030418237042625 0.022297160301639279 0 -0.037711974998330622 0.022106789393258226 0 -0.037450063508284073 0.022007413957244294 0 -0.037309969023525215 0.022225248703936003 0 -0.037588623000299484 0.021798598390208909 0 -0.037450063508284073 0.022007413957244294 0 -0.037688590041516271 0.021978667673794753 0 -0.03800686118546303 0.022008387368887081 0 -0.037711974998330622 0.022106789393258226 0 -0.037688590041516271 0.021978667673794753 0 -0.037588623000299484 0.021798598390208909 0 -0.03800686118546303 0.022008387368887081 0 -0.037688590041516271 0.021978667673794753 0 -0.037711974998330622 0.022106789393258226 0 -0.037450063508284073 0.022007413957244294 0 -0.037688590041516271 0.021978667673794753 0 -0.04002333982949912 0.021662639872409191 0 -0.039409971572399158 0.021950146179747745 0 -0.039349667530766255 0.021526123193757182 0 -0.04002333982949912 0.021662639872409191 0 -0.039409971572399158 0.021950146179747745 0 -0.03976250328649391 0.022208805948037386 0 -0.038947787348839101 0.021951779682586728 0 -0.039349667530766255 0.021526123193757182 0 -0.038455064862554587 0.021920982474441842 0 -0.038947787348839101 0.021951779682586728 0 -0.038429913357537572 0.022042886783866806 0 -0.039136444276429525 0.022301795901138028 0 -0.039409971572399158 0.021950146179747745 0 -0.038947787348839101 0.021951779682586728 0 -0.039349667530766255 0.021526123193757182 0 -0.039409971572399158 0.021950146179747745 0 -0.038947787348839101 0.021951779682586728 0 -0.039136444276429525 0.022301795901138028 0 -0.038458306955986975 0.020933031695536269 0 -0.039349667530766255 0.021526123193757182 0 -0.038455064862554587 0.021920982474441842 0 -0.038947787348839101 0.021951779682586728 0 -0.038455064862554587 0.021920982474441842 0 -0.038429913357537572 0.022042886783866806 0 -0.038264370534341792 0.022045633396649274 0 -0.038455064862554587 0.021920982474441842 0 -0.038429913357537572 0.022042886783866806 0 -0.038429913357537572 0.022042886783866806 0 -0.039136444276429525 0.022301795901138028 0 -0.039183859334494434 0.022994286565058641 0 -0.038236204789056719 0.02216240419634578 0 -0.038429913357537572 0.022042886783866806 0 -0.038459242694241662 0.022267829410599294 0 -0.038236204789056719 0.02216240419634578 0 -0.038459242694241662 0.022267829410599294 0 -0.038030418237042625 0.022297160301639279 0 -0.038598622554879176 0.022368598434113405 0 -0.0386990623190707 0.021674080216155588 0 -0.039136444276429525 0.022301795901138028 0 -0.039419998471150242 0.022642779096815394 0 -0.039183859334494434 0.022994286565058641 0 -0.038798658928708658 0.022243657888894632 0 -0.0386990623190707 0.021674080216155588 0 -0.040205180826867089 0.022528736222874879 0 -0.04002333982949912 0.021662639872409191 0 -0.03976250328649391 0.022208805948037386 0 -0.040205180826867089 0.022528736222874879 0 -0.039419998471150242 0.022642779096815394 0 -0.039543242550801189 0.023389032580229452 0 -0.039431461250549235 0.022287190049760552 0 -0.039419998471150242 0.022642779096815394 0 -0.03976250328649391 0.022208805948037386 0 -0.039409971572399158 0.021950146179747745 0 -0.039431461250549235 0.022287190049760552 0 -0.03976250328649391 0.022208805948037386 0 -0.039409971572399158 0.021950146179747745 0 -0.039136444276429525 0.022301795901138028 0 -0.039431461250549235 0.022287190049760552 0 -0.039136444276429525 0.022301795901138028 0 -0.039431461250549235 0.022287190049760552 0 -0.039419998471150242 0.022642779096815394 0 -0.040205180826867089 0.022528736222874879 0 -0.039419998471150242 0.022642779096815394 0 -0.03976250328649391 0.022208805948037386 0 -0.041046395902236826 0.021696289789841439 0 -0.039038256112431446 0.018474104180242805 0 -0.041830481208799848 0.02026680914765483 0 -0.041747476228032217 0.019411797151733443 0 -0.042643148039849831 0.019145018842841463 0 -0.039419998471150242 0.022642779096815394 0 -0.039543242550801189 0.023389032580229452 0 -0.039230205735492532 0.022891092493521233 0 -0.041747476228032217 0.019411797151733443 0 -0.041727767949245549 0.018771704483012665 0 -0.042643148039849831 0.019145018842841463 0 -0.039038256112431446 0.018474104180242805 0 -0.0386990623190707 0.021674080216155588 0 -0.0386990623190707 0.021674080216155588 0 -0.038774516818235835 0.019137807409676116 0 -0.036513155638848757 0.017138969588280928 0 -0.037658914847084259 0.01902345424190887 0 -0.040225342856093145 0.015474121621694909 0 -0.038459242694241662 0.022267829410599294 0 -0.038030418237042625 0.022297160301639279 0 -0.038068184733790485 0.022638955977545547 0 -0.039038256112431446 0.018474104180242805 0 -0.03916626834719155 0.013145069515224555 0 -0.036513155638848757 0.017138969588280928 0 -0.038941449503390305 0.013803672786453478 0 -0.040225342856093145 0.015474121621694909 0 -0.03778452902738548 0.015619119976116702 0 -0.039621585240100322 0.013065399031829256 0 -0.037908304675222285 0.012341939013917764 0 -0.041727767949245549 0.018771704483012665 0 -0.042643148039849831 0.019145018842841463 0 -0.041915743693361242 0.017883961862504738 0 -0.03778452902738548 0.015619119976116702 0 -0.037908304675222285 0.012341939013917764 0 -0.036123992482759194 0.012876258097106763 0 -0.039038256112431446 0.018474104180242805 0 -0.03912154315165528 0.015242760767854956 0 -0.037711974998330622 0.022106789393258226 0 -0.03755791835904574 0.022548912355907984 0 -0.038030418237042625 0.022297160301639279 0 -0.037711974998330622 0.022106789393258226 0 -0.03755791835904574 0.022548912355907984 0 -0.037309969023525215 0.022225248703936003 0 -0.03755791835904574 0.022548912355907984 0 -0.038030418237042625 0.022297160301639279 0 -0.038068184733790485 0.022638955977545547 0 -0.038774516818235835 0.019137807409676116 0 -0.042059296500385361 0.016675671153830087 0 -0.03755791835904574 0.022548912355907984 0 -0.038068184733790485 0.022638955977545547 0 -0.037607777851093004 0.022975282859060944 0 -0.038941449503390305 0.013803672786453478 0 -0.040225342856093145 0.015474121621694909 0 -0.042610831258807221 0.011983742782261546 0 -0.03755791835904574 0.022548912355907984 0 -0.037169177382109342 0.022917930752951964 0 -0.037607777851093004 0.022975282859060944 0 -0.025151021029132661 0.021675804490641246 0 -0.02543249759215745 0.023580452578063512 0 -0.013313483497016915 0.021686376499038668 0 -0.013613321913707123 0.021390985197517646 0 -0.013865540357944817 0.021868818614297802 0 -0.03755791835904574 0.022548912355907984 0 -0.037023664893656695 0.022498722143378821 0 -0.037169177382109342 0.022917930752951964 0 -0.013313483497016915 0.021686376499038668 0 -0.013134531881920347 0.021471597475905078 0 -0.013613321913707123 0.021390985197517646 0 -0.013313483497016915 0.021686376499038668 0 -0.013134531881920347 0.021471597475905078 0 -0.012949056687616202 0.021721037179984033 0 -0.013134531881920347 0.021471597475905078 0 -0.013216114677598575 0.021213491821842633 0 -0.013613321913707123 0.021390985197517646 0 -0.013216114677598575 0.021213491821842633 0 -0.013613321913707123 0.021390985197517646 0 -0.013516843186005361 0.020868128515236974 0 -0.013134531881920347 0.021471597475905078 0 -0.013216114677598575 0.021213491821842633 0 -0.012896427668693981 0.021340567126243892 0 -0.03755791835904574 0.022548912355907984 0 -0.037023664893656695 0.022498722143378821 0 -0.037309969023525215 0.022225248703936003 0 -0.037023664893656695 0.022498722143378821 0 -0.037309969023525215 0.022225248703936003 0 -0.036790316574107911 0.021907651590838354 0 -0.025151021029132661 0.021675804490641246 0 -0.026596103035608637 0.021360430938112938 0 -0.038314329603044865 0.022258274333547885 0 -0.026596103035608637 0.021360430938112938 0 -0.037450063508284073 0.022007413957244294 0 -0.037309969023525215 0.022225248703936003 0 -0.036790316574107911 0.021907651590838354 0 -0.037588623000299484 0.021798598390208909 0 -0.037450063508284073 0.022007413957244294 0 -0.036790316574107911 0.021907651590838354 0 -0.03561900257124459 0.022724849836615532 0 -0.031754440591041676 0.023498018459999284 0 -0.031673207057635197 0.023120117806766354 0 -0.013216114677598575 0.021213491821842633 0 -0.01315605739522761 0.020931077162006827 0 -0.013516843186005361 0.020868128515236974 0 -0.013216114677598575 0.021213491821842633 0 -0.01315605739522761 0.020931077162006827 0 -0.012895762777524734 0.02101828195925565 0 -0.014113227385096001 0.022965670693108821 0 -0.025911762632032799 0.023916259081038733 0 -0.01322124646161571 0.021901561337538802 0 -0.013677433011227392 0.021936880319754458 0 -0.01323293628889744 0.021566341058638024 0 -0.015424164524979604 0.024314904336634868 0 -0.025992229784104981 0.022183691615588717 0 -0.025496928345017933 0.019948416737917359 0 -0.014113227385096001 0.022965670693108821 0 -0.026596103035608637 0.021360430938112938 0 -0.026596103035608637 0.021360430938112938 0 -0.025911762632032799 0.023916259081038733 0 -0.025911762632032799 0.023916259081038733 0 -0.02085653286950688 0.024431429603974354 0 -0.013677433011227392 0.021936880319754458 0 -0.01323293628889744 0.021566341058638024 0 -0.013533902995613523 0.021382040259112688 0 -0.028654203904724663 0.029542255687453944 0 -0.028220368705240358 0.02768900699936298 0 -0.029961390977548012 0.028225525608927344 0 -0.013142720634071169 0.021196078366647182 0 -0.01323293628889744 0.021566341058638024 0 -0.013533902995613523 0.021382040259112688 0 -0.031869796070318875 0.028631333188197258 0 -0.028654203904724663 0.029542255687453944 0 -0.029961390977548012 0.028225525608927344 0 -0.03556716641900648 0.021765075419508628 0 -0.03561900257124459 0.022724849836615532 0 -0.031673207057635197 0.023120117806766354 0 -0.034517803816920281 0.025404984179469917 0 -0.025911762632032799 0.023916259081038733 0 -0.030040099315381878 0.027280950860164018 0 -0.031009868314365956 0.028065912919259885 0 -0.029961390977548012 0.028225525608927344 0 -0.01266173142836681 0.021481432373082702 0 -0.012423428157097493 0.021342889987740699 0 -0.012613859186456937 0.021273654237486221 0 -0.012371539823872884 0.021165200716709222 0 -0.012423428157097493 0.021342889987740699 0 -0.012613859186456937 0.021273654237486221 0 -0.01266173142836681 0.021481432373082702 0 -0.012613859186456937 0.021273654237486221 0 -0.012908252793122519 0.021389114170171513 0 -0.013142720634071169 0.021196078366647182 0 -0.01323293628889744 0.021566341058638024 0 -0.012908252793122519 0.021389114170171513 0 -0.01322124646161571 0.021901561337538802 0 -0.01323293628889744 0.021566341058638024 0 -0.012975476564846726 0.021621919327576414 0 -0.01323293628889744 0.021566341058638024 0 -0.012908252793122519 0.021389114170171513 0 -0.012975476564846726 0.021621919327576414 0 -0.01266173142836681 0.021481432373082702 0 -0.012908252793122519 0.021389114170171513 0 -0.012975476564846726 0.021621919327576414 0 -0.01266173142836681 0.021481432373082702 0 -0.012975476564846726 0.021621919327576414 0 -0.012920330077456235 0.021799794258836686 0 -0.014113227385096001 0.022965670693108821 0 -0.013047267808480999 0.021841441490520697 0 -0.01322124646161571 0.021901561337538802 0 -0.012975476564846726 0.021621919327576414 0 -0.012920330077456235 0.021799794258836686 0 -0.013047267808480999 0.021841441490520697 0 -0.01250178372857772 0.021356934010245361 0 -0.01266173142836681 0.021481432373082702 0 -0.012920330077456235 0.021799794258836686 0 -0.012421218861152298 0.021388798884118172 0 -0.01266173142836681 0.021481432373082702 0 -0.012423428157097493 0.021342889987740699 0 -0.012421218861152298 0.021388798884118172 0 -0.012895762777524734 0.02101828195925565 0 -0.012421218861152298 0.021388798884118172 0 -0.012562262703145458 0.021425322056987103 0 -0.012421218861152298 0.021388798884118172 0 -0.012562262703145458 0.021425322056987103 0 -0.012328291212891512 0.021497970617996544 0 -0.012562262703145458 0.021425322056987103 0 -0.012328291212891512 0.021497970617996544 0 -0.012681480200886337 0.02152928409348558 0 -0.013134531881920347 0.021471597475905078 0 -0.012896427668693981 0.021340567126243892 0 -0.012681480200886337 0.02152928409348558 0 -0.012895762777524734 0.02101828195925565 0 -0.012562262703145458 0.021425322056987103 0 -0.012896427668693981 0.021340567126243892 0 -0.013216114677598575 0.021213491821842633 0 -0.012895762777524734 0.02101828195925565 0 -0.012896427668693981 0.021340567126243892 0 -0.012562262703145458 0.021425322056987103 0 -0.012896427668693981 0.021340567126243892 0 -0.012681480200886337 0.02152928409348558 0 -0.013134531881920347 0.021471597475905078 0 -0.012681480200886337 0.02152928409348558 0 -0.012949056687616202 0.021721037179984033 0 -0.012681480200886337 0.02152928409348558 0 -0.012949056687616202 0.021721037179984033 0 -0.012483606384917261 0.021749576254800899 0 -0.01204759016400244 0.021682960032019402 0 -0.012328291212891512 0.021497970617996544 0 -0.012483606384917261 0.021749576254800899 0 -0.012328291212891512 0.021497970617996544 0 -0.012681480200886337 0.02152928409348558 0 -0.012483606384917261 0.021749576254800899 0 -0.01204759016400244 0.021682960032019402 0 -0.012483606384917261 0.021749576254800899 0 -0.012180903408074413 0.021899454436337003 0 -0.012483606384917261 0.021749576254800899 0 -0.012545582682182765 0.022099366279148467 0 -0.012180903408074413 0.021899454436337003 0 -0.012483606384917261 0.021749576254800899 0 -0.012898516158138498 0.021952199046156931 0 -0.012545582682182765 0.022099366279148467 0 -0.012949056687616202 0.021721037179984033 0 -0.012483606384917261 0.021749576254800899 0 -0.012898516158138498 0.021952199046156931 0 -0.012949056687616202 0.021721037179984033 0 -0.012898516158138498 0.021952199046156931 0 -0.013259490675496591 0.021951803142942764 0 -0.012991984080734277 0.022229350629060965 0 -0.01256783200546064 0.02243105613440783 0 -0.013444845957154908 0.022616225671735695 0 -0.012898516158138498 0.021952199046156931 0 -0.012991984080734277 0.022229350629060965 0 -0.012545582682182765 0.022099366279148467 0 -0.012991984080734277 0.022229350629060965 0 -0.012545582682182765 0.022099366279148467 0 -0.01256783200546064 0.02243105613440783 0 -0.012545582682182765 0.022099366279148467 0 -0.01226413525150542 0.022102814946119074 0 -0.012180903408074413 0.021899454436337003 0 -0.012545582682182765 0.022099366279148467 0 -0.01226413525150542 0.022102814946119074 0 -0.01256783200546064 0.02243105613440783 0 -0.013358326931512692 0.022357227669009858 0 -0.01440135485601762 0.021448115206853156 0 -0.014258846469446378 0.023281202809359421 0 -0.013762627570176753 0.02192243810949502 0 -0.012118357633358791 0.022072301672587072 0 -0.01226413525150542 0.022102814946119074 0 -0.01256783200546064 0.02243105613440783 0 -0.012057527774890556 0.022095968719235873 0 -0.013358326931512692 0.022357227669009858 0 -0.01440135485601762 0.021448115206853156 0 -0.012500443087028112 0.022082921927782429 0 -0.01440135485601762 0.021448115206853156 0 -0.012500443087028112 0.022082921927782429 0 -0.012057527774890556 0.022095968719235873 0 -0.013358326931512692 0.022357227669009858 0 -0.014258846469446378 0.023281202809359421 0 -0.01208233885388328 0.022484858660148023 0 -0.015053811732623849 0.016390937812236224 0 -0.013712947969617289 0.018800115894850516 0 -0.013762627570176753 0.02192243810949502 0 -0.014030410085351079 0.022208682447078461 0 -0.01440135485601762 0.021448115206853156 0 -0.016235934970595979 0.022079405321065976 0 -0.016927026461420299 0.02116279527895289 0 -0.01440135485601762 0.021448115206853156 0 -0.016235934970595979 0.022079405321065976 0 -0.015877361582786811 0.022895404099459539 0 -0.01440135485601762 0.021448115206853156 0 -0.015877361582786811 0.022895404099459539 0 -0.014258846469446378 0.023281202809359421 0 -0.015053811732623849 0.016390937812236224 0 -0.020462774039674444 0.013837944505424608 0 -0.016879832951300893 0.0096601947645543942 0 -0.017118540190465624 0.0097602252050513101 0 -0.016928739614332777 0.009766619672205476 0 -0.015877361582786811 0.022895404099459539 0 -0.014258846469446378 0.023281202809359421 0 -0.016701300971171028 0.024242714867435042 0 -0.016879832951300893 0.0096601947645543942 0 -0.016637698229818157 0.0096136663527093859 0 -0.016727828504675305 0.0096991963379661622 0 -0.016879832951300893 0.0096601947645543942 0 -0.016825634713748077 0.0097411748655550912 0 -0.016928739614332777 0.009766619672205476 0 -0.016879832951300893 0.0096601947645543942 0 -0.016825634713748077 0.0097411748655550912 0 -0.016727828504675305 0.0096991963379661622 0 -0.016825634713748077 0.0097411748655550912 0 -0.016727828504675305 0.0096991963379661622 0 -0.016740805483802083 0.0097558677902430738 0 -0.02505507213673272 0.011354187405172928 0 -0.023319146423375906 0.010466248773750146 0 -0.024429916697533409 0.0099266157449269081 0 -0.02505507213673272 0.011354187405172928 0 -0.024429916697533409 0.0099266157449269081 0 -0.025474234072898047 0.0098052709011241107 0 -0.02505507213673272 0.011354187405172928 0 -0.023319146423375906 0.010466248773750146 0 -0.023287364108814417 0.012311611433310282 0 -0.023319146423375906 0.010466248773750146 0 -0.023287364108814417 0.012311611433310282 0 -0.02206893771536482 0.01139570522768954 0 -0.023319146423375906 0.010466248773750146 0 -0.023586347414220152 0.0091057617068732912 0 -0.021520768141499839 0.0087343894447573355 0 -0.023319146423375906 0.010466248773750146 0 -0.023586347414220152 0.0091057617068732912 0 -0.024429916697533409 0.0099266157449269081 0 -0.023586347414220152 0.0091057617068732912 0 -0.024429916697533409 0.0099266157449269081 0 -0.0246738313301763 0.0087367900103375116 0 -0.024429916697533409 0.0099266157449269081 0 -0.025372618953737495 0.0092917938960615978 0 -0.025474234072898047 0.0098052709011241107 0 -0.0246738313301763 0.0087367900103375116 0 -0.025372618953737495 0.0092917938960615978 0 -0.02557757520568605 0.0086071030297609659 0 -0.024429916697533409 0.0099266157449269081 0 -0.0246738313301763 0.0087367900103375116 0 -0.025372618953737495 0.0092917938960615978 0 -0.02116424024677285 0.017652268790936076 0 -0.022527907896290257 0.011990582876902774 0 -0.02505507213673272 0.011354187405172928 0 -0.025474234072898047 0.0098052709011241107 0 -0.027042886570781691 0.0086495115860082405 0 -0.025372618953737495 0.0092917938960615978 0 -0.025474234072898047 0.0098052709011241107 0 -0.027042886570781691 0.0086495115860082405 0 -0.025372618953737495 0.0092917938960615978 0 -0.027042886570781691 0.0086495115860082405 0 -0.02557757520568605 0.0086071030297609659 0 -0.020462774039674444 0.013837944505424608 0 -0.015518265764047233 0.024251139959793746 0 -0.016701300971171028 0.024242714867435042 0 -0.016714540826495303 0.023262810405838916 0 -0.017530474992236672 0.023129416191747874 0 -0.016895384299189808 0.023865685386979689 0 -0.017530474992236672 0.023129416191747874 0 -0.017082649877496227 0.023961499395066411 0 -0.020462774039674444 0.013837944505424608 0 -0.022527907896290257 0.011990582876902774 0 -0.015877361582786811 0.022895404099459539 0 -0.016701300971171028 0.024242714867435042 0 -0.016714540826495303 0.023262810405838916 0 -0.016752433364504302 0.022790122848102654 0 -0.017530474992236672 0.023129416191747874 0 -0.017263113163759856 0.022329429714447239 0 -0.016714540826495303 0.023262810405838916 0 -0.016752433364504302 0.022790122848102654 0 -0.017530474992236672 0.023129416191747874 0 -0.015877361582786811 0.022895404099459539 0 -0.016714540826495303 0.023262810405838916 0 -0.016752433364504302 0.022790122848102654 0 -0.01814921824529658 0.022727734591001997 0 -0.017530474992236672 0.023129416191747874 0 -0.017082649877496227 0.023961499395066411 0 -0.01814921824529658 0.022727734591001997 0 -0.017530474992236672 0.023129416191747874 0 -0.017263113163759856 0.022329429714447239 0 -0.01814921824529658 0.022727734591001997 0 -0.017263113163759856 0.022329429714447239 0 -0.017722855652401386 0.021995895825491291 0 -0.017263113163759856 0.022329429714447239 0 -0.017722855652401386 0.021995895825491291 0 -0.016927026461420299 0.02116279527895289 0 -0.01814921824529658 0.022727734591001997 0 -0.017722855652401386 0.021995895825491291 0 -0.018204761410703232 0.021611233626211274 0 -0.016235934970595979 0.022079405321065976 0 -0.017263113163759856 0.022329429714447239 0 -0.016927026461420299 0.02116279527895289 0 -0.016235934970595979 0.022079405321065976 0 -0.016752433364504302 0.022790122848102654 0 -0.017263113163759856 0.022329429714447239 0 -0.016235934970595979 0.022079405321065976 0 -0.015877361582786811 0.022895404099459539 0 -0.016752433364504302 0.022790122848102654 0 -0.017722855652401386 0.021995895825491291 0 -0.016927026461420299 0.02116279527895289 0 -0.018204761410703232 0.021611233626211274 0 -0.014030410085351079 0.022208682447078461 0 -0.022844069702025037 0.017950722176051068 0 -0.016927026461420299 0.02116279527895289 0 -0.018204761410703232 0.021611233626211274 0 -0.019493060101968093 0.020997512688962432 0 -0.01814921824529658 0.022727734591001997 0 -0.018204761410703232 0.021611233626211274 0 -0.019493060101968093 0.020997512688962432 0 -0.02116424024677285 0.017652268790936076 0 -0.022844069702025037 0.017950722176051068 0 -0.023287364108814417 0.012311611433310282 0 -0.022655333471490527 0.014090213428806982 0 -0.02206893771536482 0.01139570522768954 0 -0.02505507213673272 0.011354187405172928 0 -0.023287364108814417 0.012311611433310282 0 -0.023090857309912793 0.014071085721550287 0 -0.023287364108814417 0.012311611433310282 0 -0.023090857309912793 0.014071085721550287 0 -0.022655333471490527 0.014090213428806982 0 -0.022844069702025037 0.017950722176051068 0 -0.028082599166946037 0.014818540415646389 0 -0.028693898670138704 0.014952036588317308 0 -0.027117000122010803 0.015019967062943534 0 -0.027475848266394064 0.016568389047334379 0 -0.027897217658845511 0.017166882790206391 0 -0.02543249759215745 0.023580452578063512 0 -0.014915850775868943 0.022593815351634537 0 -0.015053330974108462 0.022422841708501947 0 -0.013772341450830951 0.021991393150903878 0 -0.027897217658845511 0.017166882790206391 0 -0.011658851207063644 0.021785689197420785 0 -0.01420673458584836 0.022614765637789323 0 -0.013473859108900683 0.022352220450962839 0 -0.013865540357944817 0.021868818614297802 0 -0.028082599166946037 0.014818540415646389 0 -0.027897217658845511 0.017166882790206391 0 -0.022844069702025037 0.017950722176051068 0 -0.027897217658845511 0.017166882790206391 0 -0.013678108705241589 0.022230524147868632 0 -0.011658851207063644 0.021785689197420785 0 -0.012991984080734277 0.022229350629060965 0 -0.013444845957154908 0.022616225671735695 0 -0.013772341450830951 0.021991393150903878 0 -0.012898516158138498 0.021952199046156931 0 -0.012991984080734277 0.022229350629060965 0 -0.013772341450830951 0.021991393150903878 0 -0.013444845957154908 0.022616225671735695 0 -0.014915850775868943 0.022593815351634537 0 -0.013772341450830951 0.021991393150903878 0 -0.012898516158138498 0.021952199046156931 0 -0.013473859108900683 0.022352220450962839 0 -0.013259490675496591 0.021951803142942764 0 -0.013313483497016915 0.021686376499038668 0 -0.013259490675496591 0.021951803142942764 0 -0.013865540357944817 0.021868818614297802 0 -0.013473859108900683 0.022352220450962839 0 -0.013259490675496591 0.021951803142942764 0 -0.013865540357944817 0.021868818614297802 0 -0.013313483497016915 0.021686376499038668 0 -0.012949056687616202 0.021721037179984033 0 -0.013259490675496591 0.021951803142942764 0 -0.03720407550387729 0.023239209610223997 0 -0.037169177382109342 0.022917930752951964 0 -0.037607777851093004 0.022975282859060944 0 -0.03916626834719155 0.013145069515224555 0 -0.041204056438640183 0.010906412408299378 0 -0.038941449503390305 0.013803672786453478 0 -0.042610831258807221 0.011983742782261546 0 -0.041334106280475451 0.010645467221087146 0 -0.042610831258807221 0.011983742782261546 0 -0.041334106280475451 0.010645467221087146 0 -0.0426598968345532 0.0097948567936605793 0 -0.041334106280475451 0.010645467221087146 0 -0.040443062822676144 0.0093623755807737078 0 -0.039830107966132205 0.010220999312999295 0 -0.041334106280475451 0.010645467221087146 0 -0.040443062822676144 0.0093623755807737078 0 -0.041314471931978722 0.0091934161340058718 0 -0.040443062822676144 0.0093623755807737078 0 -0.041314471931978722 0.0091934161340058718 0 -0.040258598607432125 0.0083441701770888485 0 -0.041314471931978722 0.0091934161340058718 0 -0.0426598968345532 0.0097948567936605793 0 -0.042629295926015769 0.0089511074996420394 0 -0.041334106280475451 0.010645467221087146 0 -0.041314471931978722 0.0091934161340058718 0 -0.0426598968345532 0.0097948567936605793 0 -0.044317802330681805 0.0091855937347923421 0 -0.042610831258807221 0.011983742782261546 0 -0.0426598968345532 0.0097948567936605793 0 -0.027897217658845511 0.017166882790206391 0 -0.042059296500385361 0.016675671153830087 0 -0.0426598968345532 0.0097948567936605793 0 -0.043730053515292043 0.0089175443995613869 0 -0.042629295926015769 0.0089511074996420394 0 -0.044317802330681805 0.0091855937347923421 0 -0.0426598968345532 0.0097948567936605793 0 -0.043730053515292043 0.0089175443995613869 0 -0.027897217658845511 0.017166882790206391 0 -0.036471212765885677 0.013215694512744423 0 -0.036778321426333957 0.011326888452627205 0 -0.037908304675222285 0.012341939013917764 0 -0.036123992482759194 0.012876258097106763 0 -0.036778321426333957 0.011326888452627205 0 -0.037908304675222285 0.012341939013917764 0 -0.038338437759806991 0.010566350351863527 0 -0.039621585240100322 0.013065399031829256 0 -0.041334106280475451 0.010645467221087146 0 -0.039428169874666533 0.011364360692243601 0 -0.037908304675222285 0.012341939013917764 0 -0.039428169874666533 0.011364360692243601 0 -0.038338437759806991 0.010566350351863527 0 -0.039621585240100322 0.013065399031829256 0 -0.037908304675222285 0.012341939013917764 0 -0.039428169874666533 0.011364360692243601 0 -0.041334106280475451 0.010645467221087146 0 -0.039428169874666533 0.011364360692243601 0 -0.039830107966132205 0.010220999312999295 0 -0.040443062822676144 0.0093623755807737078 0 -0.039255470139200305 0.0091518281608749651 0 -0.040258598607432125 0.0083441701770888485 0 -0.040443062822676144 0.0093623755807737078 0 -0.039830107966132205 0.010220999312999295 0 -0.039255470139200305 0.0091518281608749651 0 -0.039255470139200305 0.0091518281608749651 0 -0.037858583907463786 0.00949643202648617 0 -0.038203413148824028 0.0084546385080284878 0 -0.039255470139200305 0.0091518281608749651 0 -0.038338437759806991 0.010566350351863527 0 -0.037858583907463786 0.00949643202648617 0 -0.039830107966132205 0.010220999312999295 0 -0.039255470139200305 0.0091518281608749651 0 -0.038338437759806991 0.010566350351863527 0 -0.039428169874666533 0.011364360692243601 0 -0.039830107966132205 0.010220999312999295 0 -0.038338437759806991 0.010566350351863527 0 -0.038338437759806991 0.010566350351863527 0 -0.037858583907463786 0.00949643202648617 0 -0.036842828438960695 0.010020570032710995 0 -0.037858583907463786 0.00949643202648617 0 -0.036842828438960695 0.010020570032710995 0 -0.036764308120267084 0.0085061751491680767 0 -0.036842828438960695 0.010020570032710995 0 -0.036764308120267084 0.0085061751491680767 0 -0.035498969842509151 0.0092823288849677148 0 -0.036778321426333957 0.011326888452627205 0 -0.036842828438960695 0.010020570032710995 0 -0.036188335981372166 0.010487281402406141 0 -0.036778321426333957 0.011326888452627205 0 -0.038338437759806991 0.010566350351863527 0 -0.036842828438960695 0.010020570032710995 0 -0.036764308120267084 0.0085061751491680767 0 -0.037599126926298083 0.0070580906075680978 0 -0.036129065604022161 0.0068064193798105053 0 -0.037858583907463786 0.00949643202648617 0 -0.036764308120267084 0.0085061751491680767 0 -0.038203413148824028 0.0084546385080284878 0 -0.038203413148824028 0.0084546385080284878 0 -0.037599126926298083 0.0070580906075680978 0 -0.039216259782258442 0.0077509327318788755 0 -0.036764308120267084 0.0085061751491680767 0 -0.038203413148824028 0.0084546385080284878 0 -0.037599126926298083 0.0070580906075680978 0 -0.036770471043275334 0.0040313936629010148 0 -0.038197226168756017 0.0067934364946130709 0 -0.039216259782258442 0.0077509327318788755 0 -0.038784763172354984 0.0060405864796193292 0 -0.04121576255970448 0.0073793417183878112 0 -0.037599126926298083 0.0070580906075680978 0 -0.039216259782258442 0.0077509327318788755 0 -0.038784763172354984 0.0060405864796193292 0 -0.039255470139200305 0.0091518281608749651 0 -0.038203413148824028 0.0084546385080284878 0 -0.039216259782258442 0.0077509327318788755 0 -0.039216259782258442 0.0077509327318788755 0 -0.040258598607432125 0.0083441701770888485 0 -0.04121576255970448 0.0073793417183878112 0 -0.039255470139200305 0.0091518281608749651 0 -0.039216259782258442 0.0077509327318788755 0 -0.040258598607432125 0.0083441701770888485 0 -0.035353405810643057 0.0021756400768087208 0 -0.0348907591550787 0.0022853561465060145 0 -0.035629080391077449 0.0026504802805381554 0 -0.035353405810643057 0.0021756400768087208 0 -0.035087344106900474 0.0018111806316588642 0 -0.035652867555476205 0.0017648397890523595 0 -0.035353405810643057 0.0021756400768087208 0 -0.035087344106900474 0.0018111806316588642 0 -0.0348907591550787 0.0022853561465060145 0 -0.037599126926298083 0.0070580906075680978 0 -0.036129065604022161 0.0068064193798105053 0 -0.036295477562430969 0.0044145266220943554 0 -0.035087344106900474 0.0018111806316588642 0 -0.0348907591550787 0.0022853561465060145 0 -0.034205601098880739 0.0021362930718818525 0 -0.036770471043275334 0.0040313936629010148 0 -0.035158474999980559 0.0032511542694241701 0 -0.037599126926298083 0.0070580906075680978 0 -0.038784763172354984 0.0060405864796193292 0 -0.036295477562430969 0.0044145266220943554 0 -0.036471212765885677 0.013215694512744423 0 -0.038197226168756017 0.0067934364946130709 0 -0.034595522149138268 0.0094282806359868108 0 -0.034048127279628256 0.0091200112227413279 0 -0.034615311909720427 0.0090049770865629139 0 -0.043672510244257792 0.0089443903671016008 0 -0.042629295926015769 0.0089511074996420394 0 -0.041022471427069551 0.007616692034162 0 -0.028082599166946037 0.014818540415646389 0 -0.028504396493400436 0.010091732028770227 0 -0.034699677638593433 0.0094317664913489783 0 -0.034595522149138268 0.0094282806359868108 0 -0.034615311909720427 0.0090049770865629139 0 -0.028082599166946037 0.014818540415646389 0 -0.036471212765885677 0.013215694512744423 0 -0.029420215225416602 0.0151196425871659 0 -0.029034164838577299 0.013464691104329005 0 -0.032400719977658365 0.014980915241910194 0 -0.036471212765885677 0.013215694512744423 0 -0.043192565785571679 0.01085550628099379 0 -0.041314471931978722 0.0091934161340058718 0 -0.042629295926015769 0.0089511074996420394 0 -0.041022471427069551 0.007616692034162 0 -0.041314471931978722 0.0091934161340058718 0 -0.040258598607432125 0.0083441701770888485 0 -0.041022471427069551 0.007616692034162 0 -0.039805883534003654 0.0072483364911562504 0 -0.038197226168756017 0.0067934364946130709 0 -0.035353405810643057 0.0021756400768087208 0 -0.035629080391077449 0.0026504802805381554 0 -0.035652867555476205 0.0017648397890523595 0 -0.038197226168756017 0.0067934364946130709 0 -0.032525931602469971 0.0052716394513721973 0 -0.035629080391077449 0.0026504802805381554 0 -0.035652867555476205 0.0017648397890523595 0 -0.036504023738649083 0.0017387103891242123 0 -0.034048127279628256 0.0091200112227413279 0 -0.034615311909720427 0.0090049770865629139 0 -0.034524458029615311 0.0085942110199592955 0 -0.028504396493400436 0.010091732028770227 0 -0.032525931602469971 0.0052716394513721973 0 -0.023319146423375906 0.010466248773750146 0 -0.02206893771536482 0.01139570522768954 0 -0.021520768141499839 0.0087343894447573355 0 -0.036504023738649083 0.0017387103891242123 0 -0.03592521404736837 0.0012507655434001806 0 -0.036139991937806849 0.00054664280849694503 0 -0.036115021945943286 0.00074371427032739049 0 -0.036207976172373646 0.00047712414220005289 0 -0.036139991937806849 0.00054664280849694503 0 -0.032525931602469971 0.0052716394513721973 0 -0.036387199856323535 -0.00064192433066157363 0 -0.035652867555476205 0.0017648397890523595 0 -0.036504023738649083 0.0017387103891242123 0 -0.03592521404736837 0.0012507655434001806 0 -0.035516284287906888 0.0010032537044477705 0 -0.03592521404736837 0.0012507655434001806 0 -0.036139991937806849 0.00054664280849694503 0 -0.035087344106900474 0.0018111806316588642 0 -0.035652867555476205 0.0017648397890523595 0 -0.035516284287906888 0.0010032537044477705 0 -0.035652867555476205 0.0017648397890523595 0 -0.035516284287906888 0.0010032537044477705 0 -0.03592521404736837 0.0012507655434001806 0 -0.035516284287906888 0.0010032537044477705 0 -0.035474846152943433 0.00032816086894419533 0 -0.035990980691794766 0.00018295191571167301 0 -0.035516284287906888 0.0010032537044477705 0 -0.036139991937806849 0.00054664280849694503 0 -0.035990980691794766 0.00018295191571167301 0 -0.036139991937806849 0.00054664280849694503 0 -0.035990980691794766 0.00018295191571167301 0 -0.036231646783983371 0.00016000557131966173 0 -0.036207976172373646 0.00047712414220005289 0 -0.036139991937806849 0.00054664280849694503 0 -0.036231646783983371 0.00016000557131966173 0 -0.035087344106900474 0.0018111806316588642 0 -0.034870590699266145 0.0013787435236315493 0 -0.034205601098880739 0.0021362930718818525 0 -0.034870590699266145 0.0013787435236315493 0 -0.034458935845095406 0.0012130142840367892 0 -0.034205601098880739 0.0021362930718818525 0 -0.034458935845095406 0.0012130142840367892 0 -0.034205601098880739 0.0021362930718818525 0 -0.033989609023754072 0.0014742351702905759 0 -0.035087344106900474 0.0018111806316588642 0 -0.035516284287906888 0.0010032537044477705 0 -0.034870590699266145 0.0013787435236315493 0 -0.035516284287906888 0.0010032537044477705 0 -0.034870590699266145 0.0013787435236315493 0 -0.035010410059356109 0.0007560648962820774 0 -0.035516284287906888 0.0010032537044477705 0 -0.035010410059356109 0.0007560648962820774 0 -0.035474846152943433 0.00032816086894419533 0 -0.034870590699266145 0.0013787435236315493 0 -0.035010410059356109 0.0007560648962820774 0 -0.034458935845095406 0.0012130142840367892 0 -0.035010410059356109 0.0007560648962820774 0 -0.034495385946076929 0.00061316965320872365 0 -0.034458935845095406 0.0012130142840367892 0 -0.034495385946076929 0.00061316965320872365 0 -0.034458935845095406 0.0012130142840367892 0 -0.034098398518197043 0.00093947869141383937 0 -0.034516578862753375 0.00012177469023160377 0 -0.035015194774799939 -4.3152282652077372e-05 0 -0.034316617333326034 -0.00028024616257617816 0 -0.035010410059356109 0.0007560648962820774 0 -0.034495385946076929 0.00061316965320872365 0 -0.035015194774799939 -4.3152282652077372e-05 0 -0.034516578862753375 0.00012177469023160377 0 -0.034316617333326034 -0.00028024616257617816 0 -0.033956099815943976 0.00036065368881062053 0 -0.034495385946076929 0.00061316965320872365 0 -0.034516578862753375 0.00012177469023160377 0 -0.033956099815943976 0.00036065368881062053 0 -0.034495385946076929 0.00061316965320872365 0 -0.034516578862753375 0.00012177469023160377 0 -0.035015194774799939 -4.3152282652077372e-05 0 -0.035474846152943433 0.00032816086894419533 0 -0.035015194774799939 -4.3152282652077372e-05 0 -0.035763745177315502 -0.0001697788424488219 0 -0.035010410059356109 0.0007560648962820774 0 -0.035474846152943433 0.00032816086894419533 0 -0.035015194774799939 -4.3152282652077372e-05 0 -0.035417104128569139 -0.00039354502324771205 0 -0.034753235030426405 -0.00061492132923227603 0 -0.035265354419444034 -0.00080516104988974228 0 -0.035015194774799939 -4.3152282652077372e-05 0 -0.035417104128569139 -0.00039354502324771205 0 -0.035763745177315502 -0.0001697788424488219 0 -0.035015194774799939 -4.3152282652077372e-05 0 -0.035417104128569139 -0.00039354502324771205 0 -0.034753235030426405 -0.00061492132923227603 0 -0.035417104128569139 -0.00039354502324771205 0 -0.035915044420287201 -0.00057196233279613058 0 -0.035265354419444034 -0.00080516104988974228 0 -0.035015194774799939 -4.3152282652077372e-05 0 -0.034753235030426405 -0.00061492132923227603 0 -0.034316617333326034 -0.00028024616257617816 0 -0.034753235030426405 -0.00061492132923227603 0 -0.034316617333326034 -0.00028024616257617816 0 -0.033858259351978878 -0.00062670738565068793 0 -0.036211232293044841 -0.00018856510883537907 0 -0.035990980691794766 0.00018295191571167301 0 -0.036231646783983371 0.00016000557131966173 0 -0.036113941276563463 -0.00022290856118201816 0 -0.036211232293044841 -0.00018856510883537907 0 -0.036254949721342876 -0.00048285772073311658 0 -0.036113941276563463 -0.00022290856118201816 0 -0.036211232293044841 -0.00018856510883537907 0 -0.035990980691794766 0.00018295191571167301 0 -0.035474846152943433 0.00032816086894419533 0 -0.035990980691794766 0.00018295191571167301 0 -0.035763745177315502 -0.0001697788424488219 0 -0.036113941276563463 -0.00022290856118201816 0 -0.035990980691794766 0.00018295191571167301 0 -0.035763745177315502 -0.0001697788424488219 0 -0.036113941276563463 -0.00022290856118201816 0 -0.035763745177315502 -0.0001697788424488219 0 -0.036201701527252994 -0.00057417709745068829 0 -0.035763745177315502 -0.0001697788424488219 0 -0.035915044420287201 -0.00057196233279613058 0 -0.036201701527252994 -0.00057417709745068829 0 -0.035417104128569139 -0.00039354502324771205 0 -0.035763745177315502 -0.0001697788424488219 0 -0.035915044420287201 -0.00057196233279613058 0 -0.035915044420287201 -0.00057196233279613058 0 -0.036201701527252994 -0.00057417709745068829 0 -0.036275717536515525 -0.00074298999059434299 0 -0.036113941276563463 -0.00022290856118201816 0 -0.036201701527252994 -0.00057417709745068829 0 -0.036254949721342876 -0.00048285772073311658 0 -0.036201701527252994 -0.00057417709745068829 0 -0.036321883331862537 -0.00075115340912366123 0 -0.036382154129754603 -0.00079590892905964607 0 -0.036201701527252994 -0.00057417709745068829 0 -0.036254949721342876 -0.00048285772073311658 0 -0.036321883331862537 -0.00075115340912366123 0 -0.036321883331862537 -0.00075115340912366123 0 -0.036281616563408572 -0.00073422799749074316 0 -0.036292640840432079 -0.00091668463455734674 0 -0.036281616563408572 -0.00073422799749074316 0 -0.036192751305384033 -0.00098444938313112305 0 -0.036292640840432079 -0.00091668463455734674 0 -0.036254949721342876 -0.00048285772073311658 0 -0.036321883331862537 -0.00075115340912366123 0 -0.036281616563408572 -0.00073422799749074316 0 -0.036254949721342876 -0.00048285772073311658 0 -0.036281616563408572 -0.00073422799749074316 0 -0.036283374935570233 -0.00033111109980275193 0 -0.036211232293044841 -0.00018856510883537907 0 -0.036254949721342876 -0.00048285772073311658 0 -0.036283374935570233 -0.00033111109980275193 0 -0.036283374935570233 -0.00033111109980275193 0 -0.036336813013735501 -0.00016514916769869005 0 -0.036309433744471167 -0.00054931876259572455 0 -0.036281616563408572 -0.00073422799749074316 0 -0.036283374935570233 -0.00033111109980275193 0 -0.036309433744471167 -0.00054931876259572455 0 -0.036283374935570233 -0.00033111109980275193 0 -0.036336813013735501 -0.00016514916769869005 0 -0.036231646783983371 0.00016000557131966173 0 -0.036211232293044841 -0.00018856510883537907 0 -0.036283374935570233 -0.00033111109980275193 0 -0.036231646783983371 0.00016000557131966173 0 -0.036336813013735501 -0.00016514916769869005 0 -0.036492908578011241 -0.00040366652773035557 0 -0.036309433744471167 -0.00054931876259572455 0 -0.036492908578011241 -0.00040366652773035557 0 -0.036309433744471167 -0.00054931876259572455 0 -0.036252683264383738 -0.00081782009580700927 0 -0.036281616563408572 -0.00073422799749074316 0 -0.036309433744471167 -0.00054931876259572455 0 -0.036252683264383738 -0.00081782009580700927 0 -0.036281616563408572 -0.00073422799749074316 0 -0.036252683264383738 -0.00081782009580700927 0 -0.036192751305384033 -0.00098444938313112305 0 -0.036252683264383738 -0.00081782009580700927 0 -0.036038950777115074 -0.0011495159758745921 0 -0.036192751305384033 -0.00098444938313112305 0 -0.036492908578011241 -0.00040366652773035557 0 -0.036252683264383738 -0.00081782009580700927 0 -0.036150763602054457 -0.0011072378675812246 0 -0.035331213003080376 -0.0032702007166437769 0 -0.035279236903842527 -0.0028995058679284684 0 -0.035077927680127761 -0.0030599563210561773 0 -0.036252683264383738 -0.00081782009580700927 0 -0.036150763602054457 -0.0011072378675812246 0 -0.036038950777115074 -0.0011495159758745921 0 -0.035279236903842527 -0.0028995058679284684 0 -0.035077927680127761 -0.0030599563210561773 0 -0.034202458155448943 -0.0025023521563942545 0 -0.028979567335271378 0.0016566503560482672 0 -0.030424562488963875 0.0011039269111939481 0 -0.030911805430203689 -0.00027854196369022548 0 -0.031975139895760153 -0.00072147558447880451 0 -0.032528830929739537 -0.001361711139081384 0 -0.028979567335271378 0.0016566503560482672 0 -0.030424562488963875 0.0011039269111939481 0 -0.029823966779158422 0.0024757328257544522 0 -0.030424562488963875 0.0011039269111939481 0 -0.030950557031562447 0.0024861175797972926 0 -0.029823966779158422 0.0024757328257544522 0 -0.023823767055658706 0.006441547497838469 0 -0.023293154647396161 0.0068231364511727385 0 -0.030950557031562447 0.0024861175797972926 0 -0.029402813870617089 0.0035982926727397102 0 -0.028886585473962955 0.005490777697197342 0 -0.016853050955130566 0.010116390386874436 0 -0.016965276437932116 0.0098896407569593527 0 -0.016808333644929955 0.009947336985612891 0 -0.030950557031562447 0.0024861175797972926 0 -0.029823966779158422 0.0024757328257544522 0 -0.029402813870617089 0.0035982926727397102 0 -0.028979567335271378 0.0016566503560482672 0 -0.029823966779158422 0.0024757328257544522 0 -0.029402813870617089 0.0035982926727397102 0 -0.026989932654594276 0.0037319622803279034 0 -0.028979567335271378 0.0016566503560482672 0 -0.029402813870617089 0.0035982926727397102 0 -0.026989932654594276 0.0037319622803279034 0 -0.029402813870617089 0.0035982926727397102 0 -0.028558394510435316 0.0044582994701945836 0 -0.031645282879232052 0.00064257827195678022 0 -0.036240763157535293 -0.0026294843866624617 0 -0.031645282879232052 0.00064257827195678022 0 -0.031975139895760153 -0.00072147558447880451 0 -0.026989932654594276 0.0037319622803279034 0 -0.027889015909547659 0.005048522340033417 0 -0.026894645651665262 0.0055494867853915662 0 -0.026989932654594276 0.0037319622803279034 0 -0.027889015909547659 0.005048522340033417 0 -0.028558394510435316 0.0044582994701945836 0 -0.027889015909547659 0.005048522340033417 0 -0.028558394510435316 0.0044582994701945836 0 -0.028886585473962955 0.005490777697197342 0 -0.029402813870617089 0.0035982926727397102 0 -0.028558394510435316 0.0044582994701945836 0 -0.028886585473962955 0.005490777697197342 0 -0.027889015909547659 0.005048522340033417 0 -0.028886585473962955 0.005490777697197342 0 -0.02797228253946505 0.0060493078637049941 0 -0.027889015909547659 0.005048522340033417 0 -0.02797228253946505 0.0060493078637049941 0 -0.026894645651665262 0.0055494867853915662 0 -0.02797228253946505 0.0060493078637049941 0 -0.027085657869450944 0.0062150250526881315 0 -0.026894645651665262 0.0055494867853915662 0 -0.016965276437932116 0.0098896407569593527 0 -0.016808333644929955 0.009947336985612891 0 -0.016870637591784674 0.0098639158401210049 0 -0.016965276437932116 0.0098896407569593527 0 -0.016870637591784674 0.0098639158401210049 0 -0.016945263222660802 0.0098231260816001257 0 -0.016808333644929955 0.009947336985612891 0 -0.016870637591784674 0.0098639158401210049 0 -0.016779305228046021 0.00986122620940009 0 -0.016839963284138806 0.0098135057297303752 0 -0.016705033035232901 0.0098066056800722827 0 -0.016740805483802083 0.0097558677902430738 0 -0.016779305228046021 0.00986122620940009 0 -0.016839963284138806 0.0098135057297303752 0 -0.016705033035232901 0.0098066056800722827 0 -0.016870637591784674 0.0098639158401210049 0 -0.016779305228046021 0.00986122620940009 0 -0.016839963284138806 0.0098135057297303752 0 -0.016870637591784674 0.0098639158401210049 0 -0.016839963284138806 0.0098135057297303752 0 -0.016945263222660802 0.0098231260816001257 0 -0.016839963284138806 0.0098135057297303752 0 -0.016945263222660802 0.0098231260816001257 0 -0.016928739614332777 0.009766619672205476 0 -0.016839963284138806 0.0098135057297303752 0 -0.016825634713748077 0.0097411748655550912 0 -0.016928739614332777 0.009766619672205476 0 -0.016839963284138806 0.0098135057297303752 0 -0.016825634713748077 0.0097411748655550912 0 -0.016740805483802083 0.0097558677902430738 0 -0.017118540190465624 0.0097602252050513101 0 -0.016945263222660802 0.0098231260816001257 0 -0.016928739614332777 0.009766619672205476 0 -0.020462774039674444 0.013837944505424608 0 -0.023293154647396161 0.0068231364511727385 0 -0.017118540190465624 0.0097602252050513101 0 -0.016965276437932116 0.0098896407569593527 0 -0.016945263222660802 0.0098231260816001257 0 -0.02797228253946505 0.0060493078637049941 0 -0.026479461430237938 0.0081693099508840551 0 -0.02687704293465977 0.0068259871443890454 0 -0.026093543936831862 0.009273379271241838 0 -0.028886585473962955 0.005490777697197342 0 -0.02797228253946505 0.0060493078637049941 0 -0.029112978532549173 0.0047718283319434212 0 -0.022527907896290257 0.011990582876902774 0 -0.02797228253946505 0.0060493078637049941 0 -0.027085657869450944 0.0062150250526881315 0 -0.02687704293465977 0.0068259871443890454 0 -0.026479461430237938 0.0081693099508840551 0 -0.026306380648556362 0.0073840321551839382 0 -0.02687704293465977 0.0068259871443890454 0 -0.026093543936831862 0.009273379271241838 0 -0.02797228253946505 0.0060493078637049941 0 -0.025716450653950951 0.0091019953604075787 0 -0.026479461430237938 0.0081693099508840551 0 -0.026306380648556362 0.0073840321551839382 0 -0.025972546372355815 0.007686210318606509 0 -0.026593641695117715 0.0064304161811434687 0 -0.025551334002853126 0.0071372168114296518 0 -0.026894645651665262 0.0055494867853915662 0 -0.026306380648556362 0.0073840321551839382 0 -0.02687704293465977 0.0068259871443890454 0 -0.026288109613496161 0.0069026923847636222 0 -0.02687704293465977 0.0068259871443890454 0 -0.026288109613496161 0.0069026923847636222 0 -0.026593641695117715 0.0064304161811434687 0 -0.027085657869450944 0.0062150250526881315 0 -0.02687704293465977 0.0068259871443890454 0 -0.026593641695117715 0.0064304161811434687 0 -0.026288109613496161 0.0069026923847636222 0 -0.026593641695117715 0.0064304161811434687 0 -0.025551334002853126 0.0071372168114296518 0 -0.026288109613496161 0.0069026923847636222 0 -0.026010798374513686 0.0071929037060435765 0 -0.025551334002853126 0.0071372168114296518 0 -0.026306380648556362 0.0073840321551839382 0 -0.026288109613496161 0.0069026923847636222 0 -0.026010798374513686 0.0071929037060435765 0 -0.026010798374513686 0.0071929037060435765 0 -0.025551334002853126 0.0071372168114296518 0 -0.025854070855920074 0.0074584793797676796 0 -0.027042886570781691 0.0086495115860082405 0 -0.02557757520568605 0.0086071030297609659 0 -0.025220745832701227 0.0077519500777023164 0 -0.026479461430237938 0.0081693099508840551 0 -0.025972546372355815 0.007686210318606509 0 -0.025220745832701227 0.0077519500777023164 0 -0.025854070855920074 0.0074584793797676796 0 -0.025972546372355815 0.007686210318606509 0 -0.025220745832701227 0.0077519500777023164 0 -0.025551334002853126 0.0071372168114296518 0 -0.025854070855920074 0.0074584793797676796 0 -0.025220745832701227 0.0077519500777023164 0 -0.022527907896290257 0.011990582876902774 0 -0.02522485652813896 0.0094660811023921099 0 -0.026306380648556362 0.0073840321551839382 0 -0.025854070855920074 0.0074584793797676796 0 -0.025972546372355815 0.007686210318606509 0 -0.026306380648556362 0.0073840321551839382 0 -0.026010798374513686 0.0071929037060435765 0 -0.025854070855920074 0.0074584793797676796 0 -0.021520768141499839 0.0087343894447573355 0 -0.023897419599459166 0.0076877729289880747 0 -0.024662045091299406 0.0054441906296347001 0 -0.0246738313301763 0.0087367900103375116 0 -0.02557757520568605 0.0086071030297609659 0 -0.025220745832701227 0.0077519500777023164 0 -0.023586347414220152 0.0091057617068732912 0 -0.0246738313301763 0.0087367900103375116 0 -0.023897419599459166 0.0076877729289880747 0 -0.036115021945943286 0.00074371427032739049 0 -0.036207976172373646 0.00047712414220005289 0 -0.036373545112136627 0.00034893297832052305 0 -0.0246738313301763 0.0087367900103375116 0 -0.023897419599459166 0.0076877729289880747 0 -0.025220745832701227 0.0077519500777023164 0 -0.032525931602469971 0.0052716394513721973 0 -0.030060404915117404 0.0029644953454460114 0 -0.025551334002853126 0.0071372168114296518 0 -0.025220745832701227 0.0077519500777023164 0 -0.024842210433377258 0.0070226434802875106 0 -0.023897419599459166 0.0076877729289880747 0 -0.025220745832701227 0.0077519500777023164 0 -0.024842210433377258 0.0070226434802875106 0 -0.023586347414220152 0.0091057617068732912 0 -0.021520768141499839 0.0087343894447573355 0 -0.023897419599459166 0.0076877729289880747 0 -0.023897419599459166 0.0076877729289880747 0 -0.024842210433377258 0.0070226434802875106 0 -0.024662045091299406 0.0054441906296347001 0 -0.025551334002853126 0.0071372168114296518 0 -0.024842210433377258 0.0070226434802875106 0 -0.024662045091299406 0.0054441906296347001 0 -0.036207976172373646 0.00047712414220005289 0 -0.036373545112136627 0.00034893297832052305 0 -0.036231646783983371 0.00016000557131966173 0 -0.036336813013735501 -0.00016514916769869005 0 -0.036373545112136627 0.00034893297832052305 0 -0.036231646783983371 0.00016000557131966173 0 -0.028391055249416382 0.0018389035513842386 0 -0.025551334002853126 0.0071372168114296518 0 -0.024662045091299406 0.0054441906296347001 0 -0.031645282879232052 0.00064257827195678022 0 -0.030060404915117404 0.0029644953454460114 0 -0.036336813013735501 -0.00016514916769869005 0 -0.036492908578011241 -0.00040366652773035557 0 -0.036373545112136627 0.00034893297832052305 0 -0.031645282879232052 0.00064257827195678022 0 -0.024265242376465174 0.0080605787493438202 0 -0.026989932654594276 0.0037319622803279034 0 -0.025551334002853126 0.0071372168114296518 0 -0.026894645651665262 0.0055494867853915662 0 -0.027085657869450944 0.0062150250526881315 0 -0.026593641695117715 0.0064304161811434687 0 -0.026894645651665262 0.0055494867853915662 0 -0.034999889055390289 0.015006965887761407 0 -0.036004926249543934 0.014324775726734747 0 -0.034999976379629046 0.013120906408175309 0 -0.036019921458840427 0.013368035493196762 0 -0.036004926249543934 0.014324775726734747 0 -0.034999976379629046 0.013120906408175309 0 -0.036019921458840427 0.013368035493196762 0 -0.03691798867583411 0.014204129045465964 0 -0.037409239859048524 0.013480533648681139 0 -0.036019921458840427 0.013368035493196762 0 -0.03691798867583411 0.014204129045465964 0 -0.036004926249543934 0.014324775726734747 0 -0.036878795945063943 0.015237259821229679 0 -0.036004926249543934 0.014324775726734747 0 -0.036043891470163431 0.01567899275474326 0 -0.03691798867583411 0.014204129045465964 0 -0.036878795945063943 0.015237259821229679 0 -0.036004926249543934 0.014324775726734747 0 -0.034999889055390289 0.015006965887761407 0 -0.036004926249543934 0.014324775726734747 0 -0.036043891470163431 0.01567899275474326 0 -0.034999889055390289 0.015006965887761407 0 -0.035817452457426464 0.016627491695791464 0 -0.034999926240761634 0.016893109576825511 0 -0.034999889055390289 0.015006965887761407 0 -0.035817452457426464 0.016627491695791464 0 -0.036043891470163431 0.01567899275474326 0 -0.035967565788554576 0.017767448140191915 0 -0.035817452457426464 0.016627491695791464 0 -0.034999926240761634 0.016893109576825511 0 -0.035967565788554576 0.017767448140191915 0 -0.035817452457426464 0.016627491695791464 0 -0.036605453558106738 0.016947252643245425 0 -0.036605453558106738 0.016947252643245425 0 -0.036043891470163431 0.01567899275474326 0 -0.037411628661104229 0.016217385083408815 0 -0.036878795945063943 0.015237259821229679 0 -0.036043891470163431 0.01567899275474326 0 -0.037578585604920271 0.015705039533071063 0 -0.035817452457426464 0.016627491695791464 0 -0.036605453558106738 0.016947252643245425 0 -0.036043891470163431 0.01567899275474326 0 -0.036114539657695038 0.015713458888092131 0 -0.037442465933209393 0.015951405785177616 0 -0.036878795945063943 0.015237259821229679 0 -0.037578585604920271 0.015705039533071063 0 -0.038320842563407793 0.015301161285071647 0 -0.037001512696950269 0.018251129703270509 0 -0.036605453558106738 0.016947252643245425 0 -0.037259900069501063 0.017130229592637561 0 -0.037411628661104229 0.016217385083408815 0 -0.037259900069501063 0.017130229592637561 0 -0.037900879227145225 0.017438039324500037 0 -0.037001512696950269 0.018251129703270509 0 -0.037259900069501063 0.017130229592637561 0 -0.037900879227145225 0.017438039324500037 0 -0.036605453558106738 0.016947252643245425 0 -0.037411628661104229 0.016217385083408815 0 -0.037259900069501063 0.017130229592637561 0 -0.037900879227145225 0.017438039324500037 0 -0.038645546623773598 0.016575661784689791 0 -0.038793911897942339 0.017352371656213748 0 -0.038814454585855182 0.018142773474216455 0 -0.037900879227145225 0.017438039324500037 0 -0.038793911897942339 0.017352371656213748 0 -0.037442465933209393 0.015951405785177616 0 -0.038826405282065456 0.016201839880546281 0 -0.038320842563407793 0.015301161285071647 0 -0.03923407052315455 0.014934882109589979 0 -0.03895338458553041 0.015836250513951849 0 -0.037578585604920271 0.015705039533071063 0 -0.038320842563407793 0.015301161285071647 0 -0.03895338458553041 0.015836250513951849 0 -0.037411628661104229 0.016217385083408815 0 -0.037900879227145225 0.017438039324500037 0 -0.038645546623773598 0.016575661784689791 0 -0.038449462816755091 0.014464691349754817 0 -0.038320842563407793 0.015301161285071647 0 -0.03923407052315455 0.014934882109589979 0 -0.036895227083632694 0.015165845101510797 0 -0.038647398403046665 0.014437658887845954 0 -0.036878795945063943 0.015237259821229679 0 -0.038449462816755091 0.014464691349754817 0 -0.038320842563407793 0.015301161285071647 0 -0.03691798867583411 0.014204129045465964 0 -0.036878795945063943 0.015237259821229679 0 -0.038617772881209475 0.014164282275742887 0 -0.03691798867583411 0.014204129045465964 0 -0.038617772881209475 0.014164282275742887 0 -0.037409239859048524 0.013480533648681139 0 -0.038617772881209475 0.014164282275742887 0 -0.039584647301972538 0.012769195032351705 0 -0.03886694294124312 0.012858955795858431 0 -0.038617772881209475 0.014164282275742887 0 -0.038245403971090441 0.013113692858992939 0 -0.03886694294124312 0.012858955795858431 0 -0.038617772881209475 0.014164282275742887 0 -0.037409239859048524 0.013480533648681139 0 -0.038245403971090441 0.013113692858992939 0 -0.038449462816755091 0.014464691349754817 0 -0.039953541101647456 0.013700207490453958 0 -0.03944317371669516 0.014485794382555661 0 -0.038647398403046665 0.014437658887845954 0 -0.039390680183624918 0.012613913576974653 0 -0.038617772881209475 0.014164282275742887 0 -0.040345056132720415 0.013195063780235642 0 -0.039584647301972538 0.012769195032351705 0 -0.039953541101647456 0.013700207490453958 0 -0.040135191276021678 0.014843335229784387 0 -0.03944317371669516 0.014485794382555661 0 -0.038044064874645997 0.010117764129917516 0 -0.037062790250907085 0.011933254156136592 0 -0.039390680183624918 0.012613913576974653 0 -0.039603088180249622 0.015010934344814417 0 -0.038735421229218081 0.013085864700341562 0 -0.039222882458378357 0.012837151137810232 0 -0.039047772732247174 0.014934969875949942 0 -0.039222882458378357 0.012837151137810232 0 -0.039047772732247174 0.014934969875949942 0 -0.040370523278172137 0.014772616946699523 0 -0.039390680183624918 0.012613913576974653 0 -0.038044064874645997 0.010117764129917516 0 -0.039047772732247174 0.014934969875949942 0 -0.040030034658932047 0.015880100117378684 0 -0.040370523278172137 0.014772616946699523 0 -0.040135191276021678 0.014843335229784387 0 -0.03944317371669516 0.014485794382555661 0 -0.03923407052315455 0.014934882109589979 0 -0.040135191276021678 0.014843335229784387 0 -0.03923407052315455 0.014934882109589979 0 -0.039669743250995648 0.015347385556194932 0 -0.038449462816755091 0.014464691349754817 0 -0.03944317371669516 0.014485794382555661 0 -0.03923407052315455 0.014934882109589979 0 -0.03923407052315455 0.014934882109589979 0 -0.039669743250995648 0.015347385556194932 0 -0.03895338458553041 0.015836250513951849 0 -0.038645546623773598 0.016575661784689791 0 -0.039237133249772467 0.01705476669000764 0 -0.039799815560611351 0.016795472304681949 0 -0.038826405282065456 0.016201839880546281 0 -0.039910077181592341 0.016389005579074103 0 -0.039669743250995648 0.015347385556194932 0 -0.03895338458553041 0.015836250513951849 0 -0.040312352836569719 0.015982087590823573 0 -0.038645546623773598 0.016575661784689791 0 -0.038793911897942339 0.017352371656213748 0 -0.039237133249772467 0.01705476669000764 0 -0.038793911897942339 0.017352371656213748 0 -0.039237133249772467 0.01705476669000764 0 -0.039359587810406819 0.017582902611077741 0 -0.038814454585855182 0.018142773474216455 0 -0.038793911897942339 0.017352371656213748 0 -0.039359587810406819 0.017582902611077741 0 -0.039740031052661058 0.018249748743479833 0 -0.039359587810406819 0.017582902611077741 0 -0.039947229475468429 0.017652556698086359 0 -0.039359587810406819 0.017582902611077741 0 -0.039947229475468429 0.017652556698086359 0 -0.039833731448493025 0.017080094791549275 0 -0.039237133249772467 0.01705476669000764 0 -0.039833731448493025 0.017080094791549275 0 -0.039799815560611351 0.016795472304681949 0 -0.039237133249772467 0.01705476669000764 0 -0.039359587810406819 0.017582902611077741 0 -0.039833731448493025 0.017080094791549275 0 -0.039947229475468429 0.017652556698086359 0 -0.039833731448493025 0.017080094791549275 0 -0.040330443948554298 0.01741189143405536 0 -0.039603088180249622 0.015010934344814417 0 -0.039910077181592341 0.016389005579074103 0 -0.039833731448493025 0.017080094791549275 0 -0.039771686199739802 0.016748238954348023 0 -0.040194216020106165 0.016738873021678886 0 -0.039380118445951691 0.016669528645367408 0 -0.040030034658932047 0.015880100117378684 0 -0.040194216020106165 0.016738873021678886 0 -0.039910077181592341 0.016389005579074103 0 -0.040012861621796028 0.016574139108744591 0 -0.039047772732247174 0.014934969875949942 0 -0.039380118445951691 0.016669528645367408 0 -0.040030034658932047 0.015880100117378684 0 -0.040135191276021678 0.014843335229784387 0 -0.039669743250995648 0.015347385556194932 0 -0.040312352836569719 0.015982087590823573 0 -0.039921869185436297 0.016811653788592285 0 -0.039910077181592341 0.016389005579074103 0 -0.040030034658932047 0.015880100117378684 0 -0.04126573459589726 0.016558281542302648 0 -0.040370523278172137 0.014772616946699523 0 -0.040030034658932047 0.015880100117378684 0 -0.040194216020106165 0.016738873021678886 0 -0.04126573459589726 0.016558281542302648 0 -0.038121903028580983 0.013671841613799739 0 -0.037062790250907085 0.011933254156136592 0 -0.040194216020106165 0.016738873021678886 0 -0.040955304535131049 0.017466627433468388 0 -0.040330443948554298 0.01741189143405536 0 -0.039833731448493025 0.017080094791549275 0 -0.040194216020106165 0.016738873021678886 0 -0.040330443948554298 0.01741189143405536 0 -0.040194216020106165 0.016738873021678886 0 -0.040955304535131049 0.017466627433468388 0 -0.04126573459589726 0.016558281542302648 0 -0.040508979495173923 0.01796075415461491 0 -0.039947229475468429 0.017652556698086359 0 -0.040330443948554298 0.01741189143405536 0 -0.040508979495173923 0.01796075415461491 0 -0.040955304535131049 0.017466627433468388 0 -0.040330443948554298 0.01741189143405536 0 -0.03912154315165528 0.015242760767854956 0 -0.038121903028580983 0.013671841613799739 0 -0.040955304535131049 0.017466627433468388 0 -0.041915743693361242 0.017883961862504738 0 -0.04126573459589726 0.016558281542302648 0 -0.036123992482759194 0.012876258097106763 0 -0.035554507462816631 0.011206000435805772 0 -0.034923244209566669 0.010720618947981476 0 -0.041144659417188915 0.018319137287671573 0 -0.040955304535131049 0.017466627433468388 0 -0.041915743693361242 0.017883961862504738 0 -0.036778321426333957 0.011326888452627205 0 -0.036123992482759194 0.012876258097106763 0 -0.035554507462816631 0.011206000435805772 0 -0.035554507462816631 0.011206000435805772 0 -0.036188335981372166 0.010487281402406141 0 -0.035498969842509151 0.0092823288849677148 0 -0.035554507462816631 0.011206000435805772 0 -0.035498969842509151 0.0092823288849677148 0 -0.033298919760083937 0.0074202442346683606 0 -0.035554507462816631 0.011206000435805772 0 -0.034923244209566669 0.010720618947981476 0 -0.034621622766960257 0.0091776194536533837 0 -0.036778321426333957 0.011326888452627205 0 -0.035554507462816631 0.011206000435805772 0 -0.036188335981372166 0.010487281402406141 0 -0.035617818708648205 0.01121970853445789 0 -0.033472409872913091 0.0079731697982730644 0 -0.036842828438960695 0.010020570032710995 0 -0.036188335981372166 0.010487281402406141 0 -0.035498969842509151 0.0092823288849677148 0 -0.036764308120267084 0.0085061751491680767 0 -0.035498969842509151 0.0092823288849677148 0 -0.035278943516710098 0.0076451046417967961 0 -0.036764308120267084 0.0085061751491680767 0 -0.035278943516710098 0.0076451046417967961 0 -0.036129065604022161 0.0068064193798105053 0 -0.035278943516710098 0.0076451046417967961 0 -0.036129065604022161 0.0068064193798105053 0 -0.03454868073856554 0.0061699955915165867 0 -0.035278943516710098 0.0076451046417967961 0 -0.033298919760083937 0.0074202442346683606 0 -0.03454868073856554 0.0061699955915165867 0 -0.035498969842509151 0.0092823288849677148 0 -0.035278943516710098 0.0076451046417967961 0 -0.033298919760083937 0.0074202442346683606 0 -0.034923244209566669 0.010720618947981476 0 -0.034171949788377412 0.0091427037909905737 0 -0.034621622766960257 0.0091776194536533837 0 -0.033472409872913091 0.0079731697982730644 0 -0.035593764458478699 0.0063497784225841694 0 -0.033298919760083937 0.0074202442346683606 0 -0.032138450896739855 0.0043842407736442175 0 -0.03454868073856554 0.0061699955915165867 0 -0.033533206674255148 0.0080073001668406248 0 -0.034621622766960257 0.0091776194536533837 0 -0.033972909898448152 0.0077813904840474141 0 -0.032138450896739855 0.0043842407736442175 0 -0.034306707480948856 0.0045457784428150471 0 -0.03454868073856554 0.0061699955915165867 0 -0.033298919760083937 0.0074202442346683606 0 -0.032138450896739855 0.0043842407736442175 0 -0.031060410521772431 0.0029354398378290867 0 -0.033533206674255148 0.0080073001668406248 0 -0.034171949788377412 0.0091427037909905737 0 -0.034621622766960257 0.0091776194536533837 0 -0.032138450896739855 0.0043842407736442175 0 -0.033267932370680847 0.0037857638946416092 0 -0.034306707480948856 0.0045457784428150471 0 -0.032138450896739855 0.0043842407736442175 0 -0.033267932370680847 0.0037857638946416092 0 -0.031898064049844209 0.0022912489959224284 0 -0.033267932370680847 0.0037857638946416092 0 -0.034306707480948856 0.0045457784428150471 0 -0.033257581365518277 0.0023028534091930957 0 -0.034306707480948856 0.0045457784428150471 0 -0.036295477562430969 0.0044145266220943554 0 -0.033257581365518277 0.0023028534091930957 0 -0.036129065604022161 0.0068064193798105053 0 -0.036295477562430969 0.0044145266220943554 0 -0.03454868073856554 0.0061699955915165867 0 -0.034306707480948856 0.0045457784428150471 0 -0.036295477562430969 0.0044145266220943554 0 -0.03454868073856554 0.0061699955915165867 0 -0.034205601098880739 0.0021362930718818525 0 -0.033670127097501217 0.0017842559047020362 0 -0.033989609023754072 0.0014742351702905759 0 -0.035158474999980559 0.0032511542694241701 0 -0.033356502260294567 0.0023656107663322075 0 -0.034205601098880739 0.0021362930718818525 0 -0.033670127097501217 0.0017842559047020362 0 -0.033257581365518277 0.0023028534091930957 0 -0.033670127097501217 0.0017842559047020362 0 -0.033137884344737696 0.0018412949974969798 0 -0.033554464680807146 0.0010624245785695835 0 -0.033670127097501217 0.0017842559047020362 0 -0.033989609023754072 0.0014742351702905759 0 -0.033554464680807146 0.0010624245785695835 0 -0.033670127097501217 0.0017842559047020362 0 -0.033257581365518277 0.0023028534091930957 0 -0.033137884344737696 0.0018412949974969798 0 -0.032857464180298133 0.0019943510896806758 0 -0.033137884344737696 0.0018412949974969798 0 -0.032866155965858575 0.00081407401306965584 0 -0.033267932370680847 0.0037857638946416092 0 -0.033257581365518277 0.0023028534091930957 0 -0.031898064049844209 0.0022912489959224284 0 -0.033257581365518277 0.0023028534091930957 0 -0.031898064049844209 0.0022912489959224284 0 -0.033137884344737696 0.0018412949974969798 0 -0.033718759642237653 0.0044026298858696371 0 -0.033549473241128218 0.003444393711301728 0 -0.032600429888927328 0.0035482808332763637 0 -0.033718759642237653 0.0044026298858696371 0 -0.032138450896739855 0.0043842407736442175 0 -0.031060410521772431 0.0029354398378290867 0 -0.031874482883375944 0.0025285130099443249 0 -0.035593764458478699 0.0063497784225841694 0 -0.033718759642237653 0.0044026298858696371 0 -0.033137884344737696 0.0018412949974969798 0 -0.032866155965858575 0.00081407401306965584 0 -0.033554464680807146 0.0010624245785695835 0 -0.033718759642237653 0.0044026298858696371 0 -0.035981438369754967 0.0053303470421500136 0 -0.032866155965858575 0.00081407401306965584 0 -0.033554464680807146 0.0010624245785695835 0 -0.033352558991042676 0.00029907190715343178 0 -0.033989609023754072 0.0014742351702905759 0 -0.033554464680807146 0.0010624245785695835 0 -0.034098398518197043 0.00093947869141383937 0 -0.034458935845095406 0.0012130142840367892 0 -0.033989609023754072 0.0014742351702905759 0 -0.034098398518197043 0.00093947869141383937 0 -0.034495385946076929 0.00061316965320872365 0 -0.034098398518197043 0.00093947869141383937 0 -0.033956099815943976 0.00036065368881062053 0 -0.033554464680807146 0.0010624245785695835 0 -0.034098398518197043 0.00093947869141383937 0 -0.033956099815943976 0.00036065368881062053 0 -0.033554464680807146 0.0010624245785695835 0 -0.033956099815943976 0.00036065368881062053 0 -0.033352558991042676 0.00029907190715343178 0 -0.033956099815943976 0.00036065368881062053 0 -0.033801565831064966 -0.00014210551302871566 0 -0.033352558991042676 0.00029907190715343178 0 -0.034316617333326034 -0.00028024616257617816 0 -0.033956099815943976 0.00036065368881062053 0 -0.033801565831064966 -0.00014210551302871566 0 -0.034316617333326034 -0.00028024616257617816 0 -0.033801565831064966 -0.00014210551302871566 0 -0.033858259351978878 -0.00062670738565068793 0 -0.033801565831064966 -0.00014210551302871566 0 -0.033858259351978878 -0.00062670738565068793 0 -0.033336674808224914 -0.00018324063985319101 0 -0.033302069716744515 -0.00057435878349220912 0 -0.033336674808224914 -0.00018324063985319101 0 -0.032860379014952236 -0.000239101007109398 0 -0.033302069716744515 -0.00057435878349220912 0 -0.032860379014952236 -0.000239101007109398 0 -0.032808670932509797 -0.00060787424985042355 0 -0.033858259351978878 -0.00062670738565068793 0 -0.033302069716744515 -0.00057435878349220912 0 -0.033336674808224914 -0.00018324063985319101 0 -0.033801565831064966 -0.00014210551302871566 0 -0.033336674808224914 -0.00018324063985319101 0 -0.033352558991042676 0.00029907190715343178 0 -0.033336674808224914 -0.00018324063985319101 0 -0.033352558991042676 0.00029907190715343178 0 -0.032825353864392046 -0.00019579180035214736 0 -0.032391259566631594 0.00061606851069487018 0 -0.035829587921620616 0.0039941058796134823 0 -0.032866155965858575 0.00081407401306965584 0 -0.033352558991042676 0.00029907190715343178 0 -0.032825353864392046 -0.00019579180035214736 0 -0.035981438369754967 0.0053303470421500136 0 -0.035829587921620616 0.0039941058796134823 0 -0.038653685828783195 0.0092420799566067906 0 -0.039072430863157384 0.0094148248885808205 0 -0.039124710648943191 0.0096789256489323468 0 -0.038653685828783195 0.0092420799566067906 0 -0.039124710648943191 0.0096789256489323468 0 -0.039013748793016167 0.0098966712106642769 0 -0.039072430863157384 0.0094148248885808205 0 -0.039243917427016474 0.0095774454930793087 0 -0.039124710648943191 0.0096789256489323468 0 -0.039243917427016474 0.0095774454930793087 0 -0.039425642676465922 0.0092260336700631645 0 -0.039266101718452878 0.0093461651049901191 0 -0.039072430863157384 0.0094148248885808205 0 -0.039243917427016474 0.0095774454930793087 0 -0.039266101718452878 0.0093461651049901191 0 -0.039243917427016474 0.0095774454930793087 0 -0.039124710648943191 0.0096789256489323468 0 -0.039361975693899438 0.0099470639040175543 0 -0.039124710648943191 0.0096789256489323468 0 -0.039013748793016167 0.0098966712106642769 0 -0.039402906965171756 0.0098221528867207322 0 -0.039124710648943191 0.0096789256489323468 0 -0.039402906965171756 0.0098221528867207322 0 -0.039361975693899438 0.0099470639040175543 0 -0.035829587921620616 0.0039941058796134823 0 -0.038384999053458102 0.0075891372264465665 0 -0.036852707446874848 0.0067697544420766784 0 -0.037325147607974334 0.0064846109935455774 0 -0.037040174044540103 0.0061733565737321057 0 -0.038384999053458102 0.0075891372264465665 0 -0.036122189150868581 0.0037708385753840602 0 -0.036608375291692086 0.0051251401751733353 0 -0.037239493529620658 0.0052276003157792827 0 -0.036672768852784803 0.0055805416561063876 0 -0.035829587921620616 0.0039941058796134823 0 -0.036122189150868581 0.0037708385753840602 0 -0.039402906965171756 0.0098221528867207322 0 -0.039361975693899438 0.0099470639040175543 0 -0.038852014351828036 0.010097714765425246 0 -0.038384999053458102 0.0075891372264465665 0 -0.037242714143172533 0.0079065868661894884 0 -0.036852707446874848 0.0067697544420766784 0 -0.035927527730925966 0.0067201651970168978 0 -0.036307133079416479 0.0061923328949784039 0 -0.038384999053458102 0.0075891372264465665 0 -0.039218001016566389 0.010481479435373515 0 -0.040138513880151154 0.0092078478220800637 0 -0.038852014351828036 0.010097714765425246 0 -0.038499959162242678 0.0089731324510121616 0 -0.039243917427016474 0.0095774454930793087 0 -0.039361975693899438 0.0099470639040175543 0 -0.039425642676465922 0.0092260336700631645 0 -0.039464424307274544 0.0099880654490773924 0 -0.039609264108481528 0.010058529267633957 0 -0.039361975693899438 0.0099470639040175543 0 -0.039227456288014294 0.010593790250455115 0 -0.038852014351828036 0.010097714765425246 0 -0.039361975693899438 0.0099470639040175543 0 -0.039227456288014294 0.010593790250455115 0 -0.039891885187611546 0.010965315753896728 0 -0.039227456288014294 0.010593790250455115 0 -0.03938595112474591 0.011061618133098606 0 -0.038787694560408724 0.011413172799837647 0 -0.039952446403805131 0.011803676232011428 0 -0.039891885187611546 0.010965315753896728 0 -0.040186929268114582 0.012136151229590728 0 -0.039227456288014294 0.010593790250455115 0 -0.03938595112474591 0.011061618133098606 0 -0.039891885187611546 0.010965315753896728 0 -0.039609264108481528 0.010058529267633957 0 -0.039578727092358226 0.010836549337344313 0 -0.03949009889824024 0.011441129390391311 0 -0.039354914055545871 0.012078318824773698 0 -0.038787694560408724 0.011413172799837647 0 -0.03938595112474591 0.011061618133098606 0 -0.03949009889824024 0.011441129390391311 0 -0.038787694560408724 0.011413172799837647 0 -0.03949009889824024 0.011441129390391311 0 -0.039952446403805131 0.011803676232011428 0 -0.039354914055545871 0.012078318824773698 0 -0.03949009889824024 0.011441129390391311 0 -0.039952446403805131 0.011803676232011428 0 -0.039891885187611546 0.010965315753896728 0 -0.03938595112474591 0.011061618133098606 0 -0.03949009889824024 0.011441129390391311 0 -0.039891885187611546 0.010965315753896728 0 -0.039266101718452878 0.0093461651049901191 0 -0.039006696706166695 0.0090488612801885721 0 -0.039020766982583596 0.0085903309997887971 0 -0.038342341347202588 0.0079055017930231026 0 -0.038653685828783195 0.0092420799566067906 0 -0.039020766982583596 0.0085903309997887971 0 -0.039425642676465922 0.0092260336700631645 0 -0.039266101718452878 0.0093461651049901191 0 -0.03903270223647988 0.0088894217248490677 0 -0.0391735647046519 0.0091257684229538658 0 -0.039155919943862041 0.0091941313452965183 0 -0.039425642676465922 0.0092260336700631645 0 -0.03903270223647988 0.0088894217248490677 0 -0.039320286563671161 0.0087111031707378297 0 -0.039072430863157384 0.0094148248885808205 0 -0.039266101718452878 0.0093461651049901191 0 -0.039006696706166695 0.0090488612801885721 0 -0.038653685828783195 0.0092420799566067906 0 -0.039072430863157384 0.0094148248885808205 0 -0.039006696706166695 0.0090488612801885721 0 -0.038653685828783195 0.0092420799566067906 0 -0.039006696706166695 0.0090488612801885721 0 -0.039020766982583596 0.0085903309997887971 0 -0.03903270223647988 0.0088894217248490677 0 -0.039320286563671161 0.0087111031707378297 0 -0.03904765994169735 0.0085791378827517785 0 -0.035593764458478699 0.0063497784225841694 0 -0.039155919943862041 0.0091941313452965183 0 -0.038601897161110066 0.0077707954750175284 0 -0.038342341347202588 0.0079055017930231026 0 -0.039020766982583596 0.0085903309997887971 0 -0.038782353516520929 0.0084213445763657805 0 -0.03903270223647988 0.0088894217248490677 0 -0.03904765994169735 0.0085791378827517785 0 -0.038044064874645997 0.010117764129917516 0 -0.035593764458478699 0.0063497784225841694 0 -0.039053413244038167 0.0082930311916157903 0 -0.038782353516520929 0.0084213445763657805 0 -0.03904765994169735 0.0085791378827517785 0 -0.038044064874645997 0.010117764129917516 0 -0.039578727092358226 0.010836549337344313 0 -0.039390680183624918 0.012613913576974653 0 -0.039578727092358226 0.010836549337344313 0 -0.039053413244038167 0.0082930311916157903 0 -0.039320286563671161 0.0087111031707378297 0 -0.03904765994169735 0.0085791378827517785 0 -0.039276298050057792 0.011217588804921574 0 -0.039367305540181391 0.011168708222965198 0 -0.039240132828779042 0.010949206544619396 0 -0.040345056132720415 0.013195063780235642 0 -0.040174129484242399 0.012143776115611023 0 -0.039584647301972538 0.012769195032351705 0 -0.039584647301972538 0.012769195032351705 0 -0.039354914055545871 0.012078318824773698 0 -0.03886694294124312 0.012858955795858431 0 -0.039584647301972538 0.012769195032351705 0 -0.039354914055545871 0.012078318824773698 0 -0.039756177336186582 0.012177228538354819 0 -0.039952446403805131 0.011803676232011428 0 -0.039354914055545871 0.012078318824773698 0 -0.039756177336186582 0.012177228538354819 0 -0.040174129484242399 0.012143776115611023 0 -0.039584647301972538 0.012769195032351705 0 -0.039756177336186582 0.012177228538354819 0 -0.039952446403805131 0.011803676232011428 0 -0.040174129484242399 0.012143776115611023 0 -0.039756177336186582 0.012177228538354819 0 -0.039939353712333404 0.011509436894015382 0 -0.039578727092358226 0.010836549337344313 0 -0.038564184671059515 0.012297114642989498 0 -0.03757006788616795 0.012027269873884873 0 -0.038787694560408724 0.011413172799837647 0 -0.039354914055545871 0.012078318824773698 0 -0.038564184671059515 0.012297114642989498 0 -0.03886694294124312 0.012858955795858431 0 -0.039354914055545871 0.012078318824773698 0 -0.038564184671059515 0.012297114642989498 0 -0.038787694560408724 0.011413172799837647 0 -0.038245403971090441 0.013113692858992939 0 -0.038564184671059515 0.012297114642989498 0 -0.03886694294124312 0.012858955795858431 0 -0.038245403971090441 0.013113692858992939 0 -0.038564184671059515 0.012297114642989498 0 -0.03757006788616795 0.012027269873884873 0 -0.037409239859048524 0.013480533648681139 0 -0.038245403971090441 0.013113692858992939 0 -0.03757006788616795 0.012027269873884873 0 -0.037409239859048524 0.013480533648681139 0 -0.03757006788616795 0.012027269873884873 0 -0.036172640585189854 0.012274303219650114 0 -0.03757006788616795 0.012027269873884873 0 -0.038182375166669509 0.010762686976463182 0 -0.037094914861754036 0.010695244359986316 0 -0.03757006788616795 0.012027269873884873 0 -0.038787694560408724 0.011413172799837647 0 -0.038182375166669509 0.010762686976463182 0 -0.039227456288014294 0.010593790250455115 0 -0.038787694560408724 0.011413172799837647 0 -0.038182375166669509 0.010762686976463182 0 -0.039227456288014294 0.010593790250455115 0 -0.038182375166669509 0.010762686976463182 0 -0.038852014351828036 0.010097714765425246 0 -0.038182375166669509 0.010762686976463182 0 -0.038852014351828036 0.010097714765425246 0 -0.0378667361780613 0.0098443843370157168 0 -0.038852014351828036 0.010097714765425246 0 -0.038499959162242678 0.0089731324510121616 0 -0.0378667361780613 0.0098443843370157168 0 -0.037242714143172533 0.0079065868661894884 0 -0.035987123734912363 0.0079073052523929675 0 -0.038499959162242678 0.0089731324510121616 0 -0.0378667361780613 0.0098443843370157168 0 -0.0367650884806364 0.0087219188174303582 0 -0.037094914861754036 0.010695244359986316 0 -0.0378667361780613 0.0098443843370157168 0 -0.0367650884806364 0.0087219188174303582 0 -0.038182375166669509 0.010762686976463182 0 -0.037094914861754036 0.010695244359986316 0 -0.0378667361780613 0.0098443843370157168 0 -0.037094914861754036 0.010695244359986316 0 -0.036000311441528016 0.010502795285316757 0 -0.0367650884806364 0.0087219188174303582 0 -0.034999983058700675 0.0098323904417848898 0 -0.036000311441528016 0.010502795285316757 0 -0.0367650884806364 0.0087219188174303582 0 -0.034999983058700675 0.0098323904417848898 0 -0.034999960284278833 0.0084298764747901735 0 -0.0367650884806364 0.0087219188174303582 0 -0.034999983058700675 0.0098323904417848898 0 -0.036000311441528016 0.010502795285316757 0 -0.034999952818628742 0.011234713836986423 0 -0.035000204806929919 0.011235158505407355 0 -0.03621693039287234 0.012363862101495886 0 -0.036000311441528016 0.010502795285316757 0 -0.034999952818628742 0.011234713836986423 0 -0.036172640585189854 0.012274303219650114 0 -0.03757006788616795 0.012027269873884873 0 -0.037094914861754036 0.010695244359986316 0 -0.036172640585189854 0.012274303219650114 0 -0.037094914861754036 0.010695244359986316 0 -0.036000311441528016 0.010502795285316757 0 -0.036172640585189854 0.012274303219650114 0 -0.03733979203410917 0.013410161033711525 0 -0.03621693039287234 0.012363862101495886 0 -0.036019921458840427 0.013368035493196762 0 -0.037409239859048524 0.013480533648681139 0 -0.036232595322104232 0.012423094566291802 0 -0.034999988418398013 0.011235040380117809 0 -0.036232595322104232 0.012423094566291802 0 -0.034999976379629046 0.013120906408175309 0 -0.036019921458840427 0.013368035493196762 0 -0.036232595322104232 0.012423094566291802 0 -0.034999976379629046 0.013120906408175309 0 -0.035881140609955911 0.0050277189288971957 0 -0.034999941482202479 0.0048399514934456536 0 -0.035699711021420229 0.0057684740758582884 0 -0.035881140609955911 0.0050277189288971957 0 -0.036359673417388064 0.0055345009506586806 0 -0.035699711021420229 0.0057684740758582884 0 -0.035881140609955911 0.0050277189288971957 0 -0.03568235391089962 0.0043941709145461404 0 -0.036181818167436923 0.0045442219579841922 0 -0.035881140609955911 0.0050277189288971957 0 -0.034999941482202479 0.0048399514934456536 0 -0.03568235391089962 0.0043941709145461404 0 -0.036894373097775747 0.005065739223605102 0 -0.036359673417388064 0.0055345009506586806 0 -0.037388973287707732 0.0056567828800554408 0 -0.037686028640065761 0.0045427153623362315 0 -0.03649701969784689 0.0041617952270220516 0 -0.03653745138805102 0.0043444970357549521 0 -0.035881140609955911 0.0050277189288971957 0 -0.036181818167436923 0.0045442219579841922 0 -0.036383172678400785 0.0049211904701965854 0 -0.036181818167436923 0.0045442219579841922 0 -0.036473537616231434 0.0046264258109650703 0 -0.03653745138805102 0.0043444970357549521 0 -0.036181818167436923 0.0045442219579841922 0 -0.036473537616231434 0.0046264258109650703 0 -0.036383172678400785 0.0049211904701965854 0 -0.036473537616231434 0.0046264258109650703 0 -0.036784198112925541 0.0047012309933684741 0 -0.03653745138805102 0.0043444970357549521 0 -0.036473537616231434 0.0046264258109650703 0 -0.036784198112925541 0.0047012309933684741 0 -0.036383172678400785 0.0049211904701965854 0 -0.036784198112925541 0.0047012309933684741 0 -0.036894373097775747 0.005065739223605102 0 -0.036383172678400785 0.0049211904701965854 0 -0.036894373097775747 0.005065739223605102 0 -0.036383172678400785 0.0049211904701965854 0 -0.036359673417388064 0.0055345009506586806 0 -0.035881140609955911 0.0050277189288971957 0 -0.036383172678400785 0.0049211904701965854 0 -0.036359673417388064 0.0055345009506586806 0 -0.035724085847451466 0.0064736623512043207 0 -0.036408403328674441 0.0053597523371011306 0 -0.03507602493700223 0.0062749701407897804 0 -0.035450155191241513 0.0058307973269039375 0 -0.035413211257970506 0.0050557697880384642 0 -0.036359673417388064 0.0055345009506586806 0 -0.035699711021420229 0.0057684740758582884 0 -0.036255322465273541 0.0067107238855994775 0 -0.036359673417388064 0.0055345009506586806 0 -0.036255322465273541 0.0067107238855994775 0 -0.037388973287707732 0.0056567828800554408 0 -0.034999938992175482 0.0063524484314695954 0 -0.035699711021420229 0.0057684740758582884 0 -0.036255322465273541 0.0067107238855994775 0 -0.034999941482202479 0.0048399514934456536 0 -0.034999938992175482 0.0063524484314695954 0 -0.035699711021420229 0.0057684740758582884 0 -0.034999183041906023 0.0078654158599086831 0 -0.035193201032617388 0.007203479952652329 0 -0.03507602493700223 0.0062749701407897804 0 -0.034999938992175482 0.0063524484314695954 0 -0.035000006034784273 0.0078649998747627459 0 -0.036255322465273541 0.0067107238855994775 0 -0.035000189985192956 0.0078645620818194872 0 -0.035724085847451466 0.0064736623512043207 0 -0.034999183041906023 0.0078654158599086831 0 -0.035000155014239247 0.0084276960481478817 0 -0.035193201032617388 0.007203479952652329 0 -0.035000155014239247 0.0084276960481478817 0 -0.035193201032617388 0.007203479952652329 0 -0.035348421846345256 0.0070411605782354954 0 -0.034999960744349023 0.0084295063816711945 0 -0.035987123734912363 0.0079073052523929675 0 -0.035193201032617388 0.007203479952652329 0 -0.035348421846345256 0.0070411605782354954 0 -0.035530721786586152 0.0063965064228135304 0 -0.03507602493700223 0.0062749701407897804 0 -0.035450155191241513 0.0058307973269039375 0 -0.035530721786586152 0.0063965064228135304 0 -0.035193201032617388 0.007203479952652329 0 -0.03507602493700223 0.0062749701407897804 0 -0.035530721786586152 0.0063965064228135304 0 -0.035450155191241513 0.0058307973269039375 0 -0.035530721786586152 0.0063965064228135304 0 -0.035826401203077479 0.0055639415460340845 0 -0.035927527730925966 0.0067201651970168978 0 -0.035348421846345256 0.0070411605782354954 0 -0.035530721786586152 0.0063965064228135304 0 -0.035927527730925966 0.0067201651970168978 0 -0.03604861458512449 0.0059592474308777449 0 -0.036307133079416479 0.0061923328949784039 0 -0.035927527730925966 0.0067201651970168978 0 -0.035530721786586152 0.0063965064228135304 0 -0.03604861458512449 0.0059592474308777449 0 -0.035530721786586152 0.0063965064228135304 0 -0.03604861458512449 0.0059592474308777449 0 -0.035826401203077479 0.0055639415460340845 0 -0.03604861458512449 0.0059592474308777449 0 -0.036179346959117051 0.0051960274398742063 0 -0.036376830469241561 0.0053837619505772661 0 -0.03604861458512449 0.0059592474308777449 0 -0.035826401203077479 0.0055639415460340845 0 -0.036179346959117051 0.0051960274398742063 0 -0.035826401203077479 0.0055639415460340845 0 -0.036179346959117051 0.0051960274398742063 0 -0.035954017230617995 0.0048669930719021657 0 -0.035826401203077479 0.0055639415460340845 0 -0.035954017230617995 0.0048669930719021657 0 -0.035413211257970506 0.0050557697880384642 0 -0.036179346959117051 0.0051960274398742063 0 -0.035954017230617995 0.0048669930719021657 0 -0.036322984867264936 0.0044883529229034786 0 -0.035450155191241513 0.0058307973269039375 0 -0.035826401203077479 0.0055639415460340845 0 -0.035413211257970506 0.0050557697880384642 0 -0.037686028640065761 0.0045427153623362315 0 -0.039063332733612954 0.0043721989103516282 0 -0.037285137571756867 0.0034166204539047562 0 -0.037433711463806627 0.004479143486423978 0 -0.036282219303160779 0.0038494445273708233 0 -0.036784198112925541 0.0047012309933684741 0 -0.037686028640065761 0.0045427153623362315 0 -0.03653745138805102 0.0043444970357549521 0 -0.037388973287707732 0.0056567828800554408 0 -0.037686028640065761 0.0045427153623362315 0 -0.039063332733612954 0.0043721989103516282 0 -0.036894373097775747 0.005065739223605102 0 -0.037388973287707732 0.0056567828800554408 0 -0.037686028640065761 0.0045427153623362315 0 -0.036784198112925541 0.0047012309933684741 0 -0.036894373097775747 0.005065739223605102 0 -0.037686028640065761 0.0045427153623362315 0 -0.036408403328674441 0.0053597523371011306 0 -0.037743163013021178 0.0041925166788308339 0 -0.035954017230617995 0.0048669930719021657 0 -0.035413211257970506 0.0050557697880384642 0 -0.036003063307842351 0.0040175254751360478 0 -0.035954017230617995 0.0048669930719021657 0 -0.036003063307842351 0.0040175254751360478 0 -0.036322984867264936 0.0044883529229034786 0 -0.036478599083068573 0.0038980063366411502 0 -0.036693464068773156 0.0041168237337933311 0 -0.036322984867264936 0.0044883529229034786 0 -0.036003063307842351 0.0040175254751360478 0 -0.036478599083068573 0.0038980063366411502 0 -0.036322984867264936 0.0044883529229034786 0 -0.036693464068773156 0.0041168237337933311 0 -0.0370195905522097 0.0037074857860820145 0 -0.03675017826205354 0.0036026977158942343 0 -0.036478599083068573 0.0038980063366411502 0 -0.036693464068773156 0.0041168237337933311 0 -0.03675017826205354 0.0036026977158942343 0 -0.036693464068773156 0.0041168237337933311 0 -0.036958817181074001 0.0044912149121322823 0 -0.0370195905522097 0.0037074857860820145 0 -0.036693464068773156 0.0041168237337933311 0 -0.036958817181074001 0.0044912149121322823 0 -0.036589951077793385 0.0048122891618883109 0 -0.036958817181074001 0.0044912149121322823 0 -0.036835397736422713 0.0048832948346856225 0 -0.037028260041647894 0.0050192112436483203 0 -0.036958817181074001 0.0044912149121322823 0 -0.036589951077793385 0.0048122891618883109 0 -0.036835397736422713 0.0048832948346856225 0 -0.036589951077793385 0.0048122891618883109 0 -0.036630187782880685 0.0052004164664753655 0 -0.036835397736422713 0.0048832948346856225 0 -0.036693464068773156 0.0041168237337933311 0 -0.036589951077793385 0.0048122891618883109 0 -0.036322984867264936 0.0044883529229034786 0 -0.036179346959117051 0.0051960274398742063 0 -0.036589951077793385 0.0048122891618883109 0 -0.036322984867264936 0.0044883529229034786 0 -0.036179346959117051 0.0051960274398742063 0 -0.036589951077793385 0.0048122891618883109 0 -0.036376830469241561 0.0053837619505772661 0 -0.036376830469241561 0.0053837619505772661 0 -0.036630187782880685 0.0052004164664753655 0 -0.03645255893067606 0.0057124559307552515 0 -0.036589951077793385 0.0048122891618883109 0 -0.036376830469241561 0.0053837619505772661 0 -0.036630187782880685 0.0052004164664753655 0 -0.03645255893067606 0.0057124559307552515 0 -0.036626174285204358 0.0059123154668481526 0 -0.03677855194943272 0.0054820440619312953 0 -0.036630187782880685 0.0052004164664753655 0 -0.03645255893067606 0.0057124559307552515 0 -0.03677855194943272 0.0054820440619312953 0 -0.03604861458512449 0.0059592474308777449 0 -0.036376830469241561 0.0053837619505772661 0 -0.03645255893067606 0.0057124559307552515 0 -0.03645255893067606 0.0057124559307552515 0 -0.036307133079416479 0.0061923328949784039 0 -0.036626174285204358 0.0059123154668481526 0 -0.036852707446874848 0.0067697544420766784 0 -0.036307133079416479 0.0061923328949784039 0 -0.036747873103360439 0.0062243694944068458 0 -0.03604861458512449 0.0059592474308777449 0 -0.03645255893067606 0.0057124559307552515 0 -0.036307133079416479 0.0061923328949784039 0 -0.036307133079416479 0.0061923328949784039 0 -0.036626174285204358 0.0059123154668481526 0 -0.036747873103360439 0.0062243694944068458 0 -0.036626174285204358 0.0059123154668481526 0 -0.036747873103360439 0.0062243694944068458 0 -0.036885450787886714 0.005912095548051991 0 -0.037325147607974334 0.0064846109935455774 0 -0.037040174044540103 0.0061733565737321057 0 -0.037261052020082883 0.0057639927325584626 0 -0.036122189150868581 0.0037708385753840602 0 -0.037123898453911883 0.005212395146576918 0 -0.036852707446874848 0.0067697544420766784 0 -0.036747873103360439 0.0062243694944068458 0 -0.037040174044540103 0.0061733565737321057 0 -0.037040174044540103 0.0061733565737321057 0 -0.036885450787886714 0.005912095548051991 0 -0.037261052020082883 0.0057639927325584626 0 -0.036747873103360439 0.0062243694944068458 0 -0.037040174044540103 0.0061733565737321057 0 -0.036885450787886714 0.005912095548051991 0 -0.036626174285204358 0.0059123154668481526 0 -0.036885450787886714 0.005912095548051991 0 -0.03677855194943272 0.0054820440619312953 0 -0.036885450787886714 0.005912095548051991 0 -0.037261052020082883 0.0057639927325584626 0 -0.036971644456299475 0.0055561920465420842 0 -0.037261052020082883 0.0057639927325584626 0 -0.036971644456299475 0.0055561920465420842 0 -0.037028260041647894 0.0050192112436483203 0 -0.037123898453911883 0.005212395146576918 0 -0.037085809949638816 0.0051517749792732897 0 -0.037015024412265646 0.0050147415276885357 0 -0.037028260041647894 0.0050192112436483203 0 -0.037153878681774076 0.0049001175003643305 0 -0.036885450787886714 0.005912095548051991 0 -0.036971644456299475 0.0055561920465420842 0 -0.03677855194943272 0.0054820440619312953 0 -0.036971644456299475 0.0055561920465420842 0 -0.03677855194943272 0.0054820440619312953 0 -0.037028260041647894 0.0050192112436483203 0 -0.03677855194943272 0.0054820440619312953 0 -0.036835397736422713 0.0048832948346856225 0 -0.037028260041647894 0.0050192112436483203 0 -0.036630187782880685 0.0052004164664753655 0 -0.03677855194943272 0.0054820440619312953 0 -0.036835397736422713 0.0048832948346856225 0 -0.036958817181074001 0.0044912149121322823 0 -0.037028260041647894 0.0050192112436483203 0 -0.037226637018172921 0.0046336331762928213 0 -0.037226637018172921 0.0046336331762928213 0 -0.037153878681774076 0.0049001175003643305 0 -0.037459906598531531 0.0050137470711703611 0 -0.037028260041647894 0.0050192112436483203 0 -0.037226637018172921 0.0046336331762928213 0 -0.037153878681774076 0.0049001175003643305 0 -0.037015024412265646 0.0050147415276885357 0 -0.037153878681774076 0.0049001175003643305 0 -0.037459906598531531 0.0050137470711703611 0 -0.036122189150868581 0.0037708385753840602 0 -0.036112227118122911 0.0032069870645412718 0 -0.037123898453911883 0.005212395146576918 0 -0.036112227118122911 0.0032069870645412718 0 -0.036528897829194003 0.0038693568525989042 0 -0.036565276735623188 0.0041140491956252511 0 -0.03620532740679288 0.0040745192819017697 0 -0.033302069716744515 -0.00057435878349220912 0 -0.032808670932509797 -0.00060787424985042355 0 -0.033671006011254598 -0.0012154197330857034 0 -0.033858259351978878 -0.00062670738565068793 0 -0.033671006011254598 -0.0012154197330857034 0 -0.034758110424404888 -0.0011942149966548245 0 -0.036112227118122911 0.0032069870645412718 0 -0.036536486150633388 0.0018027489512719447 0 -0.033858259351978878 -0.00062670738565068793 0 -0.033302069716744515 -0.00057435878349220912 0 -0.033671006011254598 -0.0012154197330857034 0 -0.036112227118122911 0.0032069870645412718 0 -0.038520800188857722 0.0048076321723058832 0 -0.037459906598531531 0.0050137470711703611 0 -0.037599327610463688 0.0042616894975933432 0 -0.038193653503233498 0.0043523151624011826 0 -0.037226637018172921 0.0046336331762928213 0 -0.037459906598531531 0.0050137470711703611 0 -0.037599327610463688 0.0042616894975933432 0 -0.037599327610463688 0.0042616894975933432 0 -0.037239341406786919 0.0041449602911824085 0 -0.037446916152519077 0.0035998946973810832 0 -0.037599327610463688 0.0042616894975933432 0 -0.037446916152519077 0.0035998946973810832 0 -0.037928576311275136 0.0035834991893225823 0 -0.037226637018172921 0.0046336331762928213 0 -0.037599327610463688 0.0042616894975933432 0 -0.037239341406786919 0.0041449602911824085 0 -0.036958817181074001 0.0044912149121322823 0 -0.037239341406786919 0.0041449602911824085 0 -0.0370195905522097 0.0037074857860820145 0 -0.036958817181074001 0.0044912149121322823 0 -0.037226637018172921 0.0046336331762928213 0 -0.037239341406786919 0.0041449602911824085 0 -0.0370195905522097 0.0037074857860820145 0 -0.037446916152519077 0.0035998946973810832 0 -0.037254413977165064 0.0028640969223972176 0 -0.037239341406786919 0.0041449602911824085 0 -0.0370195905522097 0.0037074857860820145 0 -0.037446916152519077 0.0035998946973810832 0 -0.037446916152519077 0.0035998946973810832 0 -0.037745304676270505 0.0027898582592068709 0 -0.037254413977165064 0.0028640969223972176 0 -0.037446916152519077 0.0035998946973810832 0 -0.037745304676270505 0.0027898582592068709 0 -0.037928576311275136 0.0035834991893225823 0 -0.037745304676270505 0.0027898582592068709 0 -0.037349871253128691 0.0018211178814018035 0 -0.037843894358577157 0.0016075675657785174 0 -0.037745304676270505 0.0027898582592068709 0 -0.037254413977165064 0.0028640969223972176 0 -0.037349871253128691 0.0018211178814018035 0 -0.037254413977165064 0.0028640969223972176 0 -0.036877860202377988 0.0019364421317269703 0 -0.036474449414564875 0.0021864653834692115 0 -0.0370195905522097 0.0037074857860820145 0 -0.037254413977165064 0.0028640969223972176 0 -0.036977245927320587 0.0032944864722669982 0 -0.037330506234980722 0.002882727707695367 0 -0.036591153967624961 0.0026911070735265922 0 -0.036877860202377988 0.0019364421317269703 0 -0.036497521907399279 0.0016070374281576341 0 -0.036474449414564875 0.0021864653834692115 0 -0.037254413977165064 0.0028640969223972176 0 -0.036877860202377988 0.0019364421317269703 0 -0.037349871253128691 0.0018211178814018035 0 -0.036877860202377988 0.0019364421317269703 0 -0.036889472719103512 0.0012273256955084252 0 -0.037349871253128691 0.0018211178814018035 0 -0.036877860202377988 0.0019364421317269703 0 -0.036889472719103512 0.0012273256955084252 0 -0.036497521907399279 0.0016070374281576341 0 -0.036889472719103512 0.0012273256955084252 0 -0.037349871253128691 0.0018211178814018035 0 -0.037390224709465049 0.00091846954425917873 0 -0.037349871253128691 0.0018211178814018035 0 -0.037390224709465049 0.00091846954425917873 0 -0.037843894358577157 0.0016075675657785174 0 -0.037390224709465049 0.00091846954425917873 0 -0.037122449033185137 9.0382105028143493e-05 0 -0.037842118977177618 0.000622065928499054 0 -0.037454985021747489 -0.00039247309849058554 0 -0.037122449033185137 9.0382105028143493e-05 0 -0.037842118977177618 0.000622065928499054 0 -0.036889472719103512 0.0012273256955084252 0 -0.037122449033185137 9.0382105028143493e-05 0 -0.036235415210096246 0.0010950376668377975 0 -0.036889472719103512 0.0012273256955084252 0 -0.037390224709465049 0.00091846954425917873 0 -0.037122449033185137 9.0382105028143493e-05 0 -0.037122449033185137 9.0382105028143493e-05 0 -0.036235415210096246 0.0010950376668377975 0 -0.036091167033712852 0.0005216828794057458 0 -0.036978358989040484 -0.00078494582020606182 0 -0.037122449033185137 9.0382105028143493e-05 0 -0.036796844979706339 -0.00046653657947904264 0 -0.037129798360559761 6.6640085046744182e-05 0 -0.036488969497527599 4.0026177682104103e-05 0 -0.036488969497527599 4.0026177682104103e-05 0 -0.035971481001298378 0.00010098303574491657 0 -0.036235415210096246 0.0010950376668377975 0 -0.036091167033712852 0.0005216828794057458 0 -0.035846012688950588 0.00095212609642753541 0 -0.036091167033712852 0.0005216828794057458 0 -0.035846012688950588 0.00095212609642753541 0 -0.035698602472331399 0.00063085759262003255 0 -0.036235415210096246 0.0010950376668377975 0 -0.035846012688950588 0.00095212609642753541 0 -0.035975237393641987 0.0013071695291449548 0 -0.035975237393641987 0.0013071695291449548 0 -0.036063781737878005 0.0015950849075386977 0 -0.035690097798657588 0.0011961688808220996 0 -0.035975237393641987 0.0013071695291449548 0 -0.036128941923464337 0.0016310574348945262 0 -0.036063781737878005 0.0015950849075386977 0 -0.036889472719103512 0.0012273256955084252 0 -0.036235415210096246 0.0010950376668377975 0 -0.036497521907399279 0.0016070374281576341 0 -0.036235415210096246 0.0010950376668377975 0 -0.035975237393641987 0.0013071695291449548 0 -0.036128941923464337 0.0016310574348945262 0 -0.036235415210096246 0.0010950376668377975 0 -0.036497521907399279 0.0016070374281576341 0 -0.036128941923464337 0.0016310574348945262 0 -0.036591153967624961 0.0026911070735265922 0 -0.037517010899769582 0.0025187713172188991 0 -0.036128941923464337 0.0016310574348945262 0 -0.036474449414564875 0.0021864653834692115 0 -0.035947039371337156 0.0017690929470314692 0 -0.036977245927320587 0.0032944864722669982 0 -0.03675017826205354 0.0036026977158942343 0 -0.036586638540639725 0.0033161609374974372 0 -0.036880867438216225 0.0024047898933848054 0 -0.037517010899769582 0.0025187713172188991 0 -0.036497521907399279 0.0016070374281576341 0 -0.036128941923464337 0.0016310574348945262 0 -0.036474449414564875 0.0021864653834692115 0 -0.0370195905522097 0.0037074857860820145 0 -0.036977245927320587 0.0032944864722669982 0 -0.03675017826205354 0.0036026977158942343 0 -0.037517010899769582 0.0025187713172188991 0 -0.037204698467809438 0.0015962299093181232 0 -0.037743163013021178 0.0041925166788308339 0 -0.037517010899769582 0.0025187713172188991 0 -0.036003063307842351 0.0040175254751360478 0 -0.036478599083068573 0.0038980063366411502 0 -0.036586638540639725 0.0033161609374974372 0 -0.036478599083068573 0.0038980063366411502 0 -0.03675017826205354 0.0036026977158942343 0 -0.036586638540639725 0.0033161609374974372 0 -0.039063332733612954 0.0043721989103516282 0 -0.041015975237835629 0.0027456439601656669 0 -0.038303906476558514 0.0020355143641135548 0 -0.039063332733612954 0.0043721989103516282 0 -0.037285137571756867 0.0034166204539047562 0 -0.038303906476558514 0.0020355143641135548 0 -0.037285137571756867 0.0034166204539047562 0 -0.036485186575500664 0.0023914331193334555 0 -0.038303906476558514 0.0020355143641135548 0 -0.037686028640065761 0.0045427153623362315 0 -0.037285137571756867 0.0034166204539047562 0 -0.035380543723781452 0.0035582648897362974 0 -0.037285137571756867 0.0034166204539047562 0 -0.036485186575500664 0.0023914331193334555 0 -0.036041543226504581 0.0028989414425729019 0 -0.037204698467809438 0.0015962299093181232 0 -0.035254100780971867 0.0011666598898651544 0 -0.036485186575500664 0.0023914331193334555 0 -0.038303906476558514 0.0020355143641135548 0 -0.035275846360797981 0.0011440327918435028 0 -0.035690097798657588 0.0011961688808220996 0 -0.035602737851340341 0.00088734039517955447 0 -0.035275846360797981 0.0011440327918435028 0 -0.035846012688950588 0.00095212609642753541 0 -0.035975237393641987 0.0013071695291449548 0 -0.035690097798657588 0.0011961688808220996 0 -0.035846012688950588 0.00095212609642753541 0 -0.035690097798657588 0.0011961688808220996 0 -0.035602737851340341 0.00088734039517955447 0 -0.035846012688950588 0.00095212609642753541 0 -0.035698602472331399 0.00063085759262003255 0 -0.035602737851340341 0.00088734039517955447 0 -0.036410456678864576 -0.0011611420532341267 0 -0.036796844979706339 -0.00046653657947904264 0 -0.036336444852181377 -0.00042201950861564026 0 -0.036336444852181377 -0.00042201950861564026 0 -0.03517809626159054 0.00015765765049640073 0 -0.035560955823899815 -0.0004361576458838038 0 -0.035867056489500469 -0.00096491361466143945 0 -0.036336444852181377 -0.00042201950861564026 0 -0.035560955823899815 -0.0004361576458838038 0 -0.036410456678864576 -0.0011611420532341267 0 -0.035867056489500469 -0.00096491361466143945 0 -0.036336444852181377 -0.00042201950861564026 0 -0.035971481001298378 0.00010098303574491657 0 -0.035172905274495944 0.00016336562755485482 0 -0.035698602472331399 0.00063085759262003255 0 -0.035602737851340341 0.00088734039517955447 0 -0.03531464506810035 0.0006332290012853591 0 -0.035698602472331399 0.00063085759262003255 0 -0.03531464506810035 0.0006332290012853591 0 -0.03517809626159054 0.00015765765049640073 0 -0.03517809626159054 0.00015765765049640073 0 -0.034945349920180994 -0.00010251096069418899 0 -0.034968724061318797 0.00097509769070094063 0 -0.035497390300706387 0.00040058988853405462 0 -0.035634558031935361 0.0017499030424847309 0 -0.03531464506810035 0.0006332290012853591 0 -0.03517809626159054 0.00015765765049640073 0 -0.034968724061318797 0.00097509769070094063 0 -0.03517809626159054 0.00015765765049640073 0 -0.035560955823899815 -0.0004361576458838038 0 -0.034945349920180994 -0.00010251096069418899 0 -0.035351844750997792 -0.00086967275775325635 0 -0.035560955823899815 -0.0004361576458838038 0 -0.034945349920180994 -0.00010251096069418899 0 -0.035867056489500469 -0.00096491361466143945 0 -0.035351844750997792 -0.00086967275775325635 0 -0.035560955823899815 -0.0004361576458838038 0 -0.034974483618221433 -0.0013767359921737041 0 -0.035351844750997792 -0.00086967275775325635 0 -0.034945349920180994 -0.00010251096069418899 0 -0.035361505857622558 -0.0010348437117380651 0 -0.035497390300706387 0.00040058988853405462 0 -0.034999978708761072 -0.00080440431088654697 0 -0.036035657476708852 0.00088929121951330094 0 -0.034999993196777636 0.0012616103917763705 0 -0.034999993196777636 0.0012616103917763705 0 -0.035761102453433134 0.0017713232188157763 0 -0.034999991240077785 0.0033273729275886069 0 -0.036035657476708852 0.00088929121951330094 0 -0.035761102453433134 0.0017713232188157763 0 -0.036331184267469535 0.0024891868039927535 0 -0.036035657476708852 0.00088929121951330094 0 -0.034999993196777636 0.0012616103917763705 0 -0.035761102453433134 0.0017713232188157763 0 -0.035761102453433134 0.0017713232188157763 0 -0.036331184267469535 0.0024891868039927535 0 -0.034999991240077785 0.0033273729275886069 0 -0.035602737851340341 0.00088734039517955447 0 -0.03531464506810035 0.0006332290012853591 0 -0.035275846360797981 0.0011440327918435028 0 -0.03531464506810035 0.0006332290012853591 0 -0.035275846360797981 0.0011440327918435028 0 -0.034968724061318797 0.00097509769070094063 0 -0.036485186575500664 0.0023914331193334555 0 -0.035275846360797981 0.0011440327918435028 0 -0.035584017731601962 0.0021677322322566995 0 -0.034968724061318797 0.00097509769070094063 0 -0.035584017731601962 0.0021677322322566995 0 -0.035480523542169795 0.0025581897898756087 0 -0.035275846360797981 0.0011440327918435028 0 -0.034968724061318797 0.00097509769070094063 0 -0.035584017731601962 0.0021677322322566995 0 -0.037285137571756867 0.0034166204539047562 0 -0.036041543226504581 0.0028989414425729019 0 -0.035380543723781452 0.0035582648897362974 0 -0.034968724061318797 0.00097509769070094063 0 -0.035480523542169795 0.0025581897898756087 0 -0.035380543723781452 0.0035582648897362974 0 -0.035634558031935361 0.0017499030424847309 0 -0.036282219303160779 0.0038494445273708233 0 -0.036485186575500664 0.0023914331193334555 0 -0.035584017731601962 0.0021677322322566995 0 -0.036041543226504581 0.0028989414425729019 0 -0.035480523542169795 0.0025581897898756087 0 -0.036041543226504581 0.0028989414425729019 0 -0.035380543723781452 0.0035582648897362974 0 -0.035584017731601962 0.0021677322322566995 0 -0.035480523542169795 0.0025581897898756087 0 -0.036041543226504581 0.0028989414425729019 0 -0.036282219303160779 0.0038494445273708233 0 -0.036327578138048863 0.0040004001637944349 0 -0.03568235391089962 0.0043941709145461404 0 -0.036181818167436923 0.0045442219579841922 0 -0.036515116678774391 0.0041378068399533195 0 -0.036181818167436923 0.0045442219579841922 0 -0.036515116678774391 0.0041378068399533195 0 -0.03653745138805102 0.0043444970357549521 0 -0.034999941482202479 0.0048399514934456536 0 -0.03568235391089962 0.0043941709145461404 0 -0.034999993787778121 0.0033275597514134795 0 -0.036282219303160779 0.0038494445273708233 0 -0.035000762579625783 0.0033278659410771582 0 -0.036331184267469535 0.0024891868039927535 0 -0.036623716260420734 0.0040696491439235058 0 -0.034999991240077785 0.0033273729275886069 0 -0.03568235391089962 0.0043941709145461404 0 -0.036515116678774391 0.0041378068399533195 0 -0.034999993787778121 0.0033275597514134795 0 -0.036349600617531695 -0.00058869015339741923 0 -0.0367681389067867 5.4468665583542051e-05 0 -0.036187705899473434 -0.0001742512737619602 0 -0.036349600617531695 -0.00058869015339741923 0 -0.035693613251424727 -0.00068702932398015902 0 -0.035975678651983596 -0.00098101885486281157 0 -0.036349600617531695 -0.00058869015339741923 0 -0.036187705899473434 -0.0001742512737619602 0 -0.035693613251424727 -0.00068702932398015902 0 -0.036349600617531695 -0.00058869015339741923 0 -0.036723209438181408 -0.00041303015752357897 0 -0.0367681389067867 5.4468665583542051e-05 0 -0.036349600617531695 -0.00058869015339741923 0 -0.036723209438181408 -0.00041303015752357897 0 -0.036537610024914194 -0.00072983184586939537 0 -0.0367681389067867 5.4468665583542051e-05 0 -0.036187705899473434 -0.0001742512737619602 0 -0.036423430644019698 0.00044280597335485836 0 -0.036187705899473434 -0.0001742512737619602 0 -0.035544380482593542 0.00022478220382159822 0 -0.036423430644019698 0.00044280597335485836 0 -0.035544380482593542 0.00022478220382159822 0 -0.035622532700511994 -0.0002857014058461352 0 -0.034985421585579234 -0.000501392514529638 0 -0.036187705899473434 -0.0001742512737619602 0 -0.035544380482593542 0.00022478220382159822 0 -0.035622532700511994 -0.0002857014058461352 0 -0.035544380482593542 0.00022478220382159822 0 -0.034649327593731669 -4.9335394643989323e-05 0 -0.034985421585579234 -0.000501392514529638 0 -0.034649327593731669 -4.9335394643989323e-05 0 -0.034292907087074422 0.00038270578494562066 0 -0.03384086065846012 -9.6592556269927107e-05 0 -0.035544380482593542 0.00022478220382159822 0 -0.034649327593731669 -4.9335394643989323e-05 0 -0.034936454041720577 0.00041869364292706254 0 -0.034649327593731669 -4.9335394643989323e-05 0 -0.034292907087074422 0.00038270578494562066 0 -0.034936454041720577 0.00041869364292706254 0 -0.034649327593731669 -4.9335394643989323e-05 0 -0.034092305314072112 -0.00059254025793685299 0 -0.034985421585579234 -0.000501392514529638 0 -0.034649327593731669 -4.9335394643989323e-05 0 -0.034092305314072112 -0.00059254025793685299 0 -0.03384086065846012 -9.6592556269927107e-05 0 -0.034092305314072112 -0.00059254025793685299 0 -0.034985421585579234 -0.000501392514529638 0 -0.0341700355663829 -0.001036261776360779 0 -0.034985421585579234 -0.000501392514529638 0 -0.0341700355663829 -0.001036261776360779 0 -0.034887063779317093 -0.0010624182028256433 0 -0.036187705899473434 -0.0001742512737619602 0 -0.035622532700511994 -0.0002857014058461352 0 -0.035693613251424727 -0.00068702932398015902 0 -0.035622532700511994 -0.0002857014058461352 0 -0.034985421585579234 -0.000501392514529638 0 -0.035693613251424727 -0.00068702932398015902 0 -0.034985421585579234 -0.000501392514529638 0 -0.035693613251424727 -0.00068702932398015902 0 -0.034887063779317093 -0.0010624182028256433 0 -0.035693613251424727 -0.00068702932398015902 0 -0.035509276368084444 -0.0011454284547364145 0 -0.035975678651983596 -0.00098101885486281157 0 -0.035693613251424727 -0.00068702932398015902 0 -0.035509276368084444 -0.0011454284547364145 0 -0.034887063779317093 -0.0010624182028256433 0 -0.035509276368084444 -0.0011454284547364145 0 -0.034971402175682328 -0.0016830811060777335 0 -0.035793261989335051 -0.001263606077271734 0 -0.035509276368084444 -0.0011454284547364145 0 -0.035793261989335051 -0.001263606077271734 0 -0.035975678651983596 -0.00098101885486281157 0 -0.0341700355663829 -0.001036261776360779 0 -0.034195125150566073 -0.0013603981316369933 0 -0.034887063779317093 -0.0010624182028256433 0 -0.035509276368084444 -0.0011454284547364145 0 -0.034887063779317093 -0.0010624182028256433 0 -0.034971402175682328 -0.0016830811060777335 0 -0.034195125150566073 -0.0013603981316369933 0 -0.034887063779317093 -0.0010624182028256433 0 -0.034971402175682328 -0.0016830811060777335 0 -0.034195125150566073 -0.0013603981316369933 0 -0.034971402175682328 -0.0016830811060777335 0 -0.033887437254912202 -0.001748839991546792 0 -0.035279236903842527 -0.0028995058679284684 0 -0.034971402175682328 -0.0016830811060777335 0 -0.034202458155448943 -0.0025023521563942545 0 -0.034971402175682328 -0.0016830811060777335 0 -0.034202458155448943 -0.0025023521563942545 0 -0.033887437254912202 -0.001748839991546792 0 -0.036240763157535293 -0.0026294843866624617 0 -0.034869257006741781 -0.0012899854914479954 0 -0.036150763602054457 -0.0011072378675812246 0 -0.034971402175682328 -0.0016830811060777335 0 -0.035764695236567882 -0.0013231439414491109 0 -0.034971402175682328 -0.0016830811060777335 0 -0.035793261989335051 -0.001263606077271734 0 -0.035764695236567882 -0.0013231439414491109 0 -0.035793261989335051 -0.001263606077271734 0 -0.035764695236567882 -0.0013231439414491109 0 -0.036038950777115074 -0.0011495159758745921 0 -0.036150763602054457 -0.0011072378675812246 0 -0.035764695236567882 -0.0013231439414491109 0 -0.036038950777115074 -0.0011495159758745921 0 -0.036038950777115074 -0.0011495159758745921 0 -0.036192751305384033 -0.00098444938313112305 0 -0.036114492707979777 -0.0010654822072576802 0 -0.036192751305384033 -0.00098444938313112305 0 -0.036114492707979777 -0.0010654822072576802 0 -0.036292640840432079 -0.00091668463455734674 0 -0.036114492707979777 -0.0010654822072576802 0 -0.036308884481535131 -0.00089554487036715407 0 -0.036292640840432079 -0.00091668463455734674 0 -0.035793261989335051 -0.001263606077271734 0 -0.036038950777115074 -0.0011495159758745921 0 -0.036114492707979777 -0.0010654822072576802 0 -0.035793261989335051 -0.001263606077271734 0 -0.036114492707979777 -0.0010654822072576802 0 -0.035975678651983596 -0.00098101885486281157 0 -0.036349600617531695 -0.00058869015339741923 0 -0.035975678651983596 -0.00098101885486281157 0 -0.036308884481535131 -0.00089554487036715407 0 -0.036114492707979777 -0.0010654822072576802 0 -0.035975678651983596 -0.00098101885486281157 0 -0.036308884481535131 -0.00089554487036715407 0 -0.036349600617531695 -0.00058869015339741923 0 -0.036537610024914194 -0.00072983184586939537 0 -0.036308884481535131 -0.00089554487036715407 0 -0.036537610024914194 -0.00072983184586939537 0 -0.036308884481535131 -0.00089554487036715407 0 -0.036412736696200522 -0.000851386366788547 0 -0.036308884481535131 -0.00089554487036715407 0 -0.036412736696200522 -0.000851386366788547 0 -0.036292640840432079 -0.00091668463455734674 0 -0.036321883331862537 -0.00075115340912366123 0 -0.036412736696200522 -0.000851386366788547 0 -0.036292640840432079 -0.00091668463455734674 0 -0.036321883331862537 -0.00075115340912366123 0 -0.036412736696200522 -0.000851386366788547 0 -0.036382154129754603 -0.00079590892905964607 0 -0.036412736696200522 -0.000851386366788547 0 -0.036382154129754603 -0.00079590892905964607 0 -0.036532252724312243 -0.00078240976479308202 0 -0.036382154129754603 -0.00079590892905964607 0 -0.03657187539768119 -0.00077079892390416438 0 -0.036532252724312243 -0.00078240976479308202 0 -0.036382154129754603 -0.00079590892905964607 0 -0.036416129007266727 -0.00079584523891048677 0 -0.03657187539768119 -0.00077079892390416438 0 -0.036382154129754603 -0.00079590892905964607 0 -0.036275717536515525 -0.00074298999059434299 0 -0.036416129007266727 -0.00079584523891048677 0 -0.036201701527252994 -0.00057417709745068829 0 -0.036382154129754603 -0.00079590892905964607 0 -0.036275717536515525 -0.00074298999059434299 0 -0.035915044420287201 -0.00057196233279613058 0 -0.036275717536515525 -0.00074298999059434299 0 -0.036386428592517658 -0.00083387056185784466 0 -0.036275717536515525 -0.00074298999059434299 0 -0.036386428592517658 -0.00083387056185784466 0 -0.036431338530178319 -0.00083119394218585585 0 -0.036275717536515525 -0.00074298999059434299 0 -0.036416129007266727 -0.00079584523891048677 0 -0.036431338530178319 -0.00083119394218585585 0 -0.036048663046194709 -0.0011038976339229677 0 -0.036795823633612008 0.00085079427738406449 0 -0.035915044420287201 -0.00057196233279613058 0 -0.035855816436957066 -0.0011537425270551169 0 -0.035265354419444034 -0.00080516104988974228 0 -0.036795823633612008 0.00085079427738406449 0 -0.03670608703082455 0.00075401226677177132 0 -0.036416129007266727 -0.00079584523891048677 0 -0.036431338530178319 -0.00083119394218585585 0 -0.03657187539768119 -0.00077079892390416438 0 -0.03649161069570242 -0.00082996324198252014 0 -0.036431338530178319 -0.00083119394218585585 0 -0.03657187539768119 -0.00077079892390416438 0 -0.036795823633612008 0.00085079427738406449 0 -0.038235153806048472 0.0021117673383397244 0 -0.03649161069570242 -0.00082996324198252014 0 -0.03657187539768119 -0.00077079892390416438 0 -0.037144162637759819 -0.00050900986146804874 0 -0.03657187539768119 -0.00077079892390416438 0 -0.036783551313592205 -0.00060830734976788554 0 -0.037144162637759819 -0.00050900986146804874 0 -0.03911504059471544 0.004934878749098307 0 -0.038685427221456188 0.0045020713237014006 0 -0.03913856627467751 0.0041424425889197824 0 -0.036723209438181408 -0.00041303015752357897 0 -0.036537610024914194 -0.00072983184586939537 0 -0.036783551313592205 -0.00060830734976788554 0 -0.036537610024914194 -0.00072983184586939537 0 -0.036412736696200522 -0.000851386366788547 0 -0.036532252724312243 -0.00078240976479308202 0 -0.036537610024914194 -0.00072983184586939537 0 -0.036783551313592205 -0.00060830734976788554 0 -0.036532252724312243 -0.00078240976479308202 0 -0.03657187539768119 -0.00077079892390416438 0 -0.036783551313592205 -0.00060830734976788554 0 -0.036532252724312243 -0.00078240976479308202 0 -0.034753235030426405 -0.00061492132923227603 0 -0.033858259351978878 -0.00062670738565068793 0 -0.034758110424404888 -0.0011942149966548245 0 -0.035855816436957066 -0.0011537425270551169 0 -0.034758110424404888 -0.0011942149966548245 0 -0.035265354419444034 -0.00080516104988974228 0 -0.036795823633612008 0.00085079427738406449 0 -0.036536486150633388 0.0018027489512719447 0 -0.03911504059471544 0.004934878749098307 0 -0.038258782370836818 0.0048817189310867782 0 -0.038685427221456188 0.0045020713237014006 0 -0.034753235030426405 -0.00061492132923227603 0 -0.034758110424404888 -0.0011942149966548245 0 -0.035265354419444034 -0.00080516104988974228 0 -0.03742889951059801 0.0047966049874644933 0 -0.038258782370836818 0.0048817189310867782 0 -0.038193653503233498 0.0043523151624011826 0 -0.038258782370836818 0.0048817189310867782 0 -0.038685427221456188 0.0045020713237014006 0 -0.038193653503233498 0.0043523151624011826 0 -0.037599327610463688 0.0042616894975933432 0 -0.038193653503233498 0.0043523151624011826 0 -0.037928576311275136 0.0035834991893225823 0 -0.038193653503233498 0.0043523151624011826 0 -0.038565750313797505 0.0037667053556799282 0 -0.037928576311275136 0.0035834991893225823 0 -0.038685427221456188 0.0045020713237014006 0 -0.038193653503233498 0.0043523151624011826 0 -0.038565750313797505 0.0037667053556799282 0 -0.038565750313797505 0.0037667053556799282 0 -0.03913856627467751 0.0041424425889197824 0 -0.039146932948057656 0.0031240581469779293 0 -0.038685427221456188 0.0045020713237014006 0 -0.038565750313797505 0.0037667053556799282 0 -0.03913856627467751 0.0041424425889197824 0 -0.038565750313797505 0.0037667053556799282 0 -0.039146932948057656 0.0031240581469779293 0 -0.038308314360205091 0.0025841343671294198 0 -0.038565750313797505 0.0037667053556799282 0 -0.037928576311275136 0.0035834991893225823 0 -0.038308314360205091 0.0025841343671294198 0 -0.037745304676270505 0.0027898582592068709 0 -0.037928576311275136 0.0035834991893225823 0 -0.038308314360205091 0.0025841343671294198 0 -0.036723209438181408 -0.00041303015752357897 0 -0.036783551313592205 -0.00060830734976788554 0 -0.037086688586522427 -0.00016213194941588032 0 -0.037144162637759819 -0.00050900986146804874 0 -0.037615367394088085 0.00012443016938572458 0 -0.037086688586522427 -0.00016213194941588032 0 -0.038235153806048472 0.0021117673383397244 0 -0.03835111129580971 0.0015806717820547414 0 -0.036783551313592205 -0.00060830734976788554 0 -0.037144162637759819 -0.00050900986146804874 0 -0.037086688586522427 -0.00016213194941588032 0 -0.037615367394088085 0.00012443016938572458 0 -0.037086688586522427 -0.00016213194941588032 0 -0.03740604526680405 0.00054328090012474952 0 -0.0367681389067867 5.4468665583542051e-05 0 -0.037086688586522427 -0.00016213194941588032 0 -0.03740604526680405 0.00054328090012474952 0 -0.036723209438181408 -0.00041303015752357897 0 -0.0367681389067867 5.4468665583542051e-05 0 -0.037086688586522427 -0.00016213194941588032 0 -0.03835111129580971 0.0015806717820547414 0 -0.038369985115548039 0.0013527265512851738 0 -0.037615367394088085 0.00012443016938572458 0 -0.03740604526680405 0.00054328090012474952 0 -0.037867762679412678 0.00071763453355000559 0 -0.03740604526680405 0.00054328090012474952 0 -0.037760699798911293 0.00088361910722768028 0 -0.037867762679412678 0.00071763453355000559 0 -0.037760699798911293 0.00088361910722768028 0 -0.037867762679412678 0.00071763453355000559 0 -0.038159597167322271 0.00090589499743303826 0 -0.038369985115548039 0.0013527265512851738 0 -0.038214507368026757 0.00098692088212669923 0 -0.03740604526680405 0.00054328090012474952 0 -0.037760699798911293 0.00088361910722768028 0 -0.03748162273659162 0.00099261215746596402 0 -0.03740604526680405 0.00054328090012474952 0 -0.03748162273659162 0.00099261215746596402 0 -0.037040535854104037 0.00077018939021928745 0 -0.037745304676270505 0.0027898582592068709 0 -0.038308314360205091 0.0025841343671294198 0 -0.037843894358577157 0.0016075675657785174 0 -0.039146932948057656 0.0031240581469779293 0 -0.038923982186375626 0.0019057343993038357 0 -0.038308314360205091 0.0025841343671294198 0 -0.038923982186375626 0.0019057343993038357 0 -0.038247299278325611 0.0013763589720209497 0 -0.038159597167322271 0.00090589499743303826 0 -0.038923982186375626 0.0019057343993038357 0 -0.038308314360205091 0.0025841343671294198 0 -0.038247299278325611 0.0013763589720209497 0 -0.038308314360205091 0.0025841343671294198 0 -0.038247299278325611 0.0013763589720209497 0 -0.037843894358577157 0.0016075675657785174 0 -0.037390224709465049 0.00091846954425917873 0 -0.037843894358577157 0.0016075675657785174 0 -0.037842118977177618 0.000622065928499054 0 -0.038247299278325611 0.0013763589720209497 0 -0.037843894358577157 0.0016075675657785174 0 -0.037842118977177618 0.000622065928499054 0 -0.038247299278325611 0.0013763589720209497 0 -0.037842118977177618 0.000622065928499054 0 -0.038159597167322271 0.00090589499743303826 0 -0.037907933909380097 5.9921371352769381e-05 0 -0.037842118977177618 0.000622065928499054 0 -0.038159597167322271 0.00090589499743303826 0 -0.037919681211932503 0.00047879210124271318 0 -0.037907933909380097 5.9921371352769381e-05 0 -0.038159597167322271 0.00090589499743303826 0 -0.037907933909380097 5.9921371352769381e-05 0 -0.037454985021747489 -0.00039247309849058554 0 -0.037842118977177618 0.000622065928499054 0 -0.03748162273659162 0.00099261215746596402 0 -0.03775509928972838 0.0010491402708269816 0 -0.037300499764966737 0.0013448377733648205 0 -0.037760699798911293 0.00088361910722768028 0 -0.03748162273659162 0.00099261215746596402 0 -0.03775509928972838 0.0010491402708269816 0 -0.03775509928972838 0.0010491402708269816 0 -0.037566844239657969 0.0012439976275712575 0 -0.037300499764966737 0.0013448377733648205 0 -0.037760699798911293 0.00088361910722768028 0 -0.03775509928972838 0.0010491402708269816 0 -0.038159597167322271 0.00090589499743303826 0 -0.037919681211932503 0.00047879210124271318 0 -0.03775509928972838 0.0010491402708269816 0 -0.038159597167322271 0.00090589499743303826 0 -0.037919681211932503 0.00047879210124271318 0 -0.03775509928972838 0.0010491402708269816 0 -0.037566844239657969 0.0012439976275712575 0 -0.037577662475038555 0.00078433763328290135 0 -0.037566844239657969 0.0012439976275712575 0 -0.037509001147832809 0.0014186703824700137 0 -0.037566844239657969 0.0012439976275712575 0 -0.037509001147832809 0.0014186703824700137 0 -0.037273320503419805 0.0017883554174126979 0 -0.037509001147832809 0.0014186703824700137 0 -0.037395170345491259 0.0020732498494403441 0 -0.037273320503419805 0.0017883554174126979 0 -0.03766252130173859 0.0012374730609756078 0 -0.037509001147832809 0.0014186703824700137 0 -0.037395170345491259 0.0020732498494403441 0 -0.037395170345491259 0.0020732498494403441 0 -0.037273320503419805 0.0017883554174126979 0 -0.036998341957034275 0.002249262022409858 0 -0.037273320503419805 0.0017883554174126979 0 -0.036891604866365522 0.0016618947725009145 0 -0.037300499764966737 0.0013448377733648205 0 -0.037273320503419805 0.0017883554174126979 0 -0.036891604866365522 0.0016618947725009145 0 -0.036998341957034275 0.002249262022409858 0 -0.037566844239657969 0.0012439976275712575 0 -0.037273320503419805 0.0017883554174126979 0 -0.037300499764966737 0.0013448377733648205 0 -0.03748162273659162 0.00099261215746596402 0 -0.037300499764966737 0.0013448377733648205 0 -0.037040535854104037 0.00077018939021928745 0 -0.037300499764966737 0.0013448377733648205 0 -0.036698575554992507 0.0011006847757195077 0 -0.037040535854104037 0.00077018939021928745 0 -0.036891604866365522 0.0016618947725009145 0 -0.037300499764966737 0.0013448377733648205 0 -0.036698575554992507 0.0011006847757195077 0 -0.036891604866365522 0.0016618947725009145 0 -0.036698575554992507 0.0011006847757195077 0 -0.036355795366904295 0.0013943728084802557 0 -0.036698575554992507 0.0011006847757195077 0 -0.03602695856492167 0.00079714916054607181 0 -0.036355795366904295 0.0013943728084802557 0 -0.036698575554992507 0.0011006847757195077 0 -0.036423430644019698 0.00044280597335485836 0 -0.03602695856492167 0.00079714916054607181 0 -0.036698575554992507 0.0011006847757195077 0 -0.036423430644019698 0.00044280597335485836 0 -0.037040535854104037 0.00077018939021928745 0 -0.0367681389067867 5.4468665583542051e-05 0 -0.036423430644019698 0.00044280597335485836 0 -0.037040535854104037 0.00077018939021928745 0 -0.0367681389067867 5.4468665583542051e-05 0 -0.03740604526680405 0.00054328090012474952 0 -0.037040535854104037 0.00077018939021928745 0 -0.034710970578193133 0.00081260997263185662 0 -0.035114201642769273 0.0012823891876333311 0 -0.034384578626112459 0.0013050365307890753 0 -0.034710970578193133 0.00081260997263185662 0 -0.035377540284280681 0.0007769514847209897 0 -0.035114201642769273 0.0012823891876333311 0 -0.034710970578193133 0.00081260997263185662 0 -0.034384578626112459 0.0013050365307890753 0 -0.033913497395134981 0.00091046629799576778 0 -0.034710970578193133 0.00081260997263185662 0 -0.034292907087074422 0.00038270578494562066 0 -0.033913497395134981 0.00091046629799576778 0 -0.034710970578193133 0.00081260997263185662 0 -0.034936454041720577 0.00041869364292706254 0 -0.035377540284280681 0.0007769514847209897 0 -0.034710970578193133 0.00081260997263185662 0 -0.034292907087074422 0.00038270578494562066 0 -0.034936454041720577 0.00041869364292706254 0 -0.035544380482593542 0.00022478220382159822 0 -0.034936454041720577 0.00041869364292706254 0 -0.035377540284280681 0.0007769514847209897 0 -0.035544380482593542 0.00022478220382159822 0 -0.036423430644019698 0.00044280597335485836 0 -0.03602695856492167 0.00079714916054607181 0 -0.035544380482593542 0.00022478220382159822 0 -0.03602695856492167 0.00079714916054607181 0 -0.035377540284280681 0.0007769514847209897 0 -0.035377540284280681 0.0007769514847209897 0 -0.035794669493823664 0.001189077961780502 0 -0.035114201642769273 0.0012823891876333311 0 -0.03602695856492167 0.00079714916054607181 0 -0.035377540284280681 0.0007769514847209897 0 -0.035794669493823664 0.001189077961780502 0 -0.035794669493823664 0.001189077961780502 0 -0.035481608559256236 0.0019401072117517125 0 -0.035114201642769273 0.0012823891876333311 0 -0.03602695856492167 0.00079714916054607181 0 -0.035794669493823664 0.001189077961780502 0 -0.036355795366904295 0.0013943728084802557 0 -0.035794669493823664 0.001189077961780502 0 -0.036355795366904295 0.0013943728084802557 0 -0.036309504987183508 0.0018800575535986952 0 -0.036891604866365522 0.0016618947725009145 0 -0.036355795366904295 0.0013943728084802557 0 -0.036309504987183508 0.0018800575535986952 0 -0.035794669493823664 0.001189077961780502 0 -0.035481608559256236 0.0019401072117517125 0 -0.036309504987183508 0.0018800575535986952 0 -0.034838892065079591 0.0017382115945502239 0 -0.035481608559256236 0.0019401072117517125 0 -0.035114201642769273 0.0012823891876333311 0 -0.034838892065079591 0.0017382115945502239 0 -0.035481608559256236 0.0019401072117517125 0 -0.034243031337053753 0.0022981763713384867 0 -0.034838892065079591 0.0017382115945502239 0 -0.035114201642769273 0.0012823891876333311 0 -0.034384578626112459 0.0013050365307890753 0 -0.034384578626112459 0.0013050365307890753 0 -0.034243031337053753 0.0022981763713384867 0 -0.033536410690428509 0.0016072940209626151 0 -0.034838892065079591 0.0017382115945502239 0 -0.034384578626112459 0.0013050365307890753 0 -0.034243031337053753 0.0022981763713384867 0 -0.035481608559256236 0.0019401072117517125 0 -0.035295041565407893 0.0027352471725496075 0 -0.036338219018763739 0.0024824272211022729 0 -0.035481608559256236 0.0019401072117517125 0 -0.034243031337053753 0.0022981763713384867 0 -0.035295041565407893 0.0027352471725496075 0 -0.034243031337053753 0.0022981763713384867 0 -0.035295041565407893 0.0027352471725496075 0 -0.034314084669788726 0.003470594714457331 0 -0.036891604866365522 0.0016618947725009145 0 -0.036309504987183508 0.0018800575535986952 0 -0.036998341957034275 0.002249262022409858 0 -0.035481608559256236 0.0019401072117517125 0 -0.036309504987183508 0.0018800575535986952 0 -0.036338219018763739 0.0024824272211022729 0 -0.036338219018763739 0.0024824272211022729 0 -0.036998341957034275 0.002249262022409858 0 -0.037138623956562783 0.0029239663042723257 0 -0.036309504987183508 0.0018800575535986952 0 -0.036338219018763739 0.0024824272211022729 0 -0.036998341957034275 0.002249262022409858 0 -0.035977394580883566 0.005590872707514934 0 -0.037138623956562783 0.0029239663042723257 0 -0.03577298299372373 0.004048321157799694 0 -0.037395170345491259 0.0020732498494403441 0 -0.036998341957034275 0.002249262022409858 0 -0.037138623956562783 0.0029239663042723257 0 -0.036338219018763739 0.0024824272211022729 0 -0.037138623956562783 0.0029239663042723257 0 -0.03577298299372373 0.004048321157799694 0 -0.03795139553984779 0.0018060846183559855 0 -0.037395170345491259 0.0020732498494403441 0 -0.037138623956562783 0.0029239663042723257 0 -0.034314084669788726 0.003470594714457331 0 -0.03577298299372373 0.004048321157799694 0 -0.034120905383642729 0.0046458257988200857 0 -0.035295041565407893 0.0027352471725496075 0 -0.036338219018763739 0.0024824272211022729 0 -0.03577298299372373 0.004048321157799694 0 -0.035295041565407893 0.0027352471725496075 0 -0.034314084669788726 0.003470594714457331 0 -0.03577298299372373 0.004048321157799694 0 -0.034651339318287219 0.0053585597789858859 0 -0.03577298299372373 0.004048321157799694 0 -0.034120905383642729 0.0046458257988200857 0 -0.034651339318287219 0.0053585597789858859 0 -0.033836161573284014 0.005778445913938759 0 -0.034120905383642729 0.0046458257988200857 0 -0.034120905383642729 0.0046458257988200857 0 -0.03319529774003914 0.0052023396818097183 0 -0.033044166823612657 0.0042621685423835246 0 -0.033836161573284014 0.005778445913938759 0 -0.034120905383642729 0.0046458257988200857 0 -0.03319529774003914 0.0052023396818097183 0 -0.034314084669788726 0.003470594714457331 0 -0.034120905383642729 0.0046458257988200857 0 -0.033044166823612657 0.0042621685423835246 0 -0.033044166823612657 0.0042621685423835246 0 -0.031446980648683155 0.0046886793528440876 0 -0.032419574145052671 0.0035493081773410595 0 -0.03319529774003914 0.0052023396818097183 0 -0.033044166823612657 0.0042621685423835246 0 -0.032105501335957236 0.005496738701386423 0 -0.030514043007094593 0.0059953614774970266 0 -0.031446980648683155 0.0046886793528440876 0 -0.029409701907727535 0.0050682902558803382 0 -0.030514043007094593 0.0059953614774970266 0 -0.032105501335957236 0.005496738701386423 0 -0.031446980648683155 0.0046886793528440876 0 -0.031446980648683155 0.0046886793528440876 0 -0.030906769141564948 0.0037408308738070373 0 -0.029409701907727535 0.0050682902558803382 0 -0.033044166823612657 0.0042621685423835246 0 -0.032105501335957236 0.005496738701386423 0 -0.031446980648683155 0.0046886793528440876 0 -0.031446980648683155 0.0046886793528440876 0 -0.030906769141564948 0.0037408308738070373 0 -0.032419574145052671 0.0035493081773410595 0 -0.030906769141564948 0.0037408308738070373 0 -0.031877511600254566 0.0029562473850160368 0 -0.031254787884472453 0.0024096002753594033 0 -0.030906769141564948 0.0037408308738070373 0 -0.031877511600254566 0.0029562473850160368 0 -0.032419574145052671 0.0035493081773410595 0 -0.031877511600254566 0.0029562473850160368 0 -0.032419574145052671 0.0035493081773410595 0 -0.033077789488197631 0.0024465807088839661 0 -0.033461117413258912 0.0031707001124273259 0 -0.032419574145052671 0.0035493081773410595 0 -0.033077789488197631 0.0024465807088839661 0 -0.034243031337053753 0.0022981763713384867 0 -0.033461117413258912 0.0031707001124273259 0 -0.033077789488197631 0.0024465807088839661 0 -0.034243031337053753 0.0022981763713384867 0 -0.034314084669788726 0.003470594714457331 0 -0.033461117413258912 0.0031707001124273259 0 -0.034314084669788726 0.003470594714457331 0 -0.033044166823612657 0.0042621685423835246 0 -0.033461117413258912 0.0031707001124273259 0 -0.033044166823612657 0.0042621685423835246 0 -0.033461117413258912 0.0031707001124273259 0 -0.032419574145052671 0.0035493081773410595 0 -0.02739134996584586 0.0065810636668676287 0 -0.027533015813874052 0.0052650461889614305 0 -0.029409701907727535 0.0050682902558803382 0 -0.027533015813874052 0.0052650461889614305 0 -0.029409701907727535 0.0050682902558803382 0 -0.028488741192076995 0.0044241655318207479 0 -0.030906769141564948 0.0037408308738070373 0 -0.029409701907727535 0.0050682902558803382 0 -0.029465773807755689 0.0033752156857436906 0 -0.029409701907727535 0.0050682902558803382 0 -0.029465773807755689 0.0033752156857436906 0 -0.028488741192076995 0.0044241655318207479 0 -0.030906769141564948 0.0037408308738070373 0 -0.029465773807755689 0.0033752156857436906 0 -0.031254787884472453 0.0024096002753594033 0 -0.029465773807755689 0.0033752156857436906 0 -0.028488741192076995 0.0044241655318207479 0 -0.027574934252164045 0.0039442120476741206 0 -0.027533015813874052 0.0052650461889614305 0 -0.028488741192076995 0.0044241655318207479 0 -0.027574934252164045 0.0039442120476741206 0 -0.027533015813874052 0.0052650461889614305 0 -0.027574934252164045 0.0039442120476741206 0 -0.026222431912871023 0.0049364788876068598 0 -0.027574934252164045 0.0039442120476741206 0 -0.028287762288667223 0.002262046129302784 0 -0.02564637583624662 0.0037549582384558541 0 -0.029465773807755689 0.0033752156857436906 0 -0.027574934252164045 0.0039442120476741206 0 -0.028287762288667223 0.002262046129302784 0 -0.028287762288667223 0.002262046129302784 0 -0.030312184767682958 0.0020264969841334063 0 -0.029841777846016902 0.00095921366613514975 0 -0.029465773807755689 0.0033752156857436906 0 -0.028287762288667223 0.002262046129302784 0 -0.030312184767682958 0.0020264969841334063 0 -0.029465773807755689 0.0033752156857436906 0 -0.030312184767682958 0.0020264969841334063 0 -0.031254787884472453 0.0024096002753594033 0 -0.030312184767682958 0.0020264969841334063 0 -0.029841777846016902 0.00095921366613514975 0 -0.03103852366429645 0.0011084849469779887 0 -0.030917747624951804 0.00040264772671538932 0 -0.029841777846016902 0.00095921366613514975 0 -0.03103852366429645 0.0011084849469779887 0 -0.030917747624951804 0.00040264772671538932 0 -0.029841777846016902 0.00095921366613514975 0 -0.029548997972482074 -3.4141277046673977e-05 0 -0.029841777846016902 0.00095921366613514975 0 -0.028422896126971083 0.00092881278213306578 0 -0.029548997972482074 -3.4141277046673977e-05 0 -0.028287762288667223 0.002262046129302784 0 -0.028422896126971083 0.00092881278213306578 0 -0.026230848028164378 0.0013578962874453179 0 -0.028287762288667223 0.002262046129302784 0 -0.029841777846016902 0.00095921366613514975 0 -0.028422896126971083 0.00092881278213306578 0 -0.032599934556239211 0.0018889930616674845 0 -0.033536410690428509 0.0016072940209626151 0 -0.032975877406310306 0.0010136898226243642 0 -0.032599934556239211 0.0018889930616674845 0 -0.031959385674480451 0.0015705646959126454 0 -0.032975877406310306 0.0010136898226243642 0 -0.034243031337053753 0.0022981763713384867 0 -0.033536410690428509 0.0016072940209626151 0 -0.033077789488197631 0.0024465807088839661 0 -0.032599934556239211 0.0018889930616674845 0 -0.033536410690428509 0.0016072940209626151 0 -0.033077789488197631 0.0024465807088839661 0 -0.031877511600254566 0.0029562473850160368 0 -0.032599934556239211 0.0018889930616674845 0 -0.033077789488197631 0.0024465807088839661 0 -0.031877511600254566 0.0029562473850160368 0 -0.032599934556239211 0.0018889930616674845 0 -0.031254787884472453 0.0024096002753594033 0 -0.030312184767682958 0.0020264969841334063 0 -0.031254787884472453 0.0024096002753594033 0 -0.031959385674480451 0.0015705646959126454 0 -0.032599934556239211 0.0018889930616674845 0 -0.031254787884472453 0.0024096002753594033 0 -0.031959385674480451 0.0015705646959126454 0 -0.031959385674480451 0.0015705646959126454 0 -0.032089982236982673 0.00062639453891701784 0 -0.032975877406310306 0.0010136898226243642 0 -0.031959385674480451 0.0015705646959126454 0 -0.03103852366429645 0.0011084849469779887 0 -0.032089982236982673 0.00062639453891701784 0 -0.030312184767682958 0.0020264969841334063 0 -0.031959385674480451 0.0015705646959126454 0 -0.03103852366429645 0.0011084849469779887 0 -0.030917747624951804 0.00040264772671538932 0 -0.032089982236982673 0.00062639453891701784 0 -0.031678252420413403 0.00014717477960415025 0 -0.030917747624951804 0.00040264772671538932 0 -0.03103852366429645 0.0011084849469779887 0 -0.032089982236982673 0.00062639453891701784 0 -0.032089982236982673 0.00062639453891701784 0 -0.032826667842372807 0.00037223179222811882 0 -0.032975877406310306 0.0010136898226243642 0 -0.032826667842372807 0.00037223179222811882 0 -0.032975877406310306 0.0010136898226243642 0 -0.033520044224794328 0.00041275150789570736 0 -0.034384578626112459 0.0013050365307890753 0 -0.033536410690428509 0.0016072940209626151 0 -0.033913497395134981 0.00091046629799576778 0 -0.033536410690428509 0.0016072940209626151 0 -0.032975877406310306 0.0010136898226243642 0 -0.033913497395134981 0.00091046629799576778 0 -0.034292907087074422 0.00038270578494562066 0 -0.033913497395134981 0.00091046629799576778 0 -0.033520044224794328 0.00041275150789570736 0 -0.032975877406310306 0.0010136898226243642 0 -0.033913497395134981 0.00091046629799576778 0 -0.033520044224794328 0.00041275150789570736 0 -0.034292907087074422 0.00038270578494562066 0 -0.033520044224794328 0.00041275150789570736 0 -0.03384086065846012 -9.6592556269927107e-05 0 -0.033520044224794328 0.00041275150789570736 0 -0.03384086065846012 -9.6592556269927107e-05 0 -0.033071374972657733 -0.00011423484640792288 0 -0.032826667842372807 0.00037223179222811882 0 -0.033520044224794328 0.00041275150789570736 0 -0.033071374972657733 -0.00011423484640792288 0 -0.032826667842372807 0.00037223179222811882 0 -0.033071374972657733 -0.00011423484640792288 0 -0.032338294389805303 4.6295334964141713e-05 0 -0.033071374972657733 -0.00011423484640792288 0 -0.033348562157264977 -0.00056925368796909156 0 -0.032467672552901915 -0.0005916847374678538 0 -0.034092305314072112 -0.00059254025793685299 0 -0.03384086065846012 -9.6592556269927107e-05 0 -0.033348562157264977 -0.00056925368796909156 0 -0.03384086065846012 -9.6592556269927107e-05 0 -0.033071374972657733 -0.00011423484640792288 0 -0.033348562157264977 -0.00056925368796909156 0 -0.034092305314072112 -0.00059254025793685299 0 -0.0341700355663829 -0.001036261776360779 0 -0.033513772953647235 -0.0009728455487701327 0 -0.034092305314072112 -0.00059254025793685299 0 -0.033348562157264977 -0.00056925368796909156 0 -0.033513772953647235 -0.0009728455487701327 0 -0.033348562157264977 -0.00056925368796909156 0 -0.033513772953647235 -0.0009728455487701327 0 -0.032901592825255725 -0.00095580472744894048 0 -0.033348562157264977 -0.00056925368796909156 0 -0.032901592825255725 -0.00095580472744894048 0 -0.032467672552901915 -0.0005916847374678538 0 -0.033513772953647235 -0.0009728455487701327 0 -0.033021349100556506 -0.0012920589964207393 0 -0.033522011332632454 -0.001325384256822725 0 -0.033513772953647235 -0.0009728455487701327 0 -0.032901592825255725 -0.00095580472744894048 0 -0.033021349100556506 -0.0012920589964207393 0 -0.032901592825255725 -0.00095580472744894048 0 -0.033021349100556506 -0.0012920589964207393 0 -0.032543336063513319 -0.0014572281440438665 0 -0.033021349100556506 -0.0012920589964207393 0 -0.032543336063513319 -0.0014572281440438665 0 -0.033007310274228069 -0.0016160758524825282 0 -0.033021349100556506 -0.0012920589964207393 0 -0.033522011332632454 -0.001325384256822725 0 -0.033007310274228069 -0.0016160758524825282 0 -0.0341700355663829 -0.001036261776360779 0 -0.033513772953647235 -0.0009728455487701327 0 -0.033522011332632454 -0.001325384256822725 0 -0.03183497718812496 -0.001341598814176298 0 -0.031823793796914343 -0.0017185037226778795 0 -0.032543336063513319 -0.0014572281440438665 0 -0.03183497718812496 -0.001341598814176298 0 -0.031823793796914343 -0.0017185037226778795 0 -0.031206473485555997 -0.0014633693571769124 0 -0.031823793796914343 -0.0017185037226778795 0 -0.031206473485555997 -0.0014633693571769124 0 -0.031236282469406709 -0.0018001692117202625 0 -0.031823793796914343 -0.0017185037226778795 0 -0.031236282469406709 -0.0018001692117202625 0 -0.031546888506260723 -0.0020640956544355181 0 -0.031823793796914343 -0.0017185037226778795 0 -0.032543336063513319 -0.0014572281440438665 0 -0.032745109138695175 -0.0020060036291946761 0 -0.03183497718812496 -0.001341598814176298 0 -0.032543336063513319 -0.0014572281440438665 0 -0.032170771165351802 -0.0010456861887931043 0 -0.032901592825255725 -0.00095580472744894048 0 -0.032170771165351802 -0.0010456861887931043 0 -0.032467672552901915 -0.0005916847374678538 0 -0.032901592825255725 -0.00095580472744894048 0 -0.032543336063513319 -0.0014572281440438665 0 -0.032170771165351802 -0.0010456861887931043 0 -0.032170771165351802 -0.0010456861887931043 0 -0.031830126245859722 -0.00071718129974542195 0 -0.032467672552901915 -0.0005916847374678538 0 -0.032170771165351802 -0.0010456861887931043 0 -0.031365657519118059 -0.001005578039460994 0 -0.031830126245859722 -0.00071718129974542195 0 -0.03183497718812496 -0.001341598814176298 0 -0.032170771165351802 -0.0010456861887931043 0 -0.031365657519118059 -0.001005578039460994 0 -0.03183497718812496 -0.001341598814176298 0 -0.031365657519118059 -0.001005578039460994 0 -0.031206473485555997 -0.0014633693571769124 0 -0.031365657519118059 -0.001005578039460994 0 -0.031830126245859722 -0.00071718129974542195 0 -0.03102236868312299 -0.00045085253028990147 0 -0.031825629633460487 -0.00031516985108182379 0 -0.031678252420413403 0.00014717477960415025 0 -0.03102236868312299 -0.00045085253028990147 0 -0.031830126245859722 -0.00071718129974542195 0 -0.031825629633460487 -0.00031516985108182379 0 -0.03102236868312299 -0.00045085253028990147 0 -0.033071374972657733 -0.00011423484640792288 0 -0.032467672552901915 -0.0005916847374678538 0 -0.032338294389805303 4.6295334964141713e-05 0 -0.031825629633460487 -0.00031516985108182379 0 -0.032467672552901915 -0.0005916847374678538 0 -0.032338294389805303 4.6295334964141713e-05 0 -0.031830126245859722 -0.00071718129974542195 0 -0.031825629633460487 -0.00031516985108182379 0 -0.032467672552901915 -0.0005916847374678538 0 -0.032089982236982673 0.00062639453891701784 0 -0.032826667842372807 0.00037223179222811882 0 -0.032338294389805303 4.6295334964141713e-05 0 -0.032089982236982673 0.00062639453891701784 0 -0.032338294389805303 4.6295334964141713e-05 0 -0.031678252420413403 0.00014717477960415025 0 -0.031825629633460487 -0.00031516985108182379 0 -0.032338294389805303 4.6295334964141713e-05 0 -0.031678252420413403 0.00014717477960415025 0 -0.030917747624951804 0.00040264772671538932 0 -0.031678252420413403 0.00014717477960415025 0 -0.03102236868312299 -0.00045085253028990147 0 -0.030917747624951804 0.00040264772671538932 0 -0.029548997972482074 -3.4141277046673977e-05 0 -0.03102236868312299 -0.00045085253028990147 0 -0.029548997972482074 -3.4141277046673977e-05 0 -0.03102236868312299 -0.00045085253028990147 0 -0.030071759416651349 -0.00093286755964340951 0 -0.029548997972482074 -3.4141277046673977e-05 0 -0.028528865838701387 -0.0012283086896407354 0 -0.030071759416651349 -0.00093286755964340951 0 -0.028422896126971083 0.00092881278213306578 0 -0.029548997972482074 -3.4141277046673977e-05 0 -0.02785046512019574 8.4702688630951609e-05 0 -0.029548997972482074 -3.4141277046673977e-05 0 -0.02785046512019574 8.4702688630951609e-05 0 -0.028528865838701387 -0.0012283086896407354 0 -0.028528865838701387 -0.0012283086896407354 0 -0.028436491494661105 -0.0025778039529665425 0 -0.026273008895773362 -0.002386017426710965 0 -0.028528865838701387 -0.0012283086896407354 0 -0.030245071002761512 -0.0017201954495319005 0 -0.028436491494661105 -0.0025778039529665425 0 -0.030245071002761512 -0.0017201954495319005 0 -0.030886589078635434 -0.002576572400018926 0 -0.028436491494661105 -0.0025778039529665425 0 -0.031365657519118059 -0.001005578039460994 0 -0.03102236868312299 -0.00045085253028990147 0 -0.030756129624026542 -0.0011931211211280855 0 -0.030756129624026542 -0.0011931211211280855 0 -0.030071759416651349 -0.00093286755964340951 0 -0.030245071002761512 -0.0017201954495319005 0 -0.03102236868312299 -0.00045085253028990147 0 -0.030756129624026542 -0.0011931211211280855 0 -0.030071759416651349 -0.00093286755964340951 0 -0.031365657519118059 -0.001005578039460994 0 -0.030756129624026542 -0.0011931211211280855 0 -0.031206473485555997 -0.0014633693571769124 0 -0.028528865838701387 -0.0012283086896407354 0 -0.030071759416651349 -0.00093286755964340951 0 -0.030245071002761512 -0.0017201954495319005 0 -0.030756129624026542 -0.0011931211211280855 0 -0.030245071002761512 -0.0017201954495319005 0 -0.031206473485555997 -0.0014633693571769124 0 -0.030245071002761512 -0.0017201954495319005 0 -0.031206473485555997 -0.0014633693571769124 0 -0.031236282469406709 -0.0018001692117202625 0 -0.030245071002761512 -0.0017201954495319005 0 -0.031236282469406709 -0.0018001692117202625 0 -0.030839390391349791 -0.0020186696005256603 0 -0.030245071002761512 -0.0017201954495319005 0 -0.030839390391349791 -0.0020186696005256603 0 -0.030886589078635434 -0.002576572400018926 0 -0.031236282469406709 -0.0018001692117202625 0 -0.031021569585050188 -0.002216793380282391 0 -0.031546888506260723 -0.0020640956544355181 0 -0.031236282469406709 -0.0018001692117202625 0 -0.030839390391349791 -0.0020186696005256603 0 -0.031021569585050188 -0.002216793380282391 0 -0.031021569585050188 -0.002216793380282391 0 -0.030886589078635434 -0.002576572400018926 0 -0.031546888506260723 -0.0020640956544355181 0 -0.030839390391349791 -0.0020186696005256603 0 -0.031021569585050188 -0.002216793380282391 0 -0.030886589078635434 -0.002576572400018926 0 -0.025228340381080069 0.0032796373326007991 0 -0.021828547767878275 0.0044018758809033567 0 -0.016327605021903072 0.011159154061977117 0 -0.015956145149882819 0.010979703227266949 0 -0.015676973352059153 0.011299809335944121 0 -0.016327605021903072 0.011159154061977117 0 -0.016201876146558349 0.010879152210708743 0 -0.016363128067666436 0.010721779576950257 0 -0.016327605021903072 0.011159154061977117 0 -0.015956145149882819 0.010979703227266949 0 -0.016201876146558349 0.010879152210708743 0 -0.015676973352059153 0.011299809335944121 0 -0.015558676685619372 0.010823958335694606 0 -0.015148674500305799 0.010968500024977585 0 -0.015956145149882819 0.010979703227266949 0 -0.015676973352059153 0.011299809335944121 0 -0.015558676685619372 0.010823958335694606 0 -0.015558676685619372 0.010823958335694606 0 -0.015684297790140758 0.010558932263728147 0 -0.016058878423757351 0.010671901991277419 0 -0.015956145149882819 0.010979703227266949 0 -0.015558676685619372 0.010823958335694606 0 -0.016058878423757351 0.010671901991277419 0 -0.015558676685619372 0.010823958335694606 0 -0.015684297790140758 0.010558932263728147 0 -0.015168043365937089 0.0105917274755937 0 -0.016201876146558349 0.010879152210708743 0 -0.016058878423757351 0.010671901991277419 0 -0.016363128067666436 0.010721779576950257 0 -0.015956145149882819 0.010979703227266949 0 -0.016201876146558349 0.010879152210708743 0 -0.016058878423757351 0.010671901991277419 0 -0.016058878423757351 0.010671901991277419 0 -0.016363128067666436 0.010721779576950257 0 -0.01638295582580224 0.010404871699800242 0 -0.016363128067666436 0.010721779576950257 0 -0.016663890052800404 0.010544032744010091 0 -0.01638295582580224 0.010404871699800242 0 -0.016327605021903072 0.011159154061977117 0 -0.016363128067666436 0.010721779576950257 0 -0.016663890052800404 0.010544032744010091 0 -0.030911805430203689 -0.00027854196369022548 0 -0.032854180950928388 -0.00049525596689945287 0 -0.032684481233895037 -0.0016938189709900565 0 -0.030424562488963875 0.0011039269111939481 0 -0.030911805430203689 -0.00027854196369022548 0 -0.032854180950928388 -0.00049525596689945287 0 -0.034202458155448943 -0.0025023521563942545 0 -0.032684481233895037 -0.0016938189709900565 0 -0.033887437254912202 -0.001748839991546792 0 -0.032528830929739537 -0.001361711139081384 0 -0.032659502996973476 -0.0016264498181419995 0 -0.034195125150566073 -0.0013603981316369933 0 -0.033887437254912202 -0.001748839991546792 0 -0.033394988524541362 -0.0015434468572483892 0 -0.032684481233895037 -0.0016938189709900565 0 -0.033887437254912202 -0.001748839991546792 0 -0.033394988524541362 -0.0015434468572483892 0 -0.034195125150566073 -0.0013603981316369933 0 -0.033394988524541362 -0.0015434468572483892 0 -0.033522011332632454 -0.001325384256822725 0 -0.0341700355663829 -0.001036261776360779 0 -0.034195125150566073 -0.0013603981316369933 0 -0.033522011332632454 -0.001325384256822725 0 -0.032684481233895037 -0.0016938189709900565 0 -0.033394988524541362 -0.0015434468572483892 0 -0.033007310274228069 -0.0016160758524825282 0 -0.033394988524541362 -0.0015434468572483892 0 -0.033522011332632454 -0.001325384256822725 0 -0.033007310274228069 -0.0016160758524825282 0 -0.032684481233895037 -0.0016938189709900565 0 -0.033007310274228069 -0.0016160758524825282 0 -0.032745109138695175 -0.0020060036291946761 0 -0.032543336063513319 -0.0014572281440438665 0 -0.033007310274228069 -0.0016160758524825282 0 -0.032745109138695175 -0.0020060036291946761 0 -0.025228340381080069 0.0032796373326007991 0 -0.024625735910929175 0.005278413251222254 0 -0.033399529152738736 -0.0021301037415856218 0 -0.032854180950928388 -0.00049525596689945287 0 -0.032684481233895037 -0.0016938189709900565 0 -0.033399529152738736 -0.0021301037415856218 0 -0.032684481233895037 -0.0016938189709900565 0 -0.032745109138695175 -0.0020060036291946761 0 -0.031823793796914343 -0.0017185037226778795 0 -0.032745109138695175 -0.0020060036291946761 0 -0.031546888506260723 -0.0020640956544355181 0 -0.030886589078635434 -0.002576572400018926 0 -0.032745109138695175 -0.0020060036291946761 0 -0.031546888506260723 -0.0020640956544355181 0 -0.025228340381080069 0.0032796373326007991 0 -0.034522052335446626 -0.0015691537979576657 0 -0.017746977740651336 0.010361659715999659 0 -0.015737896262186697 0.0093495628838916062 0 -0.018948616561653656 0.0083414461024667284 0 -0.017746977740651336 0.010361659715999659 0 -0.015737896262186697 0.0093495628838916062 0 -0.016312515494117746 0.011702424865977133 0 -0.015737896262186697 0.0093495628838916062 0 -0.018948616561653656 0.0083414461024667284 0 -0.016081629582907129 0.007138290392399123 0 -0.018948616561653656 0.0083414461024667284 0 -0.020988951746587461 0.0083291712118098299 0 -0.021989711556443688 0.0056296303977605901 0 -0.020988951746587461 0.0083291712118098299 0 -0.022665866984684351 0.0082388621025632856 0 -0.021989711556443688 0.0056296303977605901 0 -0.022665866984684351 0.0082388621025632856 0 -0.020370150963856921 0.010937124262371612 0 -0.023456807696307765 0.011458458396436796 0 -0.020988951746587461 0.0083291712118098299 0 -0.022665866984684351 0.0082388621025632856 0 -0.020370150963856921 0.010937124262371612 0 -0.018948616561653656 0.0083414461024667284 0 -0.020988951746587461 0.0083291712118098299 0 -0.020370150963856921 0.010937124262371612 0 -0.017746977740651336 0.010361659715999659 0 -0.018948616561653656 0.0083414461024667284 0 -0.020370150963856921 0.010937124262371612 0 -0.020370150963856921 0.010937124262371612 0 -0.017523459170033243 0.012526249085436814 0 -0.019384856784404714 0.015001243496681325 0 -0.020370150963856921 0.010937124262371612 0 -0.021868047031251718 0.013517064082054881 0 -0.019384856784404714 0.015001243496681325 0 -0.020370150963856921 0.010937124262371612 0 -0.021868047031251718 0.013517064082054881 0 -0.023456807696307765 0.011458458396436796 0 -0.01641963272063595 0.014182812075155756 0 -0.017523459170033243 0.012526249085436814 0 -0.019384856784404714 0.015001243496681325 0 -0.01641963272063595 0.014182812075155756 0 -0.017523459170033243 0.012526249085436814 0 -0.01591561753757546 0.01322997518169378 0 -0.017746977740651336 0.010361659715999659 0 -0.017523459170033243 0.012526249085436814 0 -0.016312515494117746 0.011702424865977133 0 -0.017746977740651336 0.010361659715999659 0 -0.020370150963856921 0.010937124262371612 0 -0.017523459170033243 0.012526249085436814 0 -0.015737896262186697 0.0093495628838916062 0 -0.016312515494117746 0.011702424865977133 0 -0.01499128564567628 0.013010864408221905 0 -0.017523459170033243 0.012526249085436814 0 -0.016312515494117746 0.011702424865977133 0 -0.01591561753757546 0.01322997518169378 0 -0.016312515494117746 0.011702424865977133 0 -0.01499128564567628 0.013010864408221905 0 -0.01591561753757546 0.01322997518169378 0 -0.01499128564567628 0.013010864408221905 0 -0.01591561753757546 0.01322997518169378 0 -0.015039908270330343 0.014661840378674908 0 -0.01641963272063595 0.014182812075155756 0 -0.01591561753757546 0.01322997518169378 0 -0.015039908270330343 0.014661840378674908 0 -0.01641963272063595 0.014182812075155756 0 -0.015039908270330343 0.014661840378674908 0 -0.015751670278151473 0.016007448861942299 0 -0.015665205461496374 0.0095747146528547874 0 -0.013511263787366459 0.01280603793012028 0 -0.014343180044895062 0.01453079611370511 0 -0.013803404455408652 0.014151403951241205 0 -0.013854803711234778 0.015861365459932424 0 -0.015737896262186697 0.0093495628838916062 0 -0.014737164398288384 0.010662039446326236 0 -0.014723853317091211 0.010521464964564398 0 -0.015737896262186697 0.0093495628838916062 0 -0.013803404455408652 0.014151403951241205 0 -0.01205044084866308 0.015222077926792999 0 -0.015737896262186697 0.0093495628838916062 0 -0.01499128564567628 0.013010864408221905 0 -0.013803404455408652 0.014151403951241205 0 -0.01499128564567628 0.013010864408221905 0 -0.014343180044895062 0.01453079611370511 0 -0.013803404455408652 0.014151403951241205 0 -0.01499128564567628 0.013010864408221905 0 -0.015039908270330343 0.014661840378674908 0 -0.014343180044895062 0.01453079611370511 0 -0.013803404455408652 0.014151403951241205 0 -0.01205044084866308 0.015222077926792999 0 -0.013014227162754575 0.015546560659935349 0 -0.015558676685619372 0.010823958335694606 0 -0.015168043365937089 0.0105917274755937 0 -0.015134623159094451 0.010737876473676789 0 -0.014723853317091211 0.010521464964564398 0 -0.015168043365937089 0.0105917274755937 0 -0.015134623159094451 0.010737876473676789 0 -0.014737164398288384 0.010662039446326236 0 -0.014723853317091211 0.010521464964564398 0 -0.015168043365937089 0.0105917274755937 0 -0.014723853317091211 0.010521464964564398 0 -0.015134623159094451 0.010737876473676789 0 -0.015148674500305799 0.010968500024977585 0 -0.015558676685619372 0.010823958335694606 0 -0.015134623159094451 0.010737876473676789 0 -0.015148674500305799 0.010968500024977585 0 -0.015676973352059153 0.011299809335944121 0 -0.015148674500305799 0.010968500024977585 0 -0.01499620323746753 0.011401559693374726 0 -0.013300174158965325 0.012277272605075613 0 -0.020140740457736974 0.005277153513518618 0 -0.021828547767878275 0.0044018758809033567 0 -0.020140740457736974 0.005277153513518618 0 -0.014723853317091211 0.010521464964564398 0 -0.015148674500305799 0.010968500024977585 0 -0.01499620323746753 0.011401559693374726 0 -0.015737896262186697 0.0093495628838916062 0 -0.013857597354567021 0.0081424267900588217 0 -0.016081629582907129 0.007138290392399123 0 -0.015737896262186697 0.0093495628838916062 0 -0.014723853317091211 0.010521464964564398 0 -0.013857597354567021 0.0081424267900588217 0 -0.02324298959624219 0.0043026853677848951 0 -0.023450682094257051 0.0040450594853962173 0 -0.023023819495647857 0.004125141666601469 0 -0.02324298959624219 0.0043026853677848951 0 -0.023450682094257051 0.0040450594853962173 0 -0.023541551608345174 0.0042117953160505511 0 -0.020140740457736974 0.005277153513518618 0 -0.019439882907455772 0.0057647715421531862 0 -0.028528865838701387 -0.0012283086896407354 0 -0.026273008895773362 -0.002386017426710965 0 -0.026430244702696615 -0.00044918916979350164 0 -0.020140740457736974 0.005277153513518618 0 -0.025236126143990567 0.0010453987084415575 0 -0.02785046512019574 8.4702688630951609e-05 0 -0.026430244702696615 -0.00044918916979350164 0 -0.026230848028164378 0.0013578962874453179 0 -0.02785046512019574 8.4702688630951609e-05 0 -0.028528865838701387 -0.0012283086896407354 0 -0.026430244702696615 -0.00044918916979350164 0 -0.02324298959624219 0.0043026853677848951 0 -0.023541551608345174 0.0042117953160505511 0 -0.023590166448553961 0.0041509662251020228 0 -0.023541551608345174 0.0042117953160505511 0 -0.023590166448553961 0.0041509662251020228 0 -0.024052644509767202 0.0039263037950789774 0 -0.02324298959624219 0.0043026853677848951 0 -0.023590166448553961 0.0041509662251020228 0 -0.023329667730641268 0.004240252805427806 0 -0.023329667730641268 0.004240252805427806 0 -0.022968635583911306 0.0043417587243233385 0 -0.022942534962987423 0.0044073782625604595 0 -0.023329667730641268 0.004240252805427806 0 -0.022968635583911306 0.0043417587243233385 0 -0.023367098629196715 0.0041952792266421249 0 -0.022968635583911306 0.0043417587243233385 0 -0.022942534962987423 0.0044073782625604595 0 -0.022617008133343438 0.0045698348256813289 0 -0.02324298959624219 0.0043026853677848951 0 -0.023329667730641268 0.004240252805427806 0 -0.022942534962987423 0.0044073782625604595 0 -0.018948616561653656 0.0083414461024667284 0 -0.016081629582907129 0.007138290392399123 0 -0.021989711556443688 0.0056296303977605901 0 -0.02324298959624219 0.0043026853677848951 0 -0.022719375290681493 0.0045587762192723534 0 -0.023023819495647857 0.004125141666601469 0 -0.019439882907455772 0.0057647715421531862 0 -0.022039096981659182 0.0055547285215844519 0 -0.02324298959624219 0.0043026853677848951 0 -0.022942534962987423 0.0044073782625604595 0 -0.022719375290681493 0.0045587762192723534 0 -0.022719375290681493 0.0045587762192723534 0 -0.023023819495647857 0.004125141666601469 0 -0.021989711556443688 0.0056296303977605901 0 -0.022942534962987423 0.0044073782625604595 0 -0.022719375290681493 0.0045587762192723534 0 -0.022617008133343438 0.0045698348256813289 0 -0.022665866984684351 0.0082388621025632856 0 -0.021989711556443688 0.0056296303977605901 0 -0.022770168465018035 0.0044271856978307204 0 -0.022719375290681493 0.0045587762192723534 0 -0.021989711556443688 0.0056296303977605901 0 -0.022617008133343438 0.0045698348256813289 0 -0.021989711556443688 0.0056296303977605901 0 -0.022617008133343438 0.0045698348256813289 0 -0.022770168465018035 0.0044271856978307204 0 -0.0051752845551703416 0.014419787682565357 0 -0.0050708282490007873 0.014868404452969993 0 -0.005093204584625372 0.015092384316226873 0 -0.013971437375915498 0.0095152667932397982 0 -0.014042299867492681 0.0095802701183854647 0 -0.022968635583911306 0.0043417587243233385 0 -0.022770168465018035 0.0044271856978307204 0 -0.023155420893154713 0.004256717927615207 0 -0.0051752845551703416 0.014419787682565357 0 -0.0050064681732301915 0.014796168137394951 0 -0.0050708282490007873 0.014868404452969993 0 -0.022968635583911306 0.0043417587243233385 0 -0.022617008133343438 0.0045698348256813289 0 -0.022770168465018035 0.0044271856978307204 0 -0.0050064681732301915 0.014796168137394951 0 -0.0050708282490007873 0.014868404452969993 0 -0.0050662214871172867 0.015100475055290377 0 -0.0050662214871172867 0.015100475055290377 0 -0.005093204584625372 0.015092384316226873 0 -0.0044442077999959874 0.015507900934084254 0 -0.0047775615270537926 0.015587481461130386 0 -0.0047108808746846222 0.015628165336085253 0 -0.0045708626242843215 0.015539756113218213 0 -0.0050708282490007873 0.014868404452969993 0 -0.0050662214871172867 0.015100475055290377 0 -0.005093204584625372 0.015092384316226873 0 -0.022968635583911306 0.0043417587243233385 0 -0.023155420893154713 0.004256717927615207 0 -0.023367098629196715 0.0041952792266421249 0 -0.023329667730641268 0.004240252805427806 0 -0.023367098629196715 0.0041952792266421249 0 -0.023746023771251786 0.0040591619418722732 0 -0.023577213799722215 0.004125387981508806 0 -0.023746023771251786 0.0040591619418722732 0 -0.023860168085712018 0.0040293702316091537 0 -0.023367098629196715 0.0041952792266421249 0 -0.023577213799722215 0.004125387981508806 0 -0.023746023771251786 0.0040591619418722732 0 -0.023155420893154713 0.004256717927615207 0 -0.023367098629196715 0.0041952792266421249 0 -0.023577213799722215 0.004125387981508806 0 -0.023155420893154713 0.004256717927615207 0 -0.023577213799722215 0.004125387981508806 0 -0.02380853851118693 0.0040789152931403894 0 -0.005093204584625372 0.015092384316226873 0 -0.0044442077999959874 0.015507900934084254 0 -0.0043816181183694188 0.015533778961423243 0 -0.0047775615270537926 0.015587481461130386 0 -0.0044442077999959874 0.015507900934084254 0 -0.0045747679303805985 0.01556362319866943 0 -0.0048902558573949992 0.015355999729542108 0 -0.0045424213455487507 0.015485992977422463 0 -0.014042299867492681 0.0095802701183854647 0 -0.014308868377991795 0.0098240724833363029 0 -0.023577213799722215 0.004125387981508806 0 -0.0238047729808341 0.0040641215749863497 0 -0.02380853851118693 0.0040789152931403894 0 -0.023577213799722215 0.004125387981508806 0 -0.0238047729808341 0.0040641215749863497 0 -0.023860168085712018 0.0040293702316091537 0 -0.0238047729808341 0.0040641215749863497 0 -0.02380853851118693 0.0040789152931403894 0 -0.024002575200402387 0.0040410618537849562 0 -0.0044442077999959874 0.015507900934084254 0 -0.0044591628747261821 0.01549720840444063 0 -0.004378200676265754 0.01545783489949455 0 -0.0044442077999959874 0.015507900934084254 0 -0.0043816181183694188 0.015533778961423243 0 -0.004378200676265754 0.01545783489949455 0 -0.0044442077999959874 0.015507900934084254 0 -0.0044591628747261821 0.01549720840444063 0 -0.0045747679303805985 0.01556362319866943 0 -0.0044591628747261821 0.01549720840444063 0 -0.0045747679303805985 0.01556362319866943 0 -0.004530848082758763 0.015522882391303009 0 -0.0047775615270537926 0.015587481461130386 0 -0.0045747679303805985 0.01556362319866943 0 -0.0046608107459593017 0.015614029348494925 0 -0.0045747679303805985 0.01556362319866943 0 -0.0046608107459593017 0.015614029348494925 0 -0.004530848082758763 0.015522882391303009 0 -0.0047482161030361547 0.015744783267184623 0 -0.0046608107459593017 0.015614029348494925 0 -0.004530848082758763 0.015522882391303009 0 -0.0047482161030361547 0.015744783267184623 0 -0.0047108808746846222 0.015628165336085253 0 -0.0046608107459593017 0.015614029348494925 0 -0.0047775615270537926 0.015587481461130386 0 -0.0047108808746846222 0.015628165336085253 0 -0.0046608107459593017 0.015614029348494925 0 -0.025236126143990567 0.0010453987084415575 0 -0.025192538039562409 0.0029447117704521054 0 -0.028422896126971083 0.00092881278213306578 0 -0.02785046512019574 8.4702688630951609e-05 0 -0.026230848028164378 0.0013578962874453179 0 -0.023590166448553961 0.0041509662251020228 0 -0.024052644509767202 0.0039263037950789774 0 -0.023746023771251786 0.0040591619418722732 0 -0.024052644509767202 0.0039263037950789774 0 -0.023746023771251786 0.0040591619418722732 0 -0.024294249614288305 0.0038878837824834842 0 -0.023590166448553961 0.0041509662251020228 0 -0.023329667730641268 0.004240252805427806 0 -0.023746023771251786 0.0040591619418722732 0 -0.023860168085712018 0.0040293702316091537 0 -0.024002575200402387 0.0040410618537849562 0 -0.024294249614288305 0.0038878837824834842 0 -0.023746023771251786 0.0040591619418722732 0 -0.023860168085712018 0.0040293702316091537 0 -0.024294249614288305 0.0038878837824834842 0 -0.0238047729808341 0.0040641215749863497 0 -0.023860168085712018 0.0040293702316091537 0 -0.024002575200402387 0.0040410618537849562 0 -0.02380853851118693 0.0040789152931403894 0 -0.024090849625195736 0.0041056815527240444 0 -0.024416842129508728 0.0043580712327869588 0 -0.024002575200402387 0.0040410618537849562 0 -0.024273311796125848 0.0040527825307529724 0 -0.024294249614288305 0.0038878837824834842 0 -0.02380853851118693 0.0040789152931403894 0 -0.024002575200402387 0.0040410618537849562 0 -0.024090849625195736 0.0041056815527240444 0 -0.024002575200402387 0.0040410618537849562 0 -0.024090849625195736 0.0041056815527240444 0 -0.024273311796125848 0.0040527825307529724 0 -0.024090849625195736 0.0041056815527240444 0 -0.024273311796125848 0.0040527825307529724 0 -0.024416842129508728 0.0043580712327869588 0 -0.024787381361653066 0.0040113779011717579 0 -0.024294249614288305 0.0038878837824834842 0 -0.02564637583624662 0.0037549582384558541 0 -0.024273311796125848 0.0040527825307529724 0 -0.024787381361653066 0.0040113779011717579 0 -0.024294249614288305 0.0038878837824834842 0 -0.024052644509767202 0.0039263037950789774 0 -0.024294249614288305 0.0038878837824834842 0 -0.02564637583624662 0.0037549582384558541 0 -0.028287762288667223 0.002262046129302784 0 -0.026230848028164378 0.0013578962874453179 0 -0.02564637583624662 0.0037549582384558541 0 -0.025192538039562409 0.0029447117704521054 0 -0.02553601659774335 0.0037503998511876184 0 -0.027574934252164045 0.0039442120476741206 0 -0.026222431912871023 0.0049364788876068598 0 -0.02564637583624662 0.0037549582384558541 0 -0.024787381361653066 0.0040113779011717579 0 -0.02564637583624662 0.0037549582384558541 0 -0.025315241900107182 0.0045487192360836801 0 -0.026222431912871023 0.0049364788876068598 0 -0.025315241900107182 0.0045487192360836801 0 -0.024968080854741333 0.0052235968544137451 0 -0.026222431912871023 0.0049364788876068598 0 -0.02564637583624662 0.0037549582384558541 0 -0.025315241900107182 0.0045487192360836801 0 -0.0043816181183694188 0.015533778961423243 0 -0.0037796530445525891 0.01497780581985066 0 -0.0042056519060362394 0.015296189582342573 0 -0.02380853851118693 0.0040789152931403894 0 -0.024416842129508728 0.0043580712327869588 0 -0.02476150333032923 0.0053642338036249517 0 -0.024786340620549938 0.004775448588760515 0 -0.024416842129508728 0.0043580712327869588 0 -0.02476150333032923 0.0053642338036249517 0 -0.014308868377991795 0.0098240724833363029 0 -0.012766868719785416 0.010222466826207128 0 -0.025315241900107182 0.0045487192360836801 0 -0.024786340620549938 0.004775448588760515 0 -0.024968080854741333 0.0052235968544137451 0 -0.025315241900107182 0.0045487192360836801 0 -0.024786340620549938 0.004775448588760515 0 -0.024775594084891078 0.0043943431303858742 0 -0.024787381361653066 0.0040113779011717579 0 -0.025315241900107182 0.0045487192360836801 0 -0.024775594084891078 0.0043943431303858742 0 -0.024786340620549938 0.004775448588760515 0 -0.024775594084891078 0.0043943431303858742 0 -0.024416842129508728 0.0043580712327869588 0 -0.024273311796125848 0.0040527825307529724 0 -0.024787381361653066 0.0040113779011717579 0 -0.024416842129508728 0.0043580712327869588 0 -0.024787381361653066 0.0040113779011717579 0 -0.024775594084891078 0.0043943431303858742 0 -0.024416842129508728 0.0043580712327869588 0 -0.0037796530445525891 0.01497780581985066 0 -0.0041244368664681182 0.015149399501950635 0 -0.0042056519060362394 0.015296189582342573 0 -0.0037796530445525891 0.01497780581985066 0 -0.0041244368664681182 0.015149399501950635 0 -0.0040194436157430149 0.014883261185046518 0 -0.024786340620549938 0.004775448588760515 0 -0.02476150333032923 0.0053642338036249517 0 -0.024968080854741333 0.0052235968544137451 0 -0.024755360522008284 0.0054714537466500537 0 -0.024968080854741333 0.0052235968544137451 0 -0.025831108646946696 0.006013630250170294 0 -0.012766868719785416 0.010222466826207128 0 -0.0163346590268982 0.0072330136713519714 0 -0.016533361777499936 0.0077198722981248547 0 -0.012766868719785416 0.010222466826207128 0 -0.025923523885903906 0.0070834915262306458 0 -0.024755360522008284 0.0054714537466500537 0 -0.025831108646946696 0.006013630250170294 0 -0.026222431912871023 0.0049364788876068598 0 -0.024968080854741333 0.0052235968544137451 0 -0.025831108646946696 0.006013630250170294 0 -0.02739134996584586 0.0065810636668676287 0 -0.027533015813874052 0.0052650461889614305 0 -0.025831108646946696 0.006013630250170294 0 -0.027533015813874052 0.0052650461889614305 0 -0.026222431912871023 0.0049364788876068598 0 -0.025831108646946696 0.006013630250170294 0 -0.0044477881964851843 0.015340489202489335 0 -0.0046296136423603527 0.015356554500511526 0 -0.0042701928533075981 0.015082989160763217 0 -0.0047482161030361547 0.015744783267184623 0 -0.0046296136423603527 0.015356554500511526 0 -0.004530848082758763 0.015522882391303009 0 -0.0044477881964851843 0.015340489202489335 0 -0.0046296136423603527 0.015356554500511526 0 -0.004530848082758763 0.015522882391303009 0 -0.0044591628747261821 0.01549720840444063 0 -0.004530848082758763 0.015522882391303009 0 -0.0043527215295760015 0.015363456163919906 0 -0.0044477881964851843 0.015340489202489335 0 -0.004530848082758763 0.015522882391303009 0 -0.0043527215295760015 0.015363456163919906 0 -0.0044591628747261821 0.01549720840444063 0 -0.0043527215295760015 0.015363456163919906 0 -0.004378200676265754 0.01545783489949455 0 -0.0043816181183694188 0.015533778961423243 0 -0.004378200676265754 0.01545783489949455 0 -0.0042056519060362394 0.015296189582342573 0 -0.0043527215295760015 0.015363456163919906 0 -0.004378200676265754 0.01545783489949455 0 -0.0042056519060362394 0.015296189582342573 0 -0.0043527215295760015 0.015363456163919906 0 -0.0041244368664681182 0.015149399501950635 0 -0.0042701928533075981 0.015082989160763217 0 -0.0043527215295760015 0.015363456163919906 0 -0.0041244368664681182 0.015149399501950635 0 -0.0042056519060362394 0.015296189582342573 0 -0.0044477881964851843 0.015340489202489335 0 -0.0043527215295760015 0.015363456163919906 0 -0.0042701928533075981 0.015082989160763217 0 -0.0039092892607582698 0.014287726538231856 0 -0.0042701928533075981 0.015082989160763217 0 -0.0040194436157430149 0.014883261185046518 0 -0.0039092892607582698 0.014287726538231856 0 -0.0037796530445525891 0.01497780581985066 0 -0.0040194436157430149 0.014883261185046518 0 -0.0039092892607582698 0.014287726538231856 0 -0.0042701928533075981 0.015082989160763217 0 -0.0044854588923030903 0.014814125768348915 0 -0.0041244368664681182 0.015149399501950635 0 -0.0042701928533075981 0.015082989160763217 0 -0.0040194436157430149 0.014883261185046518 0 -0.0046296136423603527 0.015356554500511526 0 -0.0042701928533075981 0.015082989160763217 0 -0.0044854588923030903 0.014814125768348915 0 -0.0046296136423603527 0.015356554500511526 0 -0.0044854588923030903 0.014814125768348915 0 -0.0050128302306160725 0.015031786797582221 0 -0.0046296136423603527 0.015356554500511526 0 -0.0050128302306160725 0.015031786797582221 0 -0.0052084225137665864 0.015663601033403231 0 -0.0047482161030361547 0.015744783267184623 0 -0.0046296136423603527 0.015356554500511526 0 -0.0052084225137665864 0.015663601033403231 0 -0.0052084225137665864 0.015663601033403231 0 -0.0054862791203526785 0.015653424112098947 0 -0.0055196566757366554 0.016160136437610193 0 -0.0054393183833761714 0.014878398608167765 0 -0.0050128302306160725 0.015031786797582221 0 -0.0054862791203526785 0.015653424112098947 0 -0.0050128302306160725 0.015031786797582221 0 -0.0052084225137665864 0.015663601033403231 0 -0.0054862791203526785 0.015653424112098947 0 -0.0054862791203526785 0.015653424112098947 0 -0.0058310561583692954 0.015364597920738229 0 -0.0054498569389821979 0.016753765657311903 0 -0.0054393183833761714 0.014878398608167765 0 -0.0054862791203526785 0.015653424112098947 0 -0.0058310561583692954 0.015364597920738229 0 -0.0058310561583692954 0.015364597920738229 0 -0.0067960383586367747 0.015450837488593609 0 -0.0054498569389821979 0.016753765657311903 0 -0.0064915845437457723 0.014799277408002071 0 -0.0058310561583692954 0.015364597920738229 0 -0.0067960383586367747 0.015450837488593609 0 -0.0055524057872673874 0.01731639323241017 0 -0.0055778397182427988 0.016836814242821314 0 -0.0044851062391308054 0.019236694132248239 0 -0.0054498569389821979 0.016753765657311903 0 -0.0037594221092796302 0.017650052877895634 0 -0.0054498569389821979 0.016753765657311903 0 -0.0037594221092796302 0.017650052877895634 0 -0.0039579330705575341 0.016312738600823176 0 -0.0054498569389821979 0.016753765657311903 0 -0.0055196566757366554 0.016160136437610193 0 -0.0039579330705575341 0.016312738600823176 0 -0.0054862791203526785 0.015653424112098947 0 -0.0054498569389821979 0.016753765657311903 0 -0.0055196566757366554 0.016160136437610193 0 -0.0055196566757366554 0.016160136437610193 0 -0.0049292971602409108 0.015362199710554494 0 -0.0055109719195007706 0.015995932093752104 0 -0.0040044969005398464 0.015574927474372755 0 -0.0047978797191672922 0.015884223631135841 0 -0.0055196566757366554 0.016160136437610193 0 -0.0049292971602409108 0.015362199710554494 0 -0.0039579330705575341 0.016312738600823176 0 -0.0031630404185661104 0.015760881032402366 0 -0.0018468022352790296 0.015529262079881038 0 -0.0027497526231419324 0.01484115710311661 0 -0.0031630404185661104 0.015760881032402366 0 -0.0041644063859083719 0.015860427297148781 0 -0.0037753906369509416 0.014980294627307 0 -0.0042829973805484792 0.015329011269643656 0 -0.0045708626242843215 0.015539756113218213 0 -0.0041644063859083719 0.015860427297148781 0 -0.0042829973805484792 0.015329011269643656 0 -0.0041644063859083719 0.015860427297148781 0 -0.0037753906369509416 0.014980294627307 0 -0.0047775615270537926 0.015587481461130386 0 -0.0045708626242843215 0.015539756113218213 0 -0.0045793542442853644 0.014900467146513583 0 -0.0042829973805484792 0.015329011269643656 0 -0.0045708626242843215 0.015539756113218213 0 -0.0045793542442853644 0.014900467146513583 0 -0.0047482161030361547 0.015744783267184623 0 -0.0047108808746846222 0.015628165336085253 0 -0.0045708626242843215 0.015539756113218213 0 -0.0047482161030361547 0.015744783267184623 0 -0.0045708626242843215 0.015539756113218213 0 -0.0041644063859083719 0.015860427297148781 0 -0.0047482161030361547 0.015744783267184623 0 -0.0052084225137665864 0.015663601033403231 0 -0.0055109719195007706 0.015995932093752104 0 -0.0047480169173461538 0.015779664785627642 0 -0.0047978797191672922 0.015884223631135841 0 -0.0052084225137665864 0.015663601033403231 0 -0.0055196566757366554 0.016160136437610193 0 -0.0055109719195007706 0.015995932093752104 0 0.0024906287105975785 0.017345987178806713 0 0.0015921509821050391 0.018658176948517069 0 0.00095685472686721923 0.016596503809044857 0 0.0018018642191991554 0.018898414286092426 0 0.0022737675453052323 0.018926936999072112 0 0.0015921509821050391 0.018658176948517069 0 0.0015921509821050391 0.018658176948517069 0 -0.00030459984842721435 0.017663254913296157 0 -0.0009658114481181742 0.019770469598629437 0 0.0013530601954817956 0.018664156443680243 0 0.00086664422681867221 0.019571460286653602 0 0.0018018642191991554 0.018898414286092426 0 0.0015921509821050391 0.018658176948517069 0 0.0016009672669622676 0.018856365006244616 0 0.0015921509821050391 0.018658176948517069 0 -0.00030459984842721435 0.017663254913296157 0 0.00095685472686721923 0.016596503809044857 0 -0.00030459984842721435 0.017663254913296157 0 -0.0021862523939624478 0.017654695613329011 0 -0.0012107705543414852 0.016251479523287801 0 -0.00030459984842721435 0.017663254913296157 0 -0.0021862523939624478 0.017654695613329011 0 -0.0009658114481181742 0.019770469598629437 0 -0.0021862523939624478 0.017654695613329011 0 -0.0009658114481181742 0.019770469598629437 0 -0.0029440132895977768 0.019044954557778875 0 -0.0035509939099005305 0.020928578023513087 0 -0.0044851062391308054 0.019236694132248239 0 -0.0029440132895977768 0.019044954557778875 0 -0.0044851062391308054 0.019236694132248239 0 -0.0029440132895977768 0.019044954557778875 0 -0.0037594221092796302 0.017650052877895634 0 -0.0021862523939624478 0.017654695613329011 0 -0.0037594221092796302 0.017650052877895634 0 -0.0039579330705575341 0.016312738600823176 0 -0.0021862523939624478 0.017654695613329011 0 -0.0029440132895977768 0.019044954557778875 0 -0.0037594221092796302 0.017650052877895634 0 -0.0039579330705575341 0.016312738600823176 0 -0.0026550203415388733 0.014822580023049828 0 -0.0012107705543414852 0.016251479523287801 0 -0.0040044969005398464 0.015574927474372755 0 -0.0022428926461294488 0.015203983582880368 0 -0.0049292971602409108 0.015362199710554494 0 -0.0039579330705575341 0.016312738600823176 0 -0.0026550203415388733 0.014822580023049828 0 -0.0022428926461294488 0.015203983582880368 0 -0.00043698097869783144 0.014963736949072406 0 -0.0026550203415388733 0.014822580023049828 0 -0.0012107705543414852 0.016251479523287801 0 -0.00025778186364694633 0.014993605607504725 0 -0.0021862523939624478 0.017654695613329011 0 -0.0039579330705575341 0.016312738600823176 0 -0.0012107705543414852 0.016251479523287801 0 -0.00030459984842721435 0.017663254913296157 0 -0.0012107705543414852 0.016251479523287801 0 0.00095685472686721923 0.016596503809044857 0 -0.0012107705543414852 0.016251479523287801 0 0.00095685472686721923 0.016596503809044857 0 -0.00025778186364694633 0.014993605607504725 0 0.0025790575878851052 0.016298804228844478 0 0.00095685472686721923 0.016596503809044857 0 0.0015231629972938898 0.01524003774026275 0 0.00095685472686721923 0.016596503809044857 0 0.0015231629972938898 0.01524003774026275 0 -0.00025778186364694633 0.014993605607504725 0 0.00070805802910909547 0.013974851984035482 0 -0.00025778186364694633 0.014993605607504725 0 -0.00061718135069256815 0.013413601610823627 0 0.0020294539219390833 0.01428027913276942 0 0.00070805802910909547 0.013974851984035482 0 0.0015231629972938898 0.01524003774026275 0 0.0020294539219390833 0.01428027913276942 0 0.0015279216173414917 0.013215710006081613 0 0.00070805802910909547 0.013974851984035482 0 0.00070805802910909547 0.013974851984035482 0 0.0015231629972938898 0.01524003774026275 0 -0.00025778186364694633 0.014993605607504725 0 -0.00025778186364694633 0.014993605607504725 0 -0.001427820132071655 0.014346645891872553 0 -0.00061718135069256815 0.013413601610823627 0 -0.001427820132071655 0.014346645891872553 0 -0.0016017429074175003 0.013474084154355824 0 -0.00061718135069256815 0.013413601610823627 0 -0.0018468022352790296 0.015529262079881038 0 -0.00025778186364694633 0.014993605607504725 0 -0.001427820132071655 0.014346645891872553 0 -0.0018468022352790296 0.015529262079881038 0 -0.001427820132071655 0.014346645891872553 0 -0.0027497526231419324 0.01484115710311661 0 -0.001427820132071655 0.014346645891872553 0 -0.0023761692133748855 0.013886648286564178 0 -0.0027497526231419324 0.01484115710311661 0 -0.001427820132071655 0.014346645891872553 0 -0.0023761692133748855 0.013886648286564178 0 -0.0016017429074175003 0.013474084154355824 0 -0.0023761692133748855 0.013886648286564178 0 -0.0022907770666474449 0.013078727577870578 0 -0.0016017429074175003 0.013474084154355824 0 -0.0022907770666474449 0.013078727577870578 0 -0.0028906393635453882 0.012789608148709277 0 -0.0023610040613448054 0.012397812979136393 0 -0.0022907770666474449 0.013078727577870578 0 -0.0012595473389413964 0.012665933748756433 0 -0.0023610040613448054 0.012397812979136393 0 -0.0012595473389413964 0.012665933748756433 0 -0.0015105641816838043 0.012100366981691143 0 -0.0023610040613448054 0.012397812979136393 0 -0.0012595473389413964 0.012665933748756433 0 -0.00041794396251486647 0.011912303717266688 0 -0.0015105641816838043 0.012100366981691143 0 -0.0022907770666474449 0.013078727577870578 0 -0.0012595473389413964 0.012665933748756433 0 -0.0016017429074175003 0.013474084154355824 0 -0.0012595473389413964 0.012665933748756433 0 -0.0016017429074175003 0.013474084154355824 0 -0.00061718135069256815 0.013413601610823627 0 -0.0012595473389413964 0.012665933748756433 0 -0.00061718135069256815 0.013413601610823627 0 0.0003189455585948305 0.012494644127677996 0 0.00070805802910909547 0.013974851984035482 0 -0.00061718135069256815 0.013413601610823627 0 0.0003189455585948305 0.012494644127677996 0 -0.0012595473389413964 0.012665933748756433 0 0.0003189455585948305 0.012494644127677996 0 -0.00041794396251486647 0.011912303717266688 0 0.0014066567622206968 0.011849124656270454 0 0.0007735924093087486 0.011513925501124013 0 0.0003189455585948305 0.012494644127677996 0 0.0015279216173414917 0.013215710006081613 0 0.00070805802910909547 0.013974851984035482 0 0.0003189455585948305 0.012494644127677996 0 0.0014066567622206968 0.011849124656270454 0 0.0015279216173414917 0.013215710006081613 0 0.0003189455585948305 0.012494644127677996 0 -0.0040639790602193943 0.014010596791322273 0 -0.0046950562689930487 0.014133827780823977 0 -0.0047703068277813203 0.014664336511445376 0 -0.0040639790602193943 0.014010596791322273 0 -0.0045793542442853644 0.014900467146513583 0 -0.0037753906369509416 0.014980294627307 0 -0.0040828641041735668 0.014051795762747003 0 -0.0046479168909704122 0.014760734850266287 0 -0.0051752845551703416 0.014419787682565357 0 -0.0046950562689930487 0.014133827780823977 0 -0.0047471615406352256 0.013943699251537354 0 -0.0051752845551703416 0.014419787682565357 0 -0.004901668998784932 0.014466620753121115 0 -0.0049674406933600179 0.014614613343760109 0 -0.0051752845551703416 0.014419787682565357 0 -0.0046950562689930487 0.014133827780823977 0 -0.004901668998784932 0.014466620753121115 0 -0.0046950562689930487 0.014133827780823977 0 -0.004901668998784932 0.014466620753121115 0 -0.0047703068277813203 0.014664336511445376 0 -0.0050064681732301915 0.014796168137394951 0 -0.0050662214871172867 0.015100475055290377 0 -0.0047703068277813203 0.014664336511445376 0 -0.0048902558573949992 0.015355999729542108 0 -0.0046479168909704122 0.014760734850266287 0 -0.0050064681732301915 0.014796168137394951 0 -0.0047703068277813203 0.014664336511445376 0 -0.0049674406933600179 0.014614613343760109 0 -0.004901668998784932 0.014466620753121115 0 -0.0047703068277813203 0.014664336511445376 0 -0.0049674406933600179 0.014614613343760109 0 -0.0051752845551703416 0.014419787682565357 0 -0.0050064681732301915 0.014796168137394951 0 -0.0049674406933600179 0.014614613343760109 0 -0.0042829973805484792 0.015329011269643656 0 -0.0045793542442853644 0.014900467146513583 0 -0.0037753906369509416 0.014980294627307 0 -0.0031630404185661104 0.015760881032402366 0 -0.0037753906369509416 0.014980294627307 0 -0.0027497526231419324 0.01484115710311661 0 -0.0037753906369509416 0.014980294627307 0 -0.0027497526231419324 0.01484115710311661 0 -0.003311476523583848 0.014094812861570629 0 -0.0023761692133748855 0.013886648286564178 0 -0.0027497526231419324 0.01484115710311661 0 -0.003311476523583848 0.014094812861570629 0 -0.0040639790602193943 0.014010596791322273 0 -0.0037753906369509416 0.014980294627307 0 -0.003311476523583848 0.014094812861570629 0 -0.0040639790602193943 0.014010596791322273 0 -0.003311476523583848 0.014094812861570629 0 -0.0038906070396967376 0.013519600432410069 0 -0.003311476523583848 0.014094812861570629 0 -0.0038906070396967376 0.013519600432410069 0 -0.0030482672577268836 0.013343512185614281 0 -0.0038906070396967376 0.013519600432410069 0 -0.0030482672577268836 0.013343512185614281 0 -0.0034403195880061436 0.012924623415442805 0 -0.0023761692133748855 0.013886648286564178 0 -0.003311476523583848 0.014094812861570629 0 -0.0030482672577268836 0.013343512185614281 0 -0.0023761692133748855 0.013886648286564178 0 -0.0022907770666474449 0.013078727577870578 0 -0.0030482672577268836 0.013343512185614281 0 -0.0028906393635453882 0.012789608148709277 0 -0.0033479238432092516 0.012320792922844106 0 -0.0023610040613448054 0.012397812979136393 0 -0.0022907770666474449 0.013078727577870578 0 -0.0030482672577268836 0.013343512185614281 0 -0.0028906393635453882 0.012789608148709277 0 -0.0030482672577268836 0.013343512185614281 0 -0.0028906393635453882 0.012789608148709277 0 -0.0034403195880061436 0.012924623415442805 0 -0.0028906393635453882 0.012789608148709277 0 -0.0034403195880061436 0.012924623415442805 0 -0.0033479238432092516 0.012320792922844106 0 -0.0038906070396967376 0.013519600432410069 0 -0.0034403195880061436 0.012924623415442805 0 -0.0040458476209401985 0.012795107291871652 0 -0.0045302280583741326 0.013272382674738844 0 -0.0058560230695089109 0.015241589364255658 0 -0.0034403195880061436 0.012924623415442805 0 -0.0040458476209401985 0.012795107291871652 0 -0.0033479238432092516 0.012320792922844106 0 -0.025688738453886244 0.0098281634004486994 0 -0.025932813093862337 0.013453682964884714 0 -0.028901499713232623 0.015801764246054117 0 -0.015460155847331153 0.011397073662029701 0 -0.014804932403135858 0.016992641240227969 0 -0.0038906070396967376 0.013519600432410069 0 -0.0040458476209401985 0.012795107291871652 0 -0.0048399499177236684 0.013589650548257642 0 -0.0048399499177236684 0.013589650548257642 0 -0.0046841152813767908 0.013479008717380319 0 -0.0052564964493659145 0.014572703048731084 0 -0.005563016376375028 0.014030356565633978 0 -0.0048399499177236684 0.013589650548257642 0 -0.0052564964493659145 0.014572703048731084 0 -0.0045302280583741326 0.013272382674738844 0 -0.0049178621404358889 0.013590215515001263 0 -0.0040639790602193943 0.014010596791322273 0 -0.0046950562689930487 0.014133827780823977 0 -0.0045090407439182488 0.013765389902816004 0 -0.0038906070396967376 0.013519600432410069 0 -0.0048399499177236684 0.013589650548257642 0 -0.0045090407439182488 0.013765389902816004 0 -0.0048399499177236684 0.013589650548257642 0 -0.0045090407439182488 0.013765389902816004 0 -0.0046841152813767908 0.013479008717380319 0 -0.0046950562689930487 0.014133827780823977 0 -0.0045090407439182488 0.013765389902816004 0 -0.0047471615406352256 0.013943699251537354 0 -0.0040639790602193943 0.014010596791322273 0 -0.0038906070396967376 0.013519600432410069 0 -0.0045090407439182488 0.013765389902816004 0 -0.013971437375915498 0.0095152667932397982 0 -0.015460155847331153 0.011397073662029701 0 -0.022665866984684351 0.0082388621025632856 0 -0.022770168465018035 0.0044271856978307204 0 -0.025688738453886244 0.0098281634004486994 0 -0.0051752845551703416 0.014419787682565357 0 -0.0047471615406352256 0.013943699251537354 0 -0.0046841152813767908 0.013479008717380319 0 -0.0045090407439182488 0.013765389902816004 0 -0.0047471615406352256 0.013943699251537354 0 -0.0046841152813767908 0.013479008717380319 0 -0.022665866984684351 0.0082388621025632856 0 -0.025688738453886244 0.0098281634004486994 0 -0.023456807696307765 0.011458458396436796 0 -0.025688738453886244 0.0098281634004486994 0 -0.023456807696307765 0.011458458396436796 0 -0.025932813093862337 0.013453682964884714 0 -0.021868047031251718 0.013517064082054881 0 -0.023417666706774656 0.013760254014089252 0 -0.022397232435858689 0.016617949622046747 0 -0.025932813093862337 0.013453682964884714 0 -0.023417666706774656 0.013760254014089252 0 -0.022397232435858689 0.016617949622046747 0 -0.021868047031251718 0.013517064082054881 0 -0.023456807696307765 0.011458458396436796 0 -0.023417666706774656 0.013760254014089252 0 -0.023456807696307765 0.011458458396436796 0 -0.025932813093862337 0.013453682964884714 0 -0.023417666706774656 0.013760254014089252 0 -0.025932813093862337 0.013453682964884714 0 -0.028901499713232623 0.015801764246054117 0 -0.022397232435858689 0.016617949622046747 0 -0.014804932403135858 0.016992641240227969 0 -0.019696570939704502 0.017890159505713165 0 -0.013845217282821841 0.01914908469379677 0 -0.013460188433778471 0.019588431905904438 0 -0.014342855775430615 0.019192370434476604 0 -0.014242359469786685 0.018918563241476078 0 -0.013845217282821841 0.01914908469379677 0 -0.014342855775430615 0.019192370434476604 0 -0.013845217282821841 0.01914908469379677 0 -0.014106961254608211 0.019010933435935625 0 -0.01391988851714719 0.019036832894029156 0 -0.014242359469786685 0.018918563241476078 0 -0.014106961254608211 0.019010933435935625 0 -0.014228337349926474 0.018952479161406941 0 -0.014242359469786685 0.018918563241476078 0 -0.013845217282821841 0.01914908469379677 0 -0.014106961254608211 0.019010933435935625 0 -0.013845217282821841 0.01914908469379677 0 -0.012492286364836801 0.01953959183197361 0 -0.013567120484810425 0.018936431617791287 0 -0.012536791708206726 0.019639020304935365 0 -0.012941476869809718 0.018674784624048577 0 -0.013845217282821841 0.01914908469379677 0 -0.013460188433778471 0.019588431905904438 0 -0.012492286364836801 0.01953959183197361 0 -0.013460188433778471 0.019588431905904438 0 -0.013339637558185419 0.020092555508488968 0 -0.014342855775430615 0.019192370434476604 0 -0.013460188433778471 0.019588431905904438 0 -0.013339637558185419 0.020092555508488968 0 -0.012492286364836801 0.01953959183197361 0 -0.012260769559020831 0.021173238740733381 0 -0.010573784165176868 0.021267191507890412 0 -0.010454131606938932 0.020160483326376061 0 -0.005563016376375028 0.014030356565633978 0 -0.0052564964493659145 0.014572703048731084 0 -0.0062965943834765482 0.014533302106436148 0 -0.014804932403135858 0.016992641240227969 0 -0.0058560230695089109 0.015241589364255658 0 -0.0058560230695089109 0.015241589364255658 0 -0.0017178376890084853 0.011948425265317071 0 -0.0043482435609699041 0.012528171046230142 0 -0.0023610040613448054 0.012397812979136393 0 -0.0024642074032221253 0.011370472533599964 0 -0.010573784165176868 0.021267191507890412 0 -0.010454131606938932 0.020160483326376061 0 -0.0086265963127917841 0.019925941078335212 0 -0.0058560230695089109 0.015241589364255658 0 -0.0059518393286685737 0.016013082007203673 0 -0.010454131606938932 0.020160483326376061 0 -0.0094857143381401905 0.019266664687597225 0 -0.0086265963127917841 0.019925941078335212 0 -0.010454131606938932 0.020160483326376061 0 -0.011356561510383393 0.019163561007159907 0 -0.0094857143381401905 0.019266664687597225 0 -0.014804932403135858 0.016992641240227969 0 -0.011077813549097525 0.020399592964597479 0 -0.013339637558185419 0.020092555508488968 0 -0.012492286364836801 0.01953959183197361 0 -0.011356561510383393 0.019163561007159907 0 -0.012492286364836801 0.01953959183197361 0 -0.011356561510383393 0.019163561007159907 0 -0.012243489930822679 0.018641089097563804 0 -0.012260769559020831 0.021173238740733381 0 -0.010454131606938932 0.020160483326376061 0 -0.011356561510383393 0.019163561007159907 0 -0.011356561510383393 0.019163561007159907 0 -0.011599735810689944 0.018247017781185017 0 -0.012243489930822679 0.018641089097563804 0 -0.011356561510383393 0.019163561007159907 0 -0.011599735810689944 0.018247017781185017 0 -0.010519560134959152 0.01857609544091067 0 -0.011599735810689944 0.018247017781185017 0 -0.010519560134959152 0.01857609544091067 0 -0.01121170094447556 0.017547018329974712 0 -0.011356561510383393 0.019163561007159907 0 -0.0094857143381401905 0.019266664687597225 0 -0.010519560134959152 0.01857609544091067 0 -0.010519560134959152 0.01857609544091067 0 -0.0096212494868627742 0.018068786402700772 0 -0.01121170094447556 0.017547018329974712 0 -0.0094857143381401905 0.019266664687597225 0 -0.010519560134959152 0.01857609544091067 0 -0.0096212494868627742 0.018068786402700772 0 -0.0094857143381401905 0.019266664687597225 0 -0.0096212494868627742 0.018068786402700772 0 -0.0084298946961846068 0.019235549606614676 0 -0.0088574077768135313 0.019603321438525483 0 -0.010405333932638776 0.018925733393050051 0 -0.0076406798519872646 0.020104235810264149 0 -0.0078422192355803288 0.021173245859516424 0 -0.006380856866699024 0.021164801205852065 0 -0.0078422192355803288 0.021173245859516424 0 -0.006380856866699024 0.021164801205852065 0 -0.0076533587542060699 0.02232480701665529 0 -0.0088574077768135313 0.019603321438525483 0 -0.0075146480452233586 0.020756009557068137 0 -0.0076406798519872646 0.020104235810264149 0 -0.0078422192355803288 0.021173245859516424 0 -0.0083466008080431697 0.020195185557482526 0 -0.0098747641562146517 0.019946747733348088 0 -0.0098012950536361509 0.020251873043093765 0 -0.010845710228873885 0.02000762411657897 0 -0.010405333932638776 0.018925733393050051 0 -0.012921841455255796 0.019224146801921482 0 -0.011599735810689944 0.018247017781185017 0 -0.01121170094447556 0.017547018329974712 0 -0.012589978574737792 0.017234038042852499 0 -0.0087682662538827918 0.020482454643071531 0 -0.0098747641562146517 0.019946747733348088 0 -0.0098012950536361509 0.020251873043093765 0 -0.0075146480452233586 0.020756009557068137 0 -0.011391887790482511 0.021208725133930125 0 -0.0098747641562146517 0.019946747733348088 0 -0.010845710228873885 0.02000762411657897 0 -0.010995038425333562 0.019395084825049872 0 -0.014054293549285781 0.01917527352297806 0 -0.014064232622723036 0.019320164149170652 0 -0.013956695116130605 0.019094861889308638 0 -0.012921841455255796 0.019224146801921482 0 -0.011391887790482511 0.021208725133930125 0 -0.014054293549285781 0.01917527352297806 0 -0.014085247443831194 0.019780815362249345 0 -0.014064232622723036 0.019320164149170652 0 -0.014693697554295369 0.020402207888946835 0 -0.01395621233375084 0.020584184633658135 0 -0.014618403224448583 0.020758071772931441 0 -0.012921841455255796 0.019224146801921482 0 -0.014231790888923635 0.02020906065495549 0 -0.014085247443831194 0.019780815362249345 0 -0.014064232622723036 0.019320164149170652 0 -0.013951973941192365 0.019466544141945746 0 -0.014064232622723036 0.019320164149170652 0 -0.014088142918587839 0.019128703769038954 0 -0.013956695116130605 0.019094861889308638 0 -0.014088142918587839 0.019128703769038954 0 -0.01391988851714719 0.019036832894029156 0 -0.013956695116130605 0.019094861889308638 0 -0.014064232622723036 0.019320164149170652 0 -0.014088142918587839 0.019128703769038954 0 -0.013951973941192365 0.019466544141945746 0 -0.014106961254608211 0.019010933435935625 0 -0.014088142918587839 0.019128703769038954 0 -0.014228337349926474 0.018952479161406941 0 -0.014106961254608211 0.019010933435935625 0 -0.014088142918587839 0.019128703769038954 0 -0.01391988851714719 0.019036832894029156 0 -0.012921841455255796 0.019224146801921482 0 -0.012941476869809718 0.018674784624048577 0 -0.011599735810689944 0.018247017781185017 0 -0.012589978574737792 0.017234038042852499 0 -0.012243489930822679 0.018641089097563804 0 -0.013845217282821841 0.01914908469379677 0 -0.01391988851714719 0.019036832894029156 0 -0.013567120484810425 0.018936431617791287 0 -0.01391988851714719 0.019036832894029156 0 -0.013567120484810425 0.018936431617791287 0 -0.013956695116130605 0.019094861889308638 0 -0.014054293549285781 0.01917527352297806 0 -0.013567120484810425 0.018936431617791287 0 -0.013956695116130605 0.019094861889308638 0 0.0007735924093087486 0.011513925501124013 0 0.00042639847169163636 0.010996465966674878 0 -0.00025163620542265134 0.011168383995725379 0 0.0007735924093087486 0.011513925501124013 0 -0.00041794396251486647 0.011912303717266688 0 -0.00025163620542265134 0.011168383995725379 0 0.0007735924093087486 0.011513925501124013 0 0.0003189455585948305 0.012494644127677996 0 -0.00041794396251486647 0.011912303717266688 0 -0.00041794396251486647 0.011912303717266688 0 -0.00025163620542265134 0.011168383995725379 0 -0.0012459523503026934 0.011464341807239029 0 -0.00025163620542265134 0.011168383995725379 0 -0.0012459523503026934 0.011464341807239029 0 -0.0010014614299701454 0.010757522137132897 0 -0.0012459523503026934 0.011464341807239029 0 -0.0024642074032221253 0.011370472533599964 0 -0.0010014614299701454 0.010757522137132897 0 -0.0086265963127917841 0.019925941078335212 0 -0.0085218492495302747 0.019390759229663636 0 -0.0074857131796524975 0.019119555758253276 0 -0.0059518393286685737 0.016013082007203673 0 -0.0041818072807106961 0.014879800856541432 0 -0.0012459523503026934 0.011464341807239029 0 -0.0015105641816838043 0.012100366981691143 0 -0.0024642074032221253 0.011370472533599964 0 -0.00041794396251486647 0.011912303717266688 0 -0.0012459523503026934 0.011464341807239029 0 -0.0015105641816838043 0.012100366981691143 0 -0.0015105641816838043 0.012100366981691143 0 -0.0023610040613448054 0.012397812979136393 0 -0.0024642074032221253 0.011370472533599964 0 -0.0094857143381401905 0.019266664687597225 0 -0.0086265963127917841 0.019925941078335212 0 -0.0085218492495302747 0.019390759229663636 0 -0.0094857143381401905 0.019266664687597225 0 -0.0085218492495302747 0.019390759229663636 0 -0.0084298946961846068 0.019235549606614676 0 -0.0085218492495302747 0.019390759229663636 0 -0.0084298946961846068 0.019235549606614676 0 -0.0083493159303497239 0.019076965858457612 0 -0.0084298946961846068 0.019235549606614676 0 -0.0083466008080431697 0.020195185557482526 0 -0.0083493159303497239 0.019076965858457612 0 -0.0088574077768135313 0.019603321438525483 0 -0.0085922260500762276 0.019224531474509664 0 -0.0076406798519872646 0.020104235810264149 0 -0.0084298946961846068 0.019235549606614676 0 -0.0083466008080431697 0.020195185557482526 0 -0.0083466008080431697 0.020195185557482526 0 -0.0088490925494695907 0.020962228152505136 0 -0.0083493159303497239 0.019076965858457612 0 -0.0078422192355803288 0.021173245859516424 0 -0.0083466008080431697 0.020195185557482526 0 -0.0088490925494695907 0.020962228152505136 0 -0.0078422192355803288 0.021173245859516424 0 -0.0088490925494695907 0.020962228152505136 0 -0.0084990632026472474 0.021953277728923189 0 -0.0083590243248484741 0.019225803045608864 0 -0.009008029681065198 0.019953251765103725 0 -0.0088490925494695907 0.020962228152505136 0 -0.0083493159303497239 0.019076965858457612 0 -0.010527741472425304 0.02155222272557895 0 -0.0085218492495302747 0.019390759229663636 0 -0.0074857131796524975 0.019119555758253276 0 -0.0083493159303497239 0.019076965858457612 0 -0.0074857131796524975 0.019119555758253276 0 -0.0083493159303497239 0.019076965858457612 0 -0.0070150636613978273 0.018327219766143429 0 -0.0041818072807106961 0.014879800856541432 0 -0.0029371912355913013 0.01458526035419729 0 -0.00025163620542265134 0.011168383995725379 0 -0.0010014614299701454 0.010757522137132897 0 0.00016357790715855014 0.010438724109133503 0 -0.0074857131796524975 0.019119555758253276 0 -0.0062769115863635172 0.018588947514679103 0 -0.0070150636613978273 0.018327219766143429 0 0.00062830761017295452 0.010720427579169044 0 0.00042639847169163636 0.010996465966674878 0 0.00016357790715855014 0.010438724109133503 0 0.00042639847169163636 0.010996465966674878 0 -0.00025163620542265134 0.011168383995725379 0 0.00016357790715855014 0.010438724109133503 0 -0.0062126137579695618 0.018557580287268685 0 -0.0062640716950308458 0.018494735897994243 0 -0.006109513461675862 0.018677482320104306 0 -0.0062640716950308458 0.018494735897994243 0 -0.006229466989581294 0.018576803964077994 0 -0.006109513461675862 0.018677482320104306 0 -0.0062126137579695618 0.018557580287268685 0 -0.0062640716950308458 0.018494735897994243 0 -0.0063413076013864077 0.018438743686013181 0 -0.0062367333101701981 0.01845845028541216 0 -0.0062126137579695618 0.018557580287268685 0 -0.0063413076013864077 0.018438743686013181 0 -0.0062367333101701981 0.01845845028541216 0 -0.0062769115863635172 0.018588947514679103 0 -0.0063413076013864077 0.018438743686013181 0 -0.0062769115863635172 0.018588947514679103 0 -0.0063413076013864077 0.018438743686013181 0 -0.0070150636613978273 0.018327219766143429 0 -0.0062640716950308458 0.018494735897994243 0 -0.0063413076013864077 0.018438743686013181 0 -0.0070150636613978273 0.018327219766143429 0 -0.0072518989220305132 0.021963727591398734 0 -0.009008029681065198 0.019953251765103725 0 -0.0062640716950308458 0.018494735897994243 0 -0.0063588529077529838 0.018501951337446733 0 -0.0070150636613978273 0.018327219766143429 0 -0.011655971393334737 0.024330897274073299 0 -0.010869665102762344 0.023665510383457235 0 -0.010527741472425304 0.02155222272557895 0 -0.0062640716950308458 0.018494735897994243 0 -0.0063588529077529838 0.018501951337446733 0 -0.006229466989581294 0.018576803964077994 0 -0.011655971393334737 0.024330897274073299 0 -0.011334334643063998 0.024387523153141043 0 -0.011192429770037454 0.024158035485465707 0 -0.011655971393334737 0.024330897274073299 0 -0.011334334643063998 0.024387523153141043 0 -0.011125278447950845 0.024828983637115162 0 -0.011334334643063998 0.024387523153141043 0 -0.01095410105409359 0.024306626039527181 0 -0.011125278447950845 0.024828983637115162 0 -0.011334334643063998 0.024387523153141043 0 -0.01095410105409359 0.024306626039527181 0 -0.011192429770037454 0.024158035485465707 0 -0.011655971393334737 0.024330897274073299 0 -0.011192429770037454 0.024158035485465707 0 -0.010869665102762344 0.023665510383457235 0 -0.01095410105409359 0.024306626039527181 0 -0.011192429770037454 0.024158035485465707 0 -0.010869665102762344 0.023665510383457235 0 -0.010527362756971054 0.024072852119462994 0 -0.010530366726999403 0.024614333202747401 0 -0.0096741647657559559 0.024460785159919181 0 -0.01095410105409359 0.024306626039527181 0 -0.010527362756971054 0.024072852119462994 0 -0.010869665102762344 0.023665510383457235 0 -0.01095410105409359 0.024306626039527181 0 -0.010527362756971054 0.024072852119462994 0 -0.010530366726999403 0.024614333202747401 0 -0.01095410105409359 0.024306626039527181 0 -0.010530366726999403 0.024614333202747401 0 -0.011125278447950845 0.024828983637115162 0 -0.0096741647657559559 0.024460785159919181 0 -0.009973589834017112 0.02367403320378237 0 -0.0091323232719299589 0.023685467130802901 0 -0.010527362756971054 0.024072852119462994 0 -0.0096741647657559559 0.024460785159919181 0 -0.009973589834017112 0.02367403320378237 0 -0.009973589834017112 0.02367403320378237 0 -0.0096246413705868682 0.022419947567501548 0 -0.0091323232719299589 0.023685467130802901 0 -0.010527362756971054 0.024072852119462994 0 -0.009973589834017112 0.02367403320378237 0 -0.010869665102762344 0.023665510383457235 0 -0.009973589834017112 0.02367403320378237 0 -0.010869665102762344 0.023665510383457235 0 -0.0096246413705868682 0.022419947567501548 0 -0.0088490925494695907 0.020962228152505136 0 -0.010527741472425304 0.02155222272557895 0 -0.0096246413705868682 0.022419947567501548 0 -0.010869665102762344 0.023665510383457235 0 -0.010527741472425304 0.02155222272557895 0 -0.0096246413705868682 0.022419947567501548 0 -0.0096246413705868682 0.022419947567501548 0 -0.0086753893593076569 0.022978096536170833 0 -0.0091323232719299589 0.023685467130802901 0 -0.0096246413705868682 0.022419947567501548 0 -0.0084990632026472474 0.021953277728923189 0 -0.0086753893593076569 0.022978096536170833 0 -0.0088490925494695907 0.020962228152505136 0 -0.0096246413705868682 0.022419947567501548 0 -0.0084990632026472474 0.021953277728923189 0 -0.0084990632026472474 0.021953277728923189 0 -0.0086753893593076569 0.022978096536170833 0 -0.0076533587542060699 0.02232480701665529 0 -0.0086849857205615819 0.023171450287240623 0 -0.0081276152126686721 0.025411919155158516 0 -0.0086753893593076569 0.022978096536170833 0 -0.0085605449309005769 0.024337958618917434 0 -0.0077972356671608938 0.02536745981518887 0 -0.0086753893593076569 0.022978096536170833 0 -0.0091323232719299589 0.023685467130802901 0 -0.0085605449309005769 0.024337958618917434 0 -0.0096741647657559559 0.024460785159919181 0 -0.0091323232719299589 0.023685467130802901 0 -0.0085605449309005769 0.024337958618917434 0 -0.0085605449309005769 0.024337958618917434 0 -0.0083202400068732793 0.026170201736700607 0 -0.0077972356671608938 0.02536745981518887 0 -0.0085605449309005769 0.024337958618917434 0 -0.0091383886773498228 0.025474121417392335 0 -0.0077497620183390199 0.026613335597106796 0 -0.0085063413806618811 0.02450209409692547 0 -0.0080327712865373331 0.026447278019620189 0 -0.0096741647657559559 0.024460785159919181 0 -0.0085605449309005769 0.024337958618917434 0 -0.0091383886773498228 0.025474121417392335 0 -0.0091383886773498228 0.025474121417392335 0 -0.0077497620183390199 0.026613335597106796 0 -0.0094066236317875175 0.026652095993771597 0 -0.0071237327844088953 0.029029920943069266 0 -0.0077497620183390199 0.026613335597106796 0 -0.0086513229139184213 0.027951345713335622 0 -0.0077497620183390199 0.026613335597106796 0 -0.0086513229139184213 0.027951345713335622 0 -0.0094066236317875175 0.026652095993771597 0 -0.0086513229139184213 0.027951345713335622 0 -0.0094066236317875175 0.026652095993771597 0 -0.01047324745449745 0.027780543846084069 0 -0.0094066236317875175 0.026652095993771597 0 -0.01047324745449745 0.027780543846084069 0 -0.010734145510638652 0.026267401198501912 0 -0.010734145510638652 0.026267401198501912 0 -0.010225316424725791 0.025432883264473762 0 -0.011315627063375975 0.025422265060209018 0 -0.0091383886773498228 0.025474121417392335 0 -0.0094066236317875175 0.026652095993771597 0 -0.010225316424725791 0.025432883264473762 0 -0.0094066236317875175 0.026652095993771597 0 -0.010734145510638652 0.026267401198501912 0 -0.010225316424725791 0.025432883264473762 0 -0.010530366726999403 0.024614333202747401 0 -0.0096741647657559559 0.024460785159919181 0 -0.010225316424725791 0.025432883264473762 0 -0.0096741647657559559 0.024460785159919181 0 -0.0091383886773498228 0.025474121417392335 0 -0.010225316424725791 0.025432883264473762 0 -0.010530366726999403 0.024614333202747401 0 -0.010225316424725791 0.025432883264473762 0 -0.011125278447950845 0.024828983637115162 0 -0.010225316424725791 0.025432883264473762 0 -0.011315627063375975 0.025422265060209018 0 -0.011125278447950845 0.024828983637115162 0 -0.0043726851352778101 0.023857253634501877 0 -0.0053334899707483127 0.026737002858816791 0 -0.0059246303739216464 0.026192216410869145 0 -0.0072518989220305132 0.021963727591398734 0 -0.0025883848351222699 0.032018361609639896 0 -0.011655971393334737 0.024330897274073299 0 -0.011315627063375975 0.025422265060209018 0 -0.012227975277691653 0.026058515850720835 0 -0.011655971393334737 0.024330897274073299 0 -0.011315627063375975 0.025422265060209018 0 -0.011125278447950845 0.024828983637115162 0 -0.0072518989220305132 0.021963727591398734 0 -0.003661456067554197 0.024868230301150547 0 -0.0063588529077529838 0.018501951337446733 0 -0.006229466989581294 0.018576803964077994 0 -0.0061804692919527875 0.018596734767965264 0 -0.0025883848351222699 0.032018361609639896 0 -0.003661456067554197 0.024868230301150547 0 -0.010734145510638652 0.026267401198501912 0 -0.011315627063375975 0.025422265060209018 0 -0.012227975277691653 0.026058515850720835 0 0.0034453674154570142 0.038915746022565409 0 0.0023228970250488974 0.041906789282029795 0 0.0019785498015137824 0.039897785654040452 0 0.00026726551403900769 0.040127864537704568 0 0.0023228970250488974 0.041906789282029795 0 0.0019785498015137824 0.039897785654040452 0 -0.01047324745449745 0.027780543846084069 0 -0.010734145510638652 0.026267401198501912 0 -0.012227975277691653 0.026058515850720835 0 -0.0054430934631398498 0.034040113528543275 0 -0.0025883848351222699 0.032018361609639896 0 0.0034453674154570142 0.038915746022565409 0 0.0040293385523760342 0.037767572691805418 0 0.0034639024213469591 0.038318724681354117 0 0.004303516328522489 0.041663935281335135 0 -0.0025883848351222699 0.032018361609639896 0 -0.0014005674880858067 0.029056759701093705 0 -0.003661456067554197 0.024868230301150547 0 0.0037404559752428758 0.038671752847278147 0 0.0036616304145745925 0.038712710227473149 0 0.0034639024213469591 0.038318724681354117 0 0.0021399146647332352 0.030891303912499942 0 -0.0014005674880858067 0.029056759701093705 0 -0.0062320662638592284 0.018953171931995923 0 -0.0060218797065974593 0.019381557242022958 0 -0.0060597381678707514 0.019034242475753183 0 -0.0062320662638592284 0.018953171931995923 0 -0.0060597381678707514 0.019034242475753183 0 -0.006109513461675862 0.018677482320104306 0 -0.0062320662638592284 0.018953171931995923 0 -0.0062126137579695618 0.018557580287268685 0 -0.006109513461675862 0.018677482320104306 0 -0.0060597381678707514 0.019034242475753183 0 -0.0058182485735802517 0.01892733016767768 0 -0.006109513461675862 0.018677482320104306 0 0.0040293385523760342 0.037767572691805418 0 0.0034639024213469591 0.038318724681354117 0 0.0038524359646613742 0.037577542039115369 0 -0.0060218797065974593 0.019381557242022958 0 -0.0060597381678707514 0.019034242475753183 0 -0.0058182485735802517 0.01892733016767768 0 -0.006229466989581294 0.018576803964077994 0 -0.0061804692919527875 0.018596734767965264 0 -0.006109513461675862 0.018677482320104306 0 -0.003661456067554197 0.024868230301150547 0 -0.0069435184786066093 0.020056910972976284 0 -0.0057756839095284658 0.022971000237054104 0 -0.005144399944041889 0.023472164095375194 0 -0.0056593302432002644 0.024010552100719659 0 -0.010074580395491904 0.0225205012304069 0 -0.011391887790482511 0.021208725133930125 0 -0.0057756839095284658 0.022971000237054104 0 -0.0065359145102496762 0.023173050843982319 0 -0.0056593302432002644 0.024010552100719659 0 -0.0057756839095284658 0.022971000237054104 0 -0.005144399944041889 0.023472164095375194 0 -0.0053769166380044078 0.021935556514648263 0 -0.014882594846160335 0.022198736256632826 0 -0.013996017175796564 0.021916283768413355 0 -0.014174130368393434 0.021205124123315645 0 -0.014882594846160335 0.022198736256632826 0 -0.013996017175796564 0.021916283768413355 0 -0.01378219331104976 0.022631812044352145 0 -0.01395621233375084 0.020584184633658135 0 -0.014059580343651273 0.021101156356095958 0 -0.014618403224448583 0.020758071772931441 0 -0.014882594846160335 0.022198736256632826 0 -0.014174130368393434 0.021205124123315645 0 -0.015150855742671721 0.02069128515481921 0 -0.014701948618785907 0.020910338781594456 0 -0.011391887790482511 0.021208725133930125 0 -0.0057756839095284658 0.022971000237054104 0 -0.0053769166380044078 0.021935556514648263 0 -0.006233242364278628 0.022250113191845024 0 -0.006380856866699024 0.021164801205852065 0 -0.0053769166380044078 0.021935556514648263 0 -0.006233242364278628 0.022250113191845024 0 -0.006233242364278628 0.022250113191845024 0 -0.0076533587542060699 0.02232480701665529 0 -0.0065359145102496762 0.023173050843982319 0 -0.006380856866699024 0.021164801205852065 0 -0.006233242364278628 0.022250113191845024 0 -0.0076533587542060699 0.02232480701665529 0 -0.0086753893593076569 0.022978096536170833 0 -0.0076533587542060699 0.02232480701665529 0 -0.0079052583550876816 0.024133050521018922 0 -0.0078422192355803288 0.021173245859516424 0 -0.0084990632026472474 0.021953277728923189 0 -0.0076533587542060699 0.02232480701665529 0 -0.0076711523823967563 0.022451090170381164 0 -0.0069675628952696822 0.023661088834444146 0 -0.0086753893593076569 0.022978096536170833 0 -0.0079052583550876816 0.024133050521018922 0 -0.0084622560710965918 0.025529748590995174 0 -0.0076533587542060699 0.02232480701665529 0 -0.0079052583550876816 0.024133050521018922 0 -0.0071555895512844291 0.024392861082389927 0 -0.0057756839095284658 0.022971000237054104 0 -0.006233242364278628 0.022250113191845024 0 -0.0065359145102496762 0.023173050843982319 0 -0.0079052583550876816 0.024133050521018922 0 -0.0071555895512844291 0.024392861082389927 0 -0.0076516417822363059 0.02525434527218421 0 -0.0069675628952696822 0.023661088834444146 0 -0.0059268416245096614 0.025083693881520881 0 -0.0076516417822363059 0.02525434527218421 0 -0.0076203518763870055 0.026170545174122411 0 -0.0068462420947006985 0.025942944866940369 0 -0.0071555895512844291 0.024392861082389927 0 -0.0076516417822363059 0.02525434527218421 0 -0.0068462420947006985 0.025942944866940369 0 -0.0076516417822363059 0.02525434527218421 0 -0.0084622560710965918 0.025529748590995174 0 -0.0076203518763870055 0.026170545174122411 0 -0.0079052583550876816 0.024133050521018922 0 -0.0076516417822363059 0.02525434527218421 0 -0.0084622560710965918 0.025529748590995174 0 -0.0075200728096103562 0.027215945566490513 0 -0.0081527777556658146 0.02749607384265251 0 -0.0083202400068732793 0.026170201736700607 0 -0.007781286450432974 0.027231146700627883 0 -0.0081276152126686721 0.025411919155158516 0 -0.0080493047622065828 0.027290123028156383 0 -0.0084622560710965918 0.025529748590995174 0 -0.0076203518763870055 0.026170545174122411 0 -0.0075200728096103562 0.027215945566490513 0 -0.0083202400068732793 0.026170201736700607 0 -0.0077972356671608938 0.02536745981518887 0 -0.0077386848238281654 0.027922523812500658 0 -0.0080327712865373331 0.026447278019620189 0 -0.0080493047622065828 0.027290123028156383 0 -0.0076203518763870055 0.026170545174122411 0 -0.0076272081072518063 0.026944193607476071 0 -0.0076203518763870055 0.026170545174122411 0 -0.0072403942323742577 0.026829649247905388 0 -0.0068462420947006985 0.025942944866940369 0 -0.0076203518763870055 0.026170545174122411 0 -0.0076272081072518063 0.026944193607476071 0 -0.0072403942323742577 0.026829649247905388 0 -0.0075532683691595867 0.027326171212611675 0 -0.0076272081072518063 0.026944193607476071 0 -0.0072403942323742577 0.026829649247905388 0 -0.0059268416245096614 0.025083693881520881 0 -0.0083659995033369457 0.026075971638363081 0 -0.0072403942323742577 0.026829649247905388 0 -0.0068462420947006985 0.025942944866940369 0 -0.006749308326953243 0.027094249423568067 0 -0.0073778230249388795 0.027600327524977021 0 -0.0072403942323742577 0.026829649247905388 0 -0.006749308326953243 0.027094249423568067 0 -0.005144399944041889 0.023472164095375194 0 -0.0056593302432002644 0.024010552100719659 0 -0.0049078268286092972 0.024842583981708501 0 -0.014882594846160335 0.022198736256632826 0 -0.014566875812334396 0.024101588728349606 0 -0.01378219331104976 0.022631812044352145 0 -0.010074580395491904 0.0225205012304069 0 -0.0083659995033369457 0.026075971638363081 0 -0.014566875812334396 0.024101588728349606 0 -0.012883882465640978 0.023442883285224998 0 -0.012331103788247044 0.024605381188450598 0 -0.012883882465640978 0.023442883285224998 0 -0.012331103788247044 0.024605381188450598 0 -0.011674260854417516 0.023573193448312504 0 -0.010924790396225207 0.025134069542970303 0 -0.012331103788247044 0.024605381188450598 0 -0.011674260854417516 0.023573193448312504 0 -0.012883882465640978 0.023442883285224998 0 -0.01255856159967177 0.022453231562095249 0 -0.011674260854417516 0.023573193448312504 0 -0.014566875812334396 0.024101588728349606 0 -0.012883882465640978 0.023442883285224998 0 -0.01378219331104976 0.022631812044352145 0 -0.012883882465640978 0.023442883285224998 0 -0.01255856159967177 0.022453231562095249 0 -0.01378219331104976 0.022631812044352145 0 -0.014701948618785907 0.020910338781594456 0 -0.013043599351264014 0.021724466053946932 0 -0.01255856159967177 0.022453231562095249 0 -0.01378219331104976 0.022631812044352145 0 -0.013187766423616179 0.021662244260723579 0 -0.013996017175796564 0.021916283768413355 0 -0.014174130368393434 0.021205124123315645 0 -0.013187766423616179 0.021662244260723579 0 -0.013996017175796564 0.021916283768413355 0 -0.01378219331104976 0.022631812044352145 0 -0.013187766423616179 0.021662244260723579 0 -0.01255856159967177 0.022453231562095249 0 -0.013187766423616179 0.021662244260723579 0 -0.01243722812647253 0.021515980314377067 0 -0.013187766423616179 0.021662244260723579 0 -0.01243722812647253 0.021515980314377067 0 -0.013103432942958496 0.020676884002892474 0 -0.01243722812647253 0.021515980314377067 0 -0.013103432942958496 0.020676884002892474 0 -0.012214914433854335 0.020853556537895501 0 -0.01395621233375084 0.020584184633658135 0 -0.013103432942958496 0.020676884002892474 0 -0.013568598354420178 0.020979899395691486 0 -0.014059580343651273 0.021101156356095958 0 -0.013187766423616179 0.021662244260723579 0 -0.013568598354420178 0.020979899395691486 0 -0.013187766423616179 0.021662244260723579 0 -0.013103432942958496 0.020676884002892474 0 -0.013568598354420178 0.020979899395691486 0 -0.014231790888923635 0.02020906065495549 0 -0.013019204684636266 0.0206273782549629 0 -0.01395621233375084 0.020584184633658135 0 -0.014059580343651273 0.021101156356095958 0 -0.013568598354420178 0.020979899395691486 0 -0.011600092136557161 0.021115332121211902 0 -0.012214914433854335 0.020853556537895501 0 -0.01189457509541816 0.020373829479319615 0 -0.011600092136557161 0.021115332121211902 0 -0.012214914433854335 0.020853556537895501 0 -0.011443140872141544 0.022111714260347297 0 -0.01243722812647253 0.021515980314377067 0 -0.012214914433854335 0.020853556537895501 0 -0.011443140872141544 0.022111714260347297 0 -0.01255856159967177 0.022453231562095249 0 -0.01243722812647253 0.021515980314377067 0 -0.011443140872141544 0.022111714260347297 0 -0.011600092136557161 0.021115332121211902 0 -0.011443140872141544 0.022111714260347297 0 -0.011392249071655463 0.021705436493858418 0 -0.011377754202361404 0.022148339643287596 0 -0.010613378706461098 0.02294272614854112 0 -0.011443140872141544 0.022111714260347297 0 -0.011355994157420177 0.021877451639363943 0 -0.011392249071655463 0.021705436493858418 0 -0.011443140872141544 0.022111714260347297 0 -0.011674260854417516 0.023573193448312504 0 -0.0097741152097825905 0.024045689867075663 0 -0.01255856159967177 0.022453231562095249 0 -0.011443140872141544 0.022111714260347297 0 -0.011674260854417516 0.023573193448312504 0 -0.010924790396225207 0.025134069542970303 0 -0.011674260854417516 0.023573193448312504 0 -0.0097741152097825905 0.024045689867075663 0 -0.010282606386821229 0.023456525521377038 0 -0.010613378706461098 0.02294272614854112 0 -0.011413707836952723 0.021671033544202935 0 -0.011355994157420177 0.021877451639363943 0 -0.011444380718390091 0.021809804120806593 0 -0.011444380718390091 0.021809804120806593 0 -0.011328168751129663 0.021796079194041501 0 -0.011204295293854426 0.02187669966611145 0 -0.011355994157420177 0.021877451639363943 0 -0.011328168751129663 0.021796079194041501 0 -0.011392249071655463 0.021705436493858418 0 -0.011355994157420177 0.021877451639363943 0 -0.011444380718390091 0.021809804120806593 0 -0.011328168751129663 0.021796079194041501 0 -0.01204759016400244 0.021682960032019402 0 -0.01175077415226273 0.021830312046386306 0 -0.012180903408074413 0.021899454436337003 0 -0.011711799064720993 0.021640513955243558 0 -0.011444380718390091 0.021809804120806593 0 -0.011735481139451161 0.021744712099193604 0 -0.01204759016400244 0.021682960032019402 0 -0.011735481139451161 0.021744712099193604 0 -0.01175077415226273 0.021830312046386306 0 -0.011444380718390091 0.021809804120806593 0 -0.011735481139451161 0.021744712099193604 0 -0.01175077415226273 0.021830312046386306 0 -0.011444380718390091 0.021809804120806593 0 -0.01175077415226273 0.021830312046386306 0 -0.011204295293854426 0.02187669966611145 0 -0.01175077415226273 0.021830312046386306 0 -0.01180535789555665 0.021972168389520267 0 -0.011204295293854426 0.02187669966611145 0 -0.01175077415226273 0.021830312046386306 0 -0.011994115783137747 0.021969957275474808 0 -0.012180903408074413 0.021899454436337003 0 -0.01180535789555665 0.021972168389520267 0 -0.011994115783137747 0.021969957275474808 0 -0.012057527774890556 0.022095968719235873 0 -0.01175077415226273 0.021830312046386306 0 -0.01180535789555665 0.021972168389520267 0 -0.011994115783137747 0.021969957275474808 0 -0.01226413525150542 0.022102814946119074 0 -0.011994115783137747 0.021969957275474808 0 -0.012057527774890556 0.022095968719235873 0 -0.01226413525150542 0.022102814946119074 0 -0.011994115783137747 0.021969957275474808 0 -0.012180903408074413 0.021899454436337003 0 -0.013358326931512692 0.022357227669009858 0 -0.01208233885388328 0.022484858660148023 0 -0.012500443087028112 0.022082921927782429 0 -0.013712947969617289 0.018800115894850516 0 -0.012141693410876175 0.021304631327423586 0 -0.012046357465540206 0.02242058497750634 0 -0.012500443087028112 0.022082921927782429 0 -0.012057527774890556 0.022095968719235873 0 -0.01180535789555665 0.021972168389520267 0 -0.012046357465540206 0.02242058497750634 0 -0.012057527774890556 0.022095968719235873 0 -0.011204295293854426 0.02187669966611145 0 -0.010820840017250026 0.021323841488380471 0 -0.011006438466893777 0.021202156633902184 0 -0.013712947969617289 0.018800115894850516 0 -0.010634018544553772 0.022239250543981976 0 -0.01180535789555665 0.021972168389520267 0 -0.012046357465540206 0.02242058497750634 0 -0.011204295293854426 0.02187669966611145 0 -0.010331184059281327 0.021498225664615542 0 -0.011204295293854426 0.02187669966611145 0 -0.010820840017250026 0.021323841488380471 0 -0.013712947969617289 0.018800115894850516 0 -0.013676081410761477 0.01464942712957738 0 -0.010331184059281327 0.021498225664615542 0 -0.010820840017250026 0.021323841488380471 0 -0.010695289691707813 0.020807068996162109 0 -0.010820840017250026 0.021323841488380471 0 -0.011006438466893777 0.021202156633902184 0 -0.010695289691707813 0.020807068996162109 0 -0.016637698229818157 0.0096136663527093859 0 -0.016727828504675305 0.0096991963379661622 0 -0.016618216262522821 0.0097280830404739022 0 -0.016637698229818157 0.0096136663527093859 0 -0.016618216262522821 0.0097280830404739022 0 -0.016443955888554622 0.0097134970336332054 0 -0.016727828504675305 0.0096991963379661622 0 -0.016740805483802083 0.0097558677902430738 0 -0.016618216262522821 0.0097280830404739022 0 -0.011392249071655463 0.021705436493858418 0 -0.011232341136412798 0.021525178771302094 0 -0.011258881646076821 0.021056057268077324 0 -0.011328168751129663 0.021796079194041501 0 -0.011392249071655463 0.021705436493858418 0 -0.011232341136412798 0.021525178771302094 0 -0.011328168751129663 0.021796079194041501 0 -0.011204295293854426 0.02187669966611145 0 -0.011232341136412798 0.021525178771302094 0 -0.011204295293854426 0.02187669966611145 0 -0.011232341136412798 0.021525178771302094 0 -0.011006438466893777 0.021202156633902184 0 -0.011006438466893777 0.021202156633902184 0 -0.011258881646076821 0.021056057268077324 0 -0.010964593605575564 0.020586329713407688 0 -0.011232341136412798 0.021525178771302094 0 -0.011006438466893777 0.021202156633902184 0 -0.011258881646076821 0.021056057268077324 0 -0.011006438466893777 0.021202156633902184 0 -0.010964593605575564 0.020586329713407688 0 -0.010695289691707813 0.020807068996162109 0 -0.011600092136557161 0.021115332121211902 0 -0.011258881646076821 0.021056057268077324 0 -0.011424259743000778 0.020602146767375932 0 -0.011600092136557161 0.021115332121211902 0 -0.011392249071655463 0.021705436493858418 0 -0.011258881646076821 0.021056057268077324 0 -0.011258881646076821 0.021056057268077324 0 -0.011424259743000778 0.020602146767375932 0 -0.010964593605575564 0.020586329713407688 0 -0.011424259743000778 0.020602146767375932 0 -0.010964593605575564 0.020586329713407688 0 -0.011437194187140752 0.019759552288711277 0 -0.010953376142517283 0.020503524507386541 0 -0.011428027685446976 0.019658997775246222 0 -0.010964593605575564 0.020586329713407688 0 -0.010756020837700818 0.019731301854832611 0 -0.010695289691707813 0.020807068996162109 0 -0.013394580937814805 0.01486053928989939 0 -0.013676081410761477 0.01464942712957738 0 -0.016096274030805251 0.0098158912395214376 0 -0.016443955888554622 0.0097134970336332054 0 -0.016366672468922684 0.0098279935623853069 0 -0.016096274030805251 0.0098158912395214376 0 -0.016272850905880952 0.0099502579133057337 0 -0.016031887387083946 0.010036467178527117 0 -0.016096274030805251 0.0098158912395214376 0 -0.016272850905880952 0.0099502579133057337 0 -0.016366672468922684 0.0098279935623853069 0 -0.010964593605575564 0.020586329713407688 0 -0.010756020837700818 0.019731301854832611 0 -0.011437060193943463 0.019502935037658035 0 -0.010756020837700818 0.019731301854832611 0 -0.011437060193943463 0.019502935037658035 0 -0.011133429806161778 0.018081003962831986 0 -0.016705033035232901 0.0098066056800722827 0 -0.016740805483802083 0.0097558677902430738 0 -0.016618216262522821 0.0097280830404739022 0 -0.016705033035232901 0.0098066056800722827 0 -0.016533319754889687 0.0098022787632384267 0 -0.016662975312858711 0.0098842860063607894 0 -0.016705033035232901 0.0098066056800722827 0 -0.016618216262522821 0.0097280830404739022 0 -0.016533319754889687 0.0098022787632384267 0 -0.016533319754889687 0.0098022787632384267 0 -0.016443955888554622 0.0097134970336332054 0 -0.016366672468922684 0.0098279935623853069 0 -0.016618216262522821 0.0097280830404739022 0 -0.016533319754889687 0.0098022787632384267 0 -0.016443955888554622 0.0097134970336332054 0 -0.016272850905880952 0.0099502579133057337 0 -0.016474510504418324 0.0099054650158826377 0 -0.016454181434430133 0.010038837305052652 0 -0.016272850905880952 0.0099502579133057337 0 -0.016366672468922684 0.0098279935623853069 0 -0.016474510504418324 0.0099054650158826377 0 -0.016533319754889687 0.0098022787632384267 0 -0.016474510504418324 0.0099054650158826377 0 -0.016662975312858711 0.0098842860063607894 0 -0.016533319754889687 0.0098022787632384267 0 -0.016366672468922684 0.0098279935623853069 0 -0.016474510504418324 0.0099054650158826377 0 -0.016474510504418324 0.0099054650158826377 0 -0.016662975312858711 0.0098842860063607894 0 -0.016645964103508406 0.010017222371470255 0 -0.016808333644929955 0.009947336985612891 0 -0.016662975312858711 0.0098842860063607894 0 -0.016645964103508406 0.010017222371470255 0 -0.016779305228046021 0.00986122620940009 0 -0.016705033035232901 0.0098066056800722827 0 -0.016662975312858711 0.0098842860063607894 0 -0.016808333644929955 0.009947336985612891 0 -0.016779305228046021 0.00986122620940009 0 -0.016662975312858711 0.0098842860063607894 0 -0.016853050955130566 0.010116390386874436 0 -0.016808333644929955 0.009947336985612891 0 -0.016645964103508406 0.010017222371470255 0 -0.016853050955130566 0.010116390386874436 0 -0.016645964103508406 0.010017222371470255 0 -0.016560344364013262 0.010199399979688561 0 -0.016645964103508406 0.010017222371470255 0 -0.016454181434430133 0.010038837305052652 0 -0.016560344364013262 0.010199399979688561 0 -0.016474510504418324 0.0099054650158826377 0 -0.016645964103508406 0.010017222371470255 0 -0.016454181434430133 0.010038837305052652 0 -0.016272850905880952 0.0099502579133057337 0 -0.016454181434430133 0.010038837305052652 0 -0.01629768419569547 0.01015246486275692 0 -0.016454181434430133 0.010038837305052652 0 -0.016560344364013262 0.010199399979688561 0 -0.01629768419569547 0.01015246486275692 0 -0.016663890052800404 0.010544032744010091 0 -0.01638295582580224 0.010404871699800242 0 -0.016560344364013262 0.010199399979688561 0 -0.01638295582580224 0.010404871699800242 0 -0.016560344364013262 0.010199399979688561 0 -0.01629768419569547 0.01015246486275692 0 -0.023823767055658706 0.006441547497838469 0 -0.024625735910929175 0.005278413251222254 0 -0.016853050955130566 0.010116390386874436 0 -0.016663890052800404 0.010544032744010091 0 -0.016560344364013262 0.010199399979688561 0 -0.030424562488963875 0.0011039269111939481 0 -0.030950557031562447 0.0024861175797972926 0 -0.032854180950928388 -0.00049525596689945287 0 -0.013394580937814805 0.01486053928989939 0 -0.013345345396886912 0.014016865040891547 0 -0.016096274030805251 0.0098158912395214376 0 -0.015533316362591637 0.010029360269296584 0 -0.016031887387083946 0.010036467178527117 0 -0.015533316362591637 0.010029360269296584 0 -0.016031887387083946 0.010036467178527117 0 -0.015929312701296695 0.010303067505368637 0 -0.016272850905880952 0.0099502579133057337 0 -0.016031887387083946 0.010036467178527117 0 -0.01629768419569547 0.01015246486275692 0 -0.016031887387083946 0.010036467178527117 0 -0.01629768419569547 0.01015246486275692 0 -0.015929312701296695 0.010303067505368637 0 -0.016058878423757351 0.010671901991277419 0 -0.01638295582580224 0.010404871699800242 0 -0.015929312701296695 0.010303067505368637 0 -0.01638295582580224 0.010404871699800242 0 -0.01629768419569547 0.01015246486275692 0 -0.015929312701296695 0.010303067505368637 0 -0.015533316362591637 0.010029360269296584 0 -0.015929312701296695 0.010303067505368637 0 -0.015425526875478835 0.010397793831088244 0 -0.015684297790140758 0.010558932263728147 0 -0.016058878423757351 0.010671901991277419 0 -0.015929312701296695 0.010303067505368637 0 -0.015684297790140758 0.010558932263728147 0 -0.015929312701296695 0.010303067505368637 0 -0.015425526875478835 0.010397793831088244 0 -0.015684297790140758 0.010558932263728147 0 -0.015168043365937089 0.0105917274755937 0 -0.015425526875478835 0.010397793831088244 0 -0.013511263787366459 0.01280603793012028 0 -0.013345345396886912 0.014016865040891547 0 -0.014737164398288384 0.010662039446326236 0 -0.015168043365937089 0.0105917274755937 0 -0.015425526875478835 0.010397793831088244 0 -0.014737164398288384 0.010662039446326236 0 -0.015533316362591637 0.010029360269296584 0 -0.015425526875478835 0.010397793831088244 0 -0.01205044084866308 0.015222077926792999 0 -0.011133429806161778 0.018081003962831986 0 -0.01267263289037183 0.016716003790453977 0 -0.011133429806161778 0.018081003962831986 0 -0.012721112023506495 0.018091538263034012 0 -0.01267263289037183 0.016716003790453977 0 -0.011428027685446976 0.019658997775246222 0 -0.012583981677607192 0.018375488861643679 0 -0.011437060193943463 0.019502935037658035 0 -0.011133429806161778 0.018081003962831986 0 -0.012721112023506495 0.018091538263034012 0 -0.012156409123856085 0.018725816735440923 0 -0.01493787329215771 0.017089135896808577 0 -0.013832892001444564 0.018707933445734112 0 -0.012156409123856085 0.018725816735440923 0 -0.013832892001444564 0.018707933445734112 0 -0.013061076137258737 0.019450623323346784 0 -0.012156409123856085 0.018725816735440923 0 -0.01493787329215771 0.017089135896808577 0 -0.015751670278151473 0.016007448861942299 0 -0.012583981677607192 0.018375488861643679 0 -0.01549064454354821 0.016101123119027876 0 -0.012721112023506495 0.018091538263034012 0 -0.01267263289037183 0.016716003790453977 0 -0.013854803711234778 0.015861365459932424 0 -0.012721112023506495 0.018091538263034012 0 -0.013854803711234778 0.015861365459932424 0 -0.015751670278151473 0.016007448861942299 0 -0.01267263289037183 0.016716003790453977 0 -0.013014227162754575 0.015546560659935349 0 -0.013854803711234778 0.015861365459932424 0 -0.01205044084866308 0.015222077926792999 0 -0.01267263289037183 0.016716003790453977 0 -0.013014227162754575 0.015546560659935349 0 -0.013803404455408652 0.014151403951241205 0 -0.013014227162754575 0.015546560659935349 0 -0.013854803711234778 0.015861365459932424 0 -0.015039908270330343 0.014661840378674908 0 -0.014343180044895062 0.01453079611370511 0 -0.013854803711234778 0.015861365459932424 0 -0.01493787329215771 0.017089135896808577 0 -0.015751670278151473 0.016007448861942299 0 -0.019384856784404714 0.015001243496681325 0 -0.015039908270330343 0.014661840378674908 0 -0.013854803711234778 0.015861365459932424 0 -0.015751670278151473 0.016007448861942299 0 -0.01641963272063595 0.014182812075155756 0 -0.015751670278151473 0.016007448861942299 0 -0.019384856784404714 0.015001243496681325 0 -0.014420916854951072 0.017290100338706565 0 -0.019696570939704502 0.017890159505713165 0 -0.01493787329215771 0.017089135896808577 0 -0.014342855775430615 0.019192370434476604 0 -0.014505702493746095 0.018483800372001345 0 -0.01493787329215771 0.017089135896808577 0 -0.022397232435858689 0.016617949622046747 0 -0.019384856784404714 0.015001243496681325 0 -0.021868047031251718 0.013517064082054881 0 -0.022397232435858689 0.016617949622046747 0 -0.019384856784404714 0.015001243496681325 0 -0.014505702493746095 0.018483800372001345 0 -0.014228337349926474 0.018952479161406941 0 -0.013864844374969092 0.019227633380535212 0 -0.014242359469786685 0.018918563241476078 0 -0.014342855775430615 0.019192370434476604 0 -0.014505702493746095 0.018483800372001345 0 -0.014242359469786685 0.018918563241476078 0 -0.014505702493746095 0.018483800372001345 0 -0.014228337349926474 0.018952479161406941 0 -0.01493787329215771 0.017089135896808577 0 -0.014505702493746095 0.018483800372001345 0 -0.013832892001444564 0.018707933445734112 0 -0.014505702493746095 0.018483800372001345 0 -0.013832892001444564 0.018707933445734112 0 -0.013864844374969092 0.019227633380535212 0 -0.013864844374969092 0.019227633380535212 0 -0.013951973941192365 0.019466544141945746 0 -0.01323866962668695 0.019931771171517142 0 -0.013832892001444564 0.018707933445734112 0 -0.013864844374969092 0.019227633380535212 0 -0.013061076137258737 0.019450623323346784 0 -0.013864844374969092 0.019227633380535212 0 -0.01323866962668695 0.019931771171517142 0 -0.013061076137258737 0.019450623323346784 0 -0.014088142918587839 0.019128703769038954 0 -0.014228337349926474 0.018952479161406941 0 -0.014063581177344121 0.019197345649744443 0 -0.014228337349926474 0.018952479161406941 0 -0.013864844374969092 0.019227633380535212 0 -0.014063581177344121 0.019197345649744443 0 -0.013864844374969092 0.019227633380535212 0 -0.014063581177344121 0.019197345649744443 0 -0.013951973941192365 0.019466544141945746 0 -0.014088142918587839 0.019128703769038954 0 -0.014063581177344121 0.019197345649744443 0 -0.013951973941192365 0.019466544141945746 0 -0.014085247443831194 0.019780815362249345 0 -0.013103432942958496 0.020676884002892474 0 -0.013951973941192365 0.019466544141945746 0 -0.013103432942958496 0.020676884002892474 0 -0.013951973941192365 0.019466544141945746 0 -0.01323866962668695 0.019931771171517142 0 -0.013103432942958496 0.020676884002892474 0 -0.012214914433854335 0.020853556537895501 0 -0.01323866962668695 0.019931771171517142 0 -0.012214914433854335 0.020853556537895501 0 -0.012539767442750203 0.020064416268273454 0 -0.01189457509541816 0.020373829479319615 0 -0.012214914433854335 0.020853556537895501 0 -0.01323866962668695 0.019931771171517142 0 -0.012539767442750203 0.020064416268273454 0 -0.012539767442750203 0.020064416268273454 0 -0.01189457509541816 0.020373829479319615 0 -0.012191694940956043 0.019722542117783067 0 -0.011424259743000778 0.020602146767375932 0 -0.011437194187140752 0.019759552288711277 0 -0.01189457509541816 0.020373829479319615 0 -0.011600092136557161 0.021115332121211902 0 -0.011424259743000778 0.020602146767375932 0 -0.01189457509541816 0.020373829479319615 0 -0.011437194187140752 0.019759552288711277 0 -0.012156409123856085 0.018725816735440923 0 -0.012191694940956043 0.019722542117783067 0 -0.011437194187140752 0.019759552288711277 0 -0.01189457509541816 0.020373829479319615 0 -0.012191694940956043 0.019722542117783067 0 -0.012156409123856085 0.018725816735440923 0 -0.013061076137258737 0.019450623323346784 0 -0.012191694940956043 0.019722542117783067 0 -0.012539767442750203 0.020064416268273454 0 -0.013061076137258737 0.019450623323346784 0 -0.012191694940956043 0.019722542117783067 0 -0.01323866962668695 0.019931771171517142 0 -0.012539767442750203 0.020064416268273454 0 -0.013061076137258737 0.019450623323346784 0 
</DataArray>
</PointData>
<CellData Scalars="region_id,cross_section_updated," Vectors="" Tensors="stress,">
<DataArray type="Float64" Name="region_id" format="ascii">
5 5 5 5 5 6 5 5 5 5 5 5 5 6 5 5 5 5 6 5 5 6 5 5 5 5 6 5 5 5 5 6 5 5 5 5 5 5 5 5 5 5 5 5 5 6 5 5 6 5 5 5 5 5 6 5 5 5 5 5 5 5 6 5 5 5 5 6 5 5 5 5 5 5 5 5 5 6 5 5 6 5 5 6 5 5 5 5 6 5 5 5 5 5 5 5 6 6 6 5 5 6 5 5 5 5 5 6 5 5 5 5 5 5 5 5 5 5 5 5 5 6 5 5 5 6 5 5 5 5 5 5 6 5 5 5 5 5 5 5 5 5 5 5 5 5 5 5 5 5 5 5 5 5 5 5 5 5 6 5 5 5 6 5 5 6 5 5 5 5 5 5 5 5 5 5 5 6 5 5 5 5 5 5 5 5 6 5 5 5 5 5 5 5 5 6 5 5 5 5 5 5 5 5 5 6 5 5 5 5 5 5 5 5 5 5 5 5 5 5 5 5 5 5 5 5 5 5 5 6 5 5 5 6 5 6 5 6 5 5 6 5 5 5 6 5 6 5 6 5 6 6 5 6 5 5 6 5 6 5 5 5 6 5 6 6 5 5 6 5 5 5 6 5 6 6 6 5 6 5 5 5 6 5 6 6 6 5 5 6 6 5 5 5 5 6 5 6 5 5 6 5 5 5 6 5 6 6 6 5 5 5 6 5 6 6 6 6 5 5 5 6 6 5 5 6 6 6 5 6 5 5 5 5 6 5 5 5 5 5 5 5 6 5 5 5 5 5 5 6 6 5 5 5 6 5 5 5 6 5 6 5 6 6 5 5 5 5 6 5 5 6 5 5 5 5 6 5 6 5 5 5 5 5 6 6 5 5 5 5 5 5 5 5 6 5 5 5 6 5 5 6 5 6 5 5 5 5 5 5 5 5 5 5 5 6 5 6 5 6 5 5 5 6 5 6 5 6 5 5 5 5 5 5 6 5 6 5 5 5 6 5 5 5 6 5 6 6 5 5 5 5 6 5 5 5 5 6 6 5 5 6 5 6 5 6 6 5 5 5 6 5 5 5 5 6 5 5 5 5 5 5 5 5 5 5 5 6 5 5 5 5 6 5 5 5 6 5 6 6 6 5 5 5 6 6 5 6 5 5 6 5 5 5 5 6 5 5 5 5 5 5 5 5 5 5 5 6 6 5 5 6 5 5 5 6 5 5 5 5 5 5 6 5 5 5 6 5 5 5 6 5 5 5 5 5 5 5 5 5 5 5 6 5 5 5 6 5 5 5 5 5 5 5 6 5 5 5 5 5 6 5 5 5 5 5 5 5 5 5 5 5 5 5 5 5 5 5 5 5 6 5 5 5 5 6 5 5 6 5 5 5 5 5 5 5 6 5 5 5 5 5 5 5 5 6 5 6 5 5 6 5 5 5 6 5 5 6 5 5 5 6 5 6 5 5 6 5 6 5 5 5 5 5 5 5 5 5 5 5 5 5 5 5 5 5 5 5 5 5 5 6 5 6 5 6 5 5 5 5 5 5 5 5 5 5 5 5 5 5 5 6 5 5 5 5 5 5 5 5 5 6 5 5 5 5 5 5 5 5 5 5 5 5 5 5 5 5 5 5 5 5 5 5 5 5 5 5 5 5 5 6 5 5 6 5 5 5 6 6 5 6 5 5 5 5 5 6 5 5 5 5 5 6 5 5 5 5 5 5 5 5 5 5 5 5 5 5 5 5 5 5 5 5 5 5 5 5 5 5 5 5 5 5 5 5 5 5 5 5 5 5 5 5 5 5 5 5 5 5 5 5 5 6 5 5 5 5 5 5 5 5 5 5 5 5 5 5 5 6 5 5 5 5 6 5 5 5 5 5 5 5 5 5 5 5 5 5 5 5 5 5 5 5 5 5 5 5 5 5 5 5 6 5 5 6 5 6 6 6 6 5 5 6 5 5 5 5 5 5 5 5 5 5 5 5 5 5 5 5 5 6 5 5 6 5 6 5 5 5 5 6 5 6 5 5 5 5 6 5 5 5 6 5 5 5 5 5 6 5 6 5 5 6 6 5 6 5 5 5 5 5 5 5 5 5 5 5 6 5 5 5 6 5 5 5 6 5 5 6 6 6 5 5 5 5 5 5 5 5 5 5 5 6 5 5 5 5 5 5 5 5 6 6 6 5 5 5 5 5 5 5 5 6 6 5 5 5 6 5 5 6 5 5 5 5 5 5 5 5 5 5 5 6 5 5 5 5 5 5 5 5 6 5 5 5 5 5 5 5 5 5 5 6 5 6 6 6 5 5 5 5 5 5 5 6 6 5 6 5 5 5 5 5 6 5 6 6 5 5 5 6 5 6 5 5 5 5 6 5 5 5 5 5 5 5 5 5 5 5 5 5 5 5 5 5 6 5 5 5 6 5 5 5 5 5 6 5 5 5 5 5 5 6 5 6 5 5 5 5 5 5 5 5 6 5 5 5 6 5 5 5 5 5 5 5 5 5 5 5 5 5 5 5 5 5 5 5 5 5 5 5 5 5 6 6 6 5 5 5 5 6 5 5 5 5 6 5 5 5 5 5 5 5 6 5 5 5 5 5 5 5 5 6 5 5 5 5 5 5 5 5 5 5 5 5 6 5 5 5 5 5 5 6 5 5 5 5 5 5 5 5 6 5 5 5 6 5 5 5 5 5 5 5 5 5 5 5 5 6 5 5 5 5 5 5 5 5 5 5 5 5 5 5 5 5 5 5 5 5 5 5 5 5 5 5 5 5 5 5 5 5 5 5 5 5 5 5 5 5 5 5 5 5 5 5 5 6 5 5 5 5 5 5 5 5 5 5 5 5 5 5 5 5 5 5 5 5 5 5 5 5 6 5 5 5 5 5 5 5 5 5 5 6 5 5 6 5 5 5 5 5 5 5 5 5 6 5 6 5 5 5 5 6 5 5 6 5 6 5 5 5 5 5 6 5 5 5 5 5 5 5 5 6 5 5 5 5 5 5 5 5 5 5 5 5 5 5 6 5 6 6 5 5 5 5 5 6 5 5 5 5 5 5 5 5 5 5 5 5 5 5 5 6 5 5 5 5 5 5 5 5 5 5 5 5 5 5 5 5 6 5 5 5 5 5 6 6 5 5 6 5 5 5 5 5 5 5 5 5 5 6 5 5 5 5 5 5 5 5 5 6 5 6 5 5 5 5 5 6 5 5 5 5 6 5 5 5 6 5 5 5 6 5 5 6 5 5 5 5 5 5 5 5 5 5 5 5 5 5 5 5 6 5 5 5 5 5 5 5 6 5 5 5 5 5 5 5 5 5 5 5 5 5 5 5 5 5 5 5 5 5 5 5 5 5 5 5 6 5 5 5 5 6 5 5 5 6 5 5 5 5 5 5 5 5 5 6 5 6 5 5 5 5 5 5 5 5 5 5 5 5 5 5 5 5 5 5 6 6 5 5 5 6 5 5 6 5 5 6 5 5 5 6 5 5 6 5 5 5 5 5 5 5 5 5 5 5 5 5 5 5 5 5 5 5 5 6 5 6 5 5 5 5 5 5 5 5 5 5 5 6 5 6 5 5 5 6 5 5 5 5 5 6 5 5 5 5 5 5 6 5 5 5 5 5 5 5 5 5 5 5 6 5 5 5 5 5 5 5 5 6 5 5 5 6 5 5 6 5 5 5 5 5 6 5 5 5 5 5 5 5 5 5 6 5 5 6 5 6 5 6 6 6 5 6 5 5 5 5 5 5 6 5 5 5 5 5 5 6 5 5 5 5 5 5 5 6 5 5 5 5 6 5 5 5 5 5 6 5 6 5 5 5 5 5 5 5 5 5 5 6 5 5 5 5 5 5 5 6 5 5 5 5 5 5 5 6 5 6 5 5 5 5 5 5 5 5 6 5 5 5 6 6 5 5 5 5 5 6 6 5 6 5 5 6 5 5 6 5 5 5 5 5 5 5 5 6 5 5 5 5 5 6 5 5 5 5 6 5 5 6 5 5 5 5 5 5 5 5 5 5 5 5 5 5 5 5 5 5 5 5 5 5 5 5 5 5 5 5 5 5 5 5 5 5 5 5 5 5 5 5 5 6 5 5 6 5 5 5 5 5 6 5 5 5 5 6 5 5 5 5 5 5 5 5 5 5 5 5 5 5 5 5 5 5 5 5 5 5 5 5 6 5 5 5 6 5 5 5 5 5 5 6 5 5 5 5 5 5 5 5 5 5 5 6 5 6 6 5 5 6 5 5 5 5 5 5 5 5 5 5 5 6 5 5 6 5 5 5 5 5 5 5 5 5 5 5 5 5 5 5 6 5 5 5 5 5 5 5 6 5 6 5 5 5 5 6 5 6 5 5 5 5 5 5 5 5 5 6 5 5 5 5 5 5 5 5 5 5 5 5 5 5 5 5 5 6 5 5 5 5 5 5 5 5 5 5 5 5 5 5 5 5 5 5 5 5 5 5 5 5 5 6 6 5 5 5 5 5 5 5 5 5 5 5 6 5 5 5 5 6 5 5 5 5 6 5 5 5 5 5 5 5 5 6 5 5 5 5 5 5 5 5 5 6 5 5 5 5 5 5 5 5 5 5 5 5 5 5 5 5 5 5 5 5 6 5 5 5 5 5 5 5 5 5 5 5 5 5 5 6 5 6 5 5 5 5 5 5 5 5 6 5 5 6 5 5 5 5 5 5 5 5 5 5 5 5 5 5 5 5 5 5 5 5 5 5 5 5 5 5 5 5 5 5 5 5 5 5 5 5 6 5 5 6 5 5 5 5 6 5 6 5 5 6 5 6 5 5 5 5 5 6 5 5 5 5 5 5 5 5 5 5 5 5 6 5 5 5 6 5 5 5 5 5 5 5 5 5 6 5 5 5 5 6 6 5 5 5 5 5 5 5 5 6 5 5 5 5 5 6 5 5 5 6 5 5 5 6 5 5 5 5 6 5 5 5 5 5 5 5 5 5 5 5 5 5 5 6 5 5 5 5 5 5 6 5 6 6 5 6 5 6 5 5 5 5 6 5 5 5 5 6 5 5 5 5 5 5 5 5 5 6 5 5 5 5 5 5 5 5 5 5 5 5 5 5 6 5 5 5 6 5 5 5 6 5 6 5 5 5 5 5 5 5 5 5 5 5 5 5 5 5 5 6 5 5 5 5 5 5 6 5 5 5 5 5 5 5 5 5 5 5 5 5 5 5 5 5 5 6 5 5 5 5 5 5 5 5 5 5 5 5 5 5 5 5 5 5 5 5 5 5 5 5 5 5 5 5 5 5 5 5 5 5 6 5 5 5 5 6 5 5 5 5 5 5 5 6 5 5 5 5 5 5 5 5 5 6 5 5 6 5 5 5 5 5 6 5 5 5 6 5 5 6 5 5 5 5 5 5 5 5 5 5 5 5 5 5 5 5 5 5 5 5 6 5 5 5 5 5 5 5 5 5 5 6 6 5 6 5 5 5 5 5 6 5 5 5 5 6 5 5 5 5 5 6 5 6 5 5 6 5 5 5 5 5 5 5 5 6 5 5 5 5 5 5 6 5 5 5 5 5 5 6 5 5 5 5 6 5 5 6 5 6 5 5 6 5 5 5 5 5 5 6 5 5 5 5 6 5 5 5 5 5 5 5 5 6 6 5 5 5 5 5 5 5 5 6 5 5 5 5 5 5 6 5 5 5 5 5 5 5 6 5 5 5 6 5 5 5 5 5 5 5 5 5 5 5 5 6 5 5 5 5 6 5 5 6 5 5 5 5 6 5 5 5 6 6 5 5 5 6 5 5 5 6 5 5 5 5 5 5 5 5 5 6 5 5 5 6 5 5 5 5 5 5 5 5 5 5 5 5 6 5 6 5 5 6 5 5 6 5 5 5 5 5 5 5 6 5 5 5 5 5 6 5 6 5 5 5 6 6 5 6 6 5 6 5 5 5 5 5 5 6 5 6 5 5 5 5 5 5 5 5 5 5 5 5 5 6 5 5 6 5 6 5 5 6 5 5 5 6 6 5 5 6 5 5 5 5 5 5 5 5 5 5 5 5 5 5 5 5 5 5 5 5 5 5 5 6 6 5 6 5 6 5 5 6 6 5 5 6 5 5 6 5 5 6 5 6 5 5 5 5 6 5 5 5 5 6 5 6 6 5 6 5 5 6 6 5 5 5 6 5 5 5 5 6 6 5 5 5 5 5 6 5 5 5 5 5 5 5 5 5 5 5 6 5 6 5 6 5 5 6 5 6 5 5 5 5 5 5 5 5 6 5 5 6 5 5 5 5 6 5 5 5 5 5 5 5 5 5 5 5 5 6 5 5 5 5 5 5 5 5 5 5 5 6 5 5 5 5 5 5 6 5 6 5 5 6 5 5 5 5 5 5 5 5 5 5 5 5 5 5 5 5 5 6 6 5 5 5 6 5 5 6 5 5 5 5 5 5 5 5 5 5 5 5 5 5 5 5 5 5 5 5 5 5 5 5 5 6 6 5 5 5 5 5 5 5 5 5 5 5 6 5 5 5 5 5 5 5 5 5 5 5 5 5 5 5 5 5 5 5 5 5 5 5 5 5 5 5 5 5 5 5 5 5 6 5 5 5 5 5 6 5 5 6 5 5 6 6 5 5 5 5 5 5 5 5 5 5 5 5 5 6 5 5 6 5 5 5 5 5 5 6 5 5 6 5 5 5 5 5 5 5 5 5 5 5 5 5 6 5 5 5 5 5 5 5 6 5 5 5 5 5 5 5 5 5 5 5 5 6 5 5 6 5 5 5 5 5 5 5 5 5 5 5 5 5 5 5 5 5 5 5 5 6 5 5 6 5 6 5 5 5 6 5 5 6 5 6 5 5 5 6 5 5 5 5 6 5 5 5 5 5 5 5 6 5 5 5 6 5 5 5 5 5 5 5 5 5 5 5 5 6 5 5 5 5 5 5 5 5 6 5 5 5 5 5 5 5 5 5 5 5 6 5 5 5 5 5 5 5 5 5 5 5 5 5 5 5 5 5 5 5 6 6 5 5 5 6 5 5 5 5 5 5 5 5 5 5 5 5 6 5 5 5 5 5 5 5 5 5 6 5 5 5 5 5 5 5 5 5 5 5 5 5 5 5 5 6 5 6 5 5 5 5 5 6 5 5 5 5 6 5 5 5 6 5 5 5 6 5 5 5 5 5 5 5 5 5 6 5 5 5 6 5 5 6 5 5 5 5 5 5 6 5 5 5 5 5 5 5 5 6 5 5 5 6 5 5 5 5 5 5 5 5 5 5 5 5 5 5 5 5 5 5 5 5 5 5 5 5 5 5 5 6 5 5 5 5 5 5 5 6 5 5 5 5 5 5 5 5 5 5 5 5 5 5 5 5 5 5 5 5 5 5 5 5 5 6 5 6 5 5 5 5 5 5 6 5 5 5 6 5 5 6 5 5 5 5 5 5 5 5 5 5 5 5 6 5 5 5 5 5 6 5 5 5 5 5 5 5 5 5 5 5 5 5 6 5 5 5 6 5 5 5 5 5 5 5 5 5 5 5 5 6 6 5 5 5 5 6 5 5 5 5 5 5 5 5 5 6 6 5 5 5 5 5 6 5 5 5 5 5 6 5 5 5 5 5 6 5 6 5 5 5 5 6 5 6 5 6 6 5 5 5 5 5 5 5 6 6 5 5 5 5 5 5 6 6 6 5 6 6 5 5 5 6 5 5 5 5 5 6 6 6 5 6 5 5 5 6 5 6 6 5 5 5 5 5 5 5 6 6 5 5 6 6 6 5 5 5 5 5 5 5 5 5 5 5 5 5 5 5 5 5 5 5 5 5 5 5 5 5 5 5 5 5 5 5 5 5 5 5 5 5 5 5 5 6 5 5 5 5 5 5 5 5 5 5 6 5 5 5 5 5 5 6 5 5 6 5 5 5 5 5 5 5 5 5 5 5 5 5 6 5 6 5 5 5 5 6 5 5 5 6 5 5 6 5 5 5 6 5 5 6 5 5 5 5 5 6 5 5 5 5 5 5 5 6 5 5 5 5 5 5 5 6 5 5 6 5 5 5 5 6 5 6 5 5 5 5 5 6 5 5 5 5 6 5 5 5 5 5 5 6 6 5 5 5 5 5 6 5 5 6 5 5 5 5 5 5 5 5 5 5 6 5 5 5 5 5 5 5 5 5 5 5 5 5 5 5 5 5 5 6 5 5 5 5 5 5 6 5 5 5 5 5 5 5 6 6 5 5 5 5 6 5 5 5 5 5 5 5 6 5 5 6 5 6 6 6 5 5 5 5 5 5 6 5 5 5 5 5 6 5 5 5 5 6 5 5 5 6 5 5 5 6 5 5 5 5 5 5 5 5 5 5 5 5 5 5 5 5 5 5 5 5 5 5 5 5 5 6 5 5 5 5 5 5 5 6 5 6 5 5 5 5 5 5 6 5 5 6 5 5 5 6 5 5 6 5 5 5 5 5 6 5 5 5 6 6 5 5 5 5 5 5 5 5 5 5 5 5 6 5 5 5 5 5 5 5 5 5 6 5 5 5 5 5 6 6 5 5 5 5 5 5 5 5 5 6 5 5 5 5 5 5 5 5 6 5 5 5 5 5 5 5 5 5 5 5 5 5 5 5 5 5 5 6 5 5 5 5 6 5 6 5 6 5 5 5 5 5 5 5 5 5 5 5 5 5 5 5 5 5 6 5 5 5 5 5 6 5 5 5 6 6 5 5 5 5 5 6 5 5 5 5 6 5 5 5 5 5 5 5 5 6 5 5 5 5 5 5 5 6 5 5 5 5 5 5 5 5 5 6 5 5 5 5 5 5 5 5 5 5 5 5 5 5 5 5 5 5 6 5 5 5 5 5 5 5 5 5 5 5 5 5 6 5 5 5 5 5 5 6 5 5 6 5 5 6 5 5 5 5 5 5 5 5 5 5 5 5 5 5 5 5 5 5 5 5 5 5 5 5 5 5 6 5 6 5 6 6 5 5 5 6 5 5 5 5 5 5 5 5 5 6 6 5 6 5 5 5 5 5 5 5 5 5 5 5 5 5 5 6 5 6 6 5 6 5 5 5 5 5 5 5 5 5 6 6 5 5 5 5 5 5 5 5 5 5 5 5 5 5 5 5 5 5 5 5 5 5 6 5 5 5 5 5 6 5 5 5 5 5 6 5 5 5 6 5 5 5 5 5 5 5 5 5 6 5 5 5 5 6 5 5 5 5 5 5 6 5 5 5 5 5 5 5 6 5 5 5 5 6 5 5 5 5 5 5 5 5 5 5 6 5 5 5 5 6 5 5 5 6 5 5 5 5 5 6 5 5 5 5 5 5 5 5 5 5 5 5 5 5 6 6 5 5 6 5 5 5 5 5 5 5 6 5 5 5 5 5 5 6 5 5 5 5 5 5 5 5 5 5 5 5 5 5 5 5 5 5 5 5 5 5 5 6 5 5 5 5 5 5 5 5 6 5 5 5 5 6 5 5 5 5 5 6 5 6 5 6 5 5 5 5 5 5 5 6 5 5 5 6 5 5 5 5 5 6 5 5 5 5 5 6 5 6 5 5 6 5 6 5 5 5 5 5 6 5 5 5 6 5 5 5 5 5 5 5 5 5 5 6 5 5 5 5 5 5 5 5 5 5 5 5 5 5 5 5 5 5 5 5 5 5 6 5 5 5 5 5 5 5 5 5 5 5 5 5 5 5 5 5 5 6 5 5 5 6 5 5 5 5 5 5 6 5 5 5 6 6 5 6 5 6 6 5 6 5 5 6 5 5 6 6 5 5 5 5 5 5 5 5 6 5 6 5 5 5 5 5 5 5 5 5 5 5 5 5 5 5 5 5 5 5 5 5 5 6 5 5 5 5 5 5 5 5 6 5 5 6 5 5 6 6 5 5 6 5 5 5 5 5 5 5 5 5 5 5 5 5 5 5 5 5 5 5 5 5 5 5 5 5 5 5 5 5 5 5 5 5 5 5 5 5 5 5 6 5 6 5 5 5 5 5 5 5 5 5 5 5 5 5 5 5 5 5 5 5 5 5 5 5 5 5 5 5 5 5 5 5 5 5 5 5 5 5 5 5 5 6 5 5 6 5 5 5 5 5 6 5 6 5 5 6 5 5 5 5 5 5 6 5 5 5 5 5 5 5 5 5 5 5 6 5 5 6 6 5 6 5 5 6 5 5 5 5 6 5 5 5 5 5 5 5 5 5 6 5 6 5 5 5 5 5 5 5 6 5 6 5 5 5 5 5 5 5 5 5 6 5 6 5 5 5 5 5 5 5 5 5 5 6 5 5 5 6 5 5 6 5 5 6 5 5 5 5 6 5 5 5 6 5 5 5 5 5 5 5 5 5 5 5 5 5 5 6 5 5 5 5 5 5 6 5 6 5 6 5 5 5 6 5 5 5 5 5 5 5 5 6 5 5 5 5 5 6 5 5 6 5 5 5 5 5 5 5 5 5 6 5 5 5 6 5 5 5 5 5 5 6 5 5 5 5 5 5 5 5 5 5 5 5 5 5 5 5 5 5 5 5 5 5 5 5 5 5 5 5 5 5 5 6 5 5 5 5 5 6 5 5 6 6 5 5 5 5 6 5 5 5 5 5 6 5 5 5 5 5 5 5 5 5 5 5 5 5 5 5 5 6 5 5 5 5 5 5 5 5 6 6 5 5 5 5 5 5 6 5 5 5 5 6 5 5 5 5 5 5 5 5 5 5 5 5 5 5 5 5 5 5 5 5 5 5 5 5 6 5 5 6 5 5 5 5 5 5 5 5 5 5 5 5 5 5 5 5 5 5 5 5 5 5 5 5 5 5 5 6 5 6 5 5 5 5 5 6 5 5 5 5 5 5 5 5 5 5 5 5 5 5 5 5 5 5 5 5 6 6 5 6 5 5 5 5 5 5 5 5 5 5 5 5 5 5 5 5 6 5 5 5 6 5 5 5 5 5 5 5 5 5 5 5 5 5 6 5 5 5 5 5 5 5 5 5 5 5 5 5 5 5 5 5 5 5 5 5 5 6 5 5 5 5 5 5 5 5 5 5 5 5 5 6 5 6 5 5 6 6 5 5 5 5 5 5 5 5 5 5 5 5 5 5 5 5 5 5 5 5 6 5 5 6 5 5 5 6 5 5 5 5 5 5 6 5 5 5 6 5 5 5 5 5 5 5 5 6 5 5 6 5 5 6 5 6 5 5 5 5 6 6 5 5 6 6 5 5 6 5 5 5 5 6 5 5 6 6 5 6 5 5 5 5 5 5 5 5 5 5 5 5 5 5 5 5 5 5 5 5 6 5 5 5 5 6 5 5 5 5 6 6 5 5 5 5 5 5 5 5 5 5 5 5 6 5 5 5 6 5 5 5 5 5 5 5 6 5 5 5 6 5 5 6 6 5 5 5 6 5 5 5 6 5 5 5 5 5 5 5 5 5 5 5 5 5 5 5 5 5 5 6 5 5 5 5 5 5 5 5 5 5 5 5 5 5 5 5 5 5 6 6 5 5 5 5 5 6 6 5 6 5 5 5 5 5 5 5 5 5 6 5 5 5 6 5 5 5 5 5 5 5 5 5 5 5 5 5 5 6 5 5 5 5 5 5 5 6 5 5 6 5 5 5 5 5 5 6 5 5 5 5 6 5 5 5 5 5 5 6 5 5 5 5 5 5 5 5 6 6 5 5 5 6 6 5 5 5 5 5 6 5 5 5 5 5 5 6 5 5 5 5 6 5 5 5 5 5 6 5 5 5 5 6 5 5 5 5 5 5 5 5 5 5 5 5 5 5 5 5 5 5 5 5 5 5 5 5 5 6 5 5 5 5 6 5 6 5 6 5 5 6 5 5 6 5 5 6 5 5 5 5 5 5 6 5 5 6 5 6 6 6 5 5 6 5 6 6 5 5 5 6 5 6 5 5 5 5 5 5 6 5 5 5 6 5 5 5 5 5 5 5 6 5 5 5 6 5 6 6 5 5 5 5 5 5 5 6 5 5 5 5 5 5 5 5 6 6 5 5 5 5 6 5 5 6 5 5 5 6 5 5 5 6 6 5 5 5 5 6 5 5 5 5 5 6 6 5 5 5 5 5 5 5 5 5 5 5 5 5 5 5 5 5 5 5 5 5 5 5 5 5 5 5 5 5 5 5 6 5 5 5 6 5 5 5 5 5 5 5 5 5 5 5 5 5 5 5 6 5 6 6 5 5 6 5 5 5 5 5 5 5 5 5 5 5 5 5 5 5 5 5 5 5 5 5 5 5 6 5 5 6 6 5 5 5 5 5 5 5 6 5 5 5 6 5 5 5 5 6 6 5 5 5 5 5 5 5 6 5 5 5 5 6 5 5 5 5 6 5 5 5 5 5 5 5 5 5 5 5 5 5 5 5 5 5 5 5 6 5 5 5 5 5 5 5 5 5 5 5 5 5 5 5 5 6 5 5 5 6 5 5 5 5 5 5 5 5 5 6 5 5 5 5 5 5 5 5 5 5 5 5 5 5 5 5 5 5 5 5 5 6 5 5 5 5 5 5 5 5 5 5 5 5 5 5 5 5 5 6 5 5 5 5 5 6 5 5 5 5 5 5 5 5 5 5 5 5 5 5 5 5 5 5 5 5 5 5 5 5 5 5 5 6 5 5 6 5 5 5 6 5 5 5 5 5 5 5 5 5 5 5 5 5 5 5 6 5 6 5 5 5 5 5 5 5 5 5 6 5 5 5 5 5 5 5 5 5 6 6 5 5 5 5 5 5 5 5 5 5 5 5 5 5 5 5 5 5 5 5 5 5 5 5 5 5 5 5 5 5 5 5 5 5 5 5 5 5 5 5 5 5 5 5 5 5 5 5 5 5 5 5 5 5 5 5 5 5 5 5 5 5 5 5 5 5 5 5 5 5 5 6 5 5 5 5 5 5 6 5 5 5 5 5 5 5 5 5 6 5 6 5 5 5 5 5 5 5 5 5 5 5 5 5 5 5 5 5 5 5 5 5 5 5 5 5 5 5 5 5 5 5 5 5 5 6 5 5 5 6 6 5 5 5 5 5 5 5 5 5 5 5 5 5 5 5 5 5 5 5 5 5 5 6 6 5 5 5 5 5 5 5 5 6 5 5 5 5 5 5 6 5 5 5 5 5 6 5 5 5 5 6 5 5 5 6 5 5 5 6 5 5 6 5 5 5 5 5 5 5 5 5 5 5 5 5 6 5 5 5 5 5 5 5 5 6 5 5 5 5 5 5 5 5 5 5 5 6 5 5 5 6 5 5 5 5 6 5 5 5 5 5 5 5 5 6 5 6 5 5 6 5 5 5 5 5 6 5 5 5 5 5 5 5 5 5 5 5 5 6 5 5 5 5 5 5 5 5 5 6 5 5 5 5 5 5 6 5 5 5 5 5 5 5 6 5 5 5 5 5 6 5 5 5 5 5 5 5 5 5 5 5 5 5 5 5 5 5 5 5 5 5 5 5 5 5 5 5 5 5 5 5 5 5 5 5 5 5 5 5 5 5 5 5 5 5 5 5 6 5 6 5 5 5 5 5 5 5 5 5 5 5 5 5 5 6 5 5 5 5 5 5 5 5 5 5 5 5 5 5 5 6 5 5 6 5 6 5 5 5 5 5 6 5 5 5 5 5 5 5 5 5 5 5 5 5 5 5 5 5 5 5 5 6 5 5 5 5 5 5 5 5 5 5 5 6 5 6 5 5 6 5 6 5 5 5 5 5 5 5 6 5 6 5 5 5 5 6 5 5 5 5 6 6 5 5 6 5 5 5 5 5 5 5 5 5 5 5 5 5 5 5 5 6 5 5 5 5 5 5 5 5 5 5 5 5 5 5 6 5 6 5 5 5 5 5 5 5 6 5 6 5 5 5 5 5 5 5 5 5 6 6 5 5 5 6 5 5 5 5 6 5 6 5 5 6 5 6 6 6 5 5 6 5 5 5 6 6 6 5 5 5 5 5 5 5 5 5 5 5 6 5 5 5 5 5 5 6 5 5 5 6 5 5 5 5 5 5 5 5 6 5 5 5 6 5 5 5 5 5 5 5 5 5 5 5 5 5 5 5 5 5 5 5 5 5 5 5 5 5 5 5 5 5 5 5 5 5 5 5 5 5 5 5 5 5 5 5 5 5 5 5 5 5 5 5 5 5 5 5 5 5 5 5 5 6 5 5 5 5 5 6 5 5 5 5 6 5 5 5 6 5 5 5 5 5 5 5 5 5 5 5 5 5 5 5 5 5 5 5 5 5 5 5 5 5 5 5 5 5 5 5 5 5 5 5 5 5 5 5 5 6 5 5 6 5 5 5 5 5 5 5 6 5 5 5 5 5 5 5 5 5 5 5 6 5 5 6 5 6 5 5 5 6 5 5 5 5 5 5 5 5 6 5 5 5 5 6 5 5 5 5 6 5 6 5 5 5 5 5 5 5 5 5 5 5 5 6 5 6 5 5 5 5 5 5 5 5 5 5 5 5 5 6 5 5 5 5 5 5 5 5 5 6 5 5 5 6 5 5 5 5 5 5 5 5 5 5 5 5 5 5 5 5 5 5 5 5 5 5 5 5 5 5 5 5 5 5 5 5 5 5 5 6 5 5 6 5 5 5 5 6 5 5 5 5 5 5 5 5 5 5 5 5 5 5 5 6 5 5 5 5 5 5 5 5 5 6 5 6 5 5 5 5 5 5 5 6 5 5 5 5 5 5 5 5 5 5 5 5 5 5 6 5 5 5 5 5 5 5 5 5 5 5 6 5 5 5 5 5 5 5 5 5 5 5 5 5 5 5 5 5 5 5 5 5 5 5 6 5 6 5 5 5 5 5 5 6 5 6 5 5 5 6 5 5 5 6 5 5 5 6 5 5 6 5 5 5 5 5 5 5 6 5 5 5 5 5 5 5 6 5 5 5 5 5 5 5 5 5 5 5 5 5 6 5 5 5 5 5 5 5 5 6 5 5 5 5 5 5 5 5 5 5 5 5 5 5 5 5 5 5 5 5 6 5 5 5 5 5 5 5 5 5 5 5 5 5 5 5 5 5 5 5 5 5 5 5 5 5 5 5 5 5 5 5 5 5 5 5 5 5 5 5 5 5 5 5 5 5 5 5 5 5 5 6 5 6 5 5 5 6 5 5 6 6 5 6 5 5 5 5 5 5 5 5 5 5 5 5 5 5 5 5 5 5 5 5 5 5 5 5 5 5 5 5 5 5 5 5 5 5 5 6 5 5 5 5 6 5 5 6 5 5 5 6 5 5 5 5 6 5 6 6 5 5 5 5 6 5 5 5 6 5 5 5 6 5 5 5 5 5 5 6 5 5 5 5 5 5 5 5 5 5 5 5 5 5 5 5 5 5 5 5 6 5 5 5 5 5 5 5 5 5 5 5 5 5 5 5 5 5 5 6 5 5 6 5 5 6 5 5 5 5 5 5 5 5 5 5 5 6 5 5 5 5 6 5 5 5 5 6 5 5 5 6 5 5 5 5 5 5 5 5 5 5 5 5 5 5 5 5 5 5 5 5 5 5 5 5 5 6 5 5 5 5 5 5 5 5 6 5 5 5 6 5 5 5 5 5 5 5 5 5 5 5 5 5 5 5 5 5 5 5 5 5 5 5 5 6 5 5 5 6 5 5 5 5 5 5 5 5 6 5 5 6 5 5 5 5 6 5 5 5 5 5 5 5 6 5 6 5 5 6 5 5 6 6 5 5 5 5 5 5 5 5 5 5 5 5 5 5 5 5 5 5 5 5 5 6 5 5 5 5 6 5 5 5 5 5 5 5 5 5 5 5 5 5 6 5 5 6 5 5 5 5 5 5 5 5 5 5 5 5 5 5 5 5 5 5 5 5 5 5 5 5 5 5 5 5 5 5 5 5 5 5 5 5 5 5 5 5 5 5 5 5 5 5 5 5 5 5 5 5 5 5 5 5 5 5 5 5 5 5 5 5 5 5 5 5 5 5 5 5 5 5 5 5 5 5 5 5 5 5 5 5 5 5 5 5 5 5 5 5 5 5 5 5 5 5 5 5 5 5 5 5 5 5 5 5 5 5 5 5 5 5 5 5 5 5 5 5 5 5 5 5 5 5 5 5 6 5 5 5 5 5 5 5 6 5 5 5 5 5 5 5 5 5 6 5 6 5 5 5 6 5 5 6 5 5 5 5 5 5 5 5 5 5 5 5 5 5 5 5 5 5 5 5 5 5 5 5 5 5 5 5 5 5 5 5 5 5 5 5 5 6 5 5 6 6 5 5 6 5 5 6 5 5 5 6 5 5 5 5 5 5 5 5 5 6 5 5 5 5 5 5 6 5 5 5 5 5 5 5 5 5 5 5 5 5 5 5 5 5 5 5 5 5 5 5 5 5 5 5 5 5 5 5 6 5 5 5 5 5 5 5 5 5 5 5 5 5 5 5 5 5 5 5 5 5 5 5 5 5 5 5 5 5 5 5 5 5 5 5 5 5 5 5 5 5 5 5 5 5 5 6 5 6 5 5 5 5 6 5 5 5 5 6 5 5 5 5 6 5 5 5 5 5 5 5 5 6 5 5 6 5 6 5 5 5 5 6 5 5 6 6 5 5 5 5 5 5 6 5 5 5 5 5 5 5 5 5 5 6 6 5 5 5 5 5 6 5 5 6 5 5 5 5 6 5 5 6 5 5 5 5 5 5 5 5 5 5 5 5 5 5 5 5 5 5 5 5 5 5 5 5 5 5 5 5 5 6 5 6 5 5 5 5 5 5 5 5 5 5 5 5 5 6 5 5 5 5 6 6 5 5 5 5 5 5 5 5 5 5 5 5 5 5 5 5 5 5 5 5 5 5 5 5 5 5 5 5 5 5 5 5 5 5 5 5 5 5 5 5 5 5 6 5 5 5 6 5 5 5 5 5 5 5 5 5 5 5 5 5 5 5 5 5 5 5 5 6 5 5 6 5 5 5 5 5 5 5 5 5 6 5 5 5 5 5 6 5 5 5 5 5 6 5 6 5 5 5 5 5 5 5 5 5 5 5 5 5 6 5 5 5 6 6 5 5 5 5 5 5 5 5 6 5 5 6 5 5 6 6 5 5 5 5 5 6 5 5 5 5 5 5 5 6 5 5 6 6 5 5 5 5 5 5 6 6 5 5 5 6 5 5 5 5 5 5 5 6 5 5 5 5 5 5 5 5 5 5 5 5 5 5 5 5 5 5 5 5 5 5 5 5 5 5 6 5 5 5 5 5 5 5 6 5 5 5 5 5 5 5 5 5 5 5 6 5 5 5 5 5 5 5 5 6 5 5 5 5 5 5 5 5 5 5 5 5 5 5 5 5 6 5 5 5 6 5 5 5 5 5 6 5 5 5 5 5 5 5 5 5 5 5 5 5 5 6 5 5 5 5 6 5 5 6 5 5 5 5 5 6 5 5 5 5 5 5 5 5 5 5 5 5 5 5 6 5 6 5 5 5 6 5 6 5 6 5 5 5 5 5 5 6 6 5 5 5 5 5 5 6 5 6 5 5 5 5 5 5 5 5 5 5 5 5 5 5 5 5 5 6 5 5 5 6 6 5 5 5 5 5 6 5 5 6 6 5 5 5 5 5 5 5 5 5 5 5 5 5 5 5 5 5 5 5 5 5 5 5 5 5 5 5 5 5 5 5 5 5 5 5 5 5 5 5 5 5 5 5 5 6 5 5 6 6 6 5 5 5 5 5 5 6 5 5 5 5 5 5 5 5 5 6 5 5 5 6 5 5 5 5 5 5 5 5 5 5 5 5 5 5 5 5 5 5 5 5 6 5 5 5 5 6 5 5 5 5 5 5 5 5 5 5 5 5 5 5 5 5 5 5 5 5 5 5 5 5 5 5 5 5 5 5 5 5 5 5 6 5 6 5 5 5 5 5 5 5 5 6 5 5 5 6 5 6 5 5 5 5 5 5 5 5 6 5 5 5 5 6 5 5 5 5 6 5 5 5 5 5 5 5 6 5 5 5 5 6 5 5 5 5 5 5 5 5 5 5 5 5 5 5 5 5 5 5 5 5 5 5 5 5 5 5 5 5 5 5 5 5 5 5 5 5 5 5 5 5 5 5 5 5 5 5 6 5 5 5 5 6 6 5 5 6 6 5 5 5 5 5 5 5 5 5 5 5 5 5 5 5 5 5 5 5 6 5 5 5 6 6 5 5 5 5 5 5 5 5 5 5 5 5 5 5 5 5 5 5 5 5 5 5 5 5 5 5 5 6 5 5 5 5 5 5 5 6 5 5 5 5 5 5 5 5 5 5 5 5 5 5 5 6 5 5 5 5 5 5 5 5 6 5 6 6 5 5 5 5 5 5 5 5 5 5 5 5 6 5 5 5 5 5 5 5 5 5 5 5 5 5 5 5 5 5 5 6 5 5 5 6 5 5 5 5 5 5 5 5 6 5 5 5 5 5 5 5 5 5 5 5 5 5 5 5 6 5 5 5 6 5 5 5 5 5 5 5 5 5 5 5 5 5 5 5 5 5 5 5 5 5 5 5 5 5 5 5 5 5 5 5 5 5 6 5 6 5 5 5 5 5 5 5 5 6 5 5 5 5 5 5 5 5 5 6 5 5 6 5 5 5 5 5 6 5 5 5 5 6 5 5 5 5 6 5 5 5 6 5 6 5 5 6 5 5 5 5 5 5 5 5 5 5 5 5 5 5 6 5 5 6 5 6 5 5 5 6 5 5 6 5 5 5 5 6 5 6 5 5 5 5 5 5 6 5 6 5 5 5 5 5 6 5 5 5 5 6 5 5 5 5 5 5 6 5 5 5 5 5 5 5 5 5 5 5 5 5 5 5 5 5 5 5 5 5 5 5 5 5 5 5 5 5 5 5 5 5 6 6 5 5 5 5 5 5 5 5 5 5 6 5 5 6 6 5 6 5 5 5 5 5 5 5 6 5 5 5 5 5 5 5 5 5 5 5 5 6 5 5 5 5 6 5 5 5 5 5 5 5 5 5 5 5 5 6 5 5 5 5 5 5 5 5 5 5 5 5 5 5 5 5 5 6 5 5 5 5 5 6 5 5 5 6 5 5 5 5 5 5 6 5 6 5 5 5 6 5 5 5 5 5 5 5 5 5 6 5 5 6 5 5 5 5 5 5 5 6 5 5 5 5 5 5 5 5 5 5 5 5 5 6 5 5 6 5 5 5 5 5 5 6 5 5 5 5 5 5 6 5 5 5 5 5 5 5 6 5 5 5 5 5 5 5 5 5 5 5 5 5 5 5 5 5 5 5 5 5 5 6 5 5 5 5 5 5 5 5 5 5 6 5 5 5 5 6 6 5 5 5 5 6 5 5 5 5 5 5 5 5 5 6 5 5 5 5 5 5 5 5 5 5 5 6 5 5 5 6 5 5 5 6 5 5 5 5 5 5 5 5 5 5 5 5 6 5 5 5 5 5 6 5 5 6 5 5 5 5 5 5 5 5 5 5 5 5 5 5 6 5 5 5 5 5 5 5 6 5 5 5 6 5 5 5 5 5 6 5 5 5 5 5 5 5 5 5 6 5 5 5 5 5 5 5 5 6 5 5 5 5 5 6 5 5 5 5 5 5 5 6 5 5 5 5 5 5 5 5 5 5 5 5 5 5 5 5 5 5 5 5 5 5 5 5 5 5 5 5 5 5 5 5 5 5 5 5 5 5 5 5 5 5 5 5 5 5 5 5 6 5 5 5 5 5 5 5 6 5 5 5 5 5 5 5 5 5 5 5 5 5 5 5 5 5 5 5 5 5 5 6 6 5 5 6 6 5 5 5 5 5 5 5 6 5 5 5 5 5 5 5 5 5 5 5 5 5 5 6 5 5 5 5 5 5 5 5 6 5 5 6 5 5 5 6 5 5 5 5 5 5 5 5 5 5 5 5 5 5 5 5 5 5 5 5 5 5 5 5 5 5 5 5 6 5 5 5 5 5 5 5 5 6 5 5 5 5 5 5 6 6 5 5 5 5 6 5 5 6 5 5 6 5 5 5 5 5 5 6 5 5 5 5 5 5 5 5 6 5 5 5 5 5 5 5 5 5 5 5 6 5 5 6 5 5 5 5 5 5 5 6 5 5 5 6 5 6 5 6 5 5 5 5 5 5 5 5 5 5 5 5 5 5 5 5 5 6 5 6 5 5 5 5 5 5 5 5 5 5 6 5 5 5 5 5 5 5 6 5 5 5 6 5 6 6 5 5 6 5 5 5 5 6 5 5 5 6 5 5 5 6 5 6 6 5 5 5 5 5 5 6 5 5 5 5 5 5 5 5 6 6 6 5 6 5 5 6 6 5 5 6 5 5 5 5 5 5 5 5 5 5 5 6 5 5 5 5 5 5 5 5 5 5 5 5 5 6 6 5 5 5 5 6 5 5 5 6 5 5 5 5 5 6 6 5 5 5 6 5 5 5 5 5 5 5 5 5 5 5 5 5 5 5 6 5 5 5 6 5 5 5 6 5 5 5 5 5 5 6 5 5 5 5 5 6 5 5 5 5 5 5 5 5 6 5 5 5 5 5 5 5 5 5 6 5 5 5 5 6 5 6 5 5 6 5 6 5 5 5 5 5 5 6 5 6 6 5 5 5 5 5 5 5 5 6 5 6 5 6 5 6 5 5 5 5 5 5 5 5 5 5 5 6 5 5 5 6 5 5 5 5 5 5 5 5 6 5 5 5 5 5 5 5 5 5 6 5 5 5 5 6 5 5 6 5 5 5 5 5 5 5 5 5 6 5 5 5 6 5 5 5 5 5 5 5 5 5 5 5 5 5 5 5 5 5 5 5 6 5 5 5 5 5 5 5 5 5 5 6 5 5 5 5 5 5 5 5 5 5 5 5 5 5 5 5 5 5 5 5 5 5 5 5 5 5 5 5 5 5 5 5 5 5 5 5 5 5 5 5 5 5 5 5 5 6 6 5 5 5 5 5 5 5 5 5 5 5 5 5 6 6 5 5 5 6 5 5 6 5 5 5 6 5 5 5 6 5 5 5 5 5 5 5 5 6 5 5 6 5 6 6 5 5 5 5 5 5 6 5 6 6 6 5 5 6 5 5 6 6 5 5 5 5 5 5 5 5 5 5 5 5 5 5 5 5 5 5 5 5 5 6 5 5 5 5 5 5 5 5 5 6 5 5 5 5 5 5 5 6 6 5 5 5 5 5 5 5 5 5 5 5 5 5 5 5 5 5 5 5 5 5 5 5 6 5 6 5 5 5 5 5 5 5 6 5 5 5 6 6 5 5 6 5 5 5 5 6 5 5 5 6 5 5 5 6 5 5 5 5 5 5 5 5 5 6 6 5 5 5 5 5 6 5 5 6 6 6 5 5 5 5 5 6 5 5 5 5 5 5 5 5 5 6 5 6 5 5 5 5 5 5 5 5 5 5 5 5 5 5 5 5 5 5 5 5 5 5 5 5 6 5 5 5 5 6 6 5 5 5 6 5 5 5 5 5 5 5 5 5 5 5 5 5 5 5 5 6 5 5 5 6 5 5 6 5 5 5 5 5 5 5 5 5 5 5 5 5 6 5 5 6 5 5 5 6 5 6 5 6 5 6 6 6 5 5 5 5 5 5 5 5 6 5 5 5 5 5 5 5 5 6 5 5 6 5 5 5 5 5 5 5 5 5 5 5 5 5 5 5 5 5 5 5 5 5 6 5 5 5 5 5 5 5 5 5 5 6 5 6 5 5 6 5 6 5 6 5 5 6 5 6 5 5 6 5 5 5 6 5 5 5 5 5 5 5 5 5 5 5 5 5 5 5 5 5 5 5 5 5 5 5 5 5 5 5 5 5 5 5 5 5 5 5 5 5 5 5 5 5 5 5 5 5 5 5 5 5 5 5 5 5 5 5 5 5 5 5 5 5 6 5 5 6 5 5 5 5 5 5 6 6 5 5 5 5 5 5 5 5 5 5 5 5 5 5 5 5 5 5 6 5 5 5 6 5 5 5 5 5 5 5 5 5 5 5 5 5 5 5 5 6 5 5 5 5 5 5 5 6 5 5 5 5 5 5 5 5 6 5 6 5 5 5 5 5 5 5 5 5 5 5 5 5 5 5 5 6 5 5 5 5 5 5 5 6 5 5 5 5 6 5 5 5 5 5 5 5 6 5 5 6 6 5 5 6 5 5 5 5 5 5 6 5 5 5 5 5 5 5 5 5 6 5 5 6 5 5 6 5 5 6 5 5 5 5 5 6 5 5 5 5 5 5 5 5 6 5 5 5 5 5 5 5 6 5 5 5 5 5 5 5 5 5 5 5 5 6 5 5 5 5 5 5 5 6 6 5 6 5 6 5 5 5 5 5 5 5 5 5 5 5 5 5 5 5 6 5 6 5 5 5 5 5 5 5 5 6 5 6 5 6 5 6 5 6 5 5 6 5 5 5 5 5 6 5 5 5 5 5 5 5 5 6 5 5 5 5 5 6 5 5 6 5 6 6 5 5 5 5 5 5 5 5 6 5 5 5 5 5 5 5 5 5 5 5 5 5 6 5 5 5 5 5 5 5 6 5 5 5 6 5 5 5 5 5 5 5 5 5 5 5 5 5 5 5 5 5 6 5 5 5 5 5 5 5 6 5 5 6 5 5 5 5 5 5 5 5 5 5 5 5 5 5 5 6 5 5 5 5 6 5 5 5 5 5 5 5 5 5 5 5 5 5 5 5 5 5 5 5 5 5 5 5 5 5 6 5 5 5 5 5 5 6 5 5 5 5 5 5 5 5 5 6 6 5 5 5 6 5 6 5 5 5 5 5 5 5 5 5 5 5 5 5 5 5 6 5 5 5 5 5 5 5 5 5 5 5 5 6 6 5 5 5 5 5 5 5 5 6 5 5 6 5 5 6 6 5 5 5 5 5 5 5 6 5 5 5 5 5 5 5 5 5 6 5 5 5 6 5 5 5 5 5 6 5 5 5 5 5 5 5 5 5 5 5 5 6 5 5 5 6 5 5 5 6 5 5 5 5 5 5 5 5 5 5 5 5 5 5 5 5 5 5 5 5 5 5 5 5 5 5 5 5 5 5 5 5 6 5 5 5 5 5 5 5 5 5 5 5 5 5 5 5 5 5 5 5 5 5 5 5 5 6 5 6 5 5 6 5 5 5 5 5 5 5 5 5 6 5 5 5 5 5 5 5 5 5 5 5 5 5 5 6 5 5 5 5 6 5 5 5 6 5 5 5 5 5 5 5 5 5 5 5 5 5 5 5 5 5 5 5 5 5 5 5 5 5 5 5 5 5 5 5 5 5 5 5 5 5 5 5 5 5 5 5 5 5 5 5 5 5 5 5 5 5 5 5 5 5 5 5 5 5 5 5 5 5 5 5 5 5 5 5 5 5 5 5 5 5 5 5 5 5 5 5 5 5 5 5 5 5 5 5 5 5 5 5 5 5 5 5 5 5 5 5 5 5 5 5 5 5 5 5 5 5 5 5 5 5 5 5 5 5 5 5 5 5 5 5 5 5 5 5 5 5 5 5 5 5 5 5 5 5 5 5 5 5 5 5 5 5 5 5 5 5 5 5 5 5 5 5 5 5 5 5 5 5 5 5 5 5 5 5 5 5 5 5 5 5 5 5 5 5 5 5 5 5 5 5 5 5 6 5 5 5 5 5 5 5 5 5 5 5 5 5 5 5 5 6 5 5 5 5 5 5 5 5 6 5 5 5 5 6 5 5 5 5 5 5 5 5 5 5 5 5 5 5 5 5 5 5 5 5 5 5 6 5 5 5 5 5 5 5 5 5 5 5 5 5 6 6 5 5 5 5 5 6 5 6 5 5 5 5 5 5 5 5 5 5 5 6 5 5 5 5 5 5 5 6 5 5 5 5 5 5 5 5 5 5 5 5 5 5 5 6 6 5 5 5 5 5 5 5 5 5 5 5 5 6 5 5 5 5 5 5 5 5 5 5 5 5 5 5 5 5 6 5 5 5 5 5 5 5 6 5 5 5 5 5 5 5 5 5 5 6 6 5 5 5 5 5 5 5 5 5 5 5 5 5 5 5 5 5 5 5 5 5 5 5 5 5 5 5 5 5 5 6 5 5 5 5 5 6 5 5 5 5 5 5 5 5 5 5 6 5 5 5 5 6 5 5 5 5 5 5 5 5 5 5 6 5 6 5 5 5 5 5 5 5 5 5 5 5 5 5 5 5 5 5 5 5 5 5 5 5 5 5 5 5 5 5 5 5 6 5 5 5 5 5 6 5 5 5 5 5 5 5 5 5 5 5 5 5 5 5 5 5 5 6 5 5 6 5 5 5 6 5 5 5 5 5 6 5 5 5 5 5 5 5 5 5 5 6 5 5 5 5 5 5 6 5 5 5 5 5 6 6 5 5 6 5 5 6 5 5 5 5 5 5 5 5 5 5 6 5 5 6 5 5 6 5 5 6 5 5 6 5 5 6 5 5 5 5 5 5 6 5 5 5 5 5 5 5 5 5 5 5 6 5 5 5 5 5 5 5 6 5 5 5 5 6 5 5 5 6 5 5 5 5 5 5 5 5 5 5 5 6 5 5 5 5 5 5 5 5 5 5 5 5 5 5 5 5 5 5 5 5 5 5 5 5 6 5 5 5 5 5 6 5 5 5 5 5 5 5 5 5 5 5 5 5 5 6 5 5 6 5 6 5 5 5 5 6 5 6 6 5 6 5 5 5 5 5 5 5 6 5 6 5 5 5 5 5 5 6 5 5 5 5 5 5 6 5 5 5 5 6 5 5 5 5 5 6 5 5 6 5 5 5 5 6 5 5 5 5 6 5 5 5 5 5 5 6 5 5 5 5 5 5 5 5 5 6 5 5 5 5 5 5 6 5 5 5 5 6 5 5 5 5 5 5 5 5 5 5 5 5 5 5 5 5 6 5 5 5 6 5 5 6 5 5 5 5 5 5 5 5 5 5 5 5 5 5 5 5 6 5 6 5 5 5 5 5 5 5 5 5 5 5 5 5 5 5 5 5 5 5 5 5 5 5 5 5 5 6 5 5 6 5 5 5 5 5 5 5 5 5 5 6 5 5 5 5 6 5 5 5 5 6 5 5 5 5 5 5 5 5 5 6 5 5 5 5 5 5 5 5 5 5 5 5 5 5 5 5 5 5 5 5 5 5 5 5 5 5 5 5 
</DataArray>
<DataArray type="Float64" Name="stress" NumberOfComponents="9" format="ascii">
-1478186359.6069489 1532568055.767664 0 1532568055.767664 1068568.0044403076 0 0 0 0 -659436670.7169342 1788397164.8908501 0 1788397164.8908501 -425153722.5974884 0 0 0 0 -407866.53866195679 1553555770.8836002 0 1553555770.8836002 -1026254621.833374 0 0 0 0 -517416333.06443024 1168147538.14118 0 1168147538.14118 -1243040299.8074417 0 0 0 0 -475557161.4275589 1360396569.6048393 0 1360396569.6048393 -1238647643.8756609 0 0 0 0 -14894195.843538731 442446.92186272144 0 442446.92186272144 342544.08795137703 0 0 0 0 -83616272.155845642 -316042342.48875809 0 -316042342.48875809 548096545.460989 0 0 0 0 -657082386.54086304 191993924.0978508 0 191993924.0978508 271982695.29106522 0 0 0 0 -1750783471.0196915 1474184455.2978954 0 1474184455.2978954 -496498634.91124725 0 0 0 0 -1463369128.2792358 1744667184.7935953 0 1744667184.7935953 -1738846871.5301056 0 0 0 0 -586649704.51237488 572706239.87060165 0 572706239.87060165 -271434466.65839481 0 0 0 0 -2344898606.3741226 1100902698.0996628 0 1100902698.0996628 -115067896.86737442 0 0 0 0 -4460546.1665802002 17863497.051237106 0 17863497.051237106 3536.7830505371094 0 0 0 0 -2112622.9492823482 2849947.5131324343 0 2849947.5131324343 -5732585.4787648916 0 0 0 0 -16649953.68166256 18528061.720471382 0 18528061.720471382 -1686239.3031082153 0 0 0 0 -11562931.382354736 15543956.214332581 0 15543956.214332581 749.92184807313561 0 0 0 0 -13917386.931865692 11451256.864334106 0 11451256.864334106 -2419240.4237060547 0 0 0 0 -28003875.49332428 16678392.857578278 0 16678392.857578278 -3456915.530538559 0 0 0 0 -10818441.771779135 7945888.5577028096 0 7945888.5577028096 -11040127.604133576 0 0 0 0 -14371245.058280945 22198338.711898804 0 22198338.711898804 -20856663.143814087 0 0 0 0 -7025656.2024078369 11069283.492752075 0 11069283.492752075 -7182564.0343475342 0 0 0 0 559753.40873813629 9783930.8442813903 0 9783930.8442813903 -3972911.4509855956 0 0 0 0 139804705.00543213 -31098969.69291687 0 -31098969.69291687 8137450.1371765137 0 0 0 0 262904291.04476166 -17175205.939651489 0 -17175205.939651489 -109512313.65475464 0 0 0 0 116256388.20134735 30352378.62310791 0 30352378.62310791 -38140267.025352478 0 0 0 0 138045563.23313904 205802683.79018402 0 205802683.79018402 128603055.07951355 0 0 0 0 -38435792.855605528 38661458.564297266 0 38661458.564297266 -23022919.128844619 0 0 0 0 -76397063.538345337 249393239.81946564 0 249393239.81946564 119777870.77297974 0 0 0 0 7631871.3272476196 126816802.39222717 0 126816802.39222717 -14976042.332313538 0 0 0 0 145865891.09222221 94055711.558294296 0 94055711.558294296 -150487155.89881897 0 0 0 0 -248307122.71096802 78392470.900276184 0 78392470.900276184 492969353.29616547 0 0 0 0 -40531813.38728413 6394901.2383680493 0 6394901.2383680493 -393735.40080839396 0 0 0 0 -688295786.59449768 476027633.86165428 0 476027633.86165428 -344640746.18453598 0 0 0 0 -212761143.89170837 59899415.814605713 0 59899415.814605713 -43439541.196266174 0 0 0 0 -45510928.968894958 296107941.87734032 0 296107941.87734032 -155044047.6146698 0 0 0 0 -233560400.92297363 335693463.93545532 0 335693463.93545532 255606719.55714035 0 0 0 0 89519396.809036791 99020357.165388167 0 99020357.165388167 -345295295.29121399 0 0 0 0 -18645697.529060364 106614176.31138039 0 106614176.31138039 -344719061.79520416 0 0 0 0 -49075585.862518311 262820593.33436584 0 262820593.33436584 -381108063.36525536 0 0 0 0 -59971229.358276367 190820658.80914307 0 190820658.80914307 -367814881.4364624 0 0 0 0 89974558.763380706 207074646.66338238 0 207074646.66338238 -394286505.56523132 0 0 0 0 -182210559.42697144 190364218.60171509 0 190364218.60171509 -83198013.303585052 0 0 0 0 -309978375.91239929 -41423500.50856781 0 -41423500.50856781 -444907278.57302856 0 0 0 0 -433398826.3277359 299747607.64582729 0 299747607.64582729 -142125230.4095459 0 0 0 0 58642954.589416504 135829124.38852692 0 135829124.38852692 -551250509.0632782 0 0 0 0 549329.67892438918 1807912.8277190924 0 1807912.8277190924 -1858972.311327517 0 0 0 0 -445752082.70602417 395924931.01981354 0 395924931.01981354 -343722163.14472961 0 0 0 0 -95806767.41103363 -159843627.9604454 0 -159843627.9604454 -217647726.27682495 0 0 0 0 503988.42946201563 428265.20163021982 0 428265.20163021982 89775.630737423897 0 0 0 0 -411925371.42115784 310525937.82364655 0 310525937.82364655 -61470556.885986328 0 0 0 0 -60627047.927574158 175622501.44290543 0 175622501.44290543 -464089573.95419312 0 0 0 0 -227192321.05230713 373279775.84753418 0 373279775.84753418 -698154961.83744812 0 0 0 0 -49182968.989837646 258108494.1047821 0 258108494.1047821 -460850245.56972742 0 0 0 0 -78471532.861526489 22691504.01700592 0 22691504.01700592 -13142129.105285645 0 0 0 0 -993748.49753465131 4956550.7920868099 0 4956550.7920868099 -912566.82681363821 0 0 0 0 -489331.15977478027 43669053.614448547 0 43669053.614448547 -76578806.645950317 0 0 0 0 -37974391.612571716 30036629.460414886 0 30036629.460414886 -77736971.387615204 0 0 0 0 -45193582.570837498 103737551.28559947 0 103737551.28559947 -170691401.40405273 0 0 0 0 -107981014.81159592 152767788.19520283 0 152767788.19520283 -192231018.10658264 0 0 0 0 1094807.3117980957 162732810.59037018 0 162732810.59037018 -226297797.51802063 0 0 0 0 307582994.22110748 230492200.3744545 0 230492200.3744545 -63992652.817764282 0 0 0 0 57630443.493267059 174471969.12322998 0 174471969.12322998 -19448367.223754883 0 0 0 0 -34789834.935067281 39430130.891007975 0 39430130.891007975 -27377017.159517407 0 0 0 0 138670577.67022705 63927933.080253601 0 63927933.080253601 2917672.1338500977 0 0 0 0 229603467.56040955 75589613.178552628 0 75589613.178552628 -143689890.20318604 0 0 0 0 58567277.073242188 122543329.20841217 0 122543329.20841217 -100611571.93655396 0 0 0 0 -4289924.5417785645 -23144722.596324921 0 -23144722.596324921 -7033103.9064025879 0 0 0 0 677942.39674431086 577995.64741325378 0 577995.64741325378 -6325322.4369235039 0 0 0 0 63913484.526901245 -36620676.661209106 0 -36620676.661209106 -141129561.16878891 0 0 0 0 -17222224.807037354 11840249.569725037 0 11840249.569725037 -38249283.441802979 0 0 0 0 129598057.79990387 78562126.725193024 0 78562126.725193024 -20687013.751602173 0 0 0 0 154693924.41743469 59957888.615978241 0 59957888.615978241 -35412137.614589691 0 0 0 0 163917960.85853767 65358690.015208244 0 65358690.015208244 -44366923.616149902 0 0 0 0 159205786.13726807 52279573.867324829 0 52279573.867324829 -22568815.948417664 0 0 0 0 84522393.670722961 -9097828.3732051849 0 -9097828.3732051849 -21767269.805862427 0 0 0 0 133157956.18740845 65233292.703947067 0 65233292.703947067 -10913133.851913452 0 0 0 0 4344585.8669586182 44776759.136196136 0 44776759.136196136 26754946.35867691 0 0 0 0 -400588.56785431504 9864996.4353692532 0 9864996.4353692532 -10801209.588349462 0 0 0 0 7758880.8579139709 17813022.470467567 0 17813022.470467567 -1627824.3027877808 0 0 0 0 6001521.3089103699 14734759.172607422 0 14734759.172607422 -874633.64183044434 0 0 0 0 3652218.6695063114 11343789.765155628 0 11343789.765155628 -2684526.3370447559 0 0 0 0 42763586.570365906 44938059.495296478 0 44938059.495296478 -48527023.977493286 0 0 0 0 18037204.567497253 46478482.327863693 0 46478482.327863693 -3684764.4016113281 0 0 0 0 12637445.085612386 24528120.916007742 0 24528120.916007742 -1163214.8881054288 0 0 0 0 10035582.671417236 -18023941.542667389 0 -18023941.542667389 -899281.76861953735 0 0 0 0 17965731.357131958 7240001.3152351379 0 7240001.3152351379 -1094190.2064361572 0 0 0 0 -62194626.504806519 37356637.650022507 0 37356637.650022507 7634591.9961395264 0 0 0 0 7298475.7387008667 1749715.1280136108 0 1749715.1280136108 1373805.0417022705 0 0 0 0 -2601322.2085914314 7468680.370492056 0 7468680.370492056 2156597.3653081059 0 0 0 0 -31899062.508560181 5492088.8203334808 0 5492088.8203334808 25268185.543056488 0 0 0 0 -7929472.5632553101 35469195.205089569 0 35469195.205089569 -30119151.549295425 0 0 0 0 -5526462.7292633057 25136007.82831192 0 25136007.82831192 -2564885.9037628174 0 0 0 0 11169177.550384521 12037689.891555786 0 12037689.891555786 -38319166.133485794 0 0 0 0 8612576.2898483276 6419194.8805007935 0 6419194.8805007935 -15583205.73815155 0 0 0 0 -452408956.54837036 646219642.84746933 0 646219642.84746933 -826876647.71417236 0 0 0 0 -19289308.894554138 9895477.7078380585 0 9895477.7078380585 284556.1223526001 0 0 0 0 -7309856.2586475611 1114307.5025214404 0 1114307.5025214404 500639.16361281276 0 0 0 0 -498926.09373728931 1387288.6539281011 0 1387288.6539281011 -792610.22967451811 0 0 0 0 4027505.4870885462 7502629.5165476054 0 7502629.5165476054 -10922334.957224309 0 0 0 0 1005149.8655014038 11904206.74054718 0 11904206.74054718 -18956089.406517029 0 0 0 0 -8422113.6712036133 17070276.747684479 0 17070276.747684479 -15638890.343587875 0 0 0 0 4155518.9680916518 8894276.5904123783 0 8894276.5904123783 -12911927.728786856 0 0 0 0 -7667530.2484893799 18622413.27028656 0 18622413.27028656 -15168364.437446594 0 0 0 0 -17074549.676422119 27394039.144458771 0 27394039.144458771 -13497498.490959167 0 0 0 0 -12375577.08303833 -2864855.0163764954 0 -2864855.0163764954 -12449390.977722168 0 0 0 0 -10327776.107711792 26843294.340965271 0 26843294.340965271 -34491653.578338623 0 0 0 0 -18320330.344116211 24856834.509109497 0 24856834.509109497 -5540008.6146697998 0 0 0 0 -1226927.0767717063 78086.596901297569 0 78086.596901297569 -1333418.4560546577 0 0 0 0 -12099938.156051636 11862906.718681335 0 11862906.718681335 40387795.52721405 0 0 0 0 -814029.16497802734 695399363.85903358 0 695399363.85903358 -1171890224.6535721 0 0 0 0 -365764154.55763245 706721453.69928169 0 706721453.69928169 -942224209.93646622 0 0 0 0 -504907060.60762024 938692936.06495667 0 938692936.06495667 -910010437.72511911 0 0 0 0 -879410.63680071128 1056281469.9869965 0 1056281469.9869965 -1073765923.7612686 0 0 0 0 -555356033.52864838 895609460.75949287 0 895609460.75949287 -553813651.39336395 0 0 0 0 -1124816960.168045 1304594327.2359085 0 1304594327.2359085 -660580544.09235382 0 0 0 0 -1230946373.7868309 758040196.91248894 0 758040196.91248894 -153841273.14529419 0 0 0 0 -476120633.34527588 308521819.94497681 0 308521819.94497681 -156804752.40051311 0 0 0 0 -105575017.14330864 295982606.943959 0 295982606.943959 -453630633.3145752 0 0 0 0 -128279030.64300537 61908720.178581238 0 61908720.178581238 -187372480.92211914 0 0 0 0 -90290912.764892578 225866649.0149231 0 225866649.0149231 -582721791.98049927 0 0 0 0 -407647890.23397827 352098011.27962494 0 352098011.27962494 -440649773.98351288 0 0 0 0 245702.77445209026 1665984.2208761275 0 1665984.2208761275 -3454063.5445790589 0 0 0 0 -331801652.20463562 463787249.58227539 0 463787249.58227539 -626279695.85173035 0 0 0 0 -449075675.14672852 520755449.87768555 0 520755449.87768555 -653818196.89611816 0 0 0 0 -850937049.4716568 691972374.52568054 0 691972374.52568054 -445572556.60517883 0 0 0 0 13554664.823770147 4320404.2819349766 0 4320404.2819349766 3975819.3989513814 0 0 0 0 -23612136.633941174 14368174.382166386 0 14368174.382166386 338410683.12246704 0 0 0 0 20775823.635986328 53521545.428539276 0 53521545.428539276 -3342014.9869728088 0 0 0 0 30461236.756585121 40573092.774444103 0 40573092.774444103 10601720.014862061 0 0 0 0 30638500.183860779 39050372.911888123 0 39050372.911888123 2505009.4129066467 0 0 0 0 38788109.01301384 57000422.828798294 0 57000422.828798294 31407768.490585327 0 0 0 0 26031477.010917664 31059090.201236725 0 31059090.201236725 -19651412.012619019 0 0 0 0 -502516.32172412053 -2280841.8078101501 0 -2280841.8078101501 1597056.5320211947 0 0 0 0 -127374896.29307175 29428287.234527588 0 29428287.234527588 101237471.33177185 0 0 0 0 533774653.95074081 459943746.92106485 0 459943746.92106485 293239612.20397186 0 0 0 0 451657042.04139185 389030009.95252895 0 389030009.95252895 105717494.89517212 0 0 0 0 439286287.57956219 312157796.93480539 0 312157796.93480539 169395871.102005 0 0 0 0 193099957.66080475 211964977.58156586 0 211964977.58156586 333131.5052947998 0 0 0 0 -23305267.246715546 168318474.80211258 0 168318474.80211258 283450328.27132416 0 0 0 0 56298598.190168381 101084519.72661972 0 101084519.72661972 18804205.79989624 0 0 0 0 54150405.72253418 133505386.60594177 0 133505386.60594177 -37802047.559524536 0 0 0 0 39195411.229602814 111988441.62714005 0 111988441.62714005 99257855.041412354 0 0 0 0 54258760.387779236 175512032.65062332 0 175512032.65062332 24666.649017333984 0 0 0 0 120653435.13460922 253205570.01086044 0 253205570.01086044 62984778.890106201 0 0 0 0 18859731.111976624 178801003.69322205 0 178801003.69322205 13759086.157066345 0 0 0 0 -79297687.992919922 208579473.51152039 0 208579473.51152039 -126475468.80769348 0 0 0 0 18000530.154273987 99708474.168426514 0 99708474.168426514 -18108192.731193542 0 0 0 0 26772531.234970093 67041903.717330933 0 67041903.717330933 -119841034.96665192 0 0 0 0 21654966.848121643 61662124.646776199 0 61662124.646776199 -52907706.558639526 0 0 0 0 33452587.749328613 32959233.633346558 0 32959233.633346558 -34621748.209423065 0 0 0 0 18659853.949081421 83767841.820537567 0 83767841.820537567 -63817640.023757935 0 0 0 0 53521052.367832184 50043926.118741989 0 50043926.118741989 -26171329.295425415 0 0 0 0 37914475.11366272 47416174.190856934 0 47416174.190856934 -8960031.4483184814 0 0 0 0 47746312.862045288 30496053.883720398 0 30496053.883720398 -10138100.780071259 0 0 0 0 47384385.820431471 49973196.604364932 0 49973196.604364932 -15521723.542190552 0 0 0 0 19149000.500366211 32193562.875679016 0 32193562.875679016 12744845.559432983 0 0 0 0 19330567.038139343 34185858.248901367 0 34185858.248901367 26873581.921646118 0 0 0 0 44139089.649169922 6040362.8722610474 0 6040362.8722610474 -5839600.0639724731 0 0 0 0 1902457.336238578 -1477554.7557768896 0 -1477554.7557768896 -2731978.0017656386 0 0 0 0 -4885316.3984375 -51966903.161323547 0 -51966903.161323547 46957367.187216759 0 0 0 0 80615257.169250488 39002455.148260117 0 39002455.148260117 -96591505.141204834 0 0 0 0 -127714306.4067955 123533550.11868477 0 123533550.11868477 -88119506.948669434 0 0 0 0 -5840878.1558870077 10257018.217846729 0 10257018.217846729 -8868577.2318725884 0 0 0 0 -106771153.3869133 82592662.613710403 0 82592662.613710403 -64732608.310256958 0 0 0 0 -66651572.121170044 170530029.87885284 0 170530029.87885284 -137089690.34274292 0 0 0 0 -1960427.3925861046 361054.67050416768 0 361054.67050416768 1361833.4009700119 0 0 0 0 147016191.57154083 23359603.028396606 0 23359603.028396606 -213735357.08044434 0 0 0 0 -53458477.667884827 74795808.21049118 0 74795808.21049118 -200723642.48754883 0 0 0 0 -78540267.960483551 135768830.25808334 0 135768830.25808334 -156156082.46801758 0 0 0 0 65908268.556381226 100505610.96975708 0 100505610.96975708 -195923095.86816406 0 0 0 0 -2679885.4045028687 185218475.94226837 0 185218475.94226837 -147505254.91113281 0 0 0 0 11206028.98651886 170904401.36395264 0 170904401.36395264 -122242678.9630661 0 0 0 0 96475954.297555923 148829531.62035561 0 148829531.62035561 -127868883.52618408 0 0 0 0 56663477.231079102 69347209.084655762 0 69347209.084655762 -82024630.289810181 0 0 0 0 30306835.759918213 114652960.95597839 0 114652960.95597839 -143686122.67337799 0 0 0 0 -38614063.007415771 99066503.179039001 0 99066503.179039001 -86928666.265987396 0 0 0 0 73325190.426204681 182166127.77402878 0 182166127.77402878 -415931716.21549225 0 0 0 0 -1672451.6722906828 2557648.8786164969 0 2557648.8786164969 1011828.1546317562 0 0 0 0 -14966965.806007385 48118075.062599182 0 48118075.062599182 215762799.42121124 0 0 0 0 -36944618.330490112 -38457793.477294922 0 -38457793.477294922 -226405046.72555542 0 0 0 0 38911401.562545776 62121770.721481323 0 62121770.721481323 99054.520476949925 0 0 0 0 46720281.002761841 114369494.48819733 0 114369494.48819733 53067924.567214966 0 0 0 0 32410836.507125854 135872055.08415413 0 135872055.08415413 149754224.31481934 0 0 0 0 2821288.2422180176 8833903.1674118042 0 8833903.1674118042 118333710.10797882 0 0 0 0 2832302.9724111557 10175327.690895513 0 10175327.690895513 31445648.283035278 0 0 0 0 16677930.240013123 50682010.947418213 0 50682010.947418213 45978625.108818054 0 0 0 0 -4659242.3870845139 3657820.0974538028 0 3657820.0974538028 1642927.3212202638 0 0 0 0 -1964291.279838562 15622120.297462463 0 15622120.297462463 27125997.628013611 0 0 0 0 -533291.50476074219 220870036.09582138 0 220870036.09582138 -84512269.275871277 0 0 0 0 -72747323.126358032 138317004.56561279 0 138317004.56561279 -176804068.20913696 0 0 0 0 -56254971.338500977 164687559.86479187 0 164687559.86479187 -141150327.5345993 0 0 0 0 -7223436.0091953278 4297449.9352016449 0 4297449.9352016449 5135284.7550964355 0 0 0 0 1079604.1879005432 23502101.397354126 0 23502101.397354126 18062.404449462891 0 0 0 0 -9321232.6710891724 20595450.950164795 0 20595450.950164795 9156458.3951416016 0 0 0 0 -6790951.4568862915 11821791.840995789 0 11821791.840995789 -4769880.8337802887 0 0 0 0 -3591097.7066021562 1431102.0211067945 0 1431102.0211067945 1766188.0486286357 0 0 0 0 164314768.38884354 320326186.63716412 0 320326186.63716412 -343802942.56581116 0 0 0 0 -793701266.95143127 -218562530.14260864 0 -218562530.14260864 165738496.45328903 0 0 0 0 -466387174.54031372 299839985.85857391 0 299839985.85857391 -67597566.673080444 0 0 0 0 336074854.3343277 34908239.373123169 0 34908239.373123169 -586854869.68409729 0 0 0 0 246632996.91094971 255195718.44337463 0 255195718.44337463 -262537094.34161377 0 0 0 0 66972098.721572876 63132222.458740234 0 63132222.458740234 -385332785.0499115 0 0 0 0 1761692.9111633301 -9821142.0217285156 0 -9821142.0217285156 -241366404.24414062 0 0 0 0 -516169262.01719666 -71929664.744934082 0 -71929664.744934082 4149869.7236785889 0 0 0 0 89090184.828201294 -208920608.78205109 0 -208920608.78205109 -544616989.08645439 0 0 0 0 -2869726.5876946002 2960062.0340253934 0 2960062.0340253934 -3659849.8161802888 0 0 0 0 -143277248.80871582 -56896073.965591431 0 -56896073.965591431 849138.28012084961 0 0 0 0 -49806272.155929565 657660.9783706665 0 657660.9783706665 -48164678.82522583 0 0 0 0 1757417.5814971924 -43699960.388263702 0 -43699960.388263702 -46092496.606246948 0 0 0 0 -59292326.698791504 75191930.368453979 0 75191930.368453979 -32558141.862762451 0 0 0 0 -104707451.34062195 18131874.123832703 0 18131874.123832703 -23651718.140380859 0 0 0 0 -119501204.01028442 -4570853.2938613892 0 -4570853.2938613892 -52310556.688705444 0 0 0 0 -162727887.23293304 14887727.025772095 0 14887727.025772095 10780152.794281006 0 0 0 0 -105132575.91973877 94485926.845901489 0 94485926.845901489 41863295.0246315 0 0 0 0 -52608024.625179291 232284031.16687965 0 232284031.16687965 -57411627.766067505 0 0 0 0 -368332087.8878479 58116047.502105713 0 58116047.502105713 40293163.126930237 0 0 0 0 -35660117.815078735 66078566.87878418 0 66078566.87878418 18808033.118011475 0 0 0 0 -65552414.537940979 80816668.360168457 0 80816668.360168457 47389388.44152832 0 0 0 0 -71204487.392997742 51662317.528961182 0 51662317.528961182 31893109.502471924 0 0 0 0 -110993446.67482376 9618555.1118354797 0 9618555.1118354797 11497831.418518066 0 0 0 0 -139506201.42927551 43021394.134025574 0 43021394.134025574 37855269.337188721 0 0 0 0 -106315124.61729431 30541299.843467712 0 30541299.843467712 32076531.001647949 0 0 0 0 -76476029.525978088 6651419.1822624207 0 6651419.1822624207 3580865.4780273438 0 0 0 0 -81230284.555389404 57827733.431083679 0 57827733.431083679 33283794.995828629 0 0 0 0 -63298445.999629974 65409985.74048233 0 65409985.74048233 41031645.773391724 0 0 0 0 -46059670.729003906 54214587.285907745 0 54214587.285907745 21821184.783096313 0 0 0 0 -69657463.086181641 43586931.585739136 0 43586931.585739136 32588652.632369995 0 0 0 0 -71261387.79876709 43425826.02104187 0 43425826.02104187 33649957.79167366 0 0 0 0 -70938322.7631073 39978403.170188904 0 39978403.170188904 -78928.749237060547 0 0 0 0 -1692905.1034616232 3991062.8501593322 0 3991062.8501593322 4734563.7349176779 0 0 0 0 -48004737.766944885 48700775.326095581 0 48700775.326095581 31464971.662887573 0 0 0 0 -29603427.087963104 14442239.205345154 0 14442239.205345154 36804905.301849365 0 0 0 0 -20518455.875968933 94472936.964599609 0 94472936.964599609 34584785.173168182 0 0 0 0 -35881921.096472651 41359497.697011508 0 41359497.697011508 -25205147.026903808 0 0 0 0 -34829813.266265869 62324685.351509094 0 62324685.351509094 27635618.307891846 0 0 0 0 1421991.3537744582 15771872.480152413 0 15771872.480152413 -4960657.9532507882 0 0 0 0 47899547.943130493 125590658.27908325 0 125590658.27908325 101734825.75423408 0 0 0 0 -29101764.907417566 21463113.147652976 0 21463113.147652976 10189853.216427863 0 0 0 0 12653995.753295898 76145608.14478302 0 76145608.14478302 37989666.978248596 0 0 0 0 18522878.523666382 60469579.502166748 0 60469579.502166748 39356271.562599182 0 0 0 0 26351618.860540599 32056209.547135726 0 32056209.547135726 1846589.2300107172 0 0 0 0 43902053.912635803 71681473.488330841 0 71681473.488330841 16700873.895202637 0 0 0 0 -24735100.347831726 34560287.593643188 0 34560287.593643188 19226483.5807724 0 0 0 0 -22538721.609779358 38061431.810312271 0 38061431.810312271 10861791.752197266 0 0 0 0 -1193675.9239622653 21723956.05326584 0 21723956.05326584 8598739.5399037898 0 0 0 0 -7284787.5493774414 31016269.334075928 0 31016269.334075928 -11129402.264323235 0 0 0 0 -21464366.559506685 23453964.29871127 0 23453964.29871127 26266921.055889826 0 0 0 0 2751665.4334106445 32468971.293212891 0 32468971.293212891 9663508.4405822754 0 0 0 0 -3198490.5300008953 35956154.623693496 0 35956154.623693496 20512003.593484733 0 0 0 0 -2045570.9093017578 26061963.182891846 0 26061963.182891846 -5193762.1335449219 0 0 0 0 -15732596.445003718 24247675.073447667 0 24247675.073447667 16079378.676112086 0 0 0 0 -23847829.350986093 26016955.108844206 0 26016955.108844206 1719266.7144262753 0 0 0 0 -2235554.8319206238 35303946.486721039 0 35303946.486721039 4446648.8458328247 0 0 0 0 -5564158.3081851304 18765829.300091103 0 18765829.300091103 6178054.0751516009 0 0 0 0 -1965557.1314506531 39431500.350416183 0 39431500.350416183 7055066.1080322266 0 0 0 0 -15779462.56729126 29348627.706707001 0 29348627.706707001 15565317.792089224 0 0 0 0 -13650323.826180488 26746400.964846291 0 26746400.964846291 7297660.0888212249 0 0 0 0 -13815629.305469513 38839431.895910263 0 38839431.895910263 8126137.2874069214 0 0 0 0 -781511.57598415017 23996593.666118473 0 23996593.666118473 5084042.7958718762 0 0 0 0 -16015882.618240356 33551696.280319214 0 33551696.280319214 -4232838.4972381592 0 0 0 0 -6460734.1620483398 25904191.596321106 0 25904191.596321106 5445604.2699539661 0 0 0 0 -7544437.5501766205 40927018.344419479 0 40927018.344419479 -7064721.6403427124 0 0 0 0 -5372668.1293352097 27512651.46537903 0 27512651.46537903 4915654.3335141242 0 0 0 0 -1894227.0984973907 32118265.648389816 0 32118265.648389816 11790148.484008789 0 0 0 0 -7317981.3553749919 18515513.747264244 0 18515513.747264244 4005966.2338285744 0 0 0 0 5701152.6544082463 24125316.514039278 0 24125316.514039278 -975129.15445050318 0 0 0 0 7361160.6071586609 33696832.559772491 0 33696832.559772491 11564617.831626892 0 0 0 0 5437618.9359130859 31268826.736526489 0 31268826.736526489 9616830.7085380554 0 0 0 0 6433647.8154848218 18745724.372044593 0 18745724.372044593 782882.42096142471 0 0 0 0 6069411.4319095612 33063942.701978683 0 33063942.701978683 10156860.237258911 0 0 0 0 -8074814.9019165039 19708228.952926636 0 19708228.952926636 12019212.690673828 0 0 0 0 -2814644.6186447144 25565731.295284271 0 25565731.295284271 11846664.526254177 0 0 0 0 -6993565.6570899785 15973752.273928352 0 15973752.273928352 7209515.5591329336 0 0 0 0 -1746505.3133773804 29841663.389316559 0 29841663.389316559 11618615.30292511 0 0 0 0 -2312966.2015285194 16681144.532800049 0 16681144.532800049 19911095.931164205 0 0 0 0 227570.37007111311 10086779.124222323 0 10086779.124222323 7382645.7244381905 0 0 0 0 8330811.710282743 16488353.960521009 0 16488353.960521009 -775732.46985813975 0 0 0 0 -1081710.9541015625 11855353.503387451 0 11855353.503387451 6915619.8106002808 0 0 0 0 -4661976.5236485898 14630834.679213598 0 14630834.679213598 17409590.962540314 0 0 0 0 30074010.723739624 10897982.245483398 0 10897982.245483398 4710697.2284698486 0 0 0 0 5524097.3567457199 20078943.168669701 0 20078943.168669701 2679240.2151565552 0 0 0 0 -141615.71299552917 16741573.987455368 0 16741573.987455368 3117539.6166305542 0 0 0 0 3666705.3996988386 2231592.2672541365 0 2231592.2672541365 586504.29232084751 0 0 0 0 -420830.83581542969 14129990.371383667 0 14129990.371383667 2869883.8612670898 0 0 0 0 -44188.819918103516 13557551.094618812 0 13557551.094618812 1222862.0034177005 0 0 0 0 2258155.3811926693 11903938.041795567 0 11903938.041795567 -8491897.7525934577 0 0 0 0 4217469.1284490228 5221151.5621319674 0 5221151.5621319674 1105966.1684655845 0 0 0 0 -3049456.1203460693 62674295.157501221 0 62674295.157501221 59781352.930430889 0 0 0 0 13051309.899684906 11537296.269855499 0 11537296.269855499 25626380.623626709 0 0 0 0 9305868.4110946059 21110395.697367072 0 21110395.697367072 -10045911.486665726 0 0 0 0 13811976.994737595 20676717.564755127 0 20676717.564755127 8845254.3850448579 0 0 0 0 38913540.812744141 45633751.324653625 0 45633751.324653625 16472941.111099243 0 0 0 0 17267856.4243927 25720133.421287537 0 25720133.421287537 6261365.4084701538 0 0 0 0 23982727.536010742 31169343.103488922 0 31169343.103488922 10607825.316452026 0 0 0 0 755.98147583007812 34545216.287475586 0 34545216.287475586 20474788.370948792 0 0 0 0 35709916.7163371 29388310.470753282 0 29388310.470753282 10095500.311807215 0 0 0 0 20328965.194469452 44169811.594165802 0 44169811.594165802 16373619.982147217 0 0 0 0 8880776.670715699 7746255.9942579716 0 7746255.9942579716 -1414713.9608810246 0 0 0 0 63381992.070621967 44124722.994096756 0 44124722.994096756 -14108762.243476868 0 0 0 0 21952750.494686127 45859257.887458801 0 45859257.887458801 11607229.126373291 0 0 0 0 8551614.8572114948 19999732.238093659 0 19999732.238093659 12036407.893474817 0 0 0 0 16617242.70027256 40396144.127232552 0 40396144.127232552 6186157.775390625 0 0 0 0 34056087.898345947 40181754.869392395 0 40181754.869392395 14170493.194274902 0 0 0 0 17693767.298873901 26800759.694862366 0 26800759.694862366 7867691.0216751099 0 0 0 0 13984235.490292758 12128336.435378924 0 12128336.435378924 -7596891.0679328293 0 0 0 0 14737443.464988708 33096115.118274689 0 33096115.118274689 9522353.1449279785 0 0 0 0 -2798525.0530366376 16506790.324966125 0 16506790.324966125 10389147.443119943 0 0 0 0 2326444.3274959922 17375252.387816355 0 17375252.387816355 -3342915.6946977377 0 0 0 0 391718.91985888779 18143562.757602293 0 18143562.757602293 11693935.815659136 0 0 0 0 14362504.450775146 24271731.691642761 0 24271731.691642761 14264093.135131836 0 0 0 0 5159218.8929290771 30318733.206474304 0 30318733.206474304 3892381.357421875 0 0 0 0 26310798.992202759 34676185.129119873 0 34676185.129119873 10673770.918513298 0 0 0 0 12366457.931265861 30607762.24355197 0 30607762.24355197 4568164.1016620444 0 0 0 0 12545122.830566406 31420941.031806946 0 31420941.031806946 6883200.4935913086 0 0 0 0 9687753.2433334142 26080048.50813419 0 26080048.50813419 5826267.0544120371 0 0 0 0 -5182017.4649085328 30271676.364488289 0 30271676.364488289 21224525.663958579 0 0 0 0 1435909.4083035588 30488122.087738939 0 30488122.087738939 -2422413.887075325 0 0 0 0 444224.26534128189 24980698.727279961 0 24980698.727279961 12485422.556016505 0 0 0 0 3863048.9347381592 48786523.270652771 0 48786523.270652771 -7248449.5976791382 0 0 0 0 2035707.0841827393 49653895.212966919 0 49653895.212966919 -1119750.8964614868 0 0 0 0 -713632.47282409668 41329773.879928589 0 41329773.879928589 -14036417.911590576 0 0 0 0 9278745.3388865665 20398659.73562859 0 20398659.73562859 -13886301.892655969 0 0 0 0 8880264.5528142154 2671929.6903241687 0 2671929.6903241687 507170.22221201658 0 0 0 0 12514954.179351807 27803102.403274536 0 27803102.403274536 22268288.862365723 0 0 0 0 14229010.503860474 25991952.108509064 0 25991952.108509064 1719171.869934082 0 0 0 0 23028212.299368083 31144566.057715114 0 31144566.057715114 -14772933.149707019 0 0 0 0 -5787667.1024563462 29067697.858360708 0 29067697.858360708 16228159.166048855 0 0 0 0 21411843.84503831 41756667.270685405 0 41756667.270685405 -15085175.492532715 0 0 0 0 6315594.2704467773 38992871.636940002 0 38992871.636940002 -3469165.2389678955 0 0 0 0 10125903.315813147 23833118.644498885 0 23833118.644498885 -3817533.6411692323 0 0 0 0 -14347606.088260651 40560061.499519348 0 40560061.499519348 3081842.1583786011 0 0 0 0 12404254.877746582 33412484.554775238 0 33412484.554775238 -2701355.1086273193 0 0 0 0 21433719.584831238 34375547.536460876 0 34375547.536460876 -24860886.821014404 0 0 0 0 69908518.125019073 39858797.383423805 0 39858797.383423805 -37668571.074462891 0 0 0 0 14581899.926947385 3437595.3676080033 0 3437595.3676080033 -120878.91363543272 0 0 0 0 -3801650.3019142151 57976878.463981628 0 57976878.463981628 10597304.037338257 0 0 0 0 2247232.2081451416 61144409.454574585 0 61144409.454574585 -9612398.8281288147 0 0 0 0 -358887.31992340088 61700453.412788391 0 61700453.412788391 5689504.0163116455 0 0 0 0 -28467167.814025879 63189879.527534485 0 63189879.527534485 12246455.026321411 0 0 0 0 -10143111.656455994 50355170.07170105 0 50355170.07170105 -7302708.7989349365 0 0 0 0 6513655.5281448364 54768160.11730957 0 54768160.11730957 17666870.706123352 0 0 0 0 -8436501.5232257843 68018296.476337433 0 68018296.476337433 9872963.1294555664 0 0 0 0 16263928.28576231 31649031.620034203 0 31649031.620034203 720624.68039086834 0 0 0 0 -20344407.905792236 37718695.162246704 0 37718695.162246704 -6822021.8804016113 0 0 0 0 709630.43737220764 49319020.240825653 0 49319020.240825653 12859615.628814697 0 0 0 0 9954696.8923339844 55282562.298484802 0 55282562.298484802 16244504.51663208 0 0 0 0 40985837.921401978 31645668.632522583 0 31645668.632522583 22413444.659301758 0 0 0 0 -40312272.872528076 53796143.140579224 0 53796143.140579224 8078764.2685241699 0 0 0 0 62555575.765304565 -8512069.5282287598 0 -8512069.5282287598 -53481191.217788696 0 0 0 0 21013174.213162571 30208586.331602529 0 30208586.331602529 -14021944.458505511 0 0 0 0 7939286.2207447439 2198008.8712402582 0 2198008.8712402582 -6117603.6174507737 0 0 0 0 26515775.497238159 48839206.01815033 0 48839206.01815033 -10680720.850845337 0 0 0 0 40600470.080740929 63590561.010906219 0 63590561.010906219 -10116180.47467041 0 0 0 0 27449520.685912371 30240803.78007102 0 30240803.78007102 -31489921.466842651 0 0 0 0 19944546.712084062 37314117.938374937 0 37314117.938374937 1211938.638035153 0 0 0 0 29456452.928958893 52696861.873664856 0 52696861.873664856 30122572.649933815 0 0 0 0 30265123.855911255 59241310.983909607 0 59241310.983909607 11836223.819778442 0 0 0 0 78714652.790752411 21739160.191123962 0 21739160.191123962 -19432632.355316162 0 0 0 0 6915133.1671628412 4973978.7992284074 0 4973978.7992284074 1656509.5880676806 0 0 0 0 -34801021.115768433 51775979.437606812 0 51775979.437606812 9314056.1409759521 0 0 0 0 22090324.707546286 36917809.401816875 0 36917809.401816875 9718479.4900886193 0 0 0 0 -16889011.556286335 60297830.442649841 0 60297830.442649841 61025806.457717896 0 0 0 0 -21413646.418834105 3877418.3157248348 0 3877418.3157248348 3951657.0233100276 0 0 0 0 29455386.854168598 31648299.640125193 0 31648299.640125193 -772835.71238783002 0 0 0 0 -60429436.745397568 97523973.218990326 0 97523973.218990326 127355178.04042435 0 0 0 0 -34465146.18665123 126231259.35563278 0 126231259.35563278 83012223.931819916 0 0 0 0 -14888409.726528645 55451380.958538055 0 55451380.958538055 -90868977.281143188 0 0 0 0 -94207578.527046204 41187349.693908691 0 41187349.693908691 63448330.873558044 0 0 0 0 -496147.67542235553 5835441.0198242813 0 5835441.0198242813 2072650.3303749505 0 0 0 0 41091159.842065811 148290303.27550125 0 148290303.27550125 -262340163.03567505 0 0 0 0 66450942.813536644 20398411.594970703 0 20398411.594970703 38328663.978610992 0 0 0 0 23368208.643063352 42287192.57215894 0 42287192.57215894 13316059.372584403 0 0 0 0 56375917.573823929 46570828.659513474 0 46570828.659513474 9522305.9701843262 0 0 0 0 32186519.789619446 46830780.908493042 0 46830780.908493042 9550363.446680069 0 0 0 0 17900557.539206028 53226741.058685303 0 53226741.058685303 10453087.726074219 0 0 0 0 -219410164.26274371 37166873.757987976 0 37166873.757987976 130929992.35891724 0 0 0 0 8757858.2389628459 7662347.2491935212 0 7662347.2491935212 815843.98541679978 0 0 0 0 -135513745.09764671 115167802.24824524 0 115167802.24824524 25589792.765045166 0 0 0 0 -5972391.9989807587 -396493.17802529037 0 -396493.17802529037 1753971.079022795 0 0 0 0 29136201.757930756 49086982.988079071 0 49086982.988079071 10988872.867378235 0 0 0 0 27876737.53925705 42125448.24646759 0 42125448.24646759 -330523.73600769043 0 0 0 0 19152504.999249458 51672758.880563736 0 51672758.880563736 10319362.247802734 0 0 0 0 33553816.112113953 41125102.433244705 0 41125102.433244705 -7657762.768081665 0 0 0 0 42380344.549659729 48576574.171237946 0 48576574.171237946 -21832155.32724762 0 0 0 0 18196625.027949039 38920187.504077397 0 38920187.504077397 -8608289.8292219639 0 0 0 0 31855245.893009439 31503010.12398085 0 31503010.12398085 7426207.2924103215 0 0 0 0 40115028.043899536 52517898.031139374 0 52517898.031139374 -7364274.0555496216 0 0 0 0 6431278.5090141296 86525815.543590546 0 86525815.543590546 4347925.1089477539 0 0 0 0 -901854381.70250893 -107898901.72964859 0 -107898901.72964859 287386671.94371796 0 0 0 0 -392123848.12838936 11280625.508525848 0 11280625.508525848 167067125.92544174 0 0 0 0 -676278441.95111465 39628875.06678009 0 39628875.06678009 195035688.18490601 0 0 0 0 -336063063.94921398 -53795375.110198975 0 -53795375.110198975 47978544.75415802 0 0 0 0 -838478596.01217461 199860094.90303612 0 199860094.90303612 172142432.09474945 0 0 0 0 22221841.885082245 11991852.43239212 0 11991852.43239212 21611150.133281708 0 0 0 0 -2611574.1128222179 3338111.4062095229 0 3338111.4062095229 847627.61395318806 0 0 0 0 -321634906.35704422 213387127.97576141 0 213387127.97576141 373705610.80580139 0 0 0 0 22119676.540345885 23869211.7590345 0 23869211.7590345 -11202577.984809875 0 0 0 0 114470087.60914993 21213556.053514481 0 21213556.053514481 -92357129.390354156 0 0 0 0 1440076.4429971725 5284421.3433823474 0 5284421.3433823474 -69917.833468869328 0 0 0 0 119006285.2496748 14631279.544329643 0 14631279.544329643 -83626574.378528595 0 0 0 0 10748102.207424164 2005131.8839244843 0 2005131.8839244843 66081412.31350708 0 0 0 0 -10776366.125224087 20408243.625456244 0 20408243.625456244 14457360.04099156 0 0 0 0 94397124.277336121 5510744.2088165283 0 5510744.2088165283 -50510787.710458755 0 0 0 0 -1433296.7602881975 3611387.6323117316 0 3611387.6323117316 2018458.7408218272 0 0 0 0 -450604745.11047745 -127794169.38405609 0 -127794169.38405609 -172178589.5028038 0 0 0 0 -737054220.33727646 -251957290.51760864 0 -251957290.51760864 84846503.541015625 0 0 0 0 -691548004.6899147 -87134268.186459541 0 -87134268.186459541 227317342.07117462 0 0 0 0 -334697467.45970917 77504164.148204803 0 77504164.148204803 36840105.584545135 0 0 0 0 -313729406.02857399 21870160.084616661 0 21870160.084616661 184406745.54878235 0 0 0 0 -304214673.7131443 165159592.76808167 0 165159592.76808167 -17717620.454229355 0 0 0 0 -190515483.74174309 305500317.18383789 0 305500317.18383789 158813247.48564148 0 0 0 0 -304384073.84415817 155723235.07249069 0 155723235.07249069 28707319.417266846 0 0 0 0 -126091289.36331367 178383790.86076927 0 178383790.86076927 -248181200.5983429 0 0 0 0 -148037274.6986599 269624901.94318199 0 269624901.94318199 -133963275.94425964 0 0 0 0 -240077214.0811615 220786906.73230743 0 220786906.73230743 42783728.849279404 0 0 0 0 6673757.1226912178 21325407.642009765 0 21325407.642009765 10089174.104714572 0 0 0 0 326800.75104904175 30435205.850402832 0 30435205.850402832 -517562.95243668556 0 0 0 0 20136794.172778685 29308998.527745273 0 29308998.527745273 -6450485.9656763375 0 0 0 0 32623044.92158699 -14974092.515426636 0 -14974092.515426636 -33347585.208877563 0 0 0 0 -2222513.0409265012 23528464.455758132 0 23528464.455758132 3713255.6269107461 0 0 0 0 -269352239.52296519 132007905.78351116 0 132007905.78351116 -77536137.289268494 0 0 0 0 -331366348.36179447 133062612.56140137 0 133062612.56140137 7278708.4516906738 0 0 0 0 51030259.650372505 48150548.755598068 0 48150548.755598068 8113601.1405181885 0 0 0 0 1134344.9705010531 8233709.9212863306 0 8233709.9212863306 -402781.40055193007 0 0 0 0 88199137.047462463 18713480.616226196 0 18713480.616226196 8226973.321269989 0 0 0 0 -7809592.2116606496 591428.4086683616 0 591428.4086683616 1838729.755672574 0 0 0 0 12702994.796880722 30635324.502906799 0 30635324.502906799 2189471.7885532379 0 0 0 0 2991614.5050919615 10476423.136709146 0 10476423.136709146 -3652918.7282390445 0 0 0 0 2429647.41015625 27014978.762496948 0 27014978.762496948 4678309.3487632275 0 0 0 0 57201615.098342896 46097909.290269852 0 46097909.290269852 -12069673.407119751 0 0 0 0 48182513.014240265 22992480.880657196 0 22992480.880657196 17483122.241544604 0 0 0 0 5223177.1859741211 45427737.498825073 0 45427737.498825073 -4006079.2899581194 0 0 0 0 29001185.666656494 41265124.914405823 0 41265124.914405823 -9149515.1594314575 0 0 0 0 -18514427.493743896 35088139.402069092 0 35088139.402069092 8978922.3613357544 0 0 0 0 4889986.1971780378 27365085.914552033 0 27365085.914552033 829873.58737044036 0 0 0 0 2532870.5850524902 15838756.083169937 0 15838756.083169937 2692526.6438369751 0 0 0 0 -893209.3156548366 21174278.646092091 0 21174278.646092091 -1722694.2947090566 0 0 0 0 37402870.892288208 60998083.784492493 0 60998083.784492493 19404522.428665161 0 0 0 0 -1783901.6661167145 78087905.394319296 0 78087905.394319296 38107246.739746094 0 0 0 0 23896384.872089386 37799199.763771057 0 37799199.763771057 3324021.3341684341 0 0 0 0 -3910560.3315398116 23313044.381229982 0 23313044.381229982 6379670.9438549429 0 0 0 0 54527107.323013306 55608274.525314331 0 55608274.525314331 20272059.59079361 0 0 0 0 54615139.672317505 58932242.94550705 0 58932242.94550705 22432709.376426697 0 0 0 0 64482678.727035522 46134326.086393356 0 46134326.086393356 39025550.509048462 0 0 0 0 3186121.772502536 35086954.788728967 0 35086954.788728967 21297148.356584117 0 0 0 0 18706271.453659058 32434388.70230484 0 32434388.70230484 10784027.774780273 0 0 0 0 17214391.498105798 28123718.378989808 0 28123718.378989808 1769756.1463273466 0 0 0 0 34449711.527062692 21090927.820026956 0 21090927.820026956 3326832.4414142296 0 0 0 0 83505784.06186676 47170352.057296753 0 47170352.057296753 -27382784.107282639 0 0 0 0 -28379565.130649567 21785201.651090622 0 21785201.651090622 44924398.812591553 0 0 0 0 -33563987.131534576 -12144801.540929794 0 -12144801.540929794 32131295.504058838 0 0 0 0 86442077.811473846 29358004.365245819 0 29358004.365245819 1319610.5144882202 0 0 0 0 -6327868.8574923202 23300542.077740312 0 23300542.077740312 4406035.3994860798 0 0 0 0 62731974.249757767 36207239.042892456 0 36207239.042892456 2210925.0001535416 0 0 0 0 82278246.71591568 50791268.5039711 0 50791268.5039711 44447389.965003967 0 0 0 0 94523609.978672504 -837118.30723190308 0 -837118.30723190308 -18032209.719657898 0 0 0 0 -19055199.36227417 43093102.782957077 0 43093102.782957077 -8890590.388469696 0 0 0 0 19783787.410898611 58020913.374762431 0 58020913.374762431 3374201.6866092235 0 0 0 0 29518961.338631898 49985666.335432485 0 49985666.335432485 9250626.3039518408 0 0 0 0 31960891.594070435 49933602.272689819 0 49933602.272689819 11984549.218475342 0 0 0 0 52711428.380756378 64561389.580505371 0 64561389.580505371 17389457.212013245 0 0 0 0 12387386.21973598 41349928.423294514 0 41349928.423294514 16383891.843978815 0 0 0 0 31548439.945854187 52417818.476776123 0 52417818.476776123 19198415.632659912 0 0 0 0 21158727.083444946 38478499.78614457 0 38478499.78614457 10223716.1105268 0 0 0 0 -6803984.9549102783 57374304.041561127 0 57374304.041561127 6802788.9036712646 0 0 0 0 1896818.7731844485 33071822.833600886 0 33071822.833600886 9163726.7260248326 0 0 0 0 4649166.9800336957 41405862.535104394 0 41405862.535104394 14221033.958123649 0 0 0 0 -14523907.783519745 64668660.122394562 0 64668660.122394562 12689253.989559174 0 0 0 0 -13847670.649620056 63429994.180151939 0 63429994.180151939 14925952.428367615 0 0 0 0 57921611.083387375 67628409.085453987 0 67628409.085453987 18657969.445587158 0 0 0 0 6021453.9644513279 5779795.1154062245 0 5779795.1154062245 4987150.9019092619 0 0 0 0 -27183172.313270569 30752770.455070496 0 30752770.455070496 44166913.488601685 0 0 0 0 49011973.110641479 72161442.408128262 0 72161442.408128262 16430436.58114624 0 0 0 0 41840843.078399658 72614848.306268692 0 72614848.306268692 16402038.934822083 0 0 0 0 -12074684.185211182 51857675.027259827 0 51857675.027259827 14533820.913673401 0 0 0 0 -15927500.850086451 25483900.390773453 0 25483900.390773453 -7395268.1033187211 0 0 0 0 -3266671.9872245789 57360149.462690353 0 57360149.462690353 13622392.625839233 0 0 0 0 -14125422.552619934 57791273.825206757 0 57791273.825206757 15616851.381885529 0 0 0 0 -17459907.917861938 54821965.170352936 0 54821965.170352936 18525494.046174169 0 0 0 0 -16507815.446317673 51761201.026145458 0 51761201.026145458 22567266.787605286 0 0 0 0 -13797889.984649658 57000510.786323547 0 57000510.786323547 5876145.5525894165 0 0 0 0 -46291658.247055054 65268716.043251038 0 65268716.043251038 19577709.833589554 0 0 0 0 -17009395.732646942 56035784.636610031 0 56035784.636610031 13859844.74779892 0 0 0 0 -20866363.26386261 53037492.56741333 0 53037492.56741333 11579069.253997803 0 0 0 0 -15489396.751747131 73269604.63640976 0 73269604.63640976 15667656.512390137 0 0 0 0 12094610.247299194 51251249.948738098 0 51251249.948738098 15085624.291252136 0 0 0 0 -1777149.82472229 54727567.023616791 0 54727567.023616791 17727278.485206604 0 0 0 0 1975039.2827069461 7312482.488716282 0 7312482.488716282 8722094.3618766516 0 0 0 0 24491250.786575317 68741909.150512695 0 68741909.150512695 10864122.258237839 0 0 0 0 4264882.7418823242 31596223.560302734 0 31596223.560302734 1014456.7265210152 0 0 0 0 25561215.369888306 53349008.947776794 0 53349008.947776794 7434041.7465057373 0 0 0 0 -30405271.726984024 9663967.8613348007 0 9663967.8613348007 52165939.466163635 0 0 0 0 748960.18719241023 27953256.176183134 0 27953256.176183134 5763364.2418845594 0 0 0 0 -3320750.4241943359 32497572.933319092 0 32497572.933319092 -10639974.551193237 0 0 0 0 -3767026.9932250977 51697940.742462158 0 51697940.742462158 -2791658.4666748047 0 0 0 0 -52291534.924981117 24394681.470711708 0 24394681.470711708 43654316.442817688 0 0 0 0 22678381.090989605 41838220.714793094 0 41838220.714793094 9701259.5630457103 0 0 0 0 55190372.72869873 54357872.102584839 0 54357872.102584839 6281743.4378356934 0 0 0 0 -14575988.112810418 28902334.028644115 0 28902334.028644115 11339321.600895196 0 0 0 0 36800215.845538259 61722729.221807972 0 61722729.221807972 -30153755.867220134 0 0 0 0 4252813.1555352062 9282410.1790189445 0 9282410.1790189445 -4558616.532127887 0 0 0 0 18479737.413803101 40414004.105068207 0 40414004.105068207 -2853595.8642024994 0 0 0 0 16684431.129119873 47894349.91409874 0 47894349.91409874 21302209.584697723 0 0 0 0 17862199.648551941 39409769.480620861 0 39409769.480620861 15499455.451370239 0 0 0 0 14785169.958417565 30222684.12015608 0 30222684.12015608 16765516.661110252 0 0 0 0 -22271144.909769014 20939099.81941025 0 20939099.81941025 9145924.3198053092 0 0 0 0 15724749.449287415 55716010.822394371 0 55716010.822394371 16300503.756229401 0 0 0 0 -27907949.730874807 31077373.499628082 0 31077373.499628082 -2575921.9046643972 0 0 0 0 16861491.956260681 61797223.533126831 0 61797223.533126831 -5414780.7897872925 0 0 0 0 -20303664.623222351 55509201.486618042 0 55509201.486618042 19714705.706503868 0 0 0 0 -12689906.336238623 10013182.439507708 0 10013182.439507708 5747648.9090421088 0 0 0 0 -25406602.095291138 66855825.812133789 0 66855825.812133789 -154691.43283462524 0 0 0 0 -15559104.42741394 19371226.305538177 0 19371226.305538177 76841110.558223724 0 0 0 0 -48786021.512527466 44791158.586082458 0 44791158.586082458 62597183.536131859 0 0 0 0 -60560835.707672119 32092893.133345604 0 32092893.133345604 69405074.312477112 0 0 0 0 -47539940.474081039 33012299.945759192 0 33012299.945759192 33337239.546160728 0 0 0 0 -52083021.929431915 57790453.559776306 0 57790453.559776306 55131309.812828064 0 0 0 0 -57283744.33341217 52827432.673573017 0 52827432.673573017 102522555.1459465 0 0 0 0 -97958377.562692642 93040968.718114376 0 93040968.718114376 43688545.094898224 0 0 0 0 -71329200.53386116 -4654658.1019940376 0 -4654658.1019940376 17238382.371749878 0 0 0 0 -188530342.66062927 -30679791.358505249 0 -30679791.358505249 -11320580.312278748 0 0 0 0 -65543420.682510376 45668223.902557373 0 45668223.902557373 12550437.181609631 0 0 0 0 -162793914.88433838 55873702.468162537 0 55873702.468162537 22726076.669456482 0 0 0 0 -72731710.771999359 145646306.70876694 0 145646306.70876694 -25325941.705802917 0 0 0 0 -56713068.997062683 63926743.835546494 0 63926743.835546494 63902281.012739182 0 0 0 0 -154641.81407165527 98109012.942699432 0 98109012.942699432 87453797.979148865 0 0 0 0 -26977892.49811554 101859831.67599106 0 101859831.67599106 23766728.740885258 0 0 0 0 -42997495.347223327 42758168.374322519 0 42758168.374322519 17993913.12483643 0 0 0 0 30562828.287512243 45984664.543353394 0 45984664.543353394 25523506.976440437 0 0 0 0 -10363154.831161499 80678521.574281693 0 80678521.574281693 19131704.724961758 0 0 0 0 32267899.607154846 77525638.369310379 0 77525638.369310379 -3307373.3267745972 0 0 0 0 11763880.427707359 20687698.726055019 0 20687698.726055019 -18200740.554032236 0 0 0 0 58298299.844684601 94564927.722183228 0 94564927.722183228 1489928.6143603325 0 0 0 0 31149382.102555752 86413596.401040077 0 86413596.401040077 29099802.789077759 0 0 0 0 210434770.71824646 62434465.762748718 0 62434465.762748718 -7356298.5030975342 0 0 0 0 -20949974.278887615 4221331.3186689168 0 4221331.3186689168 4884316.1173781753 0 0 0 0 33138556.407949924 80238090.069522858 0 80238090.069522858 5643882.1459197998 0 0 0 0 29029844.010480404 108119645.0298264 0 108119645.0298264 46084958.359203339 0 0 0 0 18645409.159236908 51710354.791259766 0 51710354.791259766 2829623.2684898376 0 0 0 0 31510744.460071564 81580422.239706039 0 81580422.239706039 45032401.276877403 0 0 0 0 1470809.6208953857 62314493.093510151 0 62314493.093510151 40113327.791713715 0 0 0 0 -6435971.7917528152 30227320.997425556 0 30227320.997425556 485134.90615081787 0 0 0 0 6612112.2273263792 54903622.151214451 0 54903622.151214451 18002892.197003052 0 0 0 0 -46053053.231666565 57675969.185779572 0 57675969.185779572 11691138.32583046 0 0 0 0 104544196.72231865 59028656.3058424 0 59028656.3058424 26069603.395702362 0 0 0 0 97465660.251168251 53690156.564355373 0 53690156.564355373 24137096.807693481 0 0 0 0 25510611.911957249 8140863.9683919996 0 8140863.9683919996 -18827965.2998918 0 0 0 0 96869575.144956589 64938740.866539001 0 64938740.866539001 31064103.380050659 0 0 0 0 73719149.97442627 56866348.941608429 0 56866348.941608429 19821896.405467987 0 0 0 0 211914464.93030548 85780554.638389587 0 85780554.638389587 -20750417.717514038 0 0 0 0 -13111469.677456595 19056735.990257353 0 19056735.990257353 8488945.1536597311 0 0 0 0 182698466.43583012 -9130719.9720716476 0 -9130719.9720716476 -51743545.669845581 0 0 0 0 90839039.560569763 64975485.943977356 0 64975485.943977356 30044950.861694336 0 0 0 0 85978041.446327209 67431449.111633301 0 67431449.111633301 32601170.907913208 0 0 0 0 83539226.594390869 61845602.841625214 0 61845602.841625214 28718649.488506317 0 0 0 0 79428784.963356018 66648072.133560181 0 66648072.133560181 32964914.986383438 0 0 0 0 77998800.665206909 59797891.105096817 0 59797891.105096817 26190119.043651581 0 0 0 0 81808300.84803009 62712803.377666473 0 62712803.377666473 28344508.752845764 0 0 0 0 72888347.276031494 63148736.251489639 0 63148736.251489639 31136930.109786987 0 0 0 0 72827978.688591003 59073298.847141266 0 59073298.847141266 29199551.29045105 0 0 0 0 71914258.147258759 47936984.995718002 0 47936984.995718002 25263658.638600349 0 0 0 0 72731851.016084433 48297579.060981274 0 48297579.060981274 23077351.267780304 0 0 0 0 11446760.697055431 52170458.110693417 0 52170458.110693417 25087772.883540899 0 0 0 0 84499218.265873909 50172476.145997047 0 50172476.145997047 23185667.00976944 0 0 0 0 -80491252.857841492 31770479.339616776 0 31770479.339616776 114731630.93630981 0 0 0 0 61243000.500434875 48327314.125463486 0 48327314.125463486 28935219.946691513 0 0 0 0 -2081777.4959030151 54771015.1676808 0 54771015.1676808 30164327.098597914 0 0 0 0 55906998.409862518 70849928.064460754 0 70849928.064460754 5093106.1037607193 0 0 0 0 59301029.90193367 44208874.149398804 0 44208874.149398804 -23257217.140075684 0 0 0 0 64180504.28827858 92201659.74133873 0 92201659.74133873 -64000332.860761642 0 0 0 0 58901338.507955551 62592599.615270615 0 62592599.615270615 15367698.674945831 0 0 0 0 62551785.084551334 53706474.5512743 0 53706474.5512743 26557052.209770203 0 0 0 0 42439101.477415085 52811370.239326477 0 52811370.239326477 22040794.175039291 0 0 0 0 55133817.319395542 75342093.819629192 0 75342093.819629192 34950525.511699677 0 0 0 0 -4770608.9905910827 3341244.5490831491 0 3341244.5490831491 -3257659.5919840857 0 0 0 0 71817177.49933672 58439488.747484684 0 58439488.747484684 -187396507.80689049 0 0 0 0 -615036422.9223938 -128118523.60505486 0 -128118523.60505486 79317519.696168423 0 0 0 0 -251514438.7658205 -33654669.708532333 0 -33654669.708532333 50791571.170902252 0 0 0 0 -193985858.9916687 -46316229.947813034 0 -46316229.947813034 -24971086.444416046 0 0 0 0 74039314.462985039 74201108.64275521 0 74201108.64275521 31054586.354740143 0 0 0 0 -8126749.6321329698 12044544.810842643 0 12044544.810842643 -8151744.4663849249 0 0 0 0 -119768390.68885183 120066902.43377399 0 120066902.43377399 -18993769.563980103 0 0 0 0 -124584478.3251133 119559630.43290329 0 119559630.43290329 50885080.229980469 0 0 0 0 -341086685.24624634 105963308.23922729 0 105963308.23922729 38577582.741638184 0 0 0 0 -151482893.10780334 83671153.980812073 0 83671153.980812073 -4371676.3420410156 0 0 0 0 -92470429.025283813 82526531.70539093 0 82526531.70539093 -11057874.351596832 0 0 0 0 -285066871.92169571 198678921.69684219 0 198678921.69684219 -56784416.825965881 0 0 0 0 79748781.686515808 -13939677.289146423 0 -13939677.289146423 26020958.754084587 0 0 0 0 -78330231.354314804 53970513.90369606 0 53970513.90369606 3725281.6895141602 0 0 0 0 94829894.399866104 40209716.694202423 0 40209716.694202423 10435536.689178467 0 0 0 0 46170323.359256744 -24042159.032691956 0 -24042159.032691956 -14959252.618708611 0 0 0 0 17919385.353779793 51489516.861354828 0 51489516.861354828 -71397167.89239502 0 0 0 0 -96613322.828990936 110677962.0370903 0 110677962.0370903 -65590202.061927795 0 0 0 0 -484300687.69813538 176509182.92244339 0 176509182.92244339 -58964760.555519104 0 0 0 0 -303194033.9556694 -14127888.692850113 0 -14127888.692850113 -33933485.156145096 0 0 0 0 -321934982.82567525 195997371.91667461 0 195997371.91667461 -98215819.647697449 0 0 0 0 -432276963.49970627 162642193.97828674 0 162642193.97828674 63853324.457000732 0 0 0 0 -387080851.16267276 -153915625.32868838 0 -153915625.32868838 -266416564.89061737 0 0 0 0 -29952007.752601624 7344909.8339824677 0 7344909.8339824677 -12205800.093105316 0 0 0 0 -21229941.020362854 107103245.42691231 0 107103245.42691231 -105747761.598526 0 0 0 0 3522827.692712009 5315767.3394743949 0 5315767.3394743949 4126495.4556005672 0 0 0 0 -22476071.548630714 33748204.484833241 0 33748204.484833241 -21169711.739871979 0 0 0 0 59909363.3250103 -57011268.921635628 0 -57011268.921635628 274258245.09140015 0 0 0 0 28387567.737365723 12042477.84440136 0 12042477.84440136 269797682.44367218 0 0 0 0 -371308906.04969788 64807480.99917984 0 64807480.99917984 443855889.88212585 0 0 0 0 3026316.7788637877 3830728.0689339936 0 3830728.0689339936 3059252.6129115745 0 0 0 0 -117874418.72175217 -97502098.077827454 0 -97502098.077827454 532465928.02886963 0 0 0 0 61556841.031219482 -172103675.6533432 0 -172103675.6533432 2485924.5282363892 0 0 0 0 2224792.6243672967 511494.65705807507 0 511494.65705807507 846149.21778488159 0 0 0 0 -107280.7511138916 44702060.925550461 0 44702060.925550461 -31586334.279285431 0 0 0 0 68386886.010215759 27243019.447935104 0 27243019.447935104 -221268771.92186737 0 0 0 0 -679959.30882167816 22357618.460400105 0 22357618.460400105 -7720757.0790939331 0 0 0 0 8944240.967048645 -10662754.121669769 0 -10662754.121669769 -22297095.651885986 0 0 0 0 83976617.44556427 39603293.075296402 0 39603293.075296402 2313642.0446166992 0 0 0 0 6771389.4303302765 72171322.254840851 0 72171322.254840851 91976206.809646606 0 0 0 0 -111865291.68652344 133870848.40933609 0 133870848.40933609 192528746.88825989 0 0 0 0 1154413.7387036532 1664804.9520179331 0 1664804.9520179331 1440763.7855270803 0 0 0 0 12898068.200668335 19589302.666927338 0 19589302.666927338 2141012.6663475037 0 0 0 0 17662122.522033691 45720781.256877899 0 45720781.256877899 4237720.0827941895 0 0 0 0 14523.53279876709 45244578.562753677 0 45244578.562753677 24743240.600257874 0 0 0 0 25414.308265553071 33178847.723212529 0 33178847.723212529 -3565104.0030212402 0 0 0 0 2007792.5148010254 36410716.571964264 0 36410716.571964264 1647412.2864608765 0 0 0 0 -21561100.065597534 24610636.747348785 0 24610636.747348785 8220272.5420532227 0 0 0 0 -12855238.191383362 8332456.3834953308 0 8332456.3834953308 1308888.595489502 0 0 0 0 -982464.78698348999 40948267.618049622 0 40948267.618049622 -554298.36735534668 0 0 0 0 -208690.36581197381 1466317.2162542343 0 1466317.2162542343 -947321.43125686282 0 0 0 0 -6514171.1351261139 5082924.932390213 0 5082924.932390213 6605088.6913986206 0 0 0 0 -854008.34607537836 5081495.8541551977 0 5081495.8541551977 4666553.4320643246 0 0 0 0 -26468493.062000275 19776860.797279358 0 19776860.797279358 8150949.4558181763 0 0 0 0 -20773511.585391998 10293631.929300308 0 10293631.929300308 14643219.845024109 0 0 0 0 -10681871.980012923 9326414.8118555993 0 9326414.8118555993 207214.48043789575 0 0 0 0 -6866976.427192688 17306904.164928436 0 17306904.164928436 -3383216.2210273743 0 0 0 0 -8201931.138885498 15521338.835689545 0 15521338.835689545 998446.48815453053 0 0 0 0 -5764876.2721633911 14593614.955625534 0 14593614.955625534 -3088028.0425605774 0 0 0 0 -7384619.6174865663 9619997.772807613 0 9619997.772807613 512035.96334145404 0 0 0 0 -6197232.2100448608 16777293.88337326 0 16777293.88337326 -5260290.090555191 0 0 0 0 11703545.416912079 -23499854.774753571 0 -23499854.774753571 121118034.13960266 0 0 0 0 4013705.2428618371 6652459.581701085 0 6652459.581701085 3720615.468315728 0 0 0 0 -7442908.412727356 14880647.587657928 0 14880647.587657928 -4696135.3345565796 0 0 0 0 -436370.52763748169 20984297.513947487 0 20984297.513947487 11418610.158607483 0 0 0 0 -6959417.8288574219 27441944.761821747 0 27441944.761821747 22073594.804954171 0 0 0 0 -1014530.1882845908 14521656.929518357 0 14521656.929518357 6950197.9700372815 0 0 0 0 -3591346.8081054688 17863561.066972733 0 17863561.066972733 9399039.757616818 0 0 0 0 -3191891.7304184847 10209420.343662769 0 10209420.343662769 1116905.4860756397 0 0 0 0 -31027754.582672119 24970442.365013123 0 24970442.365013123 56961960.020069122 0 0 0 0 -33126641.847816467 -34630746.919901848 0 -34630746.919901848 177402869.24021912 0 0 0 0 -739616.96401695907 4454218.1762056649 0 4454218.1762056649 1363365.0826402903 0 0 0 0 -18717021.254219055 30688991.602315903 0 30688991.602315903 40153734.052459717 0 0 0 0 -9848667.6281675398 7761372.2708221227 0 7761372.2708221227 8525216.8528884649 0 0 0 0 -35056780.084197998 19069584.312847137 0 19069584.312847137 60631381.546123505 0 0 0 0 -28980858.029190063 45329914.866708755 0 45329914.866708755 30839754.958770752 0 0 0 0 -35157102.903396606 59473378.279594421 0 59473378.279594421 625085.45902252197 0 0 0 0 -45800690.343185425 39070581.976215363 0 39070581.976215363 70204100.248687744 0 0 0 0 3356345.5926895142 -10507238.950516701 0 -10507238.950516701 53453626.603492737 0 0 0 0 -35957026.102966309 30522082.518720627 0 30522082.518720627 44650375.072387695 0 0 0 0 -63115721.331451416 78596779.325481415 0 78596779.325481415 178832.33860778809 0 0 0 0 -20230509.345184326 48903180.680099487 0 48903180.680099487 62476118.055778503 0 0 0 0 -70390704.241699219 10627181.693578482 0 10627181.693578482 83981374.07635498 0 0 0 0 -32222662.613357544 77751206.222724915 0 77751206.222724915 -9307357.6988868713 0 0 0 0 -11175661.052597046 82110319.964260101 0 82110319.964260101 -288615938.79891205 0 0 0 0 -18063509.059257507 80535003.711454391 0 80535003.711454391 -111209279.75085831 0 0 0 0 -25473809.552930266 31043432.657185812 0 31043432.657185812 5658402.65965271 0 0 0 0 39036967.350318909 -41434645.991226196 0 -41434645.991226196 82903135.326084137 0 0 0 0 59627661.057022095 12400932.00138092 0 12400932.00138092 200273285.97307014 0 0 0 0 -42142021.363388062 -32978194.57932663 0 -32978194.57932663 120127579.23076057 0 0 0 0 -122383583.77139282 87906395.786432266 0 87906395.786432266 227700445.4244175 0 0 0 0 -85110451.419967651 157589251.84375381 0 157589251.84375381 -50107216.687217712 0 0 0 0 203280715.22863007 62650846.083761215 0 62650846.083761215 -13341570.586204529 0 0 0 0 -25068762.26949501 94142741.054690838 0 94142741.054690838 192929538.07835388 0 0 0 0 -39188423.469350815 180198598.61866355 0 180198598.61866355 150865458.02510452 0 0 0 0 112484201.42140198 178076526.68583488 0 178076526.68583488 127636322.96720886 0 0 0 0 -2879688.3491357118 3173679.3134387285 0 3173679.3134387285 3120734.4016499966 0 0 0 0 27683828.241062164 274081344.1519804 0 274081344.1519804 243959824.38427734 0 0 0 0 -3983443.8921192586 -2720787.0746915489 0 -2720787.0746915489 -979225.80934794992 0 0 0 0 -20691450.596885681 25826481.056884766 0 25826481.056884766 149311917.82943821 0 0 0 0 -1547963.5030023158 -217266.30618433654 0 -217266.30618433654 -24350.571526877582 0 0 0 0 -28037856.587371826 7937774.3040008545 0 7937774.3040008545 318167161.06058216 0 0 0 0 2775385.4204406738 13526975.520564079 0 13526975.520564079 138063550.14437866 0 0 0 0 22288417.015350342 54028905.205032349 0 54028905.205032349 127368186.81952667 0 0 0 0 4993810.0756530762 82745816.321968079 0 82745816.321968079 115243784.80044556 0 0 0 0 578891.32821655273 53169751.869779587 0 53169751.869779587 47859864.186199188 0 0 0 0 1245742.0332722664 63478246.966214418 0 63478246.966214418 86435363.488861084 0 0 0 0 -28907221.136871338 45486422.015678406 0 45486422.015678406 46962416.3562603 0 0 0 0 26685797.886962891 103720620.81932449 0 103720620.81932449 93475607.761459351 0 0 0 0 34939173.699226379 98165413.805212021 0 98165413.805212021 695783.27016448975 0 0 0 0 244386281.49656677 45618165.164438248 0 45618165.164438248 -36603031.793178558 0 0 0 0 122484898.79644012 326269635.70276642 0 326269635.70276642 55989375.231208801 0 0 0 0 97313524.24559021 83605619.64176178 0 83605619.64176178 -14130592.34677887 0 0 0 0 78447719.966794968 -10412152.68768549 0 -10412152.68768549 -32113332.928390503 0 0 0 0 -15444901.289932251 -30178193.793006897 0 -30178193.793006897 -224976.06689453125 0 0 0 0 36747697.98317337 102370262.00863266 0 102370262.00863266 59658006.580551147 0 0 0 0 -1765784.6601520181 2238738.7538045049 0 2238738.7538045049 1999606.5146744996 0 0 0 0 -218258540.46873474 113428977.69435692 0 113428977.69435692 83090491.082794189 0 0 0 0 496565818.97309875 461946769.16860676 0 461946769.16860676 244436555.7186203 0 0 0 0 -24601850.430458069 323135484.31699181 0 323135484.31699181 301114697.4893074 0 0 0 0 -8076030.3779144287 312877690.97675133 0 312877690.97675133 305657009.06613541 0 0 0 0 -6651317.3595962524 278878456.87671661 0 278878456.87671661 245097562.76970291 0 0 0 0 10161082.328105927 222033971.08136559 0 222033971.08136559 113156612.55660629 0 0 0 0 -66770397.872932434 214115230.40324211 0 214115230.40324211 277055167.56185341 0 0 0 0 -99764436.88432312 -20238651.642538071 0 -20238651.642538071 234392715.28495789 0 0 0 0 -43415210.600875854 105715294.41601944 0 105715294.41601944 417706412.27654457 0 0 0 0 -1790916.6367489696 1759612.4130316377 0 1759612.4130316377 2007189.7146573663 0 0 0 0 305706233.28154755 322461139.94337082 0 322461139.94337082 277232101.03161925 0 0 0 0 -416454553.65852356 -96862366.028926849 0 -96862366.028926849 337313642.17977905 0 0 0 0 -258806013.94093323 -88961175.740829468 0 -88961175.740829468 211839241.53425026 0 0 0 0 -28899633.890914917 -12713838.139356613 0 -12713838.139356613 1064908910.0809288 0 0 0 0 46177827.572681427 52179124.987854004 0 52179124.987854004 367948871.9771347 0 0 0 0 -52977160.389904022 271073725.4775548 0 271073725.4775548 496523317.69757843 0 0 0 0 22296353.218170166 208531408.49993134 0 208531408.49993134 424270395.65916824 0 0 0 0 345197.97731781006 276130878.0888958 0 276130878.0888958 521285626.46382141 0 0 0 0 -91443.366508483887 293243456.74689674 0 293243456.74689674 304910404.53437805 0 0 0 0 41686619.250106812 291067308.47323227 0 291067308.47323227 320006541.08055115 0 0 0 0 -50552834.588867188 279647035.46844482 0 279647035.46844482 321957886.15999603 0 0 0 0 25289612.89591217 264926335.2950449 0 264926335.2950449 220085366.74393463 0 0 0 0 -6582.6183776855469 277085555.50982475 0 277085555.50982475 62354782.47562027 0 0 0 0 -53058156.633911133 235472230.49640656 0 235472230.49640656 221254339.00590372 0 0 0 0 -20549660.966690063 274642792.47010374 0 274642792.47010374 109895261.21624756 0 0 0 0 -88996007.092750549 224556188.06407356 0 224556188.06407356 94472540.998187065 0 0 0 0 -50827971.429191589 149512082.9412384 0 149512082.9412384 5955960.578127861 0 0 0 0 53683169.890663147 333780636.88133621 0 333780636.88133621 194434516.99138641 0 0 0 0 -75705772.491783142 252131016.49586868 0 252131016.49586868 286672676.58375835 0 0 0 0 -28275457.049297333 225501845.89770699 0 225501845.89770699 -108206281.6382122 0 0 0 0 -151343205.0434494 246686316.12788677 0 246686316.12788677 220380966.6035881 0 0 0 0 -144445782.14690924 352324955.20234132 0 352324955.20234132 -220129855.47858429 0 0 0 0 -114195721.74553967 129869573.19887471 0 129869573.19887471 -159630244.79466248 0 0 0 0 -73990007.623649597 297022513.309515 0 297022513.309515 -340947932.20237923 0 0 0 0 -28933.364463806152 252992097.13909817 0 252992097.13909817 -169894536.59206009 0 0 0 0 -30270159.101322174 166630726.53048611 0 166630726.53048611 -340694591.58160019 0 0 0 0 -42441036.037391663 184879059.15813255 0 184879059.15813255 -212527817.65234661 0 0 0 0 8788.4450759887695 219025594.34728718 0 219025594.34728718 -361783970.20516396 0 0 0 0 -27551325.291595459 124825764.98211098 0 124825764.98211098 -498514042.85809708 0 0 0 0 1316535.2459060252 3349853.545396667 0 3349853.545396667 5130714.6556425169 0 0 0 0 653.02734375 13089530.173675537 0 13089530.173675537 8546414.6040458679 0 0 0 0 -3652700.0069122314 37089363.332233429 0 37089363.332233429 184027133.87558746 0 0 0 0 -1453713.2222567797 824087.92106062174 0 824087.92106062174 1535502.7642843872 0 0 0 0 -35469889.939361572 56445857.094018936 0 56445857.094018936 15567267.670993507 0 0 0 0 -21376011.204742432 44607388.551210403 0 44607388.551210403 15140740.624312937 0 0 0 0 -3854766.2428178787 40700976.839583993 0 40700976.839583993 119496554.1447525 0 0 0 0 -20647263.806892425 2768133.5160375834 0 2768133.5160375834 9702139.2369794324 0 0 0 0 19819970.434565127 13037531.634553984 0 13037531.634553984 6517986.8742099255 0 0 0 0 -1177103.8211097717 193397866.43700218 0 193397866.43700218 -349178924.47266769 0 0 0 0 19886272.214432299 11922970.752415359 0 11922970.752415359 6132027.5124512762 0 0 0 0 -118055792.54790497 122701405.82339287 0 122701405.82339287 -66442805.248438835 0 0 0 0 -160313074.63780022 62882931.281531811 0 62882931.281531811 90002291.43277359 0 0 0 0 -128592700.69283295 32934037.322864532 0 32934037.322864532 53643597.188556671 0 0 0 0 -19109545.61151123 21578738.697172165 0 21578738.697172165 31928246.941195488 0 0 0 0 -42665804.293708801 34993623.034378767 0 34993623.034378767 32673514.577037811 0 0 0 0 -21865257.684982359 998544.92577468604 0 998544.92577468604 8945029.065401908 0 0 0 0 13242631.228027344 95995883.721122742 0 95995883.721122742 72989849.65289402 0 0 0 0 -100429206.01449203 -7349178.4143102169 0 -7349178.4143102169 49032641.160963058 0 0 0 0 -104057165.46920776 -55219732.55664444 0 -55219732.55664444 -14401660.430405617 0 0 0 0 -98936320.418775558 -15323316.403101921 0 -15323316.403101921 89494485.461957932 0 0 0 0 -110186649.33569336 -137844520.67536163 0 -137844520.67536163 -27811371.716754436 0 0 0 0 -19778774.861660451 632156.50152102858 0 632156.50152102858 8347729.0030254014 0 0 0 0 -41885293.470352173 -5313542.28723526 0 -5313542.28723526 51831756.41623497 0 0 0 0 46182431.443611145 102349164.35274982 0 102349164.35274982 -17102527.513141632 0 0 0 0 59189936.577659607 -4205910.8605165482 0 -4205910.8605165482 -137326332.60726643 0 0 0 0 38331984.492843628 129706946.17321587 0 129706946.17321587 132717238.01629925 0 0 0 0 -63922.708593642681 90655431.300148457 0 90655431.300148457 97318728.018249512 0 0 0 0 2438873.6231994629 68507409.845264435 0 68507409.845264435 152650701.96722412 0 0 0 0 1632484.7781734467 74654550.432725906 0 74654550.432725906 106454922.78270149 0 0 0 0 6012591.3191452026 32419312.303928375 0 32419312.303928375 75663191.493738174 0 0 0 0 82269536.112533569 -101869263.94070816 0 -101869263.94070816 338253640.15925026 0 0 0 0 302740619.40904045 -81898609.711289406 0 -81898609.711289406 48667898.865615845 0 0 0 0 79597038.893707275 -44025971.208778381 0 -44025971.208778381 88949301.164440155 0 0 0 0 234925080.83464241 158779444.92304432 0 158779444.92304432 146835736.59236336 0 0 0 0 573218389.7208252 -25572819.139572144 0 -25572819.139572144 240372749.35779858 0 0 0 0 36422404.37436676 29078197.041975498 0 29078197.041975498 106573691.40146446 0 0 0 0 188446121.95217133 -34747123.557150841 0 -34747123.557150841 -136796239.24219704 0 0 0 0 77691947.943008423 -29739383.752439499 0 -29739383.752439499 36778433.067634583 0 0 0 0 30147540.631584167 -130172963.39770603 0 -130172963.39770603 88589101.527359009 0 0 0 0 119402299.77623749 -89773192.603627205 0 -89773192.603627205 -88259595.966411591 0 0 0 0 36420397.121765137 -55617969.129112244 0 -55617969.129112244 -100372924.80200672 0 0 0 0 -11662223.345672607 -116691691.04333687 0 -116691691.04333687 -62613917.72592847 0 0 0 0 6454960.1754760742 -108509097.22370243 0 -108509097.22370243 -140093340.98615646 0 0 0 0 -49985021.2943573 -69425875.802480698 0 -69425875.802480698 -80765093.911815643 0 0 0 0 -24235084.418365479 -125246862.83504868 0 -125246862.83504868 -88008805.889911175 0 0 0 0 -16784665.014541626 -134807080.17616367 0 -134807080.17616367 29087300.731758118 0 0 0 0 28980054.675491333 -84698420.012739182 0 -84698420.012739182 -62850152.436314836 0 0 0 0 -135098659.67059326 -57217575.587952614 0 -57217575.587952614 -59474231.679176331 0 0 0 0 -85014167.797737122 -124562576.42022371 0 -124562576.42022371 21106818.359607697 0 0 0 0 -112571065.90563965 -45140144.970630646 0 -45140144.970630646 159698372.86919022 0 0 0 0 -47297368.95892334 -97578796.23182869 0 -97578796.23182869 16242871.339114904 0 0 0 0 6037145.8732795715 -122640295.20794964 0 -122640295.20794964 169973854.24757004 0 0 0 0 -44779232.185424805 -50931566.215171814 0 -50931566.215171814 77291365.478111267 0 0 0 0 -19242136.976104736 40099542.060347557 0 40099542.060347557 266080229.13098526 0 0 0 0 -43252602.331899643 -36508387.361089945 0 -36508387.361089945 130974475.10763359 0 0 0 0 -132666987.67386627 6582339.629611969 0 6582339.629611969 221111198.94531059 0 0 0 0 -89663166.255340576 55738632.44987011 0 55738632.44987011 -46298170.289649963 0 0 0 0 -57648836.710769653 152722834.67618752 0 152722834.67618752 129866412.25407887 0 0 0 0 10500372.502296448 36589067.672317505 0 36589067.672317505 168900959.86130142 0 0 0 0 342869119.69075012 164157723.00650883 0 164157723.00650883 371908043.56584167 0 0 0 0 285665863.1756134 243649653.39097214 0 243649653.39097214 296763301.08983994 0 0 0 0 593802768.44866943 461801523.66688919 0 461801523.66688919 201144962.30772591 0 0 0 0 56280530.585540771 -40515441.61046505 0 -40515441.61046505 335098081.76480293 0 0 0 0 269538372.30516052 80804456.069519043 0 80804456.069519043 284745290.0768981 0 0 0 0 476227790.57792282 477358878.31518984 0 477358878.31518984 1393859255.1195793 0 0 0 0 572117346.67041016 324353263.76912308 0 324353263.76912308 420942942.00983429 0 0 0 0 204179832.47192001 182272810.65498257 0 182272810.65498257 722520084.21263123 0 0 0 0 1061035676.0053864 816012547.61841965 0 816012547.61841965 385560373.55710602 0 0 0 0 470339807.85307312 410661111.83515549 0 410661111.83515549 571654652.21836472 0 0 0 0 1032959124.6308899 374950130.74600601 0 374950130.74600601 272158363.13380051 0 0 0 0 1112695754.7501793 630763150.81039715 0 630763150.81039715 -129325779.83912659 0 0 0 0 3220535.24310112 3448068.6554267555 0 3448068.6554267555 331264.56583182514 0 0 0 0 52142049.622177124 221569129.18341637 0 221569129.18341637 445139416.83546448 0 0 0 0 944969986.60725403 255894411.2366457 0 255894411.2366457 -144100156.51953125 0 0 0 0 552434560.98214531 98179708.705588579 0 98179708.705588579 -194956757.94749451 0 0 0 0 679598160.53852844 447267792.78911591 0 447267792.78911591 -35642163.205459595 0 0 0 0 790601968.72732925 613508134.87062263 0 613508134.87062263 120497910.26913452 0 0 0 0 622995243.56994629 345298337.21028137 0 345298337.21028137 395931344.05675507 0 0 0 0 388367233.6339798 302410120.34261513 0 302410120.34261513 77478122.593027115 0 0 0 0 678348058.99935627 465605792.75152653 0 465605792.75152653 -179919364.83162689 0 0 0 0 632939901.12225342 642523306.92106724 0 642523306.92106724 144696490.87779617 0 0 0 0 806532452.30393982 598797643.95658493 0 598797643.95658493 -117545180.89434528 0 0 0 0 443213498.35954285 364532696.30810738 0 364532696.30810738 -37928591.195541382 0 0 0 0 126761091.18596649 163298930.37826157 0 163298930.37826157 17347604.215431213 0 0 0 0 -30025071.914871216 123509812.01528931 0 123509812.01528931 -47674416.347076416 0 0 0 0 435020652.51734924 399854216.83673668 0 399854216.83673668 -127192802.31484985 0 0 0 0 642643327.71316528 512225288.41140366 0 512225288.41140366 -112241944.50373077 0 0 0 0 16123657.132582426 10459011.158779562 0 10459011.158779562 5418031.9592757002 0 0 0 0 -194598702.72634125 349963046.27859306 0 349963046.27859306 -156060657.42381239 0 0 0 0 -80464454.209686279 7252105.3061485291 0 7252105.3061485291 -95149596.446863174 0 0 0 0 394556625.13734436 296599466.79174423 0 296599466.79174423 56492701.939748764 0 0 0 0 708032598.57175446 275527187.48013306 0 275527187.48013306 -416050817.59169769 0 0 0 0 7943871.7987155914 4007438.2493997365 0 4007438.2493997365 1324228.9849297628 0 0 0 0 -12852255.761787415 166527898.95163536 0 166527898.95163536 -123299734.30396652 0 0 0 0 -227263874.50737762 308933512.74610424 0 308933512.74610424 535627690.65915298 0 0 0 0 346307484.77076721 603639594.81942844 0 603639594.81942844 344934894.79711914 0 0 0 0 -65533518.198722839 426793331.02745914 0 426793331.02745914 323575579.06643677 0 0 0 0 191352874.46735382 156218558.11695862 0 156218558.11695862 30949076.748886108 0 0 0 0 7917018.7549285889 238541924.97816467 0 238541924.97816467 46670049.587436676 0 0 0 0 -160163805.79632568 114058980.43880081 0 114058980.43880081 101491800.13793564 0 0 0 0 504624034.30818558 2211365.398583889 0 2211365.398583889 109502769.27230072 0 0 0 0 321737859.34323883 473574889.62792301 0 473574889.62792301 409445830.72526169 0 0 0 0 174419913.37998962 98846884.706867218 0 98846884.706867218 398832228.03232396 0 0 0 0 677307999.80020905 359008476.99211502 0 359008476.99211502 25334991.63835907 0 0 0 0 195172010.05688477 143953375.40896225 0 143953375.40896225 70083333.536437988 0 0 0 0 160746942.97927094 -11802890.290865898 0 -11802890.290865898 -32648870.935020447 0 0 0 0 -31682109.514068604 80192847.093456268 0 80192847.093456268 129958372.77850342 0 0 0 0 44816495.374862671 67103145.407844543 0 67103145.407844543 -35077300.802070618 0 0 0 0 -121885249.29693604 105978630.38003922 0 105978630.38003922 -127284718.95727921 0 0 0 0 -58762397.411804199 -8142448.6640148163 0 -8142448.6640148163 3062371.6195144653 0 0 0 0 -169211800.10952759 118213415.38248301 0 118213415.38248301 -152138016.47675323 0 0 0 0 -534032562.98617554 227097447.25027466 0 227097447.25027466 -112605912.17584991 0 0 0 0 -256070983.59457397 142545631.06891632 0 142545631.06891632 -172080574.76165771 0 0 0 0 -579330642.24157715 24764729.133533478 0 24764729.133533478 -76262240.24055481 0 0 0 0 -239498075.91730881 32017831.729148865 0 32017831.729148865 -89028899.156585693 0 0 0 0 -318634782.23031616 170329526.48635101 0 170329526.48635101 -50643277.270526886 0 0 0 0 -302251786.12609863 68603832.504153728 0 68603832.504153728 -151366788.00283813 0 0 0 0 -71105808.051437378 169574608.92994308 0 169574608.92994308 -72401536.640144348 0 0 0 0 -379508483.50628662 76192210.844003677 0 76192210.844003677 99059653.411979675 0 0 0 0 -216464143.7258606 209783221.15101242 0 209783221.15101242 69196497.392894745 0 0 0 0 5111306.8614128008 9476040.4820598513 0 9476040.4820598513 -146458.34174379706 0 0 0 0 -138977947.37722778 86570042.151435852 0 86570042.151435852 -52951888.198753357 0 0 0 0 -399490944.91362762 186623170.13502121 0 186623170.13502121 37372561.861127853 0 0 0 0 -6936506.4255277216 10886975.784914628 0 10886975.784914628 -1442506.9764249623 0 0 0 0 5335226.9208374023 10951635.780693054 0 10951635.780693054 -3672633.58385849 0 0 0 0 -3203059.8190411031 19327522.851903487 0 19327522.851903487 -14603071.613243863 0 0 0 0 592875.17929512262 9896598.5764438957 0 9896598.5764438957 1343925.9205770791 0 0 0 0 21596167.41326502 3187569.6657016426 0 3187569.6657016426 -2408302.5883110911 0 0 0 0 34346988.792033821 27683852.630310431 0 27683852.630310431 6280339.5551511645 0 0 0 0 64774911.526977539 5926194.6218910217 0 5926194.6218910217 -3008719.4105834961 0 0 0 0 52794652.123733521 34316228.75326395 0 34316228.75326395 -54943786.82724762 0 0 0 0 4205414.5537042543 2732981.4565915167 0 2732981.4565915167 -1654576.9198944867 0 0 0 0 -774294973.14416504 179081261.83872604 0 179081261.83872604 -1974666.0337524414 0 0 0 0 -16011915.977287292 61425254.687875748 0 61425254.687875748 2655085.2705802917 0 0 0 0 -10068253.162101746 46728272.957681656 0 46728272.957681656 20960102.41919136 0 0 0 0 57564082.394508362 59037377.143211365 0 59037377.143211365 15305264.39214325 0 0 0 0 15572921.069107056 63860635.128321648 0 63860635.128321648 29630021.906433105 0 0 0 0 13852131.053718567 57755497.659304619 0 57755497.659304619 16961332.176330566 0 0 0 0 33844558.423446655 49877398.296697617 0 49877398.296697617 26729063.446815491 0 0 0 0 13833962.311607361 37412771.1410923 0 37412771.1410923 1760211.2400741577 0 0 0 0 30730750.258285522 72521847.714069366 0 72521847.714069366 36482447.493713379 0 0 0 0 13445591.357551575 47262039.286102295 0 47262039.286102295 11428959.453269958 0 0 0 0 10107120.318099976 49439289.193695068 0 49439289.193695068 24678100.737686157 0 0 0 0 9634760.8538665771 38436066.200632095 0 38436066.200632095 6177179.8472900391 0 0 0 0 2223226.3629608154 43050164.584690094 0 43050164.584690094 38955884.380165577 0 0 0 0 -5511781.6006469727 34569013.322452545 0 34569013.322452545 -8253564.2367134094 0 0 0 0 21535586.030151367 55883020.288082123 0 55883020.288082123 40427696.083396912 0 0 0 0 -10317072.661727905 36019658.473045349 0 36019658.473045349 22898547.128185272 0 0 0 0 -5882216.3959655762 36766187.610588074 0 36766187.610588074 4953094.8360519409 0 0 0 0 -14106114.911561906 20975558.332689289 0 20975558.332689289 -6881509.2337549701 0 0 0 0 -14121237.854476929 20126744.285572052 0 20126744.285572052 -1262857.4623947144 0 0 0 0 21400591.831054688 57184377.198062897 0 57184377.198062897 34350976.679176331 0 0 0 0 -22927.668673843145 26736991.079141594 0 26736991.079141594 -9103747.2704198379 0 0 0 0 -9446361.2300720215 78854706.57460022 0 78854706.57460022 38236648.731072664 0 0 0 0 2531299.4389746785 25062766.503183931 0 25062766.503183931 -2829468.3104183841 0 0 0 0 -26038309.137611389 25846112.504062653 0 25846112.504062653 10410202.747559071 0 0 0 0 9279436.7212524414 46884542.752443314 0 46884542.752443314 -11263240.368774414 0 0 0 0 -18463848.175643921 39156942.020195007 0 39156942.020195007 8288323.1638774872 0 0 0 0 -79079060.029907227 115009058.0973053 0 115009058.0973053 -53346709.43649292 0 0 0 0 -38712204.043561131 16014566.573721074 0 16014566.573721074 4816064.6030143052 0 0 0 0 -28912432.164077759 27283691.524576187 0 27283691.524576187 19328950.694953918 0 0 0 0 -15238572.171756834 11122230.881866351 0 11122230.881866351 33488.423639401793 0 0 0 0 -34897212.125396729 27327725.593559265 0 27327725.593559265 6414642.4413528442 0 0 0 0 170979272.9269104 -108168389.2831955 0 -108168389.2831955 124836313.83140564 0 0 0 0 -4840579.8673667908 21308743.609608173 0 21308743.609608173 -3574098.2905158997 0 0 0 0 -12895497.118515015 -5849922.1822776794 0 -5849922.1822776794 -29558366.39522934 0 0 0 0 -5910284.7593176961 2267855.9949294329 0 2267855.9949294329 1815772.4963290468 0 0 0 0 25787461.942901611 33661949.176521301 0 33661949.176521301 -31176084.467908859 0 0 0 0 -9233011.4357757568 20216698.609174728 0 20216698.609174728 28273956.170970917 0 0 0 0 795197.64949035645 18763746.626747131 0 18763746.626747131 -3221556.2371408939 0 0 0 0 2395366.2646441907 11675929.103889748 0 11675929.103889748 -1627154.0958402455 0 0 0 0 -4372559.1746673584 17883128.520459175 0 17883128.520459175 -1493442.2942466736 0 0 0 0 -3541939.0158462524 17077865.973913193 0 17077865.973913193 -3273825.751373291 0 0 0 0 -3398353.2855682373 17155304.14723587 0 17155304.14723587 -6395835.1605377197 0 0 0 0 -15073935.77331543 15399665.743370056 0 15399665.743370056 -1119494.7584381104 0 0 0 0 -2172990.7809448242 11723665.579723358 0 11723665.579723358 -3924511.1534852982 0 0 0 0 -6788124.2373623848 12098328.435297139 0 12098328.435297139 6024172.1959499633 0 0 0 0 -110988737.53479004 272631664.18806076 0 272631664.18806076 -160289676.94203949 0 0 0 0 1263302.4787103236 8082796.5662366003 0 8082796.5662366003 3498695.9871422499 0 0 0 0 -289975129.54244995 245078455.77093506 0 245078455.77093506 -50279680.941226959 0 0 0 0 -133676746.16065216 62345985.612131119 0 62345985.612131119 -77013433.146385193 0 0 0 0 8558474.5916588604 10022365.31216839 0 10022365.31216839 -7781127.3104988784 0 0 0 0 6394609.1892530322 10852703.354426771 0 10852703.354426771 -1905310.4412972033 0 0 0 0 -118510.1092300415 19909364.848479271 0 19909364.848479271 -10068845.961326599 0 0 0 0 -495098.05864983797 11039631.86080727 0 11039631.86080727 -607550.48015613481 0 0 0 0 -2738114.5660705566 14638746.480026245 0 14638746.480026245 1000887.1480779648 0 0 0 0 1131032.8284759521 18069900.14359951 0 18069900.14359951 -276864.84704971313 0 0 0 0 -169288432.89346933 107739329.24948144 0 107739329.24948144 142186087.3495903 0 0 0 0 -198596227.09559441 152311313.73896122 0 152311313.73896122 463504758.93196487 0 0 0 0 -122694865.92755413 305321303.43177509 0 305321303.43177509 -162370570.0214901 0 0 0 0 8971899.4036560059 137251362.41693974 0 137251362.41693974 51242856.013233185 0 0 0 0 14607194.196315765 150803211.24203873 0 150803211.24203873 54317436.767047882 0 0 0 0 -7512938.504524231 144506713.21280289 0 144506713.21280289 185254133.16143799 0 0 0 0 31777081.493038177 116291899.57932663 0 116291899.57932663 71974154.29565239 0 0 0 0 -14934009.387695312 106254490.03277779 0 106254490.03277779 70165210.001930714 0 0 0 0 26454190.958838463 151372701.48822594 0 151372701.48822594 1545628.7123374939 0 0 0 0 -43622005.646149799 46783738.487044014 0 46783738.487044014 20062451.994715355 0 0 0 0 36290171.22426033 109101335.18011284 0 109101335.18011284 27216349.994164228 0 0 0 0 62740277.854699612 87849471.841229796 0 87849471.841229796 29603528.385513306 0 0 0 0 67914508.761841774 111727351.72806835 0 111727351.72806835 51338799.441474915 0 0 0 0 -55561993.497676104 37382527.770792052 0 37382527.770792052 35487923.872492947 0 0 0 0 6588054.8878250122 53824626.920459747 0 53824626.920459747 45576757.29663682 0 0 0 0 37637077.632652283 86763537.414580345 0 86763537.414580345 42065108.408424377 0 0 0 0 5577242.7750797272 59500726.212900162 0 59500726.212900162 -40769986.974880219 0 0 0 0 -18200433.316974849 39191223.414923377 0 39191223.414923377 11654436.813423555 0 0 0 0 -98822874.443717957 -1559874.4048728943 0 -1559874.4048728943 33889365.549039364 0 0 0 0 24854152.616855621 139541497.70603085 0 139541497.70603085 -31505282.220916748 0 0 0 0 -66620727.204468414 55991032.056821659 0 55991032.056821659 11620103.348605283 0 0 0 0 -2656616.2452704161 20912648.247372329 0 20912648.247372329 8384026.1392493164 0 0 0 0 308348.70675626397 -3421174.280261375 0 -3421174.280261375 -404743.18827072904 0 0 0 0 -39142771.040748596 68295952.259190083 0 68295952.259190083 16726019.531543732 0 0 0 0 -72328131.575054169 147228059.59131813 0 147228059.59131813 35390046.048504591 0 0 0 0 -88026266.51714325 112526551.80606079 0 112526551.80606079 47967449.229703903 0 0 0 0 -145154792.38410568 113658392.64675522 0 113658392.64675522 63268862.598720551 0 0 0 0 -151300955.520257 142090142.81684303 0 142090142.81684303 91824010.284866333 0 0 0 0 -98599034.036872864 200565767.18219852 0 200565767.18219852 -223941016.14408875 0 0 0 0 -136081021.21539211 202935853.00003719 0 202935853.00003719 -253598853.39206314 0 0 0 0 13961784.973266602 15953435.210781097 0 15953435.210781097 -122795880.08940887 0 0 0 0 -2637012.7926483154 128742796.61791229 0 128742796.61791229 -255750874.59896469 0 0 0 0 -17002991.526569843 78028825.360258579 0 78028825.360258579 -75519292.944107056 0 0 0 0 -425772599.2882309 736542.75509262085 0 736542.75509262085 161618138.78222656 0 0 0 0 -26514477.512387801 3231323.9726786427 0 3231323.9726786427 1307102.1080530807 0 0 0 0 -229164151.26210248 94332562.145658016 0 94332562.145658016 28215440.060073853 0 0 0 0 -243535893.27084732 232074747.44610596 0 232074747.44610596 -98017282.942136765 0 0 0 0 -98562562.170697689 121720124.34036303 0 121720124.34036303 -14764040.718238831 0 0 0 0 -125752946.39241791 96087960.709080696 0 96087960.709080696 39297852.008167267 0 0 0 0 -132035856.75365067 142022839.62496376 0 142022839.62496376 1460408.6535491943 0 0 0 0 -184573645.87026405 75588870.762464523 0 75588870.762464523 32999637.352230072 0 0 0 0 -94089673.155754089 105148705.06706429 0 105148705.06706429 36589939.028774261 0 0 0 0 -94391086.638328552 26907790.527889252 0 26907790.527889252 -29261189.316577911 0 0 0 0 -62950838.26027336 55102700.863257624 0 55102700.863257624 4373964.2323729768 0 0 0 0 -38011132.502058923 37400138.059525982 0 37400138.059525982 -8703398.7370956168 0 0 0 0 -86539871.255104795 55333153.175401598 0 55333153.175401598 7697634.2932398468 0 0 0 0 -107628324.35674286 111448596.55395126 0 111448596.55395126 -18503095.351585388 0 0 0 0 -295708707.42747498 513592696.88380623 0 513592696.88380623 118420643.71766281 0 0 0 0 -906526787.78347778 -115120228.81452179 0 -115120228.81452179 -40104332.377618313 0 0 0 0 34531383.566940308 -4000534.1106548309 0 -4000534.1106548309 120519543.93971539 0 0 0 0 -198936944.58972168 -195583928.80323601 0 -195583928.80323601 106732468.72526932 0 0 0 0 137847983.90045166 -18353781.907773972 0 -18353781.907773972 -116660418.69980526 0 0 0 0 -87996909.152023315 95984285.608778 0 95984285.608778 46197559.687507868 0 0 0 0 -219843431.28474426 132907271.55200768 0 132907271.55200768 176920510.99388123 0 0 0 0 -51554081.657815486 20719408.586093038 0 20719408.586093038 -3459328.6497672573 0 0 0 0 -9232.9496837258339 2020463.525829101 0 2020463.525829101 367149.86508668773 0 0 0 0 -4792901.815246582 -33131134.380689621 0 -33131134.380689621 18216936.647300839 0 0 0 0 -12309376.689468384 11344072.219900131 0 11344072.219900131 -19889581.550163269 0 0 0 0 -182974711.42840576 185321391.34482574 0 185321391.34482574 -10981176.844299316 0 0 0 0 -13246283.979629219 3843207.90085233 0 3843207.90085233 7349961.2949572951 0 0 0 0 -22654944.613467216 47373348.702589452 0 47373348.702589452 118124592.09817123 0 0 0 0 -23234523.416244507 41108490.163339615 0 41108490.163339615 142483446.79954147 0 0 0 0 -10160254.001056731 8033846.6411236376 0 8033846.6411236376 -1229599.3771347255 0 0 0 0 -263170929.77188492 -30450785.538450718 0 -30450785.538450718 -7343437.5245056152 0 0 0 0 94181804.1222229 150598273.46977901 0 150598273.46977901 31953490.249162674 0 0 0 0 -11776334.851408005 58550445.287078857 0 58550445.287078857 164890309.0599556 0 0 0 0 -26535406.971710205 117749390.76200342 0 117749390.76200342 -18227985.139911652 0 0 0 0 -60462991.88671875 163168562.13627601 0 163168562.13627601 195768706.30517387 0 0 0 0 29358367.840148926 419845727.63746357 0 419845727.63746357 111854565.77464843 0 0 0 0 -359662919.13774109 457075414.69118977 0 457075414.69118977 78782458.788807869 0 0 0 0 -76202471.954906464 242556842.71661925 0 242556842.71661925 -180144303.11524391 0 0 0 0 -576460951.95498657 473173429.28249264 0 473173429.28249264 -33087236.822563171 0 0 0 0 -221441231.24229431 74168530.84895134 0 74168530.84895134 7207734.0001888275 0 0 0 0 28267165.760892153 302684925.2321384 0 302684925.2321384 2370980.0864715576 0 0 0 0 -4026077.7427224219 2359561.0523062944 0 2359561.0523062944 -721838.87198907882 0 0 0 0 -243692938.56939697 207301101.31394577 0 207301101.31394577 200444970.5224905 0 0 0 0 -562109025.52191925 568776337.24396038 0 568776337.24396038 -180060734.30789948 0 0 0 0 315351417.85992432 154361372.59811783 0 154361372.59811783 -185451591.28216171 0 0 0 0 17694192.742393494 23369591.404448509 0 23369591.404448509 -25883576.934738159 0 0 0 0 -93421425.135604858 220323102.14943123 0 220323102.14943123 -138561254.54732513 0 0 0 0 -302950123.72744751 -27747762.709350586 0 -27747762.709350586 -305067551.54597569 0 0 0 0 -764073004.48439789 276904166.7635088 0 276904166.7635088 98406263.158226013 0 0 0 0 -318243058.7346344 335189962.1300869 0 335189962.1300869 53748091.668231964 0 0 0 0 -2780300.491345942 2506543.6254851967 0 2506543.6254851967 -569590.44649992138 0 0 0 0 171949798.69218445 275593146.17554379 0 275593146.17554379 41314713.863369942 0 0 0 0 114278400.52612305 55124131.541563034 0 55124131.541563034 28054142.111501694 0 0 0 0 137065226.56971741 25021682.516906738 0 25021682.516906738 60794271.573448181 0 0 0 0 58513868.86680603 55644433.808936119 0 55644433.808936119 29553003.577377319 0 0 0 0 52946648.335006714 32434439.316450119 0 32434439.316450119 -57264496.824726105 0 0 0 0 126135656.75027466 32129814.162303925 0 32129814.162303925 -30015100.309737206 0 0 0 0 187689745.44702148 88372171.18755722 0 88372171.18755722 16627224.547813416 0 0 0 0 70133526.660614014 57134384.008947372 0 57134384.008947372 78676952.588151932 0 0 0 0 114299317.95679092 53845113.191781044 0 53845113.191781044 50793857.798019409 0 0 0 0 86078885.878356934 110132757.92773628 0 110132757.92773628 11721146.074288368 0 0 0 0 -24647843.864824444 26779394.094015382 0 26779394.094015382 25257794.850078426 0 0 0 0 -18882971.186134338 44661471.310155511 0 44661471.310155511 33568813.288392544 0 0 0 0 -49535669.848291114 47827958.405116975 0 47827958.405116975 34241784.115434028 0 0 0 0 -62456506.135982066 76085145.018610075 0 76085145.018610075 57616204.016543612 0 0 0 0 -7343884.0598896593 49920392.624451637 0 49920392.624451637 5946047.302889619 0 0 0 0 215028811.0980072 105051113.03198814 0 105051113.03198814 -9974915.7433052063 0 0 0 0 201885733.46054077 59391151.554834366 0 59391151.554834366 75299942.802307129 0 0 0 0 13927427.090110779 88656012.792241096 0 88656012.792241096 31116312.127346992 0 0 0 0 178719960.59075928 128993654.28100586 0 128993654.28100586 -67206116.487154007 0 0 0 0 185318973.64094543 94896848.270522118 0 94896848.270522118 57318744.399642944 0 0 0 0 18870072.763702393 87251167.260452271 0 87251167.260452271 -4360226.2160491943 0 0 0 0 355724176.53591919 327125865.30256081 0 327125865.30256081 -9093968.6392402649 0 0 0 0 -54265956.35678795 63148114.178869978 0 63148114.178869978 6125529.3021930531 0 0 0 0 4350007.3844697624 64705991.258444823 0 64705991.258444823 -5990936.9225538075 0 0 0 0 -42554804.815917969 29840728.982568741 0 29840728.982568741 14497081.813739777 0 0 0 0 -86594899.344871596 33944951.686815582 0 33944951.686815582 27742095.575246073 0 0 0 0 43785626.093719482 269417941.60006905 0 269417941.60006905 443372236.75631142 0 0 0 0 -20353155.847976685 261633629.43080616 0 261633629.43080616 552350056.16698074 0 0 0 0 215801852.43765259 710713230.78305435 0 710713230.78305435 1236686741.1732187 0 0 0 0 1238154950.6375122 213647357.05400848 0 213647357.05400848 442630515.29951668 0 0 0 0 -79174217.227615356 -95178881.407418251 0 -95178881.407418251 600577334.95536995 0 0 0 0 -1184942.7959703133 5568359.1140908748 0 5568359.1140908748 7217535.4579655081 0 0 0 0 1280126055.3958549 246134667.18320465 0 246134667.18320465 48701028.88458252 0 0 0 0 299770.97174343467 3858058.8108273391 0 3858058.8108273391 1009499.3126147669 0 0 0 0 -9124530.8401430845 11893424.877773227 0 11893424.877773227 -1274747.1547759213 0 0 0 0 -2844491.6914978027 22509723.765174866 0 22509723.765174866 4096281.6270236969 0 0 0 0 145396207.81231689 -43458456.035855293 0 -43458456.035855293 -75374830.162719727 0 0 0 0 57898874.700119019 85540034.259169579 0 85540034.259169579 88507476.800470829 0 0 0 0 -7863033.9947730899 9665499.5990863554 0 9665499.5990863554 -2719863.7789321821 0 0 0 0 9620953.3220977783 52066377.266212463 0 52066377.266212463 49277639.697559357 0 0 0 0 -6691688.4040220976 10932285.363552067 0 10932285.363552067 -3102661.5458153794 0 0 0 0 -284467763.68800354 156899394.62955856 0 156899394.62955856 63564531.729888916 0 0 0 0 33782037.394927979 10035582.613002777 0 10035582.613002777 25493311.783516407 0 0 0 0 -20931001.377502441 -69463802.741283417 0 -69463802.741283417 45547006.246498108 0 0 0 0 13821568.580871582 -80353689.715343475 0 -80353689.715343475 47998789.00485611 0 0 0 0 -173104.84499329329 441678.10826009512 0 441678.10826009512 -764132.33177422732 0 0 0 0 93042048.40802002 -4137009.840045929 0 -4137009.840045929 13727404.741928101 0 0 0 0 -12841042.817359924 -1799510.4143009186 0 -1799510.4143009186 156017348.50549698 0 0 0 0 30899980.033477783 106210674.33592033 0 106210674.33592033 197457570.80199194 0 0 0 0 24778247.82460022 32126865.880945206 0 32126865.880945206 120983258.42253685 0 0 0 0 -33590757.450338364 78316400.672195315 0 78316400.672195315 239765023.30085564 0 0 0 0 186118576.86302185 324369394.14268875 0 324369394.14268875 368670142.78584433 0 0 0 0 79692602.050231934 203529115.21543884 0 203529115.21543884 272960964.81928158 0 0 0 0 126654310.71179962 91109654.880009294 0 91109654.880009294 166108742.19642067 0 0 0 0 360471638.05152893 122835055.37908077 0 122835055.37908077 247948489.69604015 0 0 0 0 520593035.21955681 524342090.64635754 0 524342090.64635754 290952734.64158249 0 0 0 0 153911763.32453156 565168467.07400894 0 565168467.07400894 513263260.93558025 0 0 0 0 205257196.33027267 553343509.55180407 0 553343509.55180407 551402471.45541191 0 0 0 0 145614996.38619995 406543503.43221951 0 406543503.43221951 254630340.23640442 0 0 0 0 475716600.98832703 471023177.03779888 0 471023177.03779888 261630627.72954178 0 0 0 0 316473362.68126678 403502327.11565685 0 403502327.11565685 409894736.67771912 0 0 0 0 297753695.39664459 103712371.0544138 0 103712371.0544138 -240379339.88162136 0 0 0 0 -74651702.900909424 205584546.85194111 0 205584546.85194111 241040263.06392342 0 0 0 0 12249089.918724537 2765530.5395358652 0 2765530.5395358652 187720.33429836482 0 0 0 0 -17467007.592330933 98680462.3676579 0 98680462.3676579 -95231537.814840317 0 0 0 0 47445311.17515564 251938540.65241909 0 251938540.65241909 -301331388.38384914 0 0 0 0 -76454757.225364685 47565271.445124149 0 47565271.445124149 79180526.918516159 0 0 0 0 -5440297.9810872078 4617195.5852206722 0 4617195.5852206722 -2095366.5462266635 0 0 0 0 -35157430.01449585 63068160.345526695 0 63068160.345526695 -42944780.102976084 0 0 0 0 186911167.86881638 129990981.46086478 0 129990981.46086478 144074750.78265285 0 0 0 0 23407483.350601196 -11633025.662837029 0 -11633025.662837029 52782268.308664322 0 0 0 0 -100712234.94994736 29369611.085976601 0 29369611.085976601 58119754.755737305 0 0 0 0 334793693.4903717 26241150.844302177 0 26241150.844302177 -175506721.47514009 0 0 0 0 5448975.7472093701 1268376.2753475085 0 1268376.2753475085 216065.65826897696 0 0 0 0 608960680.46174622 371414869.3355875 0 371414869.3355875 72069889.703172684 0 0 0 0 214966687.98212433 504107232.41926861 0 504107232.41926861 464735262.25123072 0 0 0 0 97002017.234794617 317936807.60213137 0 317936807.60213137 188267799.2730217 0 0 0 0 114345219.92837524 445366053.22173023 0 445366053.22173023 250750092.23770142 0 0 0 0 249721754.59474945 323900377.918118 0 323900377.918118 359594773.76945972 0 0 0 0 191833133.79462433 165727768.24254704 0 165727768.24254704 40188219.698474884 0 0 0 0 -2690377.8896575868 3647654.6614777111 0 3647654.6614777111 -1458761.8484826684 0 0 0 0 58993072.581596375 83402076.221529007 0 83402076.221529007 -275134789.15351081 0 0 0 0 -1078587.9722978771 972002.80750576034 0 972002.80750576034 -243108.08876986988 0 0 0 0 29494188.651010513 -17361849.093861699 0 -17361849.093861699 -618949883.9297471 0 0 0 0 23940818.663513184 472146028.65741587 0 472146028.65741587 637018622.95904207 0 0 0 0 -33607526.58215332 291324020.86396027 0 291324020.86396027 -365992475.91914034 0 0 0 0 74651554.135574341 180464039.20950413 0 180464039.20950413 -159399994.08364677 0 0 0 0 22625377.010822296 191609812.41341436 0 191609812.41341436 64227325.114202976 0 0 0 0 21588876.874641418 133316689.75997782 0 133316689.75997782 -21596618.064718723 0 0 0 0 19253511.035852432 115179610.63327193 0 115179610.63327193 -3213484.4371519089 0 0 0 0 450068.02732849121 51226779.176965952 0 51226779.176965952 -116581112.50376606 0 0 0 0 -7205189.7401111126 4979983.0787542313 0 4979983.0787542313 -3513708.7596906871 0 0 0 0 116508340.84507513 76571553.047757044 0 76571553.047757044 4988383.3720817566 0 0 0 0 21206962.831298828 51719858.547791958 0 51719858.547791958 120884919.83975601 0 0 0 0 117461498.52448392 127998708.96153551 0 127998708.96153551 133612859.02501106 0 0 0 0 -26763667.530837256 42997627.539553255 0 42997627.539553255 46477094.875573285 0 0 0 0 90245347.672859192 30427417.28694725 0 30427417.28694725 113630304.95822716 0 0 0 0 62896051.179107666 167474899.08527946 0 167474899.08527946 111724086.63479805 0 0 0 0 56768005.589782715 240467563.91133022 0 240467563.91133022 89965788.144097328 0 0 0 0 -22104579.408531189 437969176.73552752 0 437969176.73552752 96156542.011920929 0 0 0 0 -185981457.51302719 317024186.44521308 0 317024186.44521308 235111280.69011688 0 0 0 0 -578218690.25299072 47544998.339097977 0 47544998.339097977 152665377.78805923 0 0 0 0 -71087497.614616394 152033742.71054268 0 152033742.71054268 153216052.9484787 0 0 0 0 -80709181.06451416 393407622.77313614 0 393407622.77313614 189916233.54547453 0 0 0 0 -148505903.3452301 272607413.79222918 0 272607413.79222918 168189063.39610291 0 0 0 0 27573146.406524658 546249088.25699186 0 546249088.25699186 319079928.73759532 0 0 0 0 5624464.1777954102 310562374.23490715 0 310562374.23490715 252473429.13009453 0 0 0 0 -63964839.228046417 247967966.07081687 0 247967966.07081687 -10281268.04407692 0 0 0 0 -104810302.00617027 342508010.24267262 0 342508010.24267262 -67741438.109698296 0 0 0 0 108688443.95629883 302641176.07348847 0 302641176.07348847 -50997050.152019024 0 0 0 0 117077566.71853638 220898656.79575038 0 220898656.79575038 -5560618.775547266 0 0 0 0 62900892.812957764 306712906.04842424 0 306712906.04842424 -70636992.219939232 0 0 0 0 40521576.789875031 267118731.36027014 0 267118731.36027014 69695766.287088394 0 0 0 0 202960895.99581909 250369925.21027517 0 250369925.21027517 -38725788.087319374 0 0 0 0 186098381.2970047 171659381.70014024 0 171659381.70014024 8958823.3868904114 0 0 0 0 383014118.97622681 124411445.81087112 0 124411445.81087112 -61858522.146481752 0 0 0 0 253976007.79922485 147938117.44985247 0 147938117.44985247 -59877461.840773106 0 0 0 0 269794882.59189606 84203262.265942216 0 84203262.265942216 32448347.619328499 0 0 0 0 168811671.49236298 26763988.516709328 0 26763988.516709328 2910263.2125110626 0 0 0 0 208557689.83751297 126347439.34386128 0 126347439.34386128 17900919.844982147 0 0 0 0 213107815.8132019 142269805.4966917 0 142269805.4966917 40377272.716501236 0 0 0 0 7194384.6919878125 15070300.586227089 0 15070300.586227089 -1495526.5796821825 0 0 0 0 2408477.110751614 18079669.333022445 0 18079669.333022445 -6431481.763302803 0 0 0 0 6653474.4881922454 26407971.51401177 0 26407971.51401177 36099632.227834351 0 0 0 0 -88533141.871002197 100154154.26383114 0 100154154.26383114 137552003.76395607 0 0 0 0 -37086055.184173584 31055886.981899261 0 31055886.981899261 -12553082.275291443 0 0 0 0 396640471.34919739 42442756.536828399 0 42442756.536828399 202841203.51958656 0 0 0 0 -11378192.940643311 -112541168.96463394 0 -112541168.96463394 -554551431.18181229 0 0 0 0 16357793.50071089 11751454.485660911 0 11751454.485660911 -8634634.0960836187 0 0 0 0 880419985.81169128 -22643105.912016399 0 -22643105.912016399 -103601469.00395282 0 0 0 0 1003775488.5342789 173142787.44484949 0 173142787.44484949 28129431.882492065 0 0 0 0 439363988.07556152 -472644894.80948734 0 -472644894.80948734 704026700.70799685 0 0 0 0 554837627.93810368 -28710389.63644582 0 -28710389.63644582 -71850056.635044098 0 0 0 0 17133827.894660585 19726570.951297402 0 19726570.951297402 -15513482.201119363 0 0 0 0 385721319.6793108 -44133351.457701981 0 -44133351.457701981 -71564110.628738403 0 0 0 0 368419883.18148804 123261541.33546692 0 123261541.33546692 -42195540.093895912 0 0 0 0 533922333.21998501 150109940.13787249 0 150109940.13787249 -37993245.721518517 0 0 0 0 615561547.48251343 87843766.967517853 0 87843766.967517853 9423904.8521642685 0 0 0 0 459849389.38082886 366668456.87692499 0 366668456.87692499 170208835.92172241 0 0 0 0 347240519.18558502 223770085.59959388 0 223770085.59959388 -3314791.5899572372 0 0 0 0 279791742.96085358 305822812.34019887 0 305822812.34019887 -15030661.971766472 0 0 0 0 7488739.8856559694 701910.69137843326 0 701910.69137843326 -406460.62543781474 0 0 0 0 950702806.89674377 -98595211.97222963 0 -98595211.97222963 -906541812.24384129 0 0 0 0 257647931.13561249 377813866.99895239 0 377813866.99895239 418446410.16911972 0 0 0 0 769811296.24182129 425328351.79042912 0 425328351.79042912 181041709.46151543 0 0 0 0 7573423.6501159668 227169791.18422484 0 227169791.18422484 332513223.43526888 0 0 0 0 -17315015.671076775 88740768.083184749 0 88740768.083184749 -56618739.997354031 0 0 0 0 -67711112.728984833 194155398.25170362 0 194155398.25170362 -149378696.55301762 0 0 0 0 -55746717.885971069 249011373.18992972 0 249011373.18992972 79254373.125878334 0 0 0 0 -36063891.981536865 159592641.86071515 0 159592641.86071515 -184435464.17024612 0 0 0 0 12271319.725750506 4324284.3841039035 0 4324284.3841039035 133888.82482679083 0 0 0 0 272024572.0941124 646095240.46833289 0 646095240.46833289 -404537997.45606244 0 0 0 0 103049598.32644653 343969293.35745811 0 343969293.35745811 6957073.6729179025 0 0 0 0 16153153.001831055 676678024.82013917 0 676678024.82013917 595640533.12308812 0 0 0 0 342073384.90971375 469963496.39286709 0 469963496.39286709 635765736.68372965 0 0 0 0 640028494.78562164 176598572.69719428 0 176598572.69719428 139827138.05217099 0 0 0 0 936866435.82263184 257725370.04648352 0 257725370.04648352 718887933.98654318 0 0 0 0 1049063626.6980896 553652368.57017756 0 553652368.57017756 478473688.11872816 0 0 0 0 -316362813.26383972 282012423.05453068 0 282012423.05453068 132318718.22872066 0 0 0 0 708346685.68832397 -419406855.72578275 0 -419406855.72578275 -587020082.05608416 0 0 0 0 790589586.31745911 -159438864.40576386 0 -159438864.40576386 85727466.456954956 0 0 0 0 1015996045.6934204 -18672380.013029218 0 -18672380.013029218 -212345616.46144772 0 0 0 0 1326996237.6849365 -368483242.2701335 0 -368483242.2701335 38542560.236568451 0 0 0 0 4805510.3012027442 6990247.6803305894 0 6990247.6803305894 13049533.531459209 0 0 0 0 2338922911.5614319 -43962945.647174358 0 -43962945.647174358 361692872.16822672 0 0 0 0 1206195856.6818848 -203879487.5673275 0 -203879487.5673275 -159135942.0470314 0 0 0 0 1144526588.8872604 -522917872.22875142 0 -522917872.22875142 309062440.2936554 0 0 0 0 940436439.76170349 -350561843.6154139 0 -350561843.6154139 292823643.52053452 0 0 0 0 142919895.19165802 -360051271.80756903 0 -360051271.80756903 629582789.56842232 0 0 0 0 210200979.32226562 -835207424.03027725 0 -835207424.03027725 -579357119.34004426 0 0 0 0 -13533407.947590321 3580963.1422013342 0 3580963.1422013342 4679913.6418664828 0 0 0 0 43238753.888084412 -330204303.04170418 0 -330204303.04170418 1021179871.8016624 0 0 0 0 -26379468.47668457 -108841734.36563492 0 -108841734.36563492 328150695.53608704 0 0 0 0 -1176803.9508666992 -287235642.27889633 0 -287235642.27889633 657181690.44356918 0 0 0 0 63942257.05368042 -220219617.15329933 0 -220219617.15329933 487494831.18444824 0 0 0 0 141081158.88372803 -327787282.95411301 0 -327787282.95411301 362253378.82774353 0 0 0 0 166902253.17344666 -203599820.9462738 0 -203599820.9462738 6120203.2516937256 0 0 0 0 241725561.01797485 -305004447.21406937 0 -305004447.21406937 -47461943.868968964 0 0 0 0 167889242.56406403 -372917666.68420124 0 -372917666.68420124 118649022.80995941 0 0 0 0 11902513.75483387 29766389.487648308 0 29766389.487648308 -19976686.156989079 0 0 0 0 -360301004.40458679 390327771.77072906 0 390327771.77072906 292555461.9056282 0 0 0 0 -92186033.399465561 26590420.263461709 0 26590420.263461709 -10574354.863492012 0 0 0 0 798969766.29577637 -196201309.44899106 0 -196201309.44899106 -363254618.61658716 0 0 0 0 12250919.92241472 19951629.414602429 0 19951629.414602429 29627992.065741058 0 0 0 0 415088062.73602295 766788144.74345016 0 766788144.74345016 -56736331.40693903 0 0 0 0 270296399.21089935 562771339.83760667 0 562771339.83760667 67113932.502720922 0 0 0 0 3978006.4494247437 497982924.47150433 0 497982924.47150433 609966663.25325382 0 0 0 0 1371474.1498985291 415827956.25905979 0 415827956.25905979 253619899.26376581 0 0 0 0 26674616.020339966 326707254.77024817 0 326707254.77024817 253570398.55130196 0 0 0 0 139782667.13832092 333502744.35053778 0 333502744.35053778 26616725.974934638 0 0 0 0 61384650.664230347 222535577.33515167 0 222535577.33515167 -38798042.603574753 0 0 0 0 6949407.4385147095 254503674.49046159 0 254503674.49046159 -50510424.541223526 0 0 0 0 -15007753.355199814 168521245.00308377 0 168521245.00308377 -149269145.22498512 0 0 0 0 -98369022.368202209 155479225.27755344 0 155479225.27755344 -132416672.11048567 0 0 0 0 -97102625.56401825 147757157.13494635 0 147757157.13494635 -87042253.534996867 0 0 0 0 167770569.79800415 281017913.01857054 0 281017913.01857054 -529662604.1652106 0 0 0 0 5073805.6939888597 2205250.9087167811 0 2205250.9087167811 573211.30335104361 0 0 0 0 -42732358.464641571 680507765.22449422 0 680507765.22449422 1091332518.3336599 0 0 0 0 -65062400.425853729 523824862.15927351 0 523824862.15927351 598651388.6863333 0 0 0 0 22439902.675361633 620805851.29052806 0 620805851.29052806 646329638.4293766 0 0 0 0 213827311.18991852 552334338.33013582 0 552334338.33013582 528200140.65239662 0 0 0 0 -49365192.754081726 291861035.78548646 0 291861035.78548646 569532007.7205857 0 0 0 0 -34344968.320480347 302099233.06984383 0 302099233.06984383 483552730.47546238 0 0 0 0 21178533.086532593 295819823.75112498 0 295819823.75112498 411034603.64265054 0 0 0 0 188731327.57644653 325799337.07109076 0 325799337.07109076 406634165.1526593 0 0 0 0 109407092.1418457 338692056.79374707 0 338692056.79374707 368516094.12278128 0 0 0 0 -6996589.803062439 311768749.7289201 0 311768749.7289201 439266098.22965574 0 0 0 0 33605116.614200592 367296243.89196277 0 367296243.89196277 307002603.07651234 0 0 0 0 -7719612.0594787598 381656400.20725536 0 381656400.20725536 438808216.10144359 0 0 0 0 28101797.987449646 371716868.16485834 0 371716868.16485834 359758171.6833396 0 0 0 0 26760309.277160645 329587445.23978782 0 329587445.23978782 280663372.72186852 0 0 0 0 11606374.589439392 318292933.56745315 0 318292933.56745315 313588526.61256748 0 0 0 0 37508014.421089172 339554990.55525768 0 339554990.55525768 189360229.47420216 0 0 0 0 78736554.942546844 434814335.22342587 0 434814335.22342587 454778294.343256 0 0 0 0 33557574.127563477 331118234.45198727 0 331118234.45198727 449155090.00007296 0 0 0 0 43032058.54535675 319590336.86816692 0 319590336.86816692 507473490.82100821 0 0 0 0 34001013.477958679 338230280.23662782 0 338230280.23662782 368753266.78839397 0 0 0 0 17311830.829940796 322212538.24433851 0 322212538.24433851 358193279.88268107 0 0 0 0 57119764.233764648 389045476.00312543 0 389045476.00312543 357713420.74734443 0 0 0 0 56124459.97203064 390278801.76433825 0 390278801.76433825 364421974.87548351 0 0 0 0 70501944.115364075 410937519.54318833 0 410937519.54318833 385696798.07250428 0 0 0 0 97556224.252403259 361072900.8093884 0 361072900.8093884 280997233.71956062 0 0 0 0 58900591.330867767 400404356.61488152 0 400404356.61488152 357603427.38080692 0 0 0 0 86813994.68560791 386416767.37543797 0 386416767.37543797 309281648.48758602 0 0 0 0 3475344.0939788818 241471777.85680324 0 241471777.85680324 448405846.43623698 0 0 0 0 29648211.421485901 188066651.17697206 0 188066651.17697206 146423415.07116887 0 0 0 0 130440361.5476532 250997873.5693574 0 250997873.5693574 104308392.83978677 0 0 0 0 89408484.387523651 157469813.19615221 0 157469813.19615221 116966715.15464067 0 0 0 0 119314501.02455139 216261718.31702924 0 216261718.31702924 141312576.38323736 0 0 0 0 190966553.36731911 202134893.8397947 0 202134893.8397947 136781019.93272591 0 0 0 0 163130272.80586243 277512265.16690391 0 277512265.16690391 226934474.48858452 0 0 0 0 68265860.668533325 329982469.83631563 0 329982469.83631563 288125932.80965662 0 0 0 0 50509907.738525391 358865407.81778717 0 358865407.81778717 290768136.02666426 0 0 0 0 22655148.869758606 329030141.58296156 0 329030141.58296156 299061979.29348469 0 0 0 0 -5275253.8552932739 12831504.5120579 0 12831504.5120579 -3504675.7165971994 0 0 0 0 229911481.4524231 119599783.12656903 0 119599783.12656903 112220409.69559717 0 0 0 0 431315640.69723511 61569190.977325916 0 61569190.977325916 79526755.534469128 0 0 0 0 252795211.54116821 152685169.20589423 0 152685169.20589423 -50521336.046930134 0 0 0 0 258131317.28720093 187407405.48202991 0 187407405.48202991 121563206.1146524 0 0 0 0 396461359.90809631 186174058.75430775 0 186174058.75430775 105386906.56364155 0 0 0 0 256455650.57993698 159459633.7897898 0 159459633.7897898 105279367.54065132 0 0 0 0 -224379284.37638855 56291380.758437634 0 56291380.758437634 -11014273.964874506 0 0 0 0 587175607.03580093 212010391.69869602 0 212010391.69869602 -29091847.999844551 0 0 0 0 -480657.48558044434 412562349.46057725 0 412562349.46057725 -212795198.8279171 0 0 0 0 -711564.46934551746 2920941.3841774017 0 2920941.3841774017 -1461514.6603629291 0 0 0 0 396535405.04034424 325965092.73182869 0 325965092.73182869 -58370097.226080894 0 0 0 0 156383929.17889404 376123218.13860989 0 376123218.13860989 165558319.15039861 0 0 0 0 -163933834.08483887 368272805.82165337 0 368272805.82165337 166381308.24621773 0 0 0 0 132841437.93370056 516971944.46347809 0 516971944.46347809 -69672865.931606293 0 0 0 0 146241729.91860962 485624429.36114836 0 485624429.36114836 183527854.44849634 0 0 0 0 282659824.78686523 318213304.85569477 0 318213304.85569477 181611829.95519495 0 0 0 0 308424121.36632538 266212497.03281415 0 266212497.03281415 32961007.741405487 0 0 0 0 306085462.39172363 276887315.24788189 0 276887315.24788189 181775251.09822083 0 0 0 0 294540741.64070892 413267898.83967066 0 413267898.83967066 239197357.49860573 0 0 0 0 213324481.53794098 342723973.11853957 0 342723973.11853957 427465087.39266586 0 0 0 0 365749792.99771118 361716520.12087345 0 361716520.12087345 428008335.09985363 0 0 0 0 265187.21324157715 402143727.22729921 0 402143727.22729921 543413265.4279623 0 0 0 0 173564029.3616333 402178345.33699083 0 402178345.33699083 329446737.70341873 0 0 0 0 158731704.06079102 382635804.38587809 0 382635804.38587809 346238404.20241499 0 0 0 0 142649387.27069473 351728848.01899147 0 351728848.01899147 318699765.4353981 0 0 0 0 239034426.44384766 306119264.39311743 0 306119264.39311743 214831171.25359392 0 0 0 0 230074232.96424866 289969401.00521469 0 289969401.00521469 215905682.29053593 0 0 0 0 234782946.2507782 402665548.15062809 0 402665548.15062809 322223350.02091312 0 0 0 0 270668477.69369507 342380653.5675621 0 342380653.5675621 482866312.05916834 0 0 0 0 212413262.25305939 404033531.83971715 0 404033531.83971715 470642281.09545708 0 0 0 0 269934669.38197327 434136069.42365265 0 434136069.42365265 464757658.2600776 0 0 0 0 163515646.95948029 413205083.18445373 0 413205083.18445373 461703018.49117184 0 0 0 0 75367557.860588074 414342048.56557322 0 414342048.56557322 781283500.47052193 0 0 0 0 34296181.929336548 256374473.49413776 0 256374473.49413776 1702207306.6537695 0 0 0 0 6092009.3445467353 2307025.2563626468 0 2307025.2563626468 1651477.6202488393 0 0 0 0 33831218.655065536 126286269.71477604 0 126286269.71477604 631022507.28399372 0 0 0 0 15502149.138778687 106305594.02353621 0 106305594.02353621 687018607.68551517 0 0 0 0 20929757.403205872 311655566.81121397 0 311655566.81121397 756026832.5270319 0 0 0 0 207841002.46958923 405924729.87336683 0 405924729.87336683 713153435.24223328 0 0 0 0 498125677.26637268 556331376.07743168 0 556331376.07743168 755297978.27843237 0 0 0 0 338951372.82385254 193058884.97347546 0 193058884.97347546 776471939.48682117 0 0 0 0 -183805.994972229 260753267.0841074 0 260753267.0841074 1013135273.0227647 0 0 0 0 292381583.74761963 591454932.33554649 0 591454932.33554649 627071510.78683662 0 0 0 0 412778454.90895462 302496658.44297624 0 302496658.44297624 -9602127.3249359131 0 0 0 0 196262537.99636841 92457995.943208694 0 92457995.943208694 175092749.79335594 0 0 0 0 -1275784.0767187476 -1076445.3193969252 0 -1076445.3193969252 704545.37532091513 0 0 0 0 21329138.615951538 206024092.27344704 0 206024092.27344704 391551881.7349205 0 0 0 0 380599.62475585938 122348768.63396788 0 122348768.63396788 139447291.83219004 0 0 0 0 15588211.214500099 7612306.4551488981 0 7612306.4551488981 3756917.3495499101 0 0 0 0 81778528.266906738 -34112372.048083305 0 -34112372.048083305 -10864004.185978889 0 0 0 0 -38156196.171991348 138266935.55523539 0 138266935.55523539 -108818589.56756592 0 0 0 0 251791769.71884155 92749153.295959473 0 92749153.295959473 -278671151.3711195 0 0 0 0 -128103815.34189987 4096295.1964018345 0 4096295.1964018345 80305551.097173691 0 0 0 0 30664821.745765686 50997790.913508415 0 50997790.913508415 207094231.30500031 0 0 0 0 25067501.597213745 21702524.008918762 0 21702524.008918762 80624729.414932728 0 0 0 0 40727552.190616608 30459021.943794727 0 30459021.943794727 -31112479.571296692 0 0 0 0 -101706609.89949799 50169725.975589752 0 50169725.975589752 164340387.1253109 0 0 0 0 -20236119.340515137 36939160.178718567 0 36939160.178718567 85809041.962936401 0 0 0 0 -3471698.5196712911 -697610.19542382518 0 -697610.19542382518 143643.94619055837 0 0 0 0 23400286.56319046 47095912.522257328 0 47095912.522257328 15352690.74759388 0 0 0 0 -4117110.6567287743 3750846.8542819824 0 3750846.8542819824 2924551.1565084662 0 0 0 0 -24873700.630477905 -84189804.92467308 0 -84189804.92467308 -185299457.43910599 0 0 0 0 -35308599.496482849 86203026.343643904 0 86203026.343643904 64061166.107837677 0 0 0 0 38707638.545944214 67684407.743834972 0 67684407.743834972 243073291.71813774 0 0 0 0 34950102.746032715 17871075.821060181 0 17871075.821060181 -3982847.8823738098 0 0 0 0 21547777.832029819 12947744.762090385 0 12947744.762090385 4172265.1939824903 0 0 0 0 6920604.6506347656 47156737.028334618 0 47156737.028334618 252250642.0107708 0 0 0 0 -101000198.45281982 -6714902.0057792664 0 -6714902.0057792664 -165772701.69062805 0 0 0 0 -372394.98986396194 12644654.0254116 0 12644654.0254116 7883230.0128843784 0 0 0 0 3072603.0678100586 14634561.721008301 0 14634561.721008301 17068071.173782349 0 0 0 0 -6085804.9562791586 12748334.690271012 0 12748334.690271012 14847609.823339809 0 0 0 0 -9186570.9151916504 -138619150.69162369 0 -138619150.69162369 -190206191.22830963 0 0 0 0 -120131075.96466064 -65116849.034670353 0 -65116849.034670353 -178610643.62347412 0 0 0 0 -48064010.107910156 -60741576.759700775 0 -60741576.759700775 -197804867.19299316 0 0 0 0 -44215043.249542236 -141710263.15694427 0 -141710263.15694427 -182843694.83260727 0 0 0 0 -107737838.10861206 -32656369.63182354 0 -32656369.63182354 -199804474.125 0 0 0 0 -18634012.455610991 560545.50285342336 0 560545.50285342336 9590916.6830185615 0 0 0 0 -96225624.743103027 -70196325.100307465 0 -70196325.100307465 -186571326.03203583 0 0 0 0 -28021672.046264648 -86232830.383453369 0 -86232830.383453369 -154151593.95359945 0 0 0 0 -6481583.7409820557 -100052004.85185814 0 -100052004.85185814 -178239412.55396271 0 0 0 0 -45499897.039703369 -122541761.3413868 0 -122541761.3413868 -137602323.12691116 0 0 0 0 48996859.905853271 -93823187.608795166 0 -93823187.608795166 -156375788.4995842 0 0 0 0 67626779.519500732 62691275.790790558 0 62691275.790790558 -383142477.69087267 0 0 0 0 45121396.535339355 -112160197.32354736 0 -112160197.32354736 -149547503.03675079 0 0 0 0 125347208.51438904 -6567444.8574228287 0 -6567444.8574228287 -389800882.26781845 0 0 0 0 12408043.933005929 3335856.1238439456 0 3335856.1238439456 -756508.87620868906 0 0 0 0 6794604.021697998 -23297720.930772781 0 -23297720.930772781 -227812472.97205353 0 0 0 0 103998395.21583557 -51702201.183769226 0 -51702201.183769226 -263771465.13864517 0 0 0 0 26736903.567749023 22635144.781887054 0 22635144.781887054 -280118165.94486809 0 0 0 0 -112239805.34313965 16104721.280406952 0 16104721.280406952 -210584889.28825188 0 0 0 0 -23795658.313049316 -12199059.628185272 0 -12199059.628185272 -238435005.07649803 0 0 0 0 -58419780.241455078 28446932.444763184 0 28446932.444763184 -265294737.5447979 0 0 0 0 -96709033.090759277 55145703.589111328 0 55145703.589111328 -244895504.20191574 0 0 0 0 34399466.834278107 -25824055.200378656 0 -25824055.200378656 -243738014.98866272 0 0 0 0 34780989.089447021 -107359321.59755421 0 -107359321.59755421 -286028484.91923714 0 0 0 0 50343729.659591675 -6139618.8654880524 0 -6139618.8654880524 -140390380.41987848 0 0 0 0 -9769253.4015855789 63076927.86598444 0 63076927.86598444 6900371.7116718292 0 0 0 0 -7560564.7303848267 -2172213.5347027779 0 -2172213.5347027779 22520960.861533642 0 0 0 0 25965728.246536255 -40810940.874580383 0 -40810940.874580383 -15182983.94846344 0 0 0 0 -605254.76824951172 18958744.374477386 0 18958744.374477386 41959317.060173988 0 0 0 0 -7007509.7577528656 7299999.2934113704 0 7299999.2934113704 297171.20408733096 0 0 0 0 3528984.5674591064 18390949.33777523 0 18390949.33777523 39857099.145443439 0 0 0 0 112750.10749542713 21175681.883630596 0 21175681.883630596 3237766.4617284155 0 0 0 0 252306.84448495507 3920116.9786499888 0 3920116.9786499888 5976880.4007835388 0 0 0 0 18901303.898696899 23648952.456739426 0 23648952.456739426 147317898.5577879 0 0 0 0 4836070.9399108887 116219268.46697235 0 116219268.46697235 275765502.43019104 0 0 0 0 40907949.699645996 126433339.86809921 0 126433339.86809921 183940484.86018538 0 0 0 0 47336702.529930115 129266718.14622915 0 129266718.14622915 127226971.35227585 0 0 0 0 16449361.436172485 226092179.78419113 0 226092179.78419113 163885832.20909333 0 0 0 0 -1112175.0629355013 -78374.578028991818 0 -78374.578028991818 555955.4540057499 0 0 0 0 35177485.086280823 219518887.18005204 0 219518887.18005204 165013239.38879585 0 0 0 0 -5437324.0042495728 216959239.79264116 0 216959239.79264116 179981124.21672058 0 0 0 0 11792213.252868652 208914567.18490601 0 208914567.18490601 181534099.27705878 0 0 0 0 20353392.150810242 218014279.91282606 0 218014279.91282606 265595735.71641827 0 0 0 0 21035438.638938904 222634540.53842533 0 222634540.53842533 279304440.02425194 0 0 0 0 -4748580.0978012085 209995029.40264523 0 209995029.40264523 358002450.68214417 0 0 0 0 3256048.8618621826 222207831.52834511 0 222207831.52834511 375455724.8771053 0 0 0 0 -16724501.122344971 232305079.77322388 0 232305079.77322388 617883834.25746346 0 0 0 0 43835852.336177826 329354106.33409238 0 329354106.33409238 418120331.91859055 0 0 0 0 8410508.5546340942 55299470.338625431 0 55299470.338625431 391699634.62314224 0 0 0 0 35869223.074401855 48469878.49707222 0 48469878.49707222 260935412.33479929 0 0 0 0 7918112.7831726074 93651720.73637104 0 93651720.73637104 409195110.34486675 0 0 0 0 13163802.815917969 113884753.33710194 0 113884753.33710194 246195719.17726421 0 0 0 0 170488787.71747971 -75799067.660841942 0 -75799067.660841942 -618426107.55356598 0 0 0 0 44295620.326065063 41378109.145971298 0 41378109.145971298 -294586415.20170975 0 0 0 0 -845158.06817430258 1987027.0978461057 0 1987027.0978461057 -3344951.657504864 0 0 0 0 -429154453.66425705 -379445799.30320644 0 -379445799.30320644 -400529991.9536643 0 0 0 0 -267048100.11018944 -675078452.48624468 0 -675078452.48624468 -1000314630.8372078 0 0 0 0 87647942.374771118 39083374.689224243 0 39083374.689224243 -618121877.28727341 0 0 0 0 -93959638.540672302 71928759.021341324 0 71928759.021341324 -471320298.30021667 0 0 0 0 -115701992.39340878 -135237571.16875899 0 -135237571.16875899 -664404190.05373001 0 0 0 0 -56919314.674808502 -35684258.834281921 0 -35684258.834281921 -848860857.33726692 0 0 0 0 -122604126.10099411 204740974.17100906 0 204740974.17100906 -450599238.75165939 0 0 0 0 8971342.7024459839 -67259041.100328445 0 -67259041.100328445 -299853384.8533783 0 0 0 0 -48931270.756492615 232573939.26699448 0 232573939.26699448 -80024502.108423233 0 0 0 0 87989339.824747562 -75548500.243323326 0 -75548500.243323326 160304794.37877274 0 0 0 0 101933706.81726837 -9331160.7419395447 0 -9331160.7419395447 -537907401.82357788 0 0 0 0 -134350977.37917805 -74294471.055493355 0 -74294471.055493355 -151121185.36381483 0 0 0 0 807363122.50457573 128808014.89297867 0 128808014.89297867 -308072539.86425591 0 0 0 0 63019916.292711258 303006486.22077084 0 303006486.22077084 30743775.539413452 0 0 0 0 151627688.45293844 229705557.35139716 0 229705557.35139716 -370245327.73260689 0 0 0 0 166953241.8006506 371328797.97675514 0 371328797.97675514 -132159896.27432442 0 0 0 0 -253991.47211296391 1954841.9424602911 0 1954841.9424602911 32094.619392111897 0 0 0 0 771276178.2799015 -47605279.277832031 0 -47605279.277832031 -514045705.8531723 0 0 0 0 21267788.637041092 -4779391.0700941086 0 -4779391.0700941086 -253270060.6180563 0 0 0 0 -129255148.14307308 -211766868.83173752 0 -211766868.83173752 -339652419.59106445 0 0 0 0 102865606.60111618 72925041.881322861 0 72925041.881322861 -389914265.41697598 0 0 0 0 4535880.5728759766 -29126854.254092216 0 -29126854.254092216 -262831419.52944803 0 0 0 0 -6956414.2677485049 15402844.975197271 0 15402844.975197271 -19582936.520183489 0 0 0 0 -3114645.5106389523 2827928.2568300664 0 2827928.2568300664 -530038.86834808253 0 0 0 0 65609109.710188866 -74138857.130433559 0 -74138857.130433559 77998214.867210776 0 0 0 0 139786431.27438927 401398145.54139233 0 401398145.54139233 75038133.084376335 0 0 0 0 -1630613.5802004039 8687781.9085924253 0 8687781.9085924253 -12626849.808324926 0 0 0 0 8218304.3604898453 -321772665.62915564 0 -321772665.62915564 -593552068.13758087 0 0 0 0 176403085.3329525 213040847.59223604 0 213040847.59223604 488619334.31552601 0 0 0 0 439235778.1415863 316835301.45727539 0 316835301.45727539 484274858.77286911 0 0 0 0 568493260.39318657 198412285.4738245 0 198412285.4738245 209108839.46082973 0 0 0 0 571955654.35155296 816374041.04483294 0 816374041.04483294 452151330.30408221 0 0 0 0 662139284.21578217 712984748.73935366 0 712984748.73935366 641487638.04477286 0 0 0 0 438192671.9250164 316360800.19415116 0 316360800.19415116 684803334.48696482 0 0 0 0 -1848083079.3189037 -306351025.32617348 0 -306351025.32617348 171185306.25690442 0 0 0 0 548137410.00771332 18348747.113777876 0 18348747.113777876 103363395.02603555 0 0 0 0 -2960917134.5412202 483942623.41382086 0 483942623.41382086 -359566154.41427267 0 0 0 0 -8171271.4915021025 5376868.1134853065 0 5376868.1134853065 -1947826.9385967008 0 0 0 0 -1953765152.8286476 689433551.94833934 0 689433551.94833934 -12300016.52129823 0 0 0 0 1102281062.2050591 515610082.00978184 0 515610082.00978184 -367453689.84577227 0 0 0 0 -2604675023.8267441 -502258065.89351749 0 -502258065.89351749 -44691583.62651825 0 0 0 0 -3528813792.64114 504961609.4036293 0 504961609.4036293 257604281.73741055 0 0 0 0 698498842.48291683 -1114972912.162478 0 -1114972912.162478 488984205.03073692 0 0 0 0 845998511.49249268 1584836657.0143585 0 1584836657.0143585 -235571274.98598242 0 0 0 0 715555700.25316048 436085868.58522749 0 436085868.58522749 370046069.20887375 0 0 0 0 593646907.63402557 589938370.47413063 0 589938370.47413063 637651048.0225296 0 0 0 0 323510479.55541229 296397625.19130516 0 296397625.19130516 761273114.0782299 0 0 0 0 -12637795.954867274 15417179.640271299 0 15417179.640271299 -12331097.632736124 0 0 0 0 463896651.49377441 285687102.6606617 0 285687102.6606617 501147942.4537077 0 0 0 0 56406564.577312112 69663842.979854137 0 69663842.979854137 58682172.452475086 0 0 0 0 -68031728.9460783 211613440.60769093 0 211613440.60769093 -105524946.17209578 0 0 0 0 17126048.553795815 35110861.421143383 0 35110861.421143383 -46126282.276878968 0 0 0 0 -56267078.041795731 182136220.87752932 0 182136220.87752932 -250127457.51287842 0 0 0 0 -161236598.58093262 893099242.02312994 0 893099242.02312994 -573914345.20735598 0 0 0 0 -282404475.06944466 418605933.26766121 0 418605933.26766121 -233559054.20171261 0 0 0 0 -6760737.2959848195 5482908.4510981403 0 5482908.4510981403 -1996200.1115489192 0 0 0 0 94718197.484539986 -197641.13713824749 0 -197641.13713824749 104204112.47038794 0 0 0 0 400919513.65929031 541085202.89915514 0 541085202.89915514 -353561900.48242426 0 0 0 0 373988249.38393974 193698597.9364543 0 193698597.9364543 -193646981.0537613 0 0 0 0 -106072225.18553066 101627577.72441411 0 101627577.72441411 43572607.489723206 0 0 0 0 51808507.074194223 68236434.679494113 0 68236434.679494113 51359141.780671895 0 0 0 0 -110489878.46850681 114395325.11168242 0 114395325.11168242 56993110.863716125 0 0 0 0 -118210337.14603233 110336876.89119148 0 110336876.89119148 49896756.160583496 0 0 0 0 -125765643.38317108 85368046.683624268 0 85368046.683624268 32289643.13741684 0 0 0 0 21101552.248418696 27569697.336456358 0 27569697.336456358 -8908876.6949531808 0 0 0 0 -1368997091.461277 1645811331.6287613 0 1645811331.6287613 1294354815.6854248 0 0 0 0 105924842.616642 111467555.15167952 0 111467555.15167952 167249339.17924452 0 0 0 0 134703560.45136833 114180972.83901501 0 114180972.83901501 17206692.469516754 0 0 0 0 49308870.319853961 70908824.899045259 0 70908824.899045259 27359091.262241699 0 0 0 0 211706377.26312828 348614321.11886215 0 348614321.11886215 -478669515.44218159 0 0 0 0 -994471914.07263184 -1111300235.1237173 0 -1111300235.1237173 -351500534.2370038 0 0 0 0 25191936.993473031 15016100.375417313 0 15016100.375417313 -2638220.0985447317 0 0 0 0 -143443912.61502457 88051206.59054184 0 88051206.59054184 32593752.348682404 0 0 0 0 -133135796.49118614 98061291.908254623 0 98061291.908254623 17255219.661975861 0 0 0 0 -138468208.56019592 87353605.236480713 0 87353605.236480713 29719830.681266785 0 0 0 0 522931840.09733582 455814492.04718399 0 455814492.04718399 391442035.25652504 0 0 0 0 -48797455.832019806 -645831030.19026184 0 -645831030.19026184 -1433070680.6409035 0 0 0 0 603327013.71868134 519491261.26240921 0 519491261.26240921 -9072640.9315414429 0 0 0 0 248311657.21498108 592872417.67136765 0 592872417.67136765 -145216128.93497467 0 0 0 0 107757640.27262878 437494890.24317551 0 437494890.24317551 -264915325.72634125 0 0 0 0 478622004.69111633 319825695.85554123 0 319825695.85554123 -1046275835.8479309 0 0 0 0 609876884.76546478 590314751.50034714 0 590314751.50034714 -544539216.02190399 0 0 0 0 470004689.51968002 290915634.15024185 0 290915634.15024185 -2820395.7570648193 0 0 0 0 385623574.67881393 395614576.12930489 0 395614576.12930489 393826541.0774765 0 0 0 0 514216007.76718712 310448353.48992634 0 310448353.48992634 387069523.9235878 0 0 0 0 588335247.56035614 389625311.82358789 0 389625311.82358789 -101645158.90600204 0 0 0 0 -1090745837.2416248 968979674.57462215 0 968979674.57462215 683847150.5460887 0 0 0 0 438918277.98866272 624246175.31650162 0 624246175.31650162 -325345314.140728 0 0 0 0 -10641833.22314737 8923359.8653782718 0 8923359.8653782718 -4158682.9780534357 0 0 0 0 311154698.93267059 482727470.4474411 0 482727470.4474411 62213268.981458664 0 0 0 0 509040244.65962982 142673773.79665184 0 142673773.79665184 316494457.71299362 0 0 0 0 290678985.2425766 659144376.25572968 0 659144376.25572968 -326326712.31949997 0 0 0 0 336268745.30686188 560808650.95038986 0 560808650.95038986 -463298911.79552126 0 0 0 0 519028951.72831726 642175670.12596512 0 642175670.12596512 -451111319.58602905 0 0 0 0 412756607.03221321 666959679.84684789 0 666959679.84684789 -945532183.34147644 0 0 0 0 399044196.93955231 479862418.8807373 0 479862418.8807373 -789805066.26139832 0 0 0 0 14647441.176207472 14145241.079962865 0 14145241.079962865 3133777.425170958 0 0 0 0 283204357.37155914 719105516.18160629 0 719105516.18160629 -963575123.75048065 0 0 0 0 206850624.80548668 237898274.74909306 0 237898274.74909306 -659965520.68207264 0 0 0 0 -65854105.999597549 294315576.2631371 0 294315576.2631371 -113949928.24985123 0 0 0 0 283420155.09346199 170942181.0360136 0 170942181.0360136 -887530551.6266619 0 0 0 0 408652571.64438248 622144825.06148338 0 622144825.06148338 -619563819.84529495 0 0 0 0 -72712048.892536163 350268189.36998558 0 350268189.36998558 -550102390.77156067 0 0 0 0 -123221112.34800434 340554538.69985664 0 340554538.69985664 -810399761.73704529 0 0 0 0 -115862180.1560626 177790904.12293172 0 177790904.12293172 -1182065496.9372711 0 0 0 0 -73013614.231307983 119788258.41951752 0 119788258.41951752 -1290375468.4433556 0 0 0 0 -183506743.97979355 180175005.86925316 0 180175005.86925316 -1315139997.996994 0 0 0 0 -354395755.39411926 -283019052.80997467 0 -283019052.80997467 -1474599754.6286392 0 0 0 0 -395448429.46170807 -184521582.51501656 0 -184521582.51501656 -1585780065.7823181 0 0 0 0 -118874391.63261414 636794127.10173798 0 636794127.10173798 -835739061.35666275 0 0 0 0 -42917512.667678833 -127352036.73509216 0 -127352036.73509216 -1235492263.1389198 0 0 0 0 86365927.786712646 34478419.123401642 0 34478419.123401642 -1622185583.762989 0 0 0 0 -125772362.69732666 197656056.31541824 0 197656056.31541824 -747508865.676651 0 0 0 0 -209967454.41761208 110934488.74638557 0 110934488.74638557 -325562672.91461945 0 0 0 0 -169961285.91017151 194513210.48403549 0 194513210.48403549 -746677899.00790787 0 0 0 0 -239647857.73086166 216525426.16362762 0 216525426.16362762 -271018643.22621918 0 0 0 0 -226605410.20226383 248403740.62371445 0 248403740.62371445 -178736016.56105804 0 0 0 0 -194008705.99135971 151945050.217556 0 151945050.217556 -305445988.96691132 0 0 0 0 -133169713.44880199 189327553.30865502 0 189327553.30865502 29034241.495044708 0 0 0 0 -166160913.40163803 46887757.867639542 0 46887757.867639542 86428350.498355865 0 0 0 0 -115539805.3645134 124098812.1609745 0 124098812.1609745 -72066900.121101379 0 0 0 0 -286111249.49402237 97889688.856330872 0 97889688.856330872 -48729605.029350281 0 0 0 0 -162133358.59626961 19115600.588730335 0 19115600.588730335 167600691.16025543 0 0 0 0 56650269.242830276 -83659148.725908279 0 -83659148.725908279 69425881.881608009 0 0 0 0 28846199.286511302 47217862.17045255 0 47217862.17045255 39537054.316300169 0 0 0 0 15796934.983891249 117283821.47945595 0 117283821.47945595 22308348.763618469 0 0 0 0 -19074808.938781738 94525774.307189465 0 94525774.307189465 51445785.239692688 0 0 0 0 -45309231.555679321 77448268.148950577 0 77448268.148950577 86583665.248989105 0 0 0 0 -258347334.10954666 65801000.365074158 0 65801000.365074158 -5101138.9711579084 0 0 0 0 -2722823.5079667084 655504.37028390914 0 655504.37028390914 -2687488.0517959297 0 0 0 0 -140478946.6293335 77305482.733810425 0 77305482.733810425 -5583191.7141723633 0 0 0 0 234606457.32334709 96104834.923452377 0 96104834.923452377 8796791.004149437 0 0 0 0 15103202.969582081 119926010.47436523 0 119926010.47436523 56013945.453277588 0 0 0 0 -14002270.354864439 44881104.13319245 0 44881104.13319245 -23124147.820867553 0 0 0 0 229812029.15971756 81120429.765503407 0 81120429.765503407 -29170094.509246826 0 0 0 0 -582898941.23035622 198423607.12304497 0 198423607.12304497 -26269556.900611877 0 0 0 0 -497724142.31586456 369330265.94433594 0 369330265.94433594 65610746.410927773 0 0 0 0 -489780045.83715057 152966941.36335754 0 152966941.36335754 17015222.089256287 0 0 0 0 -322155680.80479431 88928093.446060181 0 88928093.446060181 -105092420.49254608 0 0 0 0 -214570125.97548676 183170566.8080101 0 183170566.8080101 -149756024.20993805 0 0 0 0 171279922.42486572 218666558.07058716 0 218666558.07058716 60215137.557373047 0 0 0 0 -301916822.81286621 352263543.50621033 0 352263543.50621033 18875577.281219482 0 0 0 0 75975431.976118565 247819727.13027573 0 247819727.13027573 168632507.70751953 0 0 0 0 -38163181.145851672 32738592.348562956 0 32738592.348562956 -27659378.620520711 0 0 0 0 283205900.36702156 499203765.45161438 0 499203765.45161438 639706939.08834839 0 0 0 0 7251652.6008969005 4536402.78000395 0 4536402.78000395 -7487374.3455307186 0 0 0 0 -250158710.98854828 166981459.04007721 0 166981459.04007721 -35889063.855819702 0 0 0 0 -292007907.98421097 156746134.02002525 0 156746134.02002525 -8588572.1630172729 0 0 0 0 -241155545.16228867 185430163.47043419 0 185430163.47043419 -21434826.792434692 0 0 0 0 -273157727.68623352 184907735.18416023 0 184907735.18416023 20331402.29649353 0 0 0 0 -97000599.4666996 144182098.49041748 0 144182098.49041748 189675843.25467014 0 0 0 0 33446215.029593468 99923695.420647144 0 99923695.420647144 36624957.521743774 0 0 0 0 -13089829.108940125 94900596.379816055 0 94900596.379816055 115054925.34051514 0 0 0 0 -86824284.977674007 -24372279.060977936 0 -24372279.060977936 18556576.373157501 0 0 0 0 -15927953.170131683 19302936.214694977 0 19302936.214694977 40664197.217586517 0 0 0 0 -96990138.723546028 12002330.068585873 0 12002330.068585873 80232616.680091858 0 0 0 0 -69937353.659306645 135488147.8889451 0 135488147.8889451 186493494.24292755 0 0 0 0 -244000037.09698343 384772094.30184555 0 384772094.30184555 163309361.49168396 0 0 0 0 -447914424.14260006 5946021.194606781 0 5946021.194606781 144227509.50555038 0 0 0 0 -332005544.88622093 362217282.25407791 0 362217282.25407791 170093706.00758362 0 0 0 0 -289032506.47129726 772890849.46298981 0 772890849.46298981 194357929.93774414 0 0 0 0 14499137.747955322 352619383.10035706 0 352619383.10035706 123256679.27168274 0 0 0 0 293514952.40124893 450234894.02226257 0 450234894.02226257 149025116.2817688 0 0 0 0 470820306.05674648 731806774.29327011 0 731806774.29327011 191647896.43942261 0 0 0 0 -15894224.547475707 2480946.6301380694 0 2480946.6301380694 12182106.680128098 0 0 0 0 28498656.653223872 37668299.236718491 0 37668299.236718491 30908737.484801114 0 0 0 0 26366774.780544281 39611103.830007553 0 39611103.830007553 50725869.179946899 0 0 0 0 -36253400.884733677 47431121.250843048 0 47431121.250843048 34165046.611863136 0 0 0 0 -55809128.060688257 60999422.79339695 0 60999422.79339695 53797380.946804047 0 0 0 0 -15603656.37433802 16335019.819922902 0 16335019.819922902 2049901.2817066759 0 0 0 0 -24572365.025011063 44480760.848974228 0 44480760.848974228 40085982.805028915 0 0 0 0 58655824.66133213 -41062242.867031097 0 -41062242.867031097 130552283.50433731 0 0 0 0 4800694.5502680149 17768618.143441081 0 17768618.143441081 27765578.241873562 0 0 0 0 326963561.42553329 166122044.24594879 0 166122044.24594879 107865810.00269318 0 0 0 0 389926926.69066238 369219642.2080574 0 369219642.2080574 46746316.582071304 0 0 0 0 8925336.5969851464 7165435.4624514952 0 7165435.4624514952 9068068.5239531696 0 0 0 0 360198462.41835403 102015703.79578781 0 102015703.79578781 59238425.644338608 0 0 0 0 636667167.02147865 565941747.50341797 0 565941747.50341797 323670018.77656937 0 0 0 0 956247608.59601402 366529775.70119476 0 366529775.70119476 681142.01955413818 0 0 0 0 -596075.31747538969 4428124.2207539417 0 4428124.2207539417 175270.71674112976 0 0 0 0 113436898.61904621 738401298.51547432 0 738401298.51547432 397160342.9773674 0 0 0 0 -93943037.270501614 263758826.14316797 0 263758826.14316797 278707212.77062988 0 0 0 0 -372718.39265605062 -1218850.1049784347 0 -1218850.1049784347 2252982.4770583436 0 0 0 0 38302563.159345627 90366097.624404907 0 90366097.624404907 -233815053.79660034 0 0 0 0 38266477.275484085 100878899.33447266 0 100878899.33447266 32224743.198104858 0 0 0 0 20286750.477203369 62115762.01611948 0 62115762.01611948 -26361376.957019806 0 0 0 0 -26020228.103621006 131851958.78346634 0 131851958.78346634 21636877.265834808 0 0 0 0 -79435106.579727173 151675878.93396759 0 151675878.93396759 53881397.813804626 0 0 0 0 -36248940.458999634 241722400.99064064 0 241722400.99064064 61385481.079452515 0 0 0 0 75172356.810661316 238761708.96076202 0 238761708.96076202 -18917993.470935822 0 0 0 0 59703458.079519749 205377270.48933268 0 205377270.48933268 51750802.043308258 0 0 0 0 93871989.231332064 132197592.74985933 0 132197592.74985933 70769491.040294647 0 0 0 0 105133222.30736351 167893267.05709648 0 167893267.05709648 -3701613.0982680321 0 0 0 0 185160291.99383354 408940600.31111336 0 408940600.31111336 41005123.463931561 0 0 0 0 671876375.48899937 269166370.57028866 0 269166370.57028866 -125268570.3470192 0 0 0 0 171321907.38166308 185055221.47892511 0 185055221.47892511 -130852817.32636261 0 0 0 0 -178247832.85877228 117094215.57369041 0 117094215.57369041 -39824410.798635483 0 0 0 0 -108811859.13986206 243411218.17725563 0 243411218.17725563 -82954479.084733963 0 0 0 0 -113319675.20379829 71310708.596018791 0 71310708.596018791 -197670543.61284637 0 0 0 0 -40529548.624162674 146986909.61103249 0 146986909.61103249 51753861.71503067 0 0 0 0 518590733.30545521 791031100.94061828 0 791031100.94061828 457935442.37136841 0 0 0 0 -37355629.59533596 39718445.625405312 0 39718445.625405312 863318609.54295492 0 0 0 0 132105020.65412807 349529566.71020031 0 349529566.71020031 908098169.76292229 0 0 0 0 -1135390.3581458544 5786852.2777366191 0 5786852.2777366191 -12930.982001319528 0 0 0 0 477797547.73827934 605034842.37564278 0 605034842.37564278 36413396.195678711 0 0 0 0 4447494.3551826924 6041908.7909299955 0 6041908.7909299955 7089621.5288761333 0 0 0 0 474457372.57003152 550047575.88666368 0 550047575.88666368 -319591736.3117981 0 0 0 0 -373672936.12403202 215279544.91904449 0 215279544.91904449 104547804.43675137 0 0 0 0 473477878.60357022 185048270.85856289 0 185048270.85856289 -429047857.24944687 0 0 0 0 1159613510.3473978 608328530.94388533 0 608328530.94388533 -118402574.33887863 0 0 0 0 471901576.43374062 230618899.56230354 0 230618899.56230354 -49874178.640200138 0 0 0 0 213006707.32301712 386336205.56674671 0 386336205.56674671 308356017.5667305 0 0 0 0 287219499.7790966 352921798.09175301 0 352921798.09175301 196707689.95903397 0 0 0 0 116955211.72651291 94524718.475437164 0 94524718.475437164 -2948861.4040002823 0 0 0 0 -189399298.54643536 236480872.68531466 0 236480872.68531466 205380164.21776962 0 0 0 0 -26859096.834432602 18635351.615953445 0 18635351.615953445 31597145.853782654 0 0 0 0 -183154415.2879467 203698314.66173553 0 203698314.66173553 -163355602.21140146 0 0 0 0 12384974.931144025 13999373.971668527 0 13999373.971668527 17671614.890126579 0 0 0 0 -416867980.31076336 513525519.64682198 0 513525519.64682198 -119818896.17994833 0 0 0 0 -3079448.5297462754 22954864.740184333 0 22954864.740184333 29507005.25481981 0 0 0 0 -71398061.062492371 30290277.365192413 0 30290277.365192413 12224866.160709381 0 0 0 0 -95435016.155258179 157411132.32620716 0 157411132.32620716 124612635.0029254 0 0 0 0 136822577.33446503 242585153.79231071 0 242585153.79231071 155685830.49672508 0 0 0 0 -58363233.803378232 48818959.864456326 0 48818959.864456326 5031186.6938150823 0 0 0 0 -63111744.205785751 52165267.424611568 0 52165267.424611568 -31309771.855606079 0 0 0 0 -72917726.91884613 55898497.142278671 0 55898497.142278671 17322667.963529348 0 0 0 0 -153602402.67281342 111078663.83782387 0 111078663.83782387 8106653.5729074478 0 0 0 0 -188689498.35447311 216922800.56553555 0 216922800.56553555 -85000710.438304901 0 0 0 0 -113367078.98990536 264595810.22620773 0 264595810.22620773 -230900222.05765915 0 0 0 0 -15656441.303480931 11228691.741925033 0 11228691.741925033 6038241.3191978969 0 0 0 0 -132205713.75467825 92127979.683731079 0 92127979.683731079 125982605.1736393 0 0 0 0 -75900945.4647789 214674484.03773117 0 214674484.03773117 28321173.121472359 0 0 0 0 -77244929.155014038 268613462.03280163 0 268613462.03280163 367902679.99265575 0 0 0 0 -39259398.050299644 106472021.27902079 0 106472021.27902079 27594059.896175385 0 0 0 0 -35941903.867751122 30487058.497192383 0 30487058.497192383 169715251.48587513 0 0 0 0 -69916491.191848755 65284877.458275795 0 65284877.458275795 -21114066.942560434 0 0 0 0 -48756369.458117753 5783151.147159107 0 5783151.147159107 19480211.434770364 0 0 0 0 109418532.94110107 76376936.705104828 0 76376936.705104828 -189099682.85690498 0 0 0 0 -156524990.40789032 -45867860.467812181 0 -45867860.467812181 298336872.52698898 0 0 0 0 -136794234.41055298 63221754.847631454 0 63221754.847631454 164872726.58926773 0 0 0 0 -22216353.588245392 -182493541.67399913 0 -182493541.67399913 368257408.68016815 0 0 0 0 -140135693.53157043 3550701.3403739929 0 3550701.3403739929 556944415.95994377 0 0 0 0 -187708055.37166595 -54218219.845491409 0 -54218219.845491409 642647137.24659729 0 0 0 0 -195577776.61322021 58301428.51417923 0 58301428.51417923 348481900.11809969 0 0 0 0 -189560279.79377747 111176503.26561069 0 111176503.26561069 316384909.11239624 0 0 0 0 -234087639.51197815 25893112.815273285 0 25893112.815273285 484396711.4903183 0 0 0 0 -108087492.51715851 -11363289.312005997 0 -11363289.312005997 32477994.823722839 0 0 0 0 -100856736.58462524 134533481.21080589 0 134533481.21080589 -49721249.12731266 0 0 0 0 -30196522.155373007 8361686.7922824472 0 8361686.7922824472 19331113.139658358 0 0 0 0 -110339400.73464203 62403544.881587982 0 62403544.881587982 -44765961.327829361 0 0 0 0 -122232662.08711243 183041212.56629944 0 183041212.56629944 102882430.72146225 0 0 0 0 -190465571.12935495 88516280.329362124 0 88516280.329362124 227176297.6620636 0 0 0 0 -220059485.81175232 208219125.02784348 0 208219125.02784348 412644038.33920002 0 0 0 0 -227217693.29717255 174495744.1783123 0 174495744.1783123 268541131.71848154 0 0 0 0 -71373081.230575562 236512651.44416332 0 236512651.44416332 167005158.02447033 0 0 0 0 -131660718.88544989 98646083.730239093 0 98646083.730239093 -34069937.658819199 0 0 0 0 -68354603.877551079 148251421.98261738 0 148251421.98261738 -181297220.99651146 0 0 0 0 -64125436.024875268 57191170.249070525 0 57191170.249070525 2538126.417634584 0 0 0 0 -188506148.83555603 116652465.43118477 0 116652465.43118477 -34066780.569308557 0 0 0 0 -122365670.59628677 -45310533.818206787 0 -45310533.818206787 17280898.861019135 0 0 0 0 -88175754.236452103 38983036.829971313 0 38983036.829971313 127819148.23752975 0 0 0 0 -60203500.165282249 41926781.651769832 0 41926781.651769832 41748731.65277198 0 0 0 0 97047461.193756104 95556624.405527115 0 95556624.405527115 -5419814.38798666 0 0 0 0 -15756652.719764709 28014429.03085494 0 28014429.03085494 69131592.763653994 0 0 0 0 -36934394.225909457 29645766.504246525 0 29645766.504246525 29202484.920008462 0 0 0 0 -127578189.88050842 181720038.94697857 0 181720038.94697857 -171607174.37788391 0 0 0 0 -13792429.783699036 18479446.49649334 0 18479446.49649334 10365597.540931702 0 0 0 0 -70178871.100265503 14197637.791696548 0 14197637.791696548 42385226.619092464 0 0 0 0 -126701555.99642944 -5536588.2910938263 0 -5536588.2910938263 50799897.37108326 0 0 0 0 4671580.9863128662 83848508.406418324 0 83848508.406418324 -65106712.999372005 0 0 0 0 14719774.97035718 19742597.909497321 0 19742597.909497321 4167081.0900446512 0 0 0 0 -56983653.803340912 58060759.233165957 0 58060759.233165957 6939651.102022171 0 0 0 0 -131141623.39137197 84786164.107119858 0 84786164.107119858 3615688.8341140747 0 0 0 0 -54023166.142700195 8847356.636048317 0 8847356.636048317 -12112703.004928589 0 0 0 0 -93421287.734794617 44187191.675382137 0 44187191.675382137 28710273.083869457 0 0 0 0 -51871529.172439575 38358245.201138973 0 38358245.201138973 -1828501.1313800812 0 0 0 0 -109062995.45541 67956675.987341046 0 67956675.987341046 14042717.223920822 0 0 0 0 113167191.83503723 93787800.420115471 0 93787800.420115471 48629090.75994873 0 0 0 0 -161085589.73313141 272137937.50533128 0 272137937.50533128 134073872.91902733 0 0 0 0 -102917760.51873207 77638045.705137372 0 77638045.705137372 44544810.761091232 0 0 0 0 -15347672.69533392 -2103779.5214330554 0 -2103779.5214330554 3175127.8503942806 0 0 0 0 -64130607.227600098 -10768094.073950291 0 -10768094.073950291 -5186094.8053569794 0 0 0 0 -252987575.59199524 -156474405.38629293 0 -156474405.38629293 37644066.881461143 0 0 0 0 -14982350.608139768 51848455.338032514 0 51848455.338032514 46182622.090619594 0 0 0 0 -48165411.921981812 34020988.738932118 0 34020988.738932118 7387389.3484636843 0 0 0 0 7180821.7095494941 28290193.341159046 0 28290193.341159046 17770308.698454686 0 0 0 0 -40656644.464599609 19724771.551034272 0 19724771.551034272 3806011.5105676651 0 0 0 0 44694806.722786427 62768534.854238421 0 62768534.854238421 32087007.172592312 0 0 0 0 -2161087.4397390932 35778466.077795342 0 35778466.077795342 13632600.677067332 0 0 0 0 -15802792.00137195 14088618.42705822 0 14088618.42705822 7477866.2651507277 0 0 0 0 60283385.719268799 22316673.648578644 0 22316673.648578644 2589205.0245895386 0 0 0 0 11120082.378391251 6886764.6413428038 0 6886764.6413428038 2365991.3052139301 0 0 0 0 79461926.092350006 194129200.80953717 0 194129200.80953717 2980755.8041009903 0 0 0 0 -59143103.130889893 132976611.51992035 0 132976611.51992035 -115207577.24737883 0 0 0 0 -30361373.189079285 49066454.210138321 0 49066454.210138321 126814579.80654335 0 0 0 0 -237225921.18564606 -41169691.552473545 0 -41169691.552473545 56233873.626688957 0 0 0 0 -22385488.0965271 584638.46979117393 0 584638.46979117393 110207044.7982583 0 0 0 0 -125016222.91477203 106540771.59577227 0 106540771.59577227 136799246.65957952 0 0 0 0 -59190131.880386479 40703963.24190104 0 40703963.24190104 39525270.612237573 0 0 0 0 98075147.860469818 -149361592.81809616 0 -149361592.81809616 40642883.136734962 0 0 0 0 -183706831.80340195 -155906984.32160187 0 -155906984.32160187 79544937.772542953 0 0 0 0 -62046147.608077526 103355005.2322855 0 103355005.2322855 8668627.1158866882 0 0 0 0 -6815995.83552742 69990803.711820602 0 69990803.711820602 -61908119.207810402 0 0 0 0 115034557.43629122 310545995.57313776 0 310545995.57313776 172852928.84814644 0 0 0 0 308592376.73011017 92698874.832736969 0 92698874.832736969 -24503228.106430054 0 0 0 0 3726242.8506226465 2725540.9026480988 0 2725540.9026480988 1842353.0411610454 0 0 0 0 9004998.1302986145 36728909.809634209 0 36728909.809634209 -26327048.76017189 0 0 0 0 281089971.14963722 49496714.312848806 0 49496714.312848806 -47391052.727043152 0 0 0 0 -5747099.3383178711 163609660.06257057 0 163609660.06257057 34389507.958274841 0 0 0 0 -2041817.7832870483 145861293.7040081 0 145861293.7040081 31734373.53726244 0 0 0 0 -144375405.89606094 181970622.69319725 0 181970622.69319725 363605909.92963219 0 0 0 0 167437671.27977467 313637607.7615087 0 313637607.7615087 155775284.23464584 0 0 0 0 52078100.909317017 134291685.80595946 0 134291685.80595946 21921945.538990974 0 0 0 0 -62104497.31564007 41876890.652948648 0 41876890.652948648 39879609.344739534 0 0 0 0 -228395373.66067219 21119034.399827957 0 21119034.399827957 176594765.71116829 0 0 0 0 -18018841.811510086 138260168.85069656 0 138260168.85069656 61290784.733896255 0 0 0 0 -15346981.086278915 171201191.7034235 0 171201191.7034235 97036090.262281418 0 0 0 0 -102757123.32210541 71947440.26352334 0 71947440.26352334 82494063.091367722 0 0 0 0 -55053692.391028374 48433674.876196034 0 48433674.876196034 43297320.547885753 0 0 0 0 -46375236.050079346 107521294.88582015 0 107521294.88582015 63705613.901415586 0 0 0 0 -11672698.882766724 144605955.89558887 0 144605955.89558887 52251133.533485413 0 0 0 0 -91474677.754600525 115287590.97504544 0 115287590.97504544 92720141.73910284 0 0 0 0 59495780.959075928 78849723.435518265 0 78849723.435518265 90336873.246433258 0 0 0 0 -178166450.77326965 -11233419.708538771 0 -11233419.708538771 93861017.60187912 0 0 0 0 -14880755.505440503 45401677.075166687 0 45401677.075166687 47683848.045281485 0 0 0 0 -74981062.081451416 -48802777.626851082 0 -48802777.626851082 41334825.798665166 0 0 0 0 -20037257.68441502 -5924737.6174950153 0 -5924737.6174950153 2986615.361823272 0 0 0 0 5823801.6840763092 268434170.78174114 0 268434170.78174114 66495771.852809906 0 0 0 0 160893862.98022985 302421166.52951384 0 302421166.52951384 -189819269.48877525 0 0 0 0 13838593.24618721 275263518.50640488 0 275263518.50640488 12360743.759915352 0 0 0 0 133266248.74081755 414853861.98776388 0 414853861.98776388 64526162.038389206 0 0 0 0 -99474355.738604546 279160224.69949341 0 279160224.69949341 103909703.05349445 0 0 0 0 -92609978.218160629 194147555.2930975 0 194147555.2930975 108804454.07554817 0 0 0 0 1056318.8927688599 157024071.02309799 0 157024071.02309799 100027684.22939992 0 0 0 0 -23315367.759453773 122497467.41318083 0 122497467.41318083 4538356.6178245544 0 0 0 0 -79930558.796182632 99591831.464202881 0 99591831.464202881 346540063.35641003 0 0 0 0 -41498392.909387589 103866219.556633 0 103866219.556633 -5303702.3064441681 0 0 0 0 9892105.5800631791 7227694.7620510403 0 7227694.7620510403 6301538.806646321 0 0 0 0 -21869389.523487091 88037602.986818314 0 88037602.986818314 915008.0538225174 0 0 0 0 -15872487.584598541 66904035.465669632 0 66904035.465669632 -77284925.314415932 0 0 0 0 43856337.226884842 120589709.22287178 0 120589709.22287178 -35907429.517702103 0 0 0 0 45442701.481698036 85080187.243793488 0 85080187.243793488 -184122589.34215164 0 0 0 0 88220867.614884734 133526136.73307765 0 133526136.73307765 -140878437.81827736 0 0 0 0 17202386.65085125 28498084.648101807 0 28498084.648101807 -86934023.919669151 0 0 0 0 -755303.07754975557 33906047.097572088 0 33906047.097572088 -78400955.703577042 0 0 0 0 -10616106.431556415 21900532.79100538 0 21900532.79100538 -25218275.749689907 0 0 0 0 66319875.17146492 118125233.70649409 0 118125233.70649409 67774359.979599476 0 0 0 0 60635597.721171379 116274062.90742826 0 116274062.90742826 76141538.00065279 0 0 0 0 47861357.846752167 62724828.789614677 0 62724828.789614677 46804928.682898521 0 0 0 0 12855588.882463455 82837494.629797459 0 82837494.629797459 90754865.957929611 0 0 0 0 75972655.164003372 96215417.156457424 0 96215417.156457424 56326327.375566483 0 0 0 0 69448330.13520813 118494809.84456825 0 118494809.84456825 79509785.047063828 0 0 0 0 4437911.520565033 106198706.11374664 0 106198706.11374664 229404593.41661072 0 0 0 0 -1213713.3008485101 3672574.3651419422 0 3672574.3651419422 -6611506.3862847071 0 0 0 0 -1821811.2280870676 43549773.176841795 0 43549773.176841795 -55547431.792795181 0 0 0 0 10412761.591940269 15668281.413304631 0 15668281.413304631 5511909.9314902946 0 0 0 0 -12416158.261259079 44624702.965339661 0 44624702.965339661 -35278674.792619705 0 0 0 0 2032135.1642246246 48458083.046800613 0 48458083.046800613 -36381009.433746338 0 0 0 0 -8661816.619972229 59471626.158746243 0 59471626.158746243 -46806669.579776764 0 0 0 0 -757537.87864112854 48468950.508991718 0 48468950.508991718 -39077470.852344513 0 0 0 0 -13144142.111234665 60312725.263973236 0 60312725.263973236 -26838321.23191154 0 0 0 0 -17259355.445531845 49000042.453261375 0 49000042.453261375 -13935033.938734055 0 0 0 0 -14771330.999462128 62773544.227142334 0 62773544.227142334 -14176546.425199509 0 0 0 0 -17250350.994920731 45021053.860933304 0 45021053.860933304 -29265744.466524124 0 0 0 0 25108445.798555072 45610453.304478317 0 45610453.304478317 22218491.916897111 0 0 0 0 3463345.670372963 87148203.131244898 0 87148203.131244898 72654426.759889841 0 0 0 0 -38813789.257472992 67288686.425886154 0 67288686.425886154 73499484.300174713 0 0 0 0 -23132489.596725464 43343675.107564926 0 43343675.107564926 79552808.456718445 0 0 0 0 -2896159.0128994137 50236018.727881826 0 50236018.727881826 37034554.502600819 0 0 0 0 -1930605.7872224525 8263730.9524547346 0 8263730.9524547346 25661765.438988104 0 0 0 0 -30355954.374904633 28062638.424934387 0 28062638.424934387 37132671.261701584 0 0 0 0 8940702.8694801331 66002725.079313278 0 66002725.079313278 62815861.860023499 0 0 0 0 964993.25975751877 37362090.517467499 0 37362090.517467499 47051974.304618835 0 0 0 0 29537286.378522873 28406549.552243233 0 28406549.552243233 42691268.286973953 0 0 0 0 37321164.513950348 42775966.923585892 0 42775966.923585892 45263720.641183853 0 0 0 0 23288485.432672285 42111227.748149753 0 42111227.748149753 20383721.369686805 0 0 0 0 7585537.5208467767 9722603.2030983754 0 9722603.2030983754 11333268.740866922 0 0 0 0 113579518.92461538 195187623.51265645 0 195187623.51265645 312323951.94857025 0 0 0 0 44917211.790321127 20683923.510679837 0 20683923.510679837 542822.39916419238 0 0 0 0 66081278.946584702 53787589.714627028 0 53787589.714627028 6970642.148267746 0 0 0 0 19618615.31033802 50151267.063455522 0 50151267.063455522 15114754.948847294 0 0 0 0 -15708866.757271469 28831541.003315665 0 28831541.003315665 -14975863.034627676 0 0 0 0 21827277.677728653 56781407.598962307 0 56781407.598962307 50954261.704790115 0 0 0 0 30110428.803192139 85688331.956260324 0 85688331.956260324 38417703.018766403 0 0 0 0 -29183180.362400725 30007932.786764514 0 30007932.786764514 48467.514731802046 0 0 0 0 11213055.768707275 92307750.744592667 0 92307750.744592667 66700212.206608772 0 0 0 0 50204493.254463196 74908998.234757423 0 74908998.234757423 44064084.316521645 0 0 0 0 33006654.240890503 92520770.380069733 0 92520770.380069733 65092946.853491783 0 0 0 0 35078252.943768501 102000097.60441208 0 102000097.60441208 51978736.250150681 0 0 0 0 2729894.6218004227 74352644.195297956 0 74352644.195297956 46858075.486265123 0 0 0 0 37125287.402918816 88313781.521521628 0 88313781.521521628 -30084369.434492111 0 0 0 0 29483029.450009346 61537323.376286268 0 61537323.376286268 4983942.9810876846 0 0 0 0 -16095938.044296265 85366121.641904831 0 85366121.641904831 8562069.7324006557 0 0 0 0 -22213293.454837292 44067060.569791451 0 44067060.569791451 -13301851.463572472 0 0 0 0 8258836.6460804939 66175897.533586621 0 66175897.533586621 -29253508.153373718 0 0 0 0 -10534271.471008301 57223250.491786957 0 57223250.491786957 -24259287.05617857 0 0 0 0 7170755.652633667 74172264.622907639 0 74172264.622907639 -21755956.485087395 0 0 0 0 -2934774.0003967285 84139963.450190067 0 84139963.450190067 38764787.592472076 0 0 0 0 -7180338.9413585663 101903827.8365097 0 101903827.8365097 78663819.756876945 0 0 0 0 35288547.0832939 72284709.346839488 0 72284709.346839488 7138884.3271114361 0 0 0 0 -8429172.0967559814 14840925.702718377 0 14840925.702718377 18169684.026056767 0 0 0 0 -36681611.388483047 130203677.01297092 0 130203677.01297092 13640530.115520477 0 0 0 0 -11770114.536398888 145828069.77159691 0 145828069.77159691 -21877737.522239685 0 0 0 0 2420339.2607192993 150047389.52638626 0 150047389.52638626 21009169.267715454 0 0 0 0 10109294.835011192 56960253.277655691 0 56960253.277655691 41794990.34645839 0 0 0 0 299361.38377952576 79828658.394837379 0 79828658.394837379 -26803001.288970947 0 0 0 0 6975689.0622825623 70185056.649353027 0 70185056.649353027 -12940801.916376114 0 0 0 0 6188586.3169718981 52015949.369891517 0 52015949.369891517 39756919.326624848 0 0 0 0 45879745.949132919 107573837.55249977 0 107573837.55249977 -99385074.506662369 0 0 0 0 3774301.7439804077 91251491.698301315 0 91251491.698301315 10468786.022936821 0 0 0 0 358518.7459602356 80389716.911848068 0 80389716.911848068 -66512357.756364822 0 0 0 0 87603684.887655258 143344854.1609686 0 143344854.1609686 -23687431.093711853 0 0 0 0 89450166.86706382 56008546.902236655 0 56008546.902236655 -51875024.437107086 0 0 0 0 -13806394.44977951 75429473.082244873 0 75429473.082244873 -55273391.215903759 0 0 0 0 -73804135.865477562 115217552.64058876 0 115217552.64058876 39379520.969833374 0 0 0 0 -13186769.697765112 81925697.464395642 0 81925697.464395642 22055508.042114258 0 0 0 0 -24810385.674734116 70968393.542800903 0 70968393.542800903 73437720.840118408 0 0 0 0 -92785050.455310822 131825888.56577492 0 131825888.56577492 51270972.818844795 0 0 0 0 17863493.405845642 158858532.52834129 0 158858532.52834129 15595574.651215076 0 0 0 0 -83014574.088516235 179992070.72751427 0 179992070.72751427 8204742.3146743774 0 0 0 0 -56462165.317550659 160086374.65322876 0 160086374.65322876 16580420.188647747 0 0 0 0 97621900.604053497 247811232.68495941 0 247811232.68495941 -19454807.99023056 0 0 0 0 21034900.076271057 97300862.704143524 0 97300862.704143524 -12247059.943820953 0 0 0 0 16073066.71640873 79464513.225912094 0 79464513.225912094 -49059805.922264099 0 0 0 0 11003127.55128479 73303238.672325134 0 73303238.672325134 -28220634.360003948 0 0 0 0 36489878.871749878 104072114.91137695 0 104072114.91137695 -28394297.251548767 0 0 0 0 31172963.356400967 111014314.11506319 0 111014314.11506319 -26349422.051513672 0 0 0 0 29363088.636516571 109660445.90864944 0 109660445.90864944 -27128059.491020203 0 0 0 0 158538108.81982803 102122915.53372765 0 102122915.53372765 -27997541.363266706 0 0 0 0 15541852.006231308 106897528.11625671 0 106897528.11625671 2455570.4155311584 0 0 0 0 -29510185.395317078 106734164.57457542 0 106734164.57457542 5685153.1413822174 0 0 0 0 -80565949.18926239 127848231.41634369 0 127848231.41634369 14442527.867269516 0 0 0 0 -30441385.380031586 102285510.72637749 0 102285510.72637749 -14362536.292186737 0 0 0 0 -87608871.869327545 155456969.65661955 0 155456969.65661955 -63694663.556083679 0 0 0 0 -1458555.0586662292 85289129.726066589 0 85289129.726066589 -109512331.13419724 0 0 0 0 23313295.136089325 79674966.68211937 0 79674966.68211937 -55556683.849796295 0 0 0 0 -5105328.2155456543 86612548.770887375 0 86612548.770887375 -46401322.422664642 0 0 0 0 9034555.3312778473 64671588.456519127 0 64671588.456519127 -61530446.768218994 0 0 0 0 -9337280.8234405518 55416030.915554047 0 55416030.915554047 -80597104.488327026 0 0 0 0 8318085.493970871 90974796.644006729 0 90974796.644006729 73292135.401790619 0 0 0 0 -108621985.97407532 110114080.7020216 0 110114080.7020216 115373778.13457298 0 0 0 0 -126988957.44282722 67498678.66822052 0 67498678.66822052 79315565.968434334 0 0 0 0 -81696202.767394066 131686810.3679409 0 131686810.3679409 96302419.128067017 0 0 0 0 -31314226.84897995 81748776.461010933 0 81748776.461010933 50374930.299247742 0 0 0 0 23839057.902855873 69958149.228609085 0 69958149.228609085 97300970.27072525 0 0 0 0 213330824.15365601 152254914.8986454 0 152254914.8986454 63117309.776786804 0 0 0 0 152444743.07552719 24070097.138521194 0 24070097.138521194 -9653136.5814208984 0 0 0 0 -6206625.1416826248 55536120.289707661 0 55536120.289707661 45518646.426296234 0 0 0 0 4577547.0529251099 2392502.9142284393 0 2392502.9142284393 -29392416.0744133 0 0 0 0 351081.51037278771 1885718.5757404286 0 1885718.5757404286 -6866526.9801859409 0 0 0 0 128035327.35049629 -11292551.844755173 0 -11292551.844755173 -6726437.135945797 0 0 0 0 221414382.80835634 -44340623.503601909 0 -44340623.503601909 3589718.9783821106 0 0 0 0 1207469.7518147305 1186265.4122557789 0 1186265.4122557789 -1191509.4299063608 0 0 0 0 -134297006.48900986 221247396.62236214 0 221247396.62236214 8342379.8712453842 0 0 0 0 -158180786.55350351 90896356.582881927 0 90896356.582881927 -47342660.225326538 0 0 0 0 -116107003.54592037 81208776.035410881 0 81208776.035410881 -4126149.0952911377 0 0 0 0 -106337358.7569294 133459943.8302784 0 133459943.8302784 -202788899.50095367 0 0 0 0 -154465436.14465332 123177358.34326458 0 123177358.34326458 -13986451.860347748 0 0 0 0 2574538.3318192288 4534312.584494099 0 4534312.584494099 4224302.3068161011 0 0 0 0 -230303848.89681816 158301360.35918713 0 158301360.35918713 -88240942.586639404 0 0 0 0 -160540974.98390961 242677223.99396324 0 242677223.99396324 -197491373.78888893 0 0 0 0 46507580.085030556 -17077679.224947453 0 -17077679.224947453 -20375481.353660583 0 0 0 0 44546085.18198967 -38147325.744402885 0 -38147325.744402885 49922294.751516342 0 0 0 0 -380338.99343243614 1859360.6537833977 0 1859360.6537833977 -6731668.9944781065 0 0 0 0 -24806522.742395401 4031685.2772397995 0 4031685.2772397995 25650736.879371643 0 0 0 0 10570050.883634567 -36531947.675153732 0 -36531947.675153732 -9460701.157207489 0 0 0 0 173579706.91193771 1671283.9594993591 0 1671283.9594993591 -16738161.94353056 0 0 0 0 -163400781.22449589 -204773125.92959785 0 -204773125.92959785 -64011795.481817245 0 0 0 0 -460483151.00764084 121089234.21629524 0 121089234.21629524 150939599.39332724 0 0 0 0 193977408.48995006 302636396.39757782 0 302636396.39757782 152522259.71771622 0 0 0 0 219816976.98083878 242370004.22389793 0 242370004.22389793 51664118.979576111 0 0 0 0 200854424.16275823 346151900.68409836 0 346151900.68409836 324802956.10045052 0 0 0 0 77878045.205448627 72407243.259995461 0 72407243.259995461 85258621.559822083 0 0 0 0 103952575.76916504 103174345.62933588 0 103174345.62933588 17483141.732624054 0 0 0 0 70649312.040027618 143624573.26109886 0 143624573.26109886 176136121.41188049 0 0 0 0 69939805.031730652 58395086.37258625 0 58395086.37258625 -31059323.818717957 0 0 0 0 21401252.569896698 51727708.606620789 0 51727708.606620789 62033546.580112457 0 0 0 0 -9051577.1204452515 14128109.490530014 0 14128109.490530014 26104447.931789398 0 0 0 0 -51567070.274385452 83567810.227399826 0 83567810.227399826 -5270853.9279556274 0 0 0 0 -111099203.5194664 60046470.455345154 0 60046470.455345154 -13053488.19178009 0 0 0 0 -81192384.863721848 124481310.43189621 0 124481310.43189621 -101559324.4255867 0 0 0 0 -100903305.73450279 93976613.739757538 0 93976613.739757538 -161116834.79906082 0 0 0 0 -58511308.939573288 150283489.14338493 0 150283489.14338493 -98110167.59469223 0 0 0 0 203829525.06240463 183378040.80695724 0 183378040.80695724 -110628714.5837965 0 0 0 0 -61009347.364845276 67368222.563516617 0 67368222.563516617 2290750.3327140808 0 0 0 0 400037663.37384605 371595926.76238441 0 371595926.76238441 -235296166.95849991 0 0 0 0 -74053751.067093372 65067434.63495779 0 65067434.63495779 -135979326.94169998 0 0 0 0 -166906566.4675808 288666726.4865799 0 288666726.4865799 -198695258.12491179 0 0 0 0 3799328.4490365908 4350777.8953561485 0 4350777.8953561485 3775220.0104958192 0 0 0 0 -1851987.7450618744 62202886.960251331 0 62202886.960251331 -5837865.4278411865 0 0 0 0 139852345.79594612 57909395.709592819 0 57909395.709592819 -12584317.897978783 0 0 0 0 26131188.818619728 92625718.049111366 0 92625718.049111366 186029507.71296692 0 0 0 0 2185385.8539461568 2025839.1677944213 0 2025839.1677944213 1335721.5981633365 0 0 0 0 130224965.16582489 434407715.47209644 0 434407715.47209644 560413282.07723808 0 0 0 0 277264815.75788403 558283148.7710619 0 558283148.7710619 348167012.14233017 0 0 0 0 258638902.14597893 404154118.52517509 0 404154118.52517509 65024263.351140022 0 0 0 0 258865574.65982568 398945132.44309503 0 398945132.44309503 174500041.42765045 0 0 0 0 384500614.95477486 338574585.58024597 0 338574585.58024597 188620177.75399876 0 0 0 0 343667153.34321117 268668358.07050943 0 268668358.07050943 74191394.759056091 0 0 0 0 2009675.279524859 1239391.6856013238 0 1239391.6856013238 72188.200855799019 0 0 0 0 510756043.00638485 47902669.20185709 0 47902669.20185709 -8143574.1567306519 0 0 0 0 629185935.16519833 242383747.82529449 0 242383747.82529449 -229874185.99984741 0 0 0 0 728206703.7783699 90098140.147047043 0 90098140.147047043 -216139646.85069275 0 0 0 0 655342366.19311714 331836937.61187172 0 331836937.61187172 75601718.778328091 0 0 0 0 483437902.58351135 485903056.67450905 0 485903056.67450905 176003149.00172997 0 0 0 0 47330021.840667725 14421570.7694664 0 14421570.7694664 44292572.308389664 0 0 0 0 38597219.512761116 -21433193.068749428 0 -21433193.068749428 -80657215.545715332 0 0 0 0 -56134279.738372803 100411474.81931877 0 100411474.81931877 43928026.486990213 0 0 0 0 176850463.24500084 123074536.92428017 0 123074536.92428017 46056119.450775146 0 0 0 0 32324169.437149048 8495986.3244400024 0 8495986.3244400024 15332229.390274048 0 0 0 0 93745959.497246742 -11262548.912572861 0 -11262548.912572861 2060846.3276920319 0 0 0 0 17475532.368233062 26291943.709781304 0 26291943.709781304 -5920234.5420207828 0 0 0 0 28736692.852228642 19814109.827533245 0 19814109.827533245 25392743.437950134 0 0 0 0 -15506011.336071156 15324642.150178947 0 15324642.150178947 2686549.8796428256 0 0 0 0 13907959.966723703 16400819.834084377 0 16400819.834084377 -9146.5819096788764 0 0 0 0 39566.429455757141 25174714.357319593 0 25174714.357319593 -605025.1314163208 0 0 0 0 15395945.995117188 6680300.9355373383 0 6680300.9355373383 34643066.406816483 0 0 0 0 5672276.9960212521 28196466.738882918 0 28196466.738882918 -1814006.5054509193 0 0 0 0 -88238666.995197296 104608881.65780783 0 104608881.65780783 122377843.09421158 0 0 0 0 133961543.12132263 -674689493.34573364 0 -674689493.34573364 -298269191.52636719 0 0 0 0 -12444488.283676147 -15533217.441055298 0 -15533217.441055298 17505604.975560904 0 0 0 0 120627772.06233501 -234550704.15904331 0 -234550704.15904331 -389565693.87800217 0 0 0 0 -93106590.872545242 163244764.85723209 0 163244764.85723209 -16278013.027511597 0 0 0 0 1202948368.6073875 13947369.673789978 0 13947369.673789978 -722404618.56010246 0 0 0 0 257626286.9620471 34195559.417334795 0 34195559.417334795 -101179930.1292057 0 0 0 0 478647897.7103653 862988066.06862354 0 862988066.06862354 1996666536.9538116 0 0 0 0 1499608348.817131 -626462981.78593826 0 -626462981.78593826 324420294.47846222 0 0 0 0 -550016857.6733017 261192825.09441853 0 261192825.09441853 427423315.44519043 0 0 0 0 12194863.874165297 14404981.02157712 0 14404981.02157712 16424339.977499008 0 0 0 0 2560398.9129198366 35723588.53324876 0 35723588.53324876 18889330.400186703 0 0 0 0 893276193.00774384 497200405.84089279 0 497200405.84089279 -57957837.817214966 0 0 0 0 1759532500.986763 717774293.19699669 0 717774293.19699669 -304320350.5770216 0 0 0 0 18899506.766266298 4214104.3911830671 0 4214104.3911830671 1530242.5894045718 0 0 0 0 459609270.34211254 918168379.76506138 0 918168379.76506138 1505111024.8965855 0 0 0 0 185664600.8313942 231233000.59134865 0 231233000.59134865 206978687.46772671 0 0 0 0 -54197424.797306061 110443006.54790711 0 110443006.54790711 127380946.94176078 0 0 0 0 -53802674.191770554 94475051.054172158 0 94475051.054172158 -6003653.450424552 0 0 0 0 686203309.50720835 529763067.81374252 0 529763067.81374252 -9193099.784924984 0 0 0 0 1056872510.251461 739843400.06775522 0 739843400.06775522 104445617.83691835 0 0 0 0 693713339.33316278 480129330.92333668 0 480129330.92333668 -81124082.347143173 0 0 0 0 1156690529.6799622 541536699.19594193 0 541536699.19594193 -360707949.1649332 0 0 0 0 1305086013.6234188 -161008129.05662537 0 -161008129.05662537 -248582902.39068699 0 0 0 0 1806396164.5168791 788705511.46086693 0 788705511.46086693 -278150787.68331528 0 0 0 0 497020278.54904556 814736662.34008408 0 814736662.34008408 182029401.58263111 0 0 0 0 1112701013.1420279 441903627.39190364 0 441903627.39190364 -404215035.54416466 0 0 0 0 40789715.218945622 25242884.832675219 0 25242884.832675219 -9723237.3690280914 0 0 0 0 -185878932.19942474 158159858.7679491 0 158159858.7679491 -70458557.060070038 0 0 0 0 -1247271.1553001404 18794293.910450935 0 18794293.910450935 19348021.056751251 0 0 0 0 9826292.7381012607 33662521.079729751 0 33662521.079729751 6506787.290539939 0 0 0 0 40477587.846229076 28468893.939074039 0 28468893.939074039 -25604107.534542084 0 0 0 0 58262864.752400398 95818243.641564369 0 95818243.641564369 -1999952.6477230787 0 0 0 0 21203764.992802143 55085374.734100819 0 55085374.734100819 -16027641.802280426 0 0 0 0 25156828.219083786 42157296.8671422 0 42157296.8671422 21145206.096055031 0 0 0 0 2656583474.2030716 314781059.6207062 0 314781059.6207062 -56875814.664929509 0 0 0 0 1593927210.2954369 690680238.43920517 0 690680238.43920517 -333963477.28946328 0 0 0 0 1281264323.0188751 311058860.48700953 0 311058860.48700953 140813207.27154732 0 0 0 0 7090801.3933587298 4166088.69913573 0 4166088.69913573 1708111.9582376257 0 0 0 0 1082041219.9958153 619140906.08269167 0 619140906.08269167 178400362.78070641 0 0 0 0 -2242061.2540992536 10633665.329009656 0 10633665.329009656 8896016.5732832588 0 0 0 0 1081886441.2179399 -575827351.3073343 0 -575827351.3073343 1247964054.5047612 0 0 0 0 1058270470.9976044 1135707151.4454694 0 1135707151.4454694 1115667677.0154061 0 0 0 0 2216908312.6786556 1056350613.6304966 0 1056350613.6304966 269534912.78431988 0 0 0 0 -2462622.03125 182090000.80368036 0 182090000.80368036 1081102210.9295933 0 0 0 0 -18206156.750021756 25045744.772011664 0 25045744.772011664 -11733967.865961982 0 0 0 0 391836263.16828108 1546818619.6427786 0 1546818619.6427786 770278832.41346884 0 0 0 0 -5002969.8126419634 6723859.3121465892 0 6723859.3121465892 -5043098.1131224278 0 0 0 0 792133570.2017231 322480359.46135259 0 322480359.46135259 -290883725.59463215 0 0 0 0 864283063.6244278 786091606.3163265 0 786091606.3163265 -510969111.92969769 0 0 0 0 623279497.53141165 554646914.29629159 0 554646914.29629159 -167507976.03863859 0 0 0 0 537562914.35556793 484003568.0407958 0 484003568.0407958 -172054299.74344715 0 0 0 0 104137322.45721507 183391189.92456886 0 183391189.92456886 74963194.915304661 0 0 0 0 46270079.473080635 32762044.826519728 0 32762044.826519728 30894348.265441656 0 0 0 0 75790242.928889275 104093393.39662349 0 104093393.39662349 21812442.876509666 0 0 0 0 226946299.10119438 -496987909.84026629 0 -496987909.84026629 449013376.05849826 0 0 0 0 668320607.34739494 292696828.54261792 0 292696828.54261792 -148052408.22553879 0 0 0 0 -10833545.446125805 8608265.4336160868 0 8608265.4336160868 -9951011.2519676536 0 0 0 0 464127722.34747314 305781724.13649607 0 305781724.13649607 457992109.21462464 0 0 0 0 -530854428.49662399 270226582.43746281 0 270226582.43746281 150074343.23124886 0 0 0 0 -662924060.04621124 297444764.61238146 0 297444764.61238146 166985835.45962334 0 0 0 0 -530557292.60518837 267791093.28355551 0 267791093.28355551 167564048.00722885 0 0 0 0 -278512418.56307793 171160159.11685896 0 171160159.11685896 57173931.385908127 0 0 0 0 -300290812.47551155 139390350.95832419 0 139390350.95832419 115559164.40547085 0 0 0 0 -441800689.73509407 288171373.3442235 0 288171373.3442235 102685254.53284693 0 0 0 0 -227183273.05296612 269630380.2323882 0 269630380.2323882 61446497.849085033 0 0 0 0 -35984530.75428009 189784060.89200258 0 189784060.89200258 -7865262.9615163803 0 0 0 0 -221470537.69258976 268963442.34677327 0 268963442.34677327 2880307.3843522072 0 0 0 0 -439098042.76774025 494324134.22032475 0 494324134.22032475 -165677124.65257081 0 0 0 0 -496053348.03408813 285079033.67930615 0 285079033.67930615 109167938.42769456 0 0 0 0 -504804874.1653403 350575096.62249935 0 350575096.62249935 109152930.92409825 0 0 0 0 -697442622.60823441 513482775.36484885 0 513482775.36484885 -44835866.483174562 0 0 0 0 -604826602.95891666 373789804.58652192 0 373789804.58652192 107659053.48332286 0 0 0 0 -1319888942.8884702 -278543861.99442255 0 -278543861.99442255 134643904.85427564 0 0 0 0 -233217382.11443901 -106476984.73414016 0 -106476984.73414016 99734559.529371977 0 0 0 0 -17615452.505150139 14588776.008458089 0 14588776.008458089 -8671013.3589896802 0 0 0 0 -109784322.65499878 103803190.67034507 0 103803190.67034507 31331388.716860294 0 0 0 0 864861397.35306549 763953248.16707957 0 763953248.16707957 19479106.668567657 0 0 0 0 797032657.19754696 269212865.09814024 0 269212865.09814024 238753274.19923162 0 0 0 0 -83231694.603082657 13186131.690951824 0 13186131.690951824 28171840.660550147 0 0 0 0 63571088.689406991 58189229.836094081 0 58189229.836094081 -54346639.547165871 0 0 0 0 -229698504.20411491 114757115.19610643 0 114757115.19610643 58722475.223050117 0 0 0 0 -661901152.54840088 96961923.222662538 0 96961923.222662538 133251845.20550346 0 0 0 0 -233063779.16383934 95933760.753410339 0 95933760.753410339 25556908.258606911 0 0 0 0 -428619971.46038818 276134981.61770439 0 276134981.61770439 -23072644.046090126 0 0 0 0 -197836064.59867859 225268729.08734179 0 225268729.08734179 -12634881.454073906 0 0 0 0 -43356963.325218201 75239970.790579319 0 75239970.790579319 -70661059.679970741 0 0 0 0 -12313472.966093063 22232100.018388748 0 22232100.018388748 -16594933.916892052 0 0 0 0 -58406828.681424141 27941408.361208916 0 27941408.361208916 -23402224.306923866 0 0 0 0 -1041274.8079786301 32632758.412439346 0 32632758.412439346 -42204145.43079567 0 0 0 0 -84135569.641653061 -55772012.689320564 0 -55772012.689320564 3601894.835193634 0 0 0 0 -92817061.259346485 159669664.14340937 0 159669664.14340937 -229347270.1206131 0 0 0 0 104208864.4060955 121562225.28644371 0 121562225.28644371 -543091840.07146883 0 0 0 0 -972996833.3157692 462805320.07408428 0 462805320.07408428 209002341.87201405 0 0 0 0 -477173152.08326054 621798776.0502553 0 621798776.0502553 -447724880.31316757 0 0 0 0 -553562566.98601913 300241300.4772501 0 300241300.4772501 131092165.35091877 0 0 0 0 -287876122.72341073 60653885.495980412 0 60653885.495980412 109175305.08626938 0 0 0 0 -290779241.59923935 25981537.492042542 0 25981537.492042542 181686045.41269112 0 0 0 0 -592465952.56760406 134149999.0308466 0 134149999.0308466 165352336.11000443 0 0 0 0 -853705229.76422691 120136266.29314995 0 120136266.29314995 337056311.94093037 0 0 0 0 -404734114.80620956 589350914.59110498 0 589350914.59110498 -886563764.77472115 0 0 0 0 -14123628.635452427 2304601.8654918633 0 2304601.8654918633 142237.94469933026 0 0 0 0 -3501996.9548239484 -4713188.4668465294 0 -4713188.4668465294 -1005192.6223504108 0 0 0 0 -1895872945.6456394 489135014.83926582 0 489135014.83926582 -565771059.60519886 0 0 0 0 -427964745.55656815 -85177915.928915977 0 -85177915.928915977 413478726.0064249 0 0 0 0 -1298159356.2561927 -100644883.18937063 0 -100644883.18937063 413414751.5890789 0 0 0 0 -1434105617.6097631 1114451789.5789948 0 1114451789.5789948 -371091211.20013046 0 0 0 0 -410562934.46160829 -375320053.10983658 0 -375320053.10983658 369458632.49031067 0 0 0 0 -1093437658.5192842 421476376.17199802 0 421476376.17199802 77930700.890071869 0 0 0 0 -324251928.75351906 -422273292.91981888 0 -422273292.91981888 292800739.68183517 0 0 0 0 -265696901.61313829 -397785807.5069437 0 -397785807.5069437 287067076.03862381 0 0 0 0 -278006002.17469311 -409694435.12525177 0 -409694435.12525177 287310592.34420776 0 0 0 0 -283291834.12723351 -397732466.61260414 0 -397732466.61260414 305245900.86009598 0 0 0 0 -369571683.95019639 787207882.63825226 0 787207882.63825226 -1179528165.0550308 0 0 0 0 -13455519.770231759 -4936857.1237147227 0 -4936857.1237147227 -2451653.3679404855 0 0 0 0 -1507095647.9733911 866209987.67034531 0 866209987.67034531 -164282912.1401062 0 0 0 0 -284076091.4098053 -408030940.81987762 0 -408030940.81987762 309467665.72468376 0 0 0 0 -662450512.11179924 -71869009.509245872 0 -71869009.509245872 235114879.2961731 0 0 0 0 206217363.16641998 -105757613.2767601 0 -105757613.2767601 232566967.17887497 0 0 0 0 -31891193.671518039 20307877.501476035 0 20307877.501476035 -1250054.8987292126 0 0 0 0 -16626386.958728313 21074983.932946205 0 21074983.932946205 69093561.499334335 0 0 0 0 169583165.72320366 210756134.19129181 0 210756134.19129181 159044565.8560791 0 0 0 0 -27994316.10182476 -19742403.933272362 0 -19742403.933272362 10069596.531237602 0 0 0 0 -65201446.441646576 64287044.984488487 0 64287044.984488487 101932436.13362217 0 0 0 0 -31445828.992137872 8549845.5318572633 0 8549845.5318572633 -1999645.5495834611 0 0 0 0 -601906499.74087059 691339807.27459002 0 691339807.27459002 549376675.78085899 0 0 0 0 439882793.09606171 -364966194.45332718 0 -364966194.45332718 -558385827.91300583 0 0 0 0 406488889.03170109 245862208.76894188 0 245862208.76894188 -632011518.50830078 0 0 0 0 247932661.843539 -176353909.42046165 0 -176353909.42046165 48224302.337620735 0 0 0 0 185539438.79691696 55205682.982852936 0 55205682.982852936 -69256558.822851181 0 0 0 0 414412313.94240558 174868629.20657253 0 174868629.20657253 -7470316.1378860474 0 0 0 0 -1310553.530390501 33373585.377153397 0 33373585.377153397 15614757.315940857 0 0 0 0 -6070673.2723048031 36828391.505218506 0 36828391.505218506 27809107.783687592 0 0 0 0 13026412.723733332 7584715.3544743843 0 7584715.3544743843 -756866.86051203683 0 0 0 0 6943653.818496149 48469727.522882462 0 48469727.522882462 18134426.807914734 0 0 0 0 24382574.128999047 31813833.599738598 0 31813833.599738598 -22311441.283042908 0 0 0 0 -12651419.900955237 931851.01027488708 0 931851.01027488708 -31084625.460518837 0 0 0 0 -596348.26739142835 29206465.108963013 0 29206465.108963013 -9760666.1873703003 0 0 0 0 3360547.9474161565 31778833.165475845 0 31778833.165475845 -12055332.33524704 0 0 0 0 -223067327.55091512 276249752.24013138 0 276249752.24013138 -266251719.50903034 0 0 0 0 -143036200.4121758 359465395.04032898 0 359465395.04032898 -277031649.64729309 0 0 0 0 18016620.422337975 263843023.2777071 0 263843023.2777071 -1020924733.3142357 0 0 0 0 -916151615.75393784 221693427.62586594 0 221693427.62586594 50220343.647102356 0 0 0 0 2643711.4666001378 -1036576.2673308328 0 -1036576.2673308328 -30327.653276909143 0 0 0 0 -93115092.598049 -45299380.765954971 0 -45299380.765954971 78625994.110222816 0 0 0 0 -301787599.62936854 68760732.921918869 0 68760732.921918869 19868658.015865326 0 0 0 0 -94824441.552722931 -22692317.60247612 0 -22692317.60247612 -10790389.290091038 0 0 0 0 -377952787.97120464 256072680.91708803 0 256072680.91708803 -119449270.53160858 0 0 0 0 -205526190.39002919 90892865.538110733 0 90892865.538110733 -38929584.399341583 0 0 0 0 -142270003.85322857 69959919.507066727 0 69959919.507066727 16725319.079931259 0 0 0 0 -207894112.48792803 106681185.03858471 0 106681185.03858471 -3193935.1333389282 0 0 0 0 -35125560.02933684 6542347.9289731979 0 6542347.9289731979 -15743180.821926117 0 0 0 0 -55807103.034744069 22335016.621728897 0 22335016.621728897 -12122556.997367859 0 0 0 0 -66712384.1350016 19160354.683289528 0 19160354.683289528 24917913.949943542 0 0 0 0 -43294470.113382906 35673718.838167191 0 35673718.838167191 35553333.534086227 0 0 0 0 25307537.945723414 53450000.324336052 0 53450000.324336052 24207270.874814987 0 0 0 0 -45349864.589275852 88480922.333461761 0 88480922.333461761 8055292.8237800598 0 0 0 0 -19797786.752234638 61219243.859828949 0 61219243.859828949 79852102.2396698 0 0 0 0 -2710808.3828394562 40318749.876592159 0 40318749.876592159 26206479.838176727 0 0 0 0 -19196722.855508566 48389913.481140137 0 48389913.481140137 51689208.88376236 0 0 0 0 33832735.786585718 65020809.872959614 0 65020809.872959614 16364529.379020691 0 0 0 0 3201423.6064625382 52938931.633935928 0 52938931.633935928 26780817.634491444 0 0 0 0 99836568.545160294 49238349.564575195 0 49238349.564575195 10315529.422393799 0 0 0 0 29916489.722477853 113040904.76532173 0 113040904.76532173 73248037.090481758 0 0 0 0 -21710716.491422962 27220883.444725893 0 27220883.444725893 -34213872.076610692 0 0 0 0 232841507.13985443 10942577.869857788 0 10942577.869857788 -198952766.03750229 0 0 0 0 -597255.78252792358 138253701.42697144 0 138253701.42697144 -1674156.4449005127 0 0 0 0 4451741.5293121338 122266629.53301239 0 122266629.53301239 -66794699.395980835 0 0 0 0 173518149.25690269 243957063.23651457 0 243957063.23651457 8324170.6903991699 0 0 0 0 -16931249.691818237 85624198.60137558 0 85624198.60137558 7819011.9822187424 0 0 0 0 -42628923.847595215 -103256953.99996185 0 -103256953.99996185 -159231164.37132549 0 0 0 0 -21441448.382354736 28973944.170391083 0 28973944.170391083 -64092507.362003326 0 0 0 0 83861465.316921234 76104183.929065704 0 76104183.929065704 -43476141.287406921 0 0 0 0 3418033.5210976601 56566330.263586044 0 56566330.263586044 -3460851.8565826416 0 0 0 0 -30625305.248821616 19994404.185710907 0 19994404.185710907 12348288.61050415 0 0 0 0 -16760977.228888214 28866020.946796417 0 28866020.946796417 14158483.386005402 0 0 0 0 -41316198.02287896 23313508.59277153 0 23313508.59277153 22008204.876083374 0 0 0 0 -32166683.031670734 32659657.889625549 0 32659657.889625549 22951299.764492035 0 0 0 0 -44819793.303620487 31066191.052990913 0 31066191.052990913 20569210.498882294 0 0 0 0 13647323.12599952 28725490.22063569 0 28725490.22063569 4544498.3301291168 0 0 0 0 170684689.64963794 -1763641.4755327702 0 -1763641.4755327702 -11699335.287651062 0 0 0 0 1761050.2697156146 1376028.3694080859 0 1376028.3694080859 237393.7856888622 0 0 0 0 185125144.1793232 165044194.69239807 0 165044194.69239807 126949559.55251122 0 0 0 0 -81632707.640571594 227397912.56018162 0 227397912.56018162 23098975.123218536 0 0 0 0 -24090675.898591124 21715333.516338348 0 21715333.516338348 4971846.9563717842 0 0 0 0 -24128110.771971978 23216211.886026382 0 23216211.886026382 4306479.4190245271 0 0 0 0 -29174410.392664045 20966558.058021545 0 20966558.058021545 23188157.180868089 0 0 0 0 -24339155.371448107 17342258.352104187 0 17342258.352104187 5753351.3305511475 0 0 0 0 -32504381.876400232 28943377.944484711 0 28943377.944484711 4462325.1706619263 0 0 0 0 164972578.53125572 -17396253.872004509 0 -17396253.872004509 -66228781.078784943 0 0 0 0 11279079.79696974 27845733.034812164 0 27845733.034812164 -1180986.7922522724 0 0 0 0 -1336291.2460437231 21349248.797292709 0 21349248.797292709 -19290700.032421112 0 0 0 0 19149045.13561821 80381021.166133881 0 80381021.166133881 -14491305.5219841 0 0 0 0 3211484.549932383 2525576.7927110642 0 2525576.7927110642 777541.01589789987 0 0 0 0 51288612.192287445 26059229.617111921 0 26059229.617111921 -35539068.990291595 0 0 0 0 175938766.44300842 -42687199.68454361 0 -42687199.68454361 -85956560.304742813 0 0 0 0 57244204.39135778 87447908.160332918 0 87447908.160332918 -116607029.29343796 0 0 0 0 7236122.7819423676 -52340167.549467087 0 -52340167.549467087 1431232.1430397034 0 0 0 0 85455268.796165466 -3079163.337272644 0 -3079163.337272644 -136226286.3151679 0 0 0 0 146179069.02760315 189278926.70671272 0 189278926.70671272 124957965.76472759 0 0 0 0 330253997.94299889 136419740.17810154 0 136419740.17810154 21984948.677833557 0 0 0 0 168898472.92677879 -42477352.70516777 0 -42477352.70516777 -25924089.205086231 0 0 0 0 189262876.82301712 -36602874.092647552 0 -36602874.092647552 -99946657.072814941 0 0 0 0 153677944.66761971 15731010.840437889 0 15731010.840437889 -49027335.344978333 0 0 0 0 126174937.27081871 -2507574.2359771729 0 -2507574.2359771729 -21727028.628489017 0 0 0 0 -89444602.739282608 26244381.852771759 0 26244381.852771759 -38397859.279139996 0 0 0 0 229162120.19927597 -55036362.63483429 0 -55036362.63483429 -95494160.634471893 0 0 0 0 256806933.24090958 -133628885.92334557 0 -133628885.92334557 -2148082.2852210999 0 0 0 0 836847055.1312561 124783722.48047256 0 124783722.48047256 18053002.896590471 0 0 0 0 84584628.685502052 -33370035.937849045 0 -33370035.937849045 -21367123.210517883 0 0 0 0 86236897.973971367 -47518604.316368103 0 -47518604.316368103 -108951182.24241257 0 0 0 0 -121549472.29457283 172044332.95850086 0 172044332.95850086 68020476.953163147 0 0 0 0 -88184762.245512962 29764993.427658081 0 29764993.427658081 -22181962.60043335 0 0 0 0 115166595.33858871 183962132.43987274 0 183962132.43987274 36172074.640899658 0 0 0 0 108005302.24222565 29160382.508167267 0 29160382.508167267 -97122624.485527039 0 0 0 0 191289970.97651291 5697647.6242494583 0 5697647.6242494583 -85160960.922111511 0 0 0 0 193431932.54596329 2174647.1920089722 0 2174647.1920089722 -100532227.10184336 0 0 0 0 230911154.16929054 314041500.49242973 0 314041500.49242973 149796181.72498322 0 0 0 0 564464677.35852432 44597350.506568909 0 44597350.506568909 -81678483.360334873 0 0 0 0 -74028489.141418457 162858152.71287918 0 162858152.71287918 194865433.88974571 0 0 0 0 -22843350.779335022 67951517.067018509 0 67951517.067018509 18140665.114860535 0 0 0 0 695301.36166000366 147766492.48537827 0 147766492.48537827 64298784.510501862 0 0 0 0 -12317354.170465469 169479303.41250229 0 169479303.41250229 83083418.821029663 0 0 0 0 -18406498.071750641 151610640.27469254 0 151610640.27469254 39432186.328344345 0 0 0 0 -36417758.244377136 77072306.422878265 0 77072306.422878265 71869237.664818287 0 0 0 0 -22156660.234725952 84860431.106960297 0 84860431.106960297 14753440.51184082 0 0 0 0 -41987923.072250366 41550588.728927612 0 41550588.728927612 -12534887.52788353 0 0 0 0 -37926866.649486542 45558691.64166832 0 45558691.64166832 -35623205.052032471 0 0 0 0 -48404989.782299042 37105654.629291534 0 37105654.629291534 -26011772.79287529 0 0 0 0 -33337024.518592834 69721032.627015114 0 69721032.627015114 18041232.069412231 0 0 0 0 -2538378.288464684 3785342.0019530654 0 3785342.0019530654 1175450.0409982353 0 0 0 0 680756313.36741447 296249067.69127083 0 296249067.69127083 111262126.11791992 0 0 0 0 -158254142.76551056 61224018.707658768 0 61224018.707658768 87194475.25308609 0 0 0 0 -2099995.7646657974 3494922.708392337 0 3494922.708392337 -830618.5397670269 0 0 0 0 -43783516.24661541 47027677.382457733 0 47027677.382457733 -63216770.021942139 0 0 0 0 566809967.50963593 -287804589.96241379 0 -287804589.96241379 -215279235.3430481 0 0 0 0 328227820.02547455 256814927.57294655 0 256814927.57294655 581731246.38575745 0 0 0 0 -33205827.229990005 28062044.242033005 0 28062044.242033005 -18539755.389453888 0 0 0 0 3949368.9975151308 14819880.03146442 0 14819880.03146442 -13279985.433918804 0 0 0 0 -41805528.312927246 60979230.652393341 0 60979230.652393341 -47203484.703521729 0 0 0 0 -11446169.810707383 17830986.750392914 0 17830986.750392914 3816924.5901792645 0 0 0 0 -46808511.300333023 45595388.8054142 0 45595388.8054142 -44594662.552120209 0 0 0 0 -52028161.495388031 77346536.742259979 0 77346536.742259979 -63994771.526014626 0 0 0 0 -12335314.824549288 3224551.1390798241 0 3224551.1390798241 11279870.997218937 0 0 0 0 -59436957.08146286 68976316.795074463 0 68976316.795074463 -43162322.612892151 0 0 0 0 9521140.326483734 6925513.7156935483 0 6925513.7156935483 3900840.0152316615 0 0 0 0 -190773915.72962523 263911281.27939916 0 263911281.27939916 -137160201.12997627 0 0 0 0 -119289587.47681427 186236003.55466366 0 186236003.55466366 -230910695.62501717 0 0 0 0 28924158.861223221 -232768489.51417351 0 -232768489.51417351 69786135.910263062 0 0 0 0 -85027540.597820282 218240636.86475372 0 218240636.86475372 218767558.20926285 0 0 0 0 790388866.10756588 216268261.16529179 0 216268261.16529179 -258624318.37020493 0 0 0 0 5301305.289930582 2896036.886434868 0 2896036.886434868 1031692.8954525143 0 0 0 0 -127629748.0266571 80164339.425048828 0 80164339.425048828 9508198.0358810425 0 0 0 0 -208606764.58199215 166170982.86023474 0 166170982.86023474 -34167544.911315918 0 0 0 0 3281949.8240737915 171907512.62336922 0 171907512.62336922 -9839095.1679611206 0 0 0 0 -208840236.55716896 153832927.12962723 0 153832927.12962723 108883984.17402458 0 0 0 0 5139715.5817495584 255455843.81508556 0 255455843.81508556 -4958237.3523712158 0 0 0 0 291944354.43130493 462095568.98529816 0 462095568.98529816 143892666.96129513 0 0 0 0 281548722.51576996 189248407.23797989 0 189248407.23797989 -66577619.445037842 0 0 0 0 48508023.152910233 128949350.31476307 0 128949350.31476307 7010019.181728363 0 0 0 0 67384286.983406067 161703999.6007328 0 161703999.6007328 -70019996.632232666 0 0 0 0 -132975922.32923412 87539329.803930283 0 87539329.803930283 34132814.74836731 0 0 0 0 -89067692.306594849 192479333.14670563 0 192479333.14670563 11809062.517799377 0 0 0 0 -5811026.1380882263 26375171.004350662 0 26375171.004350662 -17758076.110355377 0 0 0 0 -21822166.92216593 31202600.214395091 0 31202600.214395091 -30260672.433041006 0 0 0 0 -10481362.866762161 33240786.540026665 0 33240786.540026665 -15003818.774780273 0 0 0 0 -21328015.551482201 32089391.548604727 0 32089391.548604727 -14547651.966270447 0 0 0 0 -19913882.086023808 21712949.934070826 0 21712949.934070826 -19285384.645095825 0 0 0 0 -1390153.4377284609 20461451.354020301 0 20461451.354020301 -24153643.725220203 0 0 0 0 80828230.056756973 32474277.310590744 0 32474277.310590744 -81869156.342308044 0 0 0 0 863954343.57876587 178870681.77524376 0 178870681.77524376 -400619451.54868317 0 0 0 0 215079462.0290184 9198026.2234992981 0 9198026.2234992981 -263258442.84567833 0 0 0 0 130698059.86982918 102198683.58034325 0 102198683.58034325 -19520604.207199097 0 0 0 0 -30341287.800555229 73557571.317359924 0 73557571.317359924 -33649968.842367828 0 0 0 0 -13006762.808365822 39235208.074737549 0 39235208.074737549 -32973698.044200778 0 0 0 0 -31924296.52434653 56605186.930809259 0 56605186.930809259 -36968364.484870911 0 0 0 0 -47060780.015479088 79515620.310890198 0 79515620.310890198 -29197828.997192383 0 0 0 0 -48438304.349967003 64890810.17358017 0 64890810.17358017 -40788499.299865723 0 0 0 0 -4171649.1715434026 20536189.037183374 0 20536189.037183374 7380226.868030712 0 0 0 0 -13848980.601613998 41729729.512382507 0 41729729.512382507 -8605671.7801818848 0 0 0 0 1691764.3399072289 55711629.989253998 0 55711629.989253998 -27633289.050436974 0 0 0 0 -4562504.7457513809 38313869.654800415 0 38313869.654800415 -12040078.133289337 0 0 0 0 -15571602.178844452 28170346.625514984 0 28170346.625514984 -21182171.061332703 0 0 0 0 -7820083.0445650481 7358046.9768807739 0 7358046.9768807739 13475533.882431567 0 0 0 0 6589353.5247141831 16789860.294431426 0 16789860.294431426 -11954826.312320322 0 0 0 0 -35771771.580759048 33950779.451940536 0 33950779.451940536 -16639631.296901703 0 0 0 0 -48345530.928391054 60138691.725987852 0 60138691.725987852 -20719463.08266449 0 0 0 0 60403099.676211357 -22980787.243919373 0 -22980787.243919373 16294161.500553131 0 0 0 0 33977207.632079601 14705687.010662079 0 14705687.010662079 -9970536.7882881165 0 0 0 0 -3664604.1779608727 -1138705.4546852112 0 -1138705.4546852112 3396786.8497543335 0 0 0 0 56881516.749423623 737414.0099029541 0 737414.0099029541 -49507163.562644958 0 0 0 0 1319105.7685704231 16059475.004020691 0 16059475.004020691 46873624.993881226 0 0 0 0 38992594.960309029 16771332.941761017 0 16771332.941761017 -69101221.961975098 0 0 0 0 -991188.21810462838 1752010.5292084813 0 1752010.5292084813 1161907.6937759221 0 0 0 0 202183873.39990258 163074243.51320362 0 163074243.51320362 -19607270.550109863 0 0 0 0 33512658.93434906 126768233.62343597 0 126768233.62343597 8746802.1394042969 0 0 0 0 166148893.19379568 63949402.255180359 0 63949402.255180359 -60312662.650566101 0 0 0 0 68711938.720179558 98664814.017238617 0 98664814.017238617 -70420136.512489319 0 0 0 0 11238307.12665844 92859445.072181702 0 92859445.072181702 -534861.53212738037 0 0 0 0 47927123.378363147 34274654.724898636 0 34274654.724898636 11062427.884595275 0 0 0 0 26995379.4577775 50321386.298080444 0 50321386.298080444 -84149531.691854477 0 0 0 0 -10816487.265863299 46617685.191333771 0 46617685.191333771 -51514475.607284546 0 0 0 0 20303496.879545212 87042849.24206543 0 87042849.24206543 -50937480.61977005 0 0 0 0 26226901.535579253 26370527.899926797 0 26370527.899926797 9593513.8535445482 0 0 0 0 41689127.765512466 42116546.950184822 0 42116546.950184822 -51808928.0847435 0 0 0 0 -629270.30259990692 79549538.463222504 0 79549538.463222504 -20146722.739765167 0 0 0 0 37077816.981505394 71144113.719503403 0 71144113.719503403 10874197.102684021 0 0 0 0 -10128723.16785167 27525169.104367509 0 27525169.104367509 -30030566.270077229 0 0 0 0 26701873.82760191 53334516.539791107 0 53334516.539791107 -14816981.759628296 0 0 0 0 20487526.329216242 74432364.864619255 0 74432364.864619255 -29306132.536834717 0 0 0 0 -1287029.7683880925 68874475.766890526 0 68874475.766890526 17545697.173561096 0 0 0 0 -152915318.6549015 11528861.619132996 0 11528861.619132996 -4706865.9156303406 0 0 0 0 5677126.8066459429 34486465.366737574 0 34486465.366737574 6567165.8498133123 0 0 0 0 -2426939.2413918227 69600572.564367294 0 69600572.564367294 27598061.919221163 0 0 0 0 -109652740.02189004 58586372.976830721 0 58586372.976830721 -12936326.297546387 0 0 0 0 -107830715.28689611 18442625.748195291 0 18442625.748195291 -25349114.077140808 0 0 0 0 -59144496.63911438 33381098.582092285 0 33381098.582092285 -23642434.03263092 0 0 0 0 -51519447.47984314 36974912.253726959 0 36974912.253726959 -24581071.25485611 0 0 0 0 -31112272.031370163 59869162.00881958 0 59869162.00881958 -25420013.474029541 0 0 0 0 -47404635.662239075 49675330.080436707 0 49675330.080436707 -15697338.52066803 0 0 0 0 -92208867.704081774 67582553.716160059 0 67582553.716160059 -22855070.656776428 0 0 0 0 -61327306.669937134 46417848.961181641 0 46417848.961181641 -29086412.291191101 0 0 0 0 -87986433.300033569 33447145.571418762 0 33447145.571418762 -19760131.935321808 0 0 0 0 -64879064.002754211 46934328.152038574 0 46934328.152038574 -29125390.613304138 0 0 0 0 -81490502.348274231 55152833.729309082 0 55152833.729309082 -23389292.469490051 0 0 0 0 -5672816.2561359406 44015500.494709015 0 44015500.494709015 -10854643.539367676 0 0 0 0 -41048938.282546997 51217673.92074585 0 51217673.92074585 -24879274.574516296 0 0 0 0 -25827256.401659809 35253790.927413769 0 35253790.927413769 -21087728.515035123 0 0 0 0 -60431659.38092804 57401674.403804779 0 57401674.403804779 -24871565.561912537 0 0 0 0 -41659944.657761157 65699392.272622406 0 65699392.272622406 -31566475.165744781 0 0 0 0 -48248217.767372131 48067625.868175507 0 48067625.868175507 -35053933.318671227 0 0 0 0 -48419555.601463318 49766062.301692963 0 49766062.301692963 -31603468.368076324 0 0 0 0 4400133.2784423828 25539661.994728088 0 25539661.994728088 3898182.6265563965 0 0 0 0 1346954.1587142944 25956242.055007935 0 25956242.055007935 -24517964.267343521 0 0 0 0 9262931.2341690212 20669292.748442236 0 20669292.748442236 -20108908.905523002 0 0 0 0 -66059151.412437439 68159697.451486588 0 68159697.451486588 -34119842.991714478 0 0 0 0 9179758.9314026535 52809236.307545759 0 52809236.307545759 -7696273.8109530509 0 0 0 0 -14448254.859767362 14165936.273136228 0 14165936.273136228 79162.574455440044 0 0 0 0 -66056054.432220459 42489175.037841797 0 42489175.037841797 -44328165.391906738 0 0 0 0 693180.12251107302 39224217.094049245 0 39224217.094049245 -20351324.788607702 0 0 0 0 5883133.8164172173 29230433.102481842 0 29230433.102481842 -14272738.971069336 0 0 0 0 -12612819.858194342 53439731.437814966 0 53439731.437814966 -39612970.188652754 0 0 0 0 -276273924.92335987 -108879482.8923893 0 -108879482.8923893 -38748771.192390442 0 0 0 0 212569226.78803444 15820596.189174652 0 15820596.189174652 -126046895.63719368 0 0 0 0 -105915926.71891785 42641169.483074188 0 42641169.483074188 -89691417.60559082 0 0 0 0 -207690325.62564087 59785153.964817047 0 59785153.964817047 -70959521.61270237 0 0 0 0 -507836.60553320497 1932043.7650663406 0 1932043.7650663406 -1558468.1968139708 0 0 0 0 -140776635.37117004 242890061.39270496 0 242890061.39270496 -30841988.971702576 0 0 0 0 228519187.38061523 128294924.32399607 0 128294924.32399607 -66179654.231616974 0 0 0 0 -333208058.46623039 63607704.979248047 0 63607704.979248047 -38076299.390552521 0 0 0 0 -283968621.55597782 303283688.89389467 0 303283688.89389467 -170103661.16916084 0 0 0 0 -550463.03960111737 2631237.4671031013 0 2631237.4671031013 -4992232.6131609082 0 0 0 0 213767264.9400692 36744753.428188324 0 36744753.428188324 -93103104.844619036 0 0 0 0 44098075.398884296 66809133.848189831 0 66809133.848189831 81183021.266757965 0 0 0 0 185783820.33078766 166412854.76738739 0 166412854.76738739 92493626.573401451 0 0 0 0 261808780.68851757 331988641.40566635 0 331988641.40566635 -65389128.33272934 0 0 0 0 546145241.92943001 471324286.48589134 0 471324286.48589134 241064.96847343445 0 0 0 0 586401977.32881832 273334229.88946247 0 273334229.88946247 -193015983.9655571 0 0 0 0 308238100.33410645 243307345.1313858 0 243307345.1313858 99748449.418471098 0 0 0 0 212908901.44895935 218689359.38876534 0 218689359.38876534 -113172380.51101398 0 0 0 0 -27663265.733114243 72807850.334112167 0 72807850.334112167 -34215813.056503296 0 0 0 0 4388275.6987544969 2896149.4152548164 0 2896149.4152548164 1489365.060908936 0 0 0 0 437643515.4952817 74313679.824861765 0 74313679.824861765 -306907706.53738022 0 0 0 0 296594550.86476231 442698326.21875811 0 442698326.21875811 283508245.67094994 0 0 0 0 509682109.05559158 429905339.04973698 0 429905339.04973698 -36217140.344849586 0 0 0 0 177545776.34287262 135971886.15005493 0 135971886.15005493 279749586.03092003 0 0 0 0 485419186.00016212 336168494.06765366 0 336168494.06765366 238667422.42494869 0 0 0 0 367563825.29453659 483366984.44049549 0 483366984.44049549 208303633.16123772 0 0 0 0 -56576088.869005203 399401506.41029644 0 399401506.41029644 430453855.87695694 0 0 0 0 436956958.96805787 515283424.55812001 0 515283424.55812001 222785961.46360397 0 0 0 0 207462954.6687336 256563462.6388073 0 256563462.6388073 356657027.66271156 0 0 0 0 227093542.27814007 287359452.05445433 0 287359452.05445433 194883474.02946281 0 0 0 0 -13195427.827756882 137455093.47945213 0 137455093.47945213 219728416.76853919 0 0 0 0 -28443156.863708496 227413683.46181774 0 227413683.46181774 -212710956.3797636 0 0 0 0 -5475494.6239299774 30812686.52935791 0 30812686.52935791 -23767438.553520203 0 0 0 0 -35386666.854654312 238942903.72390461 0 238942903.72390461 -263569265.54537201 0 0 0 0 9162861.2889498472 6750467.954266727 0 6750467.954266727 3831440.893067956 0 0 0 0 -135588632.26217556 204404350.24207211 0 204404350.24207211 -40566756.379814148 0 0 0 0 -96963761.992975235 79444487.561447144 0 79444487.561447144 -70901076.82333374 0 0 0 0 66266077.625209808 197680490.02952576 0 197680490.02952576 8173386.6505584717 0 0 0 0 -57036.875897806138 -649645.2779241167 0 -649645.2779241167 -323655.20833668113 0 0 0 0 -433799590.31296349 33634979.82052803 0 33634979.82052803 56617943.492198944 0 0 0 0 -107648671.92063904 74407681.045684814 0 74407681.045684814 -250588.52745056152 0 0 0 0 -141456428.882761 67310642.864109039 0 67310642.864109039 45925392.725353241 0 0 0 0 348554.61508049071 13037293.45178044 0 13037293.45178044 6876887.098649472 0 0 0 0 45072493.525827408 119145689.77451515 0 119145689.77451515 112707657.82188988 0 0 0 0 4942941.9245903939 9304423.1141479984 0 9304423.1141479984 -15517274.023937926 0 0 0 0 293257716.10213852 81849794.798233986 0 81849794.798233986 -53173887.656822205 0 0 0 0 319271190.50090408 189998166.17302132 0 189998166.17302132 -16956267.868881226 0 0 0 0 201402692.64948845 169944016.99727249 0 169944016.99727249 59709989.558334351 0 0 0 0 222687867.62884712 94234980.564641953 0 94234980.564641953 -33291594.930625916 0 0 0 0 230033877.89368057 207734133.98282623 0 207734133.98282623 -580186.67214584351 0 0 0 0 92691580.316883087 91344909.633918762 0 91344909.633918762 144674952.72930527 0 0 0 0 -43309722.061914444 74293260.574513435 0 74293260.574513435 -28498805.243740082 0 0 0 0 55248988.236918449 174603358.43540001 0 174603358.43540001 -15060912.957565308 0 0 0 0 100122862.83703613 43436217.341880798 0 43436217.341880798 -27517508.221116304 0 0 0 0 -34079682.59091568 149218042.69809914 0 149218042.69809914 -55570704.346214294 0 0 0 0 109194304.17508507 101620909.7671833 0 101620909.7671833 -45837348.910419464 0 0 0 0 106153762.22108912 45396528.681295633 0 45396528.681295633 -50422942.776233673 0 0 0 0 126468690.93874359 100808520.37386894 0 100808520.37386894 5266647.5502586365 0 0 0 0 169991212.65706062 90105766.239490509 0 90105766.239490509 -133712623.15738487 0 0 0 0 150433739.08434796 157295423.96905231 0 157295423.96905231 18239717.307506561 0 0 0 0 320236563.93418121 538467705.83597422 0 538467705.83597422 151134328.02972412 0 0 0 0 2064644.4310404118 5555615.4889171049 0 5555615.4889171049 5499539.592009455 0 0 0 0 -715209310.2732296 175235325.95482826 0 175235325.95482826 173779738.47098923 0 0 0 0 2232354002.069097 274605648.03424811 0 274605648.03424811 -17633879.601818085 0 0 0 0 -153973343.38586426 388049897.4753685 0 388049897.4753685 241801422.0623827 0 0 0 0 -163187125.03658485 207100183.5476675 0 207100183.5476675 -52210043.577915192 0 0 0 0 -103011597.65237522 80007972.047031403 0 80007972.047031403 -74528899.884277344 0 0 0 0 -434391678.21327972 99174559.392560959 0 99174559.392560959 30454422.576407433 0 0 0 0 3965570.0134849157 14654330.968300089 0 14654330.968300089 18866491.182647839 0 0 0 0 1965241648.3058214 -316380112.71684933 0 -316380112.71684933 -295184092.78733063 0 0 0 0 504562710.58419418 -278783365.3534317 0 -278783365.3534317 438476347.68340302 0 0 0 0 649834233.99341202 -1941535.3804187775 0 -1941535.3804187775 333292311.78241539 0 0 0 0 1118833228.402256 308578861.62677765 0 308578861.62677765 53659970.669654846 0 0 0 0 318854583.80573654 56948386.353645325 0 56948386.353645325 60104623.088615417 0 0 0 0 516109956.03345108 648487290.87022781 0 648487290.87022781 -439268102.30683899 0 0 0 0 351132606.23909473 35367282.127182007 0 35367282.127182007 -634031174.14949799 0 0 0 0 -199858471.73877144 209288645.92043304 0 209288645.92043304 30103780.810845613 0 0 0 0 521761680.14643288 410226643.94923019 0 410226643.94923019 153913455.37705231 0 0 0 0 44142109.725027084 84786538.092224121 0 84786538.092224121 39604582.510437489 0 0 0 0 -65475282.034397125 147650815.29322243 0 147650815.29322243 158667316.56266785 0 0 0 0 -346136471.174366 -71077557.216941833 0 -71077557.216941833 243531707.87350082 0 0 0 0 -68378414.151975632 119138641.10504389 0 119138641.10504389 487409932.69090271 0 0 0 0 531041692.39525604 476038783.2962532 0 476038783.2962532 473026076.22446632 0 0 0 0 232397251.77723694 -72108767.474658966 0 -72108767.474658966 217735981.31262398 0 0 0 0 166021984.94692612 27781184.626748085 0 27781184.626748085 247718577.31800461 0 0 0 0 -101895048.54969788 -102661628.15893745 0 -102661628.15893745 134872861.22969818 0 0 0 0 -18055472.232269287 126875471.76765633 0 126875471.76765633 147596557.87422943 0 0 0 0 69706652.555231497 15634545.2932152 0 15634545.2932152 -3809556.4894661084 0 0 0 0 208412787.90771675 39023923.912704468 0 39023923.912704468 -73497368.805686951 0 0 0 0 282204415.32902145 137759226.64893341 0 137759226.64893341 -127576103.48066998 0 0 0 0 34663153.091880798 67352928.056930542 0 67352928.056930542 -24576365.931335449 0 0 0 0 320424283.09197998 115001652.97793579 0 115001652.97793579 -125289451.21580124 0 0 0 0 384915553.89983559 -63067234.21913147 0 -63067234.21913147 -422848496.16152954 0 0 0 0 319078176.49824524 -812350076.98261261 0 -812350076.98261261 896163288.16015625 0 0 0 0 936291438.63867188 -1513965441.1851883 0 -1513965441.1851883 -1076244120.3897829 0 0 0 0 547595816.20780182 580479005.5039978 0 580479005.5039978 -157498801.20791626 0 0 0 0 729823822.48591614 470447472.56053162 0 470447472.56053162 -862174480.53845596 0 0 0 0 811570505.84209251 236837161.15486908 0 236837161.15486908 -223148036.90470886 0 0 0 0 464439873.54057693 219620571.26815033 0 219620571.26815033 -193205163.02043915 0 0 0 0 549101813.02902985 326751075.35955048 0 326751075.35955048 -66665271.648727417 0 0 0 0 389006960.15665245 237125543.9972744 0 237125543.9972744 -27183174.442184448 0 0 0 0 549579242.44100142 263571974.6734685 0 263571974.6734685 41736935.204406738 0 0 0 0 575641154.14922333 364538372.54389954 0 364538372.54389954 -154775834.79116821 0 0 0 0 606241153.96357727 417482684.94347382 0 417482684.94347382 218502309.60209656 0 0 0 0 594748448.74784851 292352080.34411621 0 292352080.34411621 60073682.923103333 0 0 0 0 683290165.92604828 246407228.41822815 0 246407228.41822815 83685918.507675171 0 0 0 0 396145166.48331833 270577183.13764191 0 270577183.13764191 122714361.95327759 0 0 0 0 220168911.51342392 293741443.35547638 0 293741443.35547638 175307102.71046829 0 0 0 0 417952508.53665924 277180310.11314011 0 277180310.11314011 -23805159.955322266 0 0 0 0 131972289.98405552 133196767.67353821 0 133196767.67353821 -4220429.604309082 0 0 0 0 98207377.470264435 83225645.732017517 0 83225645.732017517 -22365312.477966309 0 0 0 0 187472135.18508053 209400379.49731827 0 209400379.49731827 9390232.4527893066 0 0 0 0 50854673.648828506 142342171.39850616 0 142342171.39850616 18546281.208587646 0 0 0 0 -49996266.725608826 41706217.67477417 0 41706217.67477417 -38487577.971176147 0 0 0 0 -8947820.0546150208 169708125.15167999 0 169708125.15167999 119937769.6647644 0 0 0 0 -62019167.127191544 103002980.28316498 0 103002980.28316498 33546130.375488281 0 0 0 0 47901701.300354004 22932825.360221863 0 22932825.360221863 65925531.406219482 0 0 0 0 43879143.433864594 75943915.620521545 0 75943915.620521545 274542385.91950607 0 0 0 0 -117834874.11674821 107368635.78052664 0 107368635.78052664 159140622.05952454 0 0 0 0 -108939154.54418945 244333634.74140167 0 244333634.74140167 -65919294.574607849 0 0 0 0 20594726.655851364 43944725.324802399 0 43944725.324802399 65622750.621440887 0 0 0 0 -55596796.182300568 -53894883.766801834 0 -53894883.766801834 243261207.75778198 0 0 0 0 -6289003.3489684463 -4504873.8973145857 0 -4504873.8973145857 -964676.04415818001 0 0 0 0 54304869.328704834 195878165.77307892 0 195878165.77307892 557742265.45018125 0 0 0 0 616773246.74993134 356297568.38902283 0 356297568.38902283 -992661543.98205185 0 0 0 0 754125454.99381638 218172148.76506424 0 218172148.76506424 82020810.113479614 0 0 0 0 217874174.56701469 328321598.04797363 0 328321598.04797363 599666771.3165741 0 0 0 0 39250.1600452438 -7666956.0251274109 0 -7666956.0251274109 354929.56507503521 0 0 0 0 513020070.21977615 379777717.03135681 0 379777717.03135681 85878326.48008728 0 0 0 0 378234101.80058861 42323096.456428528 0 42323096.456428528 -556550238.74162292 0 0 0 0 652118649.53220367 225865020.01225281 0 225865020.01225281 84906871.637372971 0 0 0 0 803937284.1937561 51685842.442886353 0 51685842.442886353 134327017.75428581 0 0 0 0 659720886.76112747 220043610.41531754 0 220043610.41531754 88667320.188293457 0 0 0 0 -281634762.20374918 115480555.78742599 0 115480555.78742599 76736938.882789612 0 0 0 0 1555677508.2210803 155118637.48364115 0 155118637.48364115 -236437641.57553101 0 0 0 0 5047873.5719367508 21495674.16792579 0 21495674.16792579 41130460.416754007 0 0 0 0 973644948.82489395 641368940.5987854 0 641368940.5987854 -301681234.19843674 0 0 0 0 -122556324.09767532 93805277.715711594 0 93805277.715711594 21768387.401641846 0 0 0 0 -140953545.46443558 129866888.13594818 0 129866888.13594818 -17526986.058906555 0 0 0 0 -33914466.342655182 154972424.66364479 0 154972424.66364479 14752631.110321045 0 0 0 0 -151912022.53793144 26406337.377840042 0 26406337.377840042 38983661.352737427 0 0 0 0 -11757387.927944183 107310083.43948364 0 107310083.43948364 15696880.415267944 0 0 0 0 -13270302.298355103 83303068.1478405 0 83303068.1478405 131357654.42012024 0 0 0 0 -37063751.431554794 149333155.72903824 0 149333155.72903824 106605012.86389542 0 0 0 0 315871934.34381104 291189219.35575104 0 291189219.35575104 380957722.6812644 0 0 0 0 16500447.286898263 43387349.796258532 0 43387349.796258532 -55970345.036153287 0 0 0 0 -46545930.736070633 148173582.59283638 0 148173582.59283638 152936671.49559021 0 0 0 0 666318143.28128242 206032909.30550003 0 206032909.30550003 112534141.00143433 0 0 0 0 2359529.0697175134 35783378.703061193 0 35783378.703061193 69338745.418201268 0 0 0 0 618002610.15934753 219788520.65194702 0 219788520.65194702 129356913.25984192 0 0 0 0 608586185.36408234 272854244.87112427 0 272854244.87112427 70533237.666748047 0 0 0 0 593440010.72394562 291072845.35449219 0 291072845.35449219 128504077.58795166 0 0 0 0 618547694.92975426 233426001.52419472 0 233426001.52419472 224663305.54693604 0 0 0 0 184726392.87626648 846180503.22433472 0 846180503.22433472 -302779805.61500549 0 0 0 0 6037108.1677565221 23245986.952447154 0 23245986.952447154 -4097409.0695952773 0 0 0 0 -146717538.88009644 -381215565.66648865 0 -381215565.66648865 -1108737441.0236206 0 0 0 0 1540552018.7640533 382433989.49967957 0 382433989.49967957 -1963145530.3141174 0 0 0 0 552636887.77925873 537096099.81915283 0 537096099.81915283 -32416362.601654053 0 0 0 0 -6418376.8236532509 14830457.176668897 0 14830457.176668897 10525216.728246823 0 0 0 0 569725408.53821182 455570501.71800995 0 455570501.71800995 193702090.43177795 0 0 0 0 2886532979.7278976 1616626524.0620041 0 1616626524.0620041 -1443764829.430027 0 0 0 0 -776532.27398920432 143409.94878233597 0 143409.94878233597 3203868.7908219993 0 0 0 0 -258114114.53028488 198998121.00410461 0 198998121.00410461 19017635.66394043 0 0 0 0 198530082.05861664 992114661.49573517 0 992114661.49573517 -14847157.063690186 0 0 0 0 -282341826.74610186 61893560.904016495 0 61893560.904016495 -423905.5415802002 0 0 0 0 321560154.97390747 549067717.0131073 0 549067717.0131073 361942266.86956787 0 0 0 0 -32109831.53981781 124681892.18217468 0 124681892.18217468 -10265485.058494568 0 0 0 0 -93434375.086544037 355622849.74758148 0 355622849.74758148 163327939.84690857 0 0 0 0 -111996355.34106064 135526971.31207275 0 135526971.31207275 -111569701.04291534 0 0 0 0 -192465569.33990479 194081408.75171661 0 194081408.75171661 -37769296.048339844 0 0 0 0 -158399213.06664467 89440733.355653763 0 89440733.355653763 -53506468.768707275 0 0 0 0 -429647610.99100494 129248423.83790588 0 129248423.83790588 -37673437.618103027 0 0 0 0 -394473237.43554688 -79946749.597290039 0 -79946749.597290039 -89072399.310974956 0 0 0 0 -236918898.48841476 29764360.371055603 0 29764360.371055603 -87023255.619903564 0 0 0 0 -311954442.36334991 75403807.300544739 0 75403807.300544739 57517196.59324646 0 0 0 0 -64555319.472625732 103527980.97969818 0 103527980.97969818 4149325.8531112671 0 0 0 0 -262588562.80866814 -82552897.06394577 0 -82552897.06394577 96989572.158531189 0 0 0 0 84985642.075004578 110049700.82176971 0 110049700.82176971 201123685.40435791 0 0 0 0 -168777007.19116974 182262309.47212601 0 182262309.47212601 192195980.91674805 0 0 0 0 236019797.60127258 436587982.48875427 0 436587982.48875427 124231503.41595078 0 0 0 0 139253450.15017509 164208921.48405647 0 164208921.48405647 28648316.525909424 0 0 0 0 86340655.107631683 237852463.79005527 0 237852463.79005527 71363031.439735413 0 0 0 0 9961738.8387519047 43473772.638118237 0 43473772.638118237 -65109776.731643453 0 0 0 0 -53737631.106121063 189288970.92375946 0 189288970.92375946 31693084.679311752 0 0 0 0 73774444.012465477 175810664.42281914 0 175810664.42281914 -11573714.107261658 0 0 0 0 72545034.792664528 167825383.22445965 0 167825383.22445965 60124861.065185547 0 0 0 0 -27898975.391895294 140938871.07210159 0 140938871.07210159 46740631.829837799 0 0 0 0 99555647.87008667 181400052.27305412 0 181400052.27305412 -3737095.2150630951 0 0 0 0 168573172.87320805 69632528.975703239 0 69632528.975703239 -54193326.467105865 0 0 0 0 106484525.39528894 87186629.63567543 0 87186629.63567543 -11698072.636146545 0 0 0 0 14316619.896617889 365132407.69947052 0 365132407.69947052 318783444.58779526 0 0 0 0 -125364137.64473724 129821886.64378738 0 129821886.64378738 231861353.82680893 0 0 0 0 74554841.680368423 124035904.08477402 0 124035904.08477402 31134927.03817749 0 0 0 0 -570903.94857944362 15823647.624381658 0 15823647.624381658 41549944.972502023 0 0 0 0 7446660.0926503092 48156808.357771613 0 48156808.357771613 -55491177.519437268 0 0 0 0 -45649225.95129776 53338421.44694519 0 53338421.44694519 55882215.320776939 0 0 0 0 10190467.278488643 30377363.018544011 0 30377363.018544011 59312960.916278869 0 0 0 0 -78231649.25378418 111072179.71397781 0 111072179.71397781 39801929.044421196 0 0 0 0 -93747081.852813721 44248916.805923462 0 44248916.805923462 54234069.740352631 0 0 0 0 -56265707.437494278 82430424.094100952 0 82430424.094100952 56617312.567085266 0 0 0 0 -62752891.348539114 54456360.472540379 0 54456360.472540379 158099762.09960938 0 0 0 0 -57489022.13021183 87744678.099370003 0 87744678.099370003 77193230.11265564 0 0 0 0 10749036.734252758 42641148.261161424 0 42641148.261161424 61749506.231066972 0 0 0 0 -39608410.062038422 36201717.560916901 0 36201717.560916901 48441898.97996521 0 0 0 0 58601555.514968872 -18666410.007194519 0 -18666410.007194519 34226051.251377106 0 0 0 0 19021306.555728912 -30026399.540756226 0 -30026399.540756226 142919685.23946381 0 0 0 0 -44252095.327379227 32565175.117523193 0 32565175.117523193 82316514.478439331 0 0 0 0 -2285521.1828500517 1048883.38845082 0 1048883.38845082 17057871.558544099 0 0 0 0 -379915966.39657593 -13568683.825054169 0 -13568683.825054169 95394178.720062256 0 0 0 0 74975568.339832306 -47058920.402072906 0 -47058920.402072906 73017895.147010803 0 0 0 0 346390384.01475239 468668363.73027229 0 468668363.73027229 13617028.851791382 0 0 0 0 617604718.40335846 -443342520.09350586 0 -443342520.09350586 27846529.284198761 0 0 0 0 -304320008.18491364 55272612.657196045 0 55272612.657196045 430909237.03932953 0 0 0 0 -2735345.5108452365 3858142.1458617076 0 3858142.1458617076 3945611.4307588637 0 0 0 0 -304615755.35298157 42135310.865646362 0 42135310.865646362 21212964.768325806 0 0 0 0 -1683067.1108739898 1906118.6148118973 0 1906118.6148118973 4536814.2301155329 0 0 0 0 106124287.86322021 17529718.133796692 0 17529718.133796692 20855837.995452881 0 0 0 0 40490847.734706879 84620792.399402618 0 84620792.399402618 64721146.481567383 0 0 0 0 -7168800.1278009042 19618618.0618954 0 19618618.0618954 -3621723.0039978921 0 0 0 0 29703518.935817719 55387134.751869202 0 55387134.751869202 41246783.069782257 0 0 0 0 62752513.001047373 31024591.888671398 0 31024591.888671398 -90111354.144355774 0 0 0 0 3397039.384853363 56896336.272094727 0 56896336.272094727 69639541.372039795 0 0 0 0 20274494.006996155 69092912.52469635 0 69092912.52469635 71767206.259557724 0 0 0 0 67207472.237075567 67780145.580089569 0 67780145.580089569 41086191.957611084 0 0 0 0 -208504700.97346497 33157943.325462341 0 33157943.325462341 22839598.083591461 0 0 0 0 -94716741.419971466 -98700533.676376343 0 -98700533.676376343 32493728.712692261 0 0 0 0 140427065.57244873 267774312.92893982 0 267774312.92893982 -200925744.95671844 0 0 0 0 -4158203.676291585 3304280.4381201267 0 3304280.4381201267 -6021738.9388206303 0 0 0 0 267007631.8530798 1015850533.5511017 0 1015850533.5511017 -521083271.26335144 0 0 0 0 -374526503.84147644 398212074.02014923 0 398212074.02014923 -54457238.437458038 0 0 0 0 -432039306.06376743 124608672.43028069 0 124608672.43028069 308828180.63879395 0 0 0 0 -315399222.71702766 373290142.25358963 0 373290142.25358963 -81018472.814651489 0 0 0 0 -245330457.32701206 572309238.71594524 0 572309238.71594524 -245014480.11436462 0 0 0 0 -3420452.8369026184 -24283797.963565826 0 -24283797.963565826 175498482.3412323 0 0 0 0 -1938906.1312429681 1005664.3968867958 0 1005664.3968867958 3406448.0004571378 0 0 0 0 9962624.9919700623 117207099.89929199 0 117207099.89929199 223140810.48318481 0 0 0 0 -41116734.827856064 456372359.9125042 0 456372359.9125042 -342242842.43759918 0 0 0 0 46471496.062232971 248165217.58235168 0 248165217.58235168 342633.76266479492 0 0 0 0 -359234420.82952881 100025895.04327393 0 100025895.04327393 66675709.418106079 0 0 0 0 33366892.815010071 154569193.56904602 0 154569193.56904602 290638552.90257263 0 0 0 0 23230913.887962341 266722774.43031311 0 266722774.43031311 -219094123.0882988 0 0 0 0 1085782.9702463523 2220713.6862351149 0 2220713.6862351149 1258333.4049399048 0 0 0 0 -81926965.107946396 159220356.76392555 0 159220356.76392555 -193733013.37088013 0 0 0 0 -46274116.774963379 87528584.757270813 0 87528584.757270813 -82802050.562408447 0 0 0 0 -45736451.004737854 96529483.621406555 0 96529483.621406555 -89908876.045974731 0 0 0 0 -99616866.326530457 65364603.833015442 0 65364603.833015442 -27893180.857791901 0 0 0 0 4823768.7144996449 4283835.5123622417 0 4283835.5123622417 2409627.6420248449 0 0 0 0 24866358.129619598 76244858.026367188 0 76244858.026367188 143440.09225463867 0 0 0 0 67772002.110589981 39697911.483409882 0 39697911.483409882 21883279.992050171 0 0 0 0 895505.21510355733 -1591017.6594601721 0 -1591017.6594601721 699327.85123565793 0 0 0 0 -18914558.450068474 20844197.961567879 0 20844197.961567879 -4090686.6984100342 0 0 0 0 9435186.4441857934 5154184.3340989798 0 5154184.3340989798 2446654.1738080233 0 0 0 0 19514895.310822487 9745665.0246400833 0 9745665.0246400833 1158232.7385253906 0 0 0 0 -219454864.647686 56969272.935752869 0 56969272.935752869 25261456.332061768 0 0 0 0 2599407.5628997013 711659.39904616773 0 711659.39904616773 359775.72463679314 0 0 0 0 2655367.8970479965 31357661.92742157 0 31357661.92742157 -68216551.16506958 0 0 0 0 -59418343.537780762 97326221.858848572 0 97326221.858848572 -78034644.759128571 0 0 0 0 -57831070.953388214 107464461.72676086 0 107464461.72676086 -90232094.065438986 0 0 0 0 -153132484.99099731 233220821.8634491 0 233220821.8634491 -256388835.35018921 0 0 0 0 -488681454.091362 361311400.01498413 0 361311400.01498413 -128736151.14280701 0 0 0 0 -845161142.5647974 29662546.496858597 0 29662546.496858597 41839922.659866333 0 0 0 0 -1148168.303131897 2814290.1720206067 0 2814290.1720206067 4763088.6306055486 0 0 0 0 980512161.92375851 456424294.79808807 0 456424294.79808807 -504866046.5330658 0 0 0 0 -199483291.41096878 198447104.67561722 0 198447104.67561722 -138499050.21704865 0 0 0 0 -111505807.72488904 154287656.71030664 0 154287656.71030664 -23527399.344329834 0 0 0 0 59298917.637375832 9035212.960735321 0 9035212.960735321 -9756580.2171020508 0 0 0 0 -65499.484860282391 -318636.18950442225 0 -318636.18950442225 91785.667911350727 0 0 0 0 -165312327.9163208 164306387.74469757 0 164306387.74469757 -165163825.36600494 0 0 0 0 -323883017.53707123 137804451.91884422 0 137804451.91884422 -116661074.78736877 0 0 0 0 -73944115.96900177 118701432.38298035 0 118701432.38298035 -99988340.838264465 0 0 0 0 -25121307.700466156 -16177882.182731628 0 -16177882.182731628 23264802.675262451 0 0 0 0 32040717.814540863 14953266.947685242 0 14953266.947685242 -8929186.6151275635 0 0 0 0 -462931232.13234901 31405299.277076721 0 31405299.277076721 867845133.27914429 0 0 0 0 758367102.25000763 1734717517.3463058 0 1734717517.3463058 1010813217.0657654 0 0 0 0 1733419857.2914505 -787354369.46582794 0 -787354369.46582794 944640700.00926113 0 0 0 0 3013560.6085334904 1833927.7387973033 0 1833927.7387973033 1897098.8759191632 0 0 0 0 14986150.33382611 7633159.1948268712 0 7633159.1948268712 1816834.272152409 0 0 0 0 9047770.19506073 4434876.170463562 0 4434876.170463562 8341122.2650146484 0 0 0 0 7903394.4572105408 12837807.590904236 0 12837807.590904236 1989507.2034759521 0 0 0 0 8848121.1208763123 11922546.619293213 0 11922546.619293213 -8915740.0901832581 0 0 0 0 12095238.051128387 16737177.263496399 0 16737177.263496399 -25466783.169158936 0 0 0 0 18496935.913074493 26082330.169078827 0 26082330.169078827 -18433072.674736023 0 0 0 0 1012483.9884490967 31600483.565078735 0 31600483.565078735 -279006.43431590224 0 0 0 0 39424840.112430573 -31613115.829391479 0 -31613115.829391479 -178765915.69987488 0 0 0 0 19119698.700015545 27685748.774241924 0 27685748.774241924 -36475461.542358398 0 0 0 0 5724488.3181457669 1370824.4818530343 0 1370824.4818530343 -4271948.7982349396 0 0 0 0 22389095.369506836 7127061.6464099884 0 7127061.6464099884 -33015990.324150085 0 0 0 0 16126159.699100494 6948431.4706497192 0 6948431.4706497192 -7581728.0697059631 0 0 0 0 174991286.52945709 -222243020.99617386 0 -222243020.99617386 150575082.65348816 0 0 0 0 597568951.66634369 211462230.14250565 0 211462230.14250565 -121683313.96737289 0 0 0 0 577799003.84369659 298587659.49795532 0 298587659.49795532 -20226837.949371338 0 0 0 0 432563838.04990387 121981775.55112457 0 121981775.55112457 49330919.853691101 0 0 0 0 1610023.7958244309 -1181255.0154499784 0 -1181255.0154499784 -2350862.1368449926 0 0 0 0 464983063.13845253 178470842.83349228 0 178470842.83349228 48319863.794647217 0 0 0 0 558208278.92489624 275101773.66369629 0 275101773.66369629 143375133.87687159 0 0 0 0 685473100.38014603 358763118.21958923 0 358763118.21958923 61285578.837946892 0 0 0 0 611937158.60329819 461464758.14539337 0 461464758.14539337 281880380.33968735 0 0 0 0 421287877.2122879 243828692.78305054 0 243828692.78305054 19932834.922622681 0 0 0 0 626837442.99838829 779977934.50131607 0 779977934.50131607 1047495331.8018646 0 0 0 0 791718934.7383194 -193270944.94789124 0 -193270944.94789124 21678184.168182373 0 0 0 0 5799489.5727368891 4384963.8606846929 0 4384963.8606846929 1160526.1657875478 0 0 0 0 1387085475.2142639 370518751.8368988 0 370518751.8368988 -89219301.154468536 0 0 0 0 1063122964.8879662 968669288.17606354 0 968669288.17606354 363140624.45100403 0 0 0 0 807074569.76419067 933268219.07462311 0 933268219.07462311 418497129.8801918 0 0 0 0 25984608.079938494 1121911.3706209064 0 1121911.3706209064 697396.134377487 0 0 0 0 754297774.96977997 1122579606.2120409 0 1122579606.2120409 819991256.86297607 0 0 0 0 300935322.30296707 -91144599.289604187 0 -91144599.289604187 194095550.92184448 0 0 0 0 291392715.05638885 41716003.826808929 0 41716003.826808929 -194229032.02830505 0 0 0 0 -151413044.88650608 12910340.583457947 0 12910340.583457947 22038728.06750679 0 0 0 0 -95010872.76301384 58753626.432304382 0 58753626.432304382 37268305.403190613 0 0 0 0 -130586794.7220459 8870896.7488250732 0 8870896.7488250732 -11497034.330291748 0 0 0 0 -89652403.062316656 64313213.12569046 0 64313213.12569046 26397048.599609375 0 0 0 0 -74643178.236953259 42071193.791666985 0 42071193.791666985 -34844380.427223206 0 0 0 0 -179866403.37460518 58923337.421009064 0 58923337.421009064 -35510253.047345161 0 0 0 0 -29278362.086021423 110472536.46194458 0 110472536.46194458 -96928581.297225952 0 0 0 0 -148549863.15664911 24061711.542215347 0 24061711.542215347 -27081917.371925354 0 0 0 0 -175831910.66744804 -613574.31340789795 0 -613574.31340789795 -42087900.877670288 0 0 0 0 -16958826.245063201 20280711.946402092 0 20280711.946402092 -6069824.2815369368 0 0 0 0 155898762.28178501 74762319.919623375 0 74762319.919623375 -66073586.035636902 0 0 0 0 234209911.05107641 95766917.53345871 0 95766917.53345871 164930077.33734131 0 0 0 0 283045965.59644032 -123306846.53610611 0 -123306846.53610611 49640225.735301971 0 0 0 0 16957981.574279308 91605311.029911041 0 91605311.029911041 8886810.8184356689 0 0 0 0 7174530.4100860637 12365107.154155917 0 12365107.154155917 -23990389.135880888 0 0 0 0 54447265.721506119 28826664.732473373 0 28826664.732473373 -12154285.981323242 0 0 0 0 90767337.439174175 -36459880.507600784 0 -36459880.507600784 -112876680.99690247 0 0 0 0 15574208.93299336 4334462.1149386466 0 4334462.1149386466 -20540177.731111199 0 0 0 0 94863908.839757919 42154986.192005157 0 42154986.192005157 -122496549.3812561 0 0 0 0 122715570.77201653 -23222681.77558136 0 -23222681.77558136 8838785.1270294189 0 0 0 0 86059594.093069077 123589609.88027954 0 123589609.88027954 177600679.90170288 0 0 0 0 95102745.393651009 3270857.8559174538 0 3270857.8559174538 -30478284.420578003 0 0 0 0 -53246.827484781388 3869961.0809923764 0 3869961.0809923764 -214821.52770012617 0 0 0 0 -185605308.58727026 -5842738.6002235413 0 -5842738.6002235413 9702808.0232696533 0 0 0 0 215360742.14783669 136721473.50045013 0 136721473.50045013 82230700.967514038 0 0 0 0 840491654.46622658 115373474.61276245 0 115373474.61276245 -205305719.81642151 0 0 0 0 457146.61174257519 967851.76648303866 0 967851.76648303866 388318.53575885296 0 0 0 0 2758603.7050593477 8022237.4937136732 0 8022237.4937136732 1490180.0999153256 0 0 0 0 10222010.083283663 -12044236.718159676 0 -12044236.718159676 -12019232.084640503 0 0 0 0 -132829784.67580986 38280685.239601135 0 38280685.239601135 30950852.973724365 0 0 0 0 385179012.1038785 138052907.24716949 0 138052907.24716949 -41499633.354049683 0 0 0 0 1391078.9700198788 648241.33333726972 0 648241.33333726972 1834810.4064957201 0 0 0 0 21534475.765473366 254038024.3924942 0 254038024.3924942 98522572.032611847 0 0 0 0 366962490.40225124 196105187.39440155 0 196105187.39440155 -14164998.547447205 0 0 0 0 9276666.3555065989 -37234787.826174974 0 -37234787.826174974 64348394.667076111 0 0 0 0 -20803002.375284869 24007347.155182265 0 24007347.155182265 -12017106.535105735 0 0 0 0 423203673.45146656 43226834.63986969 0 43226834.63986969 -98161039.817718506 0 0 0 0 187588416.32396317 11533127.880664825 0 11533127.880664825 -88556856.029342651 0 0 0 0 223447415.83077908 -59573509.872413635 0 -59573509.872413635 41289323.097290039 0 0 0 0 84203772.023233891 117627285.67838573 0 117627285.67838573 128998381.06608582 0 0 0 0 117353235.13440943 152079738.68378353 0 152079738.68378353 101546127.67889404 0 0 0 0 1705890.2338905334 181747249.30973434 0 181747249.30973434 -8322049.4251403809 0 0 0 0 78825142.383424759 92287233.3699646 0 92287233.3699646 76430395.157684326 0 0 0 0 128087543.10625839 124123165.5764389 0 124123165.5764389 -4231620.0901565552 0 0 0 0 3708917.1930942535 44374578.605258942 0 44374578.605258942 27255714.574905396 0 0 0 0 1371850.2928613196 11810251.751132943 0 11810251.751132943 6198055.4089502096 0 0 0 0 71843787.974602699 -11858616.03931427 0 -11858616.03931427 -38728489.486434937 0 0 0 0 92113067.972841263 78985691.147735596 0 78985691.147735596 50904624.050231934 0 0 0 0 61001311.918143272 -33520892.753662109 0 -33520892.753662109 12068677.08423233 0 0 0 0 -5126987.8465553699 3175314.3950710297 0 3175314.3950710297 224894.98967911303 0 0 0 0 -65140781.845246792 65973060.848953247 0 65973060.848953247 -5058058.3003997803 0 0 0 0 -74157280.827342033 58043157.413665771 0 58043157.413665771 -20143328.707601547 0 0 0 0 -89002234.965270281 61646172.112573624 0 61646172.112573624 7177525.5289916992 0 0 0 0 -61551036.379575729 74976280.503570557 0 74976280.503570557 -1057394.8435211182 0 0 0 0 -93430200.291296482 81099817.766069412 0 81099817.766069412 51720208.462242126 0 0 0 0 -115971832.27511501 36214509.532535553 0 36214509.532535553 -10794808.54076767 0 0 0 0 -141425308.28915119 17751709.563854218 0 17751709.563854218 37368512.759277344 0 0 0 0 -24601798.148839951 143632620.21994019 0 143632620.21994019 102980351.1139164 0 0 0 0 -25974480.694628716 100060261.96251297 0 100060261.96251297 85139040.460998535 0 0 0 0 -74321391.679569721 35280730.505992889 0 35280730.505992889 63708815.042495728 0 0 0 0 -30682922.072918892 84435019.721914291 0 84435019.721914291 -111320898.57603455 0 0 0 0 18394534.531299591 28348164.016368866 0 28348164.016368866 -127954831.1273098 0 0 0 0 -2877829.6037262771 21406043.501046296 0 21406043.501046296 -22086353.573670268 0 0 0 0 -23150184.975596905 127434887.37658882 0 127434887.37658882 154715264.35083771 0 0 0 0 2032744.628972074 1724915.7410231978 0 1724915.7410231978 -2312334.2805715948 0 0 0 0 16727692.735388279 21399472.355747223 0 21399472.355747223 -97370796.302612305 0 0 0 0 1188890.7321608067 39599556.350636005 0 39599556.350636005 -219557.16131210327 0 0 0 0 -12366468.308728315 24275331.19375119 0 24275331.19375119 -38923278.63478753 0 0 0 0 79940556.716751099 125753065.35454369 0 125753065.35454369 -27095423.061805725 0 0 0 0 30347041.706726074 -33239811.152862549 0 -33239811.152862549 -15864113.20936203 0 0 0 0 -26210316.37651987 16440732.251384273 0 16440732.251384273 -10655338.251821354 0 0 0 0 30635293.714565277 92396193.957328796 0 92396193.957328796 -41600302.60020256 0 0 0 0 3712212.1380491257 88681344.035511017 0 88681344.035511017 32055431.702651978 0 0 0 0 102386957.75152588 163549288.74501038 0 163549288.74501038 58151204.153236389 0 0 0 0 126793620.1560936 47763150.505889893 0 47763150.505889893 66899887.95715332 0 0 0 0 -7077981.1689186096 52484771.747665405 0 52484771.747665405 188224394.84418488 0 0 0 0 167370031.94407845 141202555.70497131 0 141202555.70497131 148345886.46277618 0 0 0 0 -42331810.188613892 43085046.746139526 0 43085046.746139526 218681055.24691772 0 0 0 0 -3720871.2621227531 3786843.4791627228 0 3786843.4791627228 -599479.63626867533 0 0 0 0 -25380928.030910492 83448447.436155319 0 83448447.436155319 44993067.788318634 0 0 0 0 -22111602.97359848 141758836.10062408 0 141758836.10062408 10020406.606067181 0 0 0 0 63145623.678024292 76415074.103765488 0 76415074.103765488 53638399.583992004 0 0 0 0 -87173693.73816061 21853121.354450226 0 21853121.354450226 101206525.22835541 0 0 0 0 33831286.87674503 149181620.74653929 0 149181620.74653929 -6560716.0852966309 0 0 0 0 -1653015.1086028665 4561744.4035518691 0 4561744.4035518691 7120581.9426845312 0 0 0 0 13164771.725877762 94103279.088256836 0 94103279.088256836 34473872.604930878 0 0 0 0 -15381790.97973473 31884662.099079184 0 31884662.099079184 -23109684.403378904 0 0 0 0 3970723.5539131165 132795179.39386559 0 132795179.39386559 51165448.588206649 0 0 0 0 67871211.377609253 86919745.354766846 0 86919745.354766846 68928972.127975464 0 0 0 0 10517955.581245422 35474851.582946777 0 35474851.582946777 23410719.819244385 0 0 0 0 -8169443.803813979 18411986.696354508 0 18411986.696354508 30617713.723626554 0 0 0 0 17452640.473600447 17184735.581790581 0 17184735.581790581 904574.31794378161 0 0 0 0 23737647.309005737 46748126.224822998 0 46748126.224822998 46608732.881500244 0 0 0 0 -908513.40554112941 47270439.35342446 0 47270439.35342446 -4427560.1168684959 0 0 0 0 10846705.984137433 53864942.105645657 0 53864942.105645657 27713141.297709703 0 0 0 0 -535161597.6119442 77620822.254333496 0 77620822.254333496 26455020.680725098 0 0 0 0 -21691962.484760009 18044901.491919518 0 18044901.491919518 -3843998.1080076993 0 0 0 0 67767495.047506332 433754513.21644211 0 433754513.21644211 6497931.8054485321 0 0 0 0 412659136.63471031 -152132881.47626495 0 -152132881.47626495 -68595972.488616943 0 0 0 0 -45667439.572026253 -7994665.2233657837 0 -7994665.2233657837 205687569.07498169 0 0 0 0 -156412430.72148895 102046718.94812393 0 102046718.94812393 188394930.50550842 0 0 0 0 -4995325.6933803558 97707684.83757782 0 97707684.83757782 -41563042.102068663 0 0 0 0 72528307.119564891 -121357673.34299725 0 -121357673.34299725 -32806367.895019531 0 0 0 0 3897358.528898444 2128570.0014828295 0 2128570.0014828295 1108444.9041235447 0 0 0 0 13735990.904956818 86272647.113594055 0 86272647.113594055 6514072.3787841797 0 0 0 0 17594405.71953873 38855816.427495487 0 38855816.427495487 37661980.067878783 0 0 0 0 14854539.645736694 79598824.126564026 0 79598824.126564026 34390305.358169556 0 0 0 0 -1442371.2971954346 50143263.068817139 0 50143263.068817139 11604876.511692047 0 0 0 0 11548840.875896454 71087148.21717453 0 71087148.21717453 45302040.858932495 0 0 0 0 13978823.790091515 65167124.529716492 0 65167124.529716492 20622069.722859383 0 0 0 0 19276193.526990891 81965347.982067108 0 81965347.982067108 -77335260.21912384 0 0 0 0 18682020.697374344 44333905.732376099 0 44333905.732376099 27838356.675636292 0 0 0 0 1026545.8265750408 93098705.887159348 0 93098705.887159348 52837648.757461548 0 0 0 0 59274909.55851841 108129144.29646301 0 108129144.29646301 11785754.208587646 0 0 0 0 -13254865.004041672 56214954.064285278 0 56214954.064285278 67396129.867980957 0 0 0 0 -11593329.037672997 132190214.96057892 0 132190214.96057892 94385471.698242188 0 0 0 0 -3867090.2502832413 141110275.61828613 0 141110275.61828613 56495596.408908844 0 0 0 0 -71917670.169849396 189577640.08970642 0 189577640.08970642 47657387.526374817 0 0 0 0 15913120.029576778 50625258.79352951 0 50625258.79352951 -31065461.658004761 0 0 0 0 1536274.9816930154 2729143.8901328593 0 2729143.8901328593 1628088.0985699296 0 0 0 0 12431287.809638977 15757665.474262238 0 15757665.474262238 -9016250.2227153778 0 0 0 0 10163338.447699547 4168971.3620681763 0 4168971.3620681763 -63438731.279054642 0 0 0 0 3740785.2349757049 9876806.3383737355 0 9876806.3383737355 12208788.648934364 0 0 0 0 9282406.2366409302 29607625.231239319 0 29607625.231239319 -3842994.1822625399 0 0 0 0 8424939.457469821 7894110.2864390463 0 7894110.2864390463 4850767.6978307962 0 0 0 0 40424726.370983124 8482338.3471565247 0 8482338.3471565247 -3188604.9881286621 0 0 0 0 -18120712.335734457 25359932.970704198 0 25359932.970704198 24242108.786865234 0 0 0 0 12083679.127377417 18527678.776970804 0 18527678.776970804 23915615.459638625 0 0 0 0 -5040363.0203971863 16725576.140281677 0 16725576.140281677 28716107.528450012 0 0 0 0 3207333.6781058311 22363786.002981186 0 22363786.002981186 5594266.4101638794 0 0 0 0 5455093.5850338936 10653722.166435242 0 10653722.166435242 8651459.2308044434 0 0 0 0 4287396.9356313441 8631980.8401870131 0 8631980.8401870131 9030123.6278732419 0 0 0 0 1149017.8205432706 11108314.912519589 0 11108314.912519589 2815178.5673246682 0 0 0 0 5847688.3145046234 48499807.915142059 0 48499807.915142059 48865493.588134766 0 0 0 0 -12356015.100578308 61462564.833576202 0 61462564.833576202 55050443.60949707 0 0 0 0 21075861.145227261 25869723.446372151 0 25869723.446372151 32822370.554820627 0 0 0 0 -31334794.232976913 66856917.407775879 0 66856917.407775879 17122880.589752197 0 0 0 0 -30515408.664859772 48262452.288173676 0 48262452.288173676 47707056.654296875 0 0 0 0 -21573873.034061432 29039763.281509399 0 29039763.281509399 33992439.896087646 0 0 0 0 -18185007.407847166 22993175.284636378 0 22993175.284636378 44488222.336593628 0 0 0 0 -18775642.594306946 8091610.8033752441 0 8091610.8033752441 31046025.461135864 0 0 0 0 -15866216.844516754 -2199647.3967285156 0 -2199647.3967285156 63351830.781197548 0 0 0 0 -23631380.689608574 27539294.85461998 0 27539294.85461998 59905122.985855103 0 0 0 0 391826.68919563293 -27043123.734027863 0 -27043123.734027863 78314653.261795044 0 0 0 0 -19975340.314090729 25276243.684623718 0 25276243.684623718 58746262.902458191 0 0 0 0 -10999629.366241455 49273143.876853943 0 49273143.876853943 120104014.01104736 0 0 0 0 -2512392.3678779602 8685824.3260650635 0 8685824.3260650635 4159399.9106750488 0 0 0 0 -2242784.8680019379 -7115233.1576652527 0 -7115233.1576652527 10766646.863677979 0 0 0 0 -9394237.0025062561 2762154.6331176758 0 2762154.6331176758 14693624.298873901 0 0 0 0 -17982359.682905197 7727834.7450485229 0 7727834.7450485229 23160466.758300781 0 0 0 0 -17489037.964931488 13891171.376579285 0 13891171.376579285 22597949.863754272 0 0 0 0 -13154638.508575439 8828757.6029815674 0 8828757.6029815674 21411695.679428101 0 0 0 0 -13873324.316198349 11654234.555643082 0 11654234.555643082 11068792.239105225 0 0 0 0 -9659808.8624401093 4016341.4554252625 0 4016341.4554252625 10454898.354156494 0 0 0 0 -12431065.617889404 8883890.240447998 0 8883890.240447998 2904679.697845459 0 0 0 0 -10611097.560455322 9057272.7199401855 0 9057272.7199401855 6137203.5453720093 0 0 0 0 -8176997.1155581474 5659684.1092557907 0 5659684.1092557907 5334217.713180542 0 0 0 0 -9225611.5513210297 1825548.0984840393 0 1825548.0984840393 -7074682.1253051758 0 0 0 0 -406093084.26392365 766123933.30796814 0 766123933.30796814 -1409028625.8206787 0 0 0 0 -5235504.6687260792 7294460.534561947 0 7294460.534561947 1968691.981957484 0 0 0 0 -699816.60082034022 8098085.8629320525 0 8098085.8629320525 8660785.3851373792 0 0 0 0 -446458574.03331566 280833763.01623821 0 280833763.01623821 218351495.15831757 0 0 0 0 -4702243.284431152 1008371.362959981 0 1008371.362959981 5772230.4401403069 0 0 0 0 -424065.40440750122 11099651.38067627 0 11099651.38067627 10948771.661050797 0 0 0 0 816375.54223201051 6172034.0863646269 0 6172034.0863646269 2065311.0540842824 0 0 0 0 12355974.75446701 18227770.150390625 0 18227770.150390625 8426328.011138916 0 0 0 0 398772.85881900787 6602500.9864120483 0 6602500.9864120483 21530618.377075195 0 0 0 0 2540375.3612333052 1053094.5631442368 0 1053094.5631442368 -3292583.0823543966 0 0 0 0 -920103.83222814649 5885077.5337446257 0 5885077.5337446257 9458798.7424812019 0 0 0 0 3587601.994055748 8536376.4706764221 0 8536376.4706764221 4304593.5992889404 0 0 0 0 -14171172.064651489 3472749.3264598846 0 3472749.3264598846 19508450.647033691 0 0 0 0 1034052.4097607583 4688747.7820391953 0 4688747.7820391953 910095.45297517627 0 0 0 0 1380289.9525775909 12793541.981338501 0 12793541.981338501 6184925.759057045 0 0 0 0 352687.58675479889 6881662.4955921173 0 6881662.4955921173 -1802.6017990112305 0 0 0 0 3828989.1059927195 7310295.4263994694 0 7310295.4263994694 -386422.96499135345 0 0 0 0 2422396.1644287109 6575624.0391235352 0 6575624.0391235352 -60760.431308746338 0 0 0 0 2995856.3508834839 10454866.937088013 0 10454866.937088013 8410901.3497009277 0 0 0 0 -3523118.8007157929 4439576.2210156098 0 4439576.2210156098 2392725.9308213592 0 0 0 0 2569295.6490917206 6456924.8154678345 0 6456924.8154678345 5678.3352966308594 0 0 0 0 748406.34511362016 6229412.9773309529 0 6229412.9773309529 -1632306.5782316588 0 0 0 0 12404512.445155144 8819256.6250534058 0 8819256.6250534058 -8062287.7285614014 0 0 0 0 1169700.728805095 6328636.7780054808 0 6328636.7780054808 2890826.9306488037 0 0 0 0 -2623820.8241195679 7331525.1176605225 0 7331525.1176605225 384604.85680389404 0 0 0 0 133759.15183639526 5094330.9562225342 0 5094330.9562225342 2178166.1934356689 0 0 0 0 309654.01479000598 798517.02893598378 0 798517.02893598378 1603798.1811631918 0 0 0 0 -103754769.93093109 339517048.54559326 0 339517048.54559326 959901.85594526376 0 0 0 0 -1227177.1535129547 11196439.960098267 0 11196439.960098267 1945715.1712646484 0 0 0 0 13756689.240701199 -7652985.8885068893 0 -7652985.8885068893 27536264.573554993 0 0 0 0 7872223.8048663139 17490832.071277618 0 17490832.071277618 9035005.0039215088 0 0 0 0 156798.03445985354 2213636.4141738415 0 2213636.4141738415 -1581983.5797866732 0 0 0 0 16880470.980202198 18396305.422683716 0 18396305.422683716 42854.922027587891 0 0 0 0 1761506.9566406049 4370239.4095163643 0 4370239.4095163643 -6675505.0771083534 0 0 0 0 822200.60004331172 6138725.890611127 0 6138725.890611127 345595.39152282476 0 0 0 0 6516108.7758131027 11734257.070011139 0 11734257.070011139 -2747294.0523681641 0 0 0 0 1199227.3842766527 10605538.217680871 0 10605538.217680871 -6991993.177361995 0 0 0 0 3858418.0008802414 8417526.1770629883 0 8417526.1770629883 -11859065.748840332 0 0 0 0 -924040484.62923431 326264294.85682678 0 326264294.85682678 765765902.0582428 0 0 0 0 1660875.8914729804 18521383.467680871 0 18521383.467680871 -10989130.346611768 0 0 0 0 4282912.6191065051 9178387.7484679669 0 9178387.7484679669 -6904672.9891008437 0 0 0 0 836823.68155002594 6830346.3769454956 0 6830346.3769454956 -8058788.310760498 0 0 0 0 10849113.716034412 15430653.076696396 0 15430653.076696396 3391700.7145843506 0 0 0 0 366756.94279670715 10687433.855377197 0 10687433.855377197 7941892.0787811279 0 0 0 0 2578367.1111897454 9484415.7966570109 0 9484415.7966570109 1122224.2357123457 0 0 0 0 10403144.452222109 4837331.3088817596 0 4837331.3088817596 5298293.9634552002 0 0 0 0 -2417809.731212616 16553727.84526062 0 16553727.84526062 6774219.5433292389 0 0 0 0 46604642.860531807 131780910.18091965 0 131780910.18091965 -22526185.977081299 0 0 0 0 129292803.99243259 -199019837.39337921 0 -199019837.39337921 67745597.148468018 0 0 0 0 4575537.6032690611 12278320.651083857 0 12278320.651083857 8628575.5840632617 0 0 0 0 7742472.1277219746 3747690.0702246502 0 3747690.0702246502 -7388073.9380236566 0 0 0 0 -227071633.98705184 273402141.9738133 0 273402141.9738133 100026531.76869202 0 0 0 0 -28302614.85825634 -313408249.33387756 0 -313408249.33387756 -145587676.8243103 0 0 0 0 285571350.95468235 93173899.500816345 0 93173899.500816345 -481561009.17066193 0 0 0 0 486507681.26991463 -15022317.214027405 0 -15022317.214027405 -555337902.89173126 0 0 0 0 -217757524.34786224 135275093.29381561 0 135275093.29381561 32879404.530883789 0 0 0 0 -905766.87036853097 1533433.6997502353 0 1533433.6997502353 -95388.544102579355 0 0 0 0 -146242479.15285301 237840714.3964119 0 237840714.3964119 -112025733.09475708 0 0 0 0 -491531609.58999276 35154928.228420258 0 35154928.228420258 50298810.202224731 0 0 0 0 -134358457.87338501 41467241.684381008 0 41467241.684381008 5209740.52293396 0 0 0 0 -45376868.805996418 58730951.490707397 0 58730951.490707397 3104096.5363540649 0 0 0 0 53302349.163369179 -59082612.331268311 0 -59082612.331268311 10981345.27747345 0 0 0 0 20240024.568494797 -1578597.2564544678 0 -1578597.2564544678 -25479043.087020874 0 0 0 0 90808975.499461651 73608815.998588562 0 73608815.998588562 -50010180.576049805 0 0 0 0 85193353.864795923 11340043.464682579 0 11340043.464682579 -78691096.188659668 0 0 0 0 18425636.322272182 -18095625.207681656 0 -18095625.207681656 -35195518.403045654 0 0 0 0 519833076.382864 236169711.60557365 0 236169711.60557365 -135055255.75627136 0 0 0 0 91703684.538654804 68398593.991153717 0 68398593.991153717 -81973894.19021225 0 0 0 0 27640103.456243217 -257283.48697689176 0 -257283.48697689176 -13040690.26197359 0 0 0 0 78048375.483453751 -139366.4979019165 0 -139366.4979019165 35342423.391731262 0 0 0 0 -14388433.548564469 20337579.17928239 0 20337579.17928239 -2165924.7327201962 0 0 0 0 467964968.21848679 180182667.53384399 0 180182667.53384399 46939131.835968018 0 0 0 0 131669.31317212293 14518042.529870957 0 14518042.529870957 -36401767.483886927 0 0 0 0 39343413.108678117 6817636.5541152954 0 6817636.5541152954 -100690930.71683502 0 0 0 0 73418766.121882439 76588457.876708984 0 76588457.876708984 -16291648.453979492 0 0 0 0 8082067.9328246266 -3346972.0812825263 0 -3346972.0812825263 -12555541.114420086 0 0 0 0 -49996747.552228272 -77615725.512458801 0 -77615725.512458801 -26209835.04914856 0 0 0 0 -527103.5080751637 22543981.749772355 0 22543981.749772355 -37013093.730059892 0 0 0 0 452038064.61257839 360178619.29406738 0 360178619.29406738 57954484.678081512 0 0 0 0 39788473.725988865 56926988.555511475 0 56926988.555511475 -57501416.147293091 0 0 0 0 829610.94020748138 35135079.209541321 0 35135079.209541321 -43381880.850601196 0 0 0 0 6970594.6827329099 -27465210.744080544 0 -27465210.744080544 -74957576.411712646 0 0 0 0 6190922.1721915007 -1083539.8624124527 0 -1083539.8624124527 -17395599.686271667 0 0 0 0 6196725.2577397227 -365761.44253730774 0 -365761.44253730774 -10077995.637542725 0 0 0 0 33540763.730477422 69351545.509296417 0 69351545.509296417 89678668.419906616 0 0 0 0 4073769.8357505798 8761838.2407073975 0 8761838.2407073975 -9830513.0044717789 0 0 0 0 4882932.7022418398 4431498.3519205004 0 4431498.3519205004 -4650566.3637546599 0 0 0 0 7393650.5758743286 6368958.4663848877 0 6368958.4663848877 -19940334.132072449 0 0 0 0 38389347.71868515 42736064.634094238 0 42736064.634094238 39065441.410400391 0 0 0 0 10611799.00499149 1429633.171976611 0 1429633.171976611 -7471198.7766842395 0 0 0 0 2924092.0868549347 10993563.700073242 0 10993563.700073242 -13312389.376174927 0 0 0 0 6632167.8954753876 7368459.6391983032 0 7368459.6391983032 -11939743.006633759 0 0 0 0 5156895.0967788696 3343318.3423919678 0 3343318.3423919678 -8031665.0820664167 0 0 0 0 25275211.859469414 49478351.555480957 0 49478351.555480957 44578951.418060303 0 0 0 0 -535179.50798839889 437250.03243152797 0 437250.03243152797 -302267.40867951512 0 0 0 0 27850054.962995887 40572311.738754272 0 40572311.738754272 40858629.750137329 0 0 0 0 127957206.62118858 84893351.874595642 0 84893351.874595642 24378309.411140442 0 0 0 0 78356655.767840147 49926283.573501587 0 49926283.573501587 60114.567077636719 0 0 0 0 43242791.618431568 39569018.383499146 0 39569018.383499146 40874493.022232056 0 0 0 0 131438645.29879057 110181989.29740143 0 110181989.29740143 60410106.336471558 0 0 0 0 255249898.70169067 124496073.17603302 0 124496073.17603302 18710710.909568787 0 0 0 0 201716425.02812171 91110279.75494194 0 91110279.75494194 13908.81079864502 0 0 0 0 170933158.76395988 132366246.78800964 0 132366246.78800964 83218336.104766846 0 0 0 0 221086505.28060532 147824800.43688965 0 147824800.43688965 86161612.880813599 0 0 0 0 92805541.916870117 89390518.752388 0 89390518.752388 95454838.788070679 0 0 0 0 80014041.018563747 92968241.404541016 0 92968241.404541016 122914113.3792572 0 0 0 0 113803338.34362459 148183925.26516724 0 148183925.26516724 189254254.48498535 0 0 0 0 6261293.311042022 3372837.9270245135 0 3372837.9270245135 -4700879.4410884529 0 0 0 0 168737592.41198713 119348778.4823904 0 119348778.4823904 61732876.138778687 0 0 0 0 28469556.725636482 -36828250.429786682 0 -36828250.429786682 -38100403.301605225 0 0 0 0 231776351.58874893 74544189.957009315 0 74544189.957009315 -9371639.6123886108 0 0 0 0 204797771.48188972 96101504.273078918 0 96101504.273078918 -89705.991267899677 0 0 0 0 384613749.83154583 179741419.89136505 0 179741419.89136505 18582718.465005875 0 0 0 0 195554981.06981802 104581284.82671547 0 104581284.82671547 -4840372.7345504761 0 0 0 0 -81462069.379700661 -105232818.0826683 0 -105232818.0826683 -61262994.991104722 0 0 0 0 315573849.41771388 225694129.74389458 0 225694129.74389458 -68284241.211715698 0 0 0 0 228367233.60445499 44170551.279781342 0 44170551.279781342 56813149.44329834 0 0 0 0 567420485.14274597 226997139.99128723 0 226997139.99128723 -56029603.594242096 0 0 0 0 468771508.64269233 501961047.96936321 0 501961047.96936321 438655419.05923462 0 0 0 0 3286461.6927690748 741753.56682945788 0 741753.56682945788 -1394567.6762654185 0 0 0 0 302404510.92407513 224794951.08792114 0 224794951.08792114 186353474.93133545 0 0 0 0 311978270.98100162 46410365.817440033 0 46410365.817440033 -178764879.6998291 0 0 0 0 406073710.78757 230210955.69700241 0 230210955.69700241 24890111.208786011 0 0 0 0 345317093.42836952 48709139.129425049 0 48709139.129425049 -57747891.983879089 0 0 0 0 -70306982.958019257 166659566.30994415 0 166659566.30994415 100008361.60582349 0 0 0 0 93972121.176445007 297394556.22901154 0 297394556.22901154 99348345.840561509 0 0 0 0 -474972.40913646668 1193415.9175517559 0 1193415.9175517559 2286289.0006055236 0 0 0 0 34972205.196055412 -15620275.535923004 0 -15620275.535923004 -142565873.2179718 0 0 0 0 5738084.9799838513 -627702.4788928628 0 -627702.4788928628 -396774.70447806269 0 0 0 0 -24886297.796952248 -28946901.176483154 0 -28946901.176483154 -106878569.53217053 0 0 0 0 179737991.2801857 221944811.60071564 0 221944811.60071564 244638873.58638763 0 0 0 0 7318693.3966371687 400219.01299674809 0 400219.01299674809 -3243032.6576607674 0 0 0 0 247110129.26283789 193370330.11739349 0 193370330.11739349 141023979.24570465 0 0 0 0 244827588.60664225 174623465.43143082 0 174623465.43143082 167112203.89187622 0 0 0 0 20211778.619907856 -67342574.952812195 0 -67342574.952812195 -206759436.76704407 0 0 0 0 36391438.117113113 27235421.954498291 0 27235421.954498291 -165469548.28202057 0 0 0 0 7367368.7610845566 -152794384.56739044 0 -152794384.56739044 -275998105.34262085 0 0 0 0 44719606.048706055 -29899091.729782104 0 -29899091.729782104 -58481675.394386292 0 0 0 0 7533443.9840297699 45824037.988624573 0 45824037.988624573 -17031803.30456543 0 0 0 0 15650411.627567291 55217600.008705139 0 55217600.008705139 -4870010.1495704651 0 0 0 0 33144561.060490608 20806650.816329956 0 20806650.816329956 -69159283.050077438 0 0 0 0 -10028161.387509823 7465531.8257293701 0 7465531.8257293701 -66211449.124526978 0 0 0 0 34978893.963814735 24352904.339050293 0 24352904.339050293 -105280384.50877738 0 0 0 0 104161882.8681488 70224933.245025635 0 70224933.245025635 -31831551.90486908 0 0 0 0 15618263.625214577 131634715.60187531 0 131634715.60187531 10056736.538200378 0 0 0 0 26057039.560274124 12726209.394557953 0 12726209.394557953 -33826084.015029907 0 0 0 0 -55285083.806232452 27089407.067272186 0 27089407.067272186 45998831.178634644 0 0 0 0 36029349.368509293 49664567.759941101 0 49664567.759941101 51875569.096588135 0 0 0 0 -50841319.734388351 -122431467.54838181 0 -122431467.54838181 -33338953.208023071 0 0 0 0 -406235.92168151028 9586617.0391714349 0 9586617.0391714349 -1203584.1383803785 0 0 0 0 15000067.539082438 11346483.228431776 0 11346483.228431776 -31869794.480143219 0 0 0 0 50769647.294273376 989227.52140045166 0 989227.52140045166 -89056631.654743195 0 0 0 0 168008949.53570938 111223822.50157166 0 111223822.50157166 56574059.541313171 0 0 0 0 -41557087.128447533 7740507.6500854492 0 7740507.6500854492 55946023.493598938 0 0 0 0 269475.96188541315 3495497.9255094007 0 3495497.9255094007 1914850.1499262452 0 0 0 0 139478195.87207389 52934051.809222221 0 52934051.809222221 -23736033.526138306 0 0 0 0 46641074.657115936 97000249.387962341 0 97000249.387962341 36781191.539894104 0 0 0 0 7551782.8371262364 14666609.922103643 0 14666609.922103643 -36351482.143701345 0 0 0 0 147787811.45893788 56473314.090917587 0 56473314.090917587 -34079199.88180542 0 0 0 0 -34318132.849392891 26262271.232055664 0 26262271.232055664 -16277576.223266602 0 0 0 0 67497861.35783577 71297531.057876587 0 71297531.057876587 -34777493.026082516 0 0 0 0 135745275.90904045 7400231.869102478 0 7400231.869102478 -52071442.095977783 0 0 0 0 264087457.34430814 85170818.277294159 0 85170818.277294159 -56973000.267471313 0 0 0 0 209331805.30046272 62386127.007736206 0 62386127.007736206 -55411669.655640602 0 0 0 0 235423988.39868927 9456399.1183624268 0 9456399.1183624268 -67229602.79447937 0 0 0 0 251851738.81831551 80408769.892860413 0 80408769.892860413 -60517930.92137146 0 0 0 0 224612147.62495422 46170203.097900391 0 46170203.097900391 -55921974.162338257 0 0 0 0 151326427.47727227 45200141.638319016 0 45200141.638319016 -43931856.03692627 0 0 0 0 150676965.77867889 202078624.739151 0 202078624.739151 -32507355.022900581 0 0 0 0 371744185.40595567 238547306.4072957 0 238547306.4072957 -35151314.726608276 0 0 0 0 225328276.0042572 179954319.38840485 0 179954319.38840485 -54975468.858016968 0 0 0 0 59801204.828150511 209415052.65715122 0 209415052.65715122 28048763.41204834 0 0 0 0 69319608.765880585 170434610.70940399 0 170434610.70940399 -2951931.7757720947 0 0 0 0 45536195.124696732 127048883.72868729 0 127048883.72868729 -729985.63912200928 0 0 0 0 136492262.10168076 148935991.88661194 0 148935991.88661194 -27886003.815383911 0 0 0 0 116803833.4653368 150324124.12136841 0 150324124.12136841 -27917456.939224243 0 0 0 0 179375136.13156605 61349170.610618591 0 61349170.610618591 -36115507.434555054 0 0 0 0 176991955.31918907 93933846.268089294 0 93933846.268089294 -52216568.754302979 0 0 0 0 128240103.03339767 102624838.38690186 0 102624838.38690186 -19415453.453842163 0 0 0 0 137158254.05241728 93766286.364290237 0 93766286.364290237 -14064283.347900391 0 0 0 0 156556720.54216766 76579357.045146942 0 76579357.045146942 -15861744.864471436 0 0 0 0 183322473.05163574 131827795.74942017 0 131827795.74942017 55044405.707824707 0 0 0 0 141919061.31279659 69299139.221130371 0 69299139.221130371 -11142518.31262207 0 0 0 0 4427884.5775482617 -844203.79386554658 0 -844203.79386554658 -10457400.279557973 0 0 0 0 3331354.8384450637 14879974.259863444 0 14879974.259863444 -52570264.050375015 0 0 0 0 90730541.850605011 298836112.560215 0 298836112.560215 -202705860.67098999 0 0 0 0 134656543.58919716 50289064.562385559 0 50289064.562385559 -47249928.903945923 0 0 0 0 104609192.23661423 87425825.37979126 0 87425825.37979126 5238746.0890579224 0 0 0 0 80301369.162761688 116790679.41108704 0 116790679.41108704 -1586745.1690979004 0 0 0 0 103142044.49590683 117614408.80281067 0 117614408.80281067 -24799240.726150513 0 0 0 0 87646768.028578758 126049816.80353355 0 126049816.80353355 -18876078.200469971 0 0 0 0 34387616.048707962 128200405.64277649 0 128200405.64277649 -17333767.225208282 0 0 0 0 26806096.406236649 119199157.89744568 0 119199157.89744568 -24106895.60168457 0 0 0 0 37049994.837643623 80973352.132488251 0 80973352.132488251 -94063427.793395996 0 0 0 0 14152102.903116226 99626264.323173523 0 99626264.323173523 -25200251.024294376 0 0 0 0 195818533.40406382 -4019552.6581473351 0 -4019552.6581473351 -146363622.77790833 0 0 0 0 3141555.3675122242 19531467.130639717 0 19531467.130639717 -59337123.466350645 0 0 0 0 37313743.650267601 90286448.364723206 0 90286448.364723206 -52409139.557025909 0 0 0 0 -18481062.231848717 -116081173.6374855 0 -116081173.6374855 23739677.97265625 0 0 0 0 188703806.88729668 -62888345.861213684 0 -62888345.861213684 -175854111.14956665 0 0 0 0 89284667.693663597 95665766.635505676 0 95665766.635505676 -58733111.340026855 0 0 0 0 149003208.57618332 -3924313.0049743652 0 -3924313.0049743652 -108705321.13518524 0 0 0 0 55859948.33205986 -72316315.259418488 0 -72316315.259418488 -128508559.9012146 0 0 0 0 81390619.382118225 -23413816.461196899 0 -23413816.461196899 -113346024.62095642 0 0 0 0 -57086498.139217377 18929168.878952026 0 18929168.878952026 -169912383.60313416 0 0 0 0 -16479111.749837875 47849666.89907074 0 47849666.89907074 -381194770.0767045 0 0 0 0 22604509.16835022 -59619389.338676453 0 -59619389.338676453 -128071659.00992584 0 0 0 0 -116791838.24192429 88404171.737884521 0 88404171.737884521 -118773546.12257385 0 0 0 0 -199977062.08766365 158671631.63693237 0 158671631.63693237 -175588018.11936188 0 0 0 0 -189034253.80432701 27120050.436988831 0 27120050.436988831 -51974542.13577652 0 0 0 0 -126346015.73134613 176909126.51908875 0 176909126.51908875 -229105683.64598083 0 0 0 0 -107184356.59617615 151487119.83093262 0 151487119.83093262 -227908129.84368896 0 0 0 0 -118753599.87776756 167699174.55060577 0 167699174.55060577 -217988593.9214325 0 0 0 0 -10130672.250354767 221573364.06216431 0 221573364.06216431 -389361443.003479 0 0 0 0 83016521.925121307 445134784.58634949 0 445134784.58634949 -219284781.75538635 0 0 0 0 -170717930.09572792 238816411.82601166 0 238816411.82601166 653529043.8812561 0 0 0 0 136561434.23038483 -236952544.29385376 0 -236952544.29385376 278898159.98947144 0 0 0 0 -151671369.98631811 391067194.04778194 0 391067194.04778194 4504361.7723693848 0 0 0 0 -41054280.252403259 329819964.9750061 0 329819964.9750061 -312874297.36714935 0 0 0 0 -85986388.688228607 -17270474.257659912 0 -17270474.257659912 228524126.17473602 0 0 0 0 -122269741.19374371 174589940.85178185 0 174589940.85178185 -33436409.530914307 0 0 0 0 -108259233.06390381 -12713053.258377075 0 -12713053.258377075 29934500.249160767 0 0 0 0 -105362323.60255432 108998471.51943207 0 108998471.51943207 -103097947.78794861 0 0 0 0 33710632.078845978 -107871755.4745636 0 -107871755.4745636 48631064.630748749 0 0 0 0 3991359.7846031189 -41022037.395019531 0 -41022037.395019531 -51069487.15435791 0 0 0 0 390029128.98295212 -145174311.93038177 0 -145174311.93038177 -18965723.675842285 0 0 0 0 88999865.483047485 -23181360.965560913 0 -23181360.965560913 24187192.175109863 0 0 0 0 101564785.73098946 -50821835.077653885 0 -50821835.077653885 -49569259.863830566 0 0 0 0 183633056.77639389 43459540.30279541 0 43459540.30279541 -40641676.058013916 0 0 0 0 -165175242.26090813 -33313898.816352844 0 -33313898.816352844 20603805.605392456 0 0 0 0 -1455099.1831323914 1059880.3221322298 0 1059880.3221322298 -2177541.7658459544 0 0 0 0 20440118.698272705 -5506751.9729690552 0 -5506751.9729690552 64338175.753527641 0 0 0 0 -154634349.45152855 -103205327.45517731 0 -103205327.45517731 -95018497.705245972 0 0 0 0 -113011565.17379379 31833141.279296875 0 31833141.279296875 -250804238.72251892 0 0 0 0 21946249.402389526 64714225.476230621 0 64714225.476230621 30343937.105929375 0 0 0 0 -27645296.46995163 -104194846.89783859 0 -104194846.89783859 76637322.266723633 0 0 0 0 -3615086.7865373939 233758.07550811768 0 233758.07550811768 1140988.5562661812 0 0 0 0 9916650.7079772949 116867883.99106598 0 116867883.99106598 -101771969.27931595 0 0 0 0 -84739951.707201004 -47784625.883041382 0 -47784625.883041382 -27356609.394107819 0 0 0 0 1666838.7821543291 7583133.1980082653 0 7583133.1980082653 9652611.5525251329 0 0 0 0 -153477626.13158226 53984049.509851456 0 53984049.509851456 105711310.81524658 0 0 0 0 -43169407.779326439 117912849.40100861 0 117912849.40100861 17405887.850257874 0 0 0 0 -28808195.730418772 14362098.905245617 0 14362098.905245617 22975862.433866292 0 0 0 0 17552303.857648674 44415639.457086354 0 44415639.457086354 66808664.812668949 0 0 0 0 556485.66829681396 95231182.690793991 0 95231182.690793991 5511981.2673873901 0 0 0 0 -35099608.245576859 108495872.66573715 0 108495872.66573715 2934378.2309646606 0 0 0 0 -44779510.634405136 138334525.79735565 0 138334525.79735565 12183742.297969818 0 0 0 0 10042741.542113304 135161790.9679718 0 135161790.9679718 8953570.2671051025 0 0 0 0 -41867727.685157776 118009871.94675064 0 118009871.94675064 17317096.130702972 0 0 0 0 -142166415.96657276 130763422.58611679 0 130763422.58611679 45311062.829780579 0 0 0 0 -42879906.185512543 153679854.40930939 0 153679854.40930939 21863847.300239563 0 0 0 0 34529646.24555707 170771723.85005188 0 170771723.85005188 800634.73582458496 0 0 0 0 -99061944.665973663 113590777.89728546 0 113590777.89728546 21805142.720824242 0 0 0 0 -54856880.492726803 182200295.37532043 0 182200295.37532043 5347411.8178253174 0 0 0 0 -26244209.428171158 152703783.75375366 0 152703783.75375366 32892228.036102295 0 0 0 0 -217742578.31504059 126556349.51683044 0 126556349.51683044 32111012.795930862 0 0 0 0 -470227206.10884666 117766391.59188271 0 117766391.59188271 305580326.13758087 0 0 0 0 20733045.159336351 40143461.439002454 0 40143461.439002454 66063527.886567265 0 0 0 0 -150890720.77092075 150692308.61842537 0 150692308.61842537 24802053.09916687 0 0 0 0 115059561.60733747 -322769844.91961288 0 -322769844.91961288 469821716.23521423 0 0 0 0 1324820.973627165 1793696.7940666974 0 1793696.7940666974 4015827.8934934437 0 0 0 0 -6843698.0279579163 229745833.94789124 0 229745833.94789124 666021630.51404572 0 0 0 0 -44285855.549762726 6636715.8248977661 0 6636715.8248977661 6090972.169960022 0 0 0 0 90210579.467277527 369618327.78061676 0 369618327.78061676 -47720487.727805138 0 0 0 0 125521470.6362133 138525558.34549665 0 138525558.34549665 -81948833.855575562 0 0 0 0 5623146.009759903 41770258.167037964 0 41770258.167037964 -97976563.704666138 0 0 0 0 -261422872.11104202 312653302.11010742 0 312653302.11010742 25917274.05178833 0 0 0 0 -11951195.575781725 9163135.7415324301 0 9163135.7415324301 15063681.428084671 0 0 0 0 -252081849.06416702 190307539.83056259 0 190307539.83056259 -34145643.473220825 0 0 0 0 -289430535.95811844 133459008.38982391 0 133459008.38982391 31793950.301269531 0 0 0 0 22021252.30287499 39404670.003713891 0 39404670.003713891 56624007.643299609 0 0 0 0 -184016638.88837051 180713893.48493385 0 180713893.48493385 -107881579.5178833 0 0 0 0 -173547382.73534203 150328459.8579998 0 150328459.8579998 -56688746.083068848 0 0 0 0 -199374459.83649445 171643815.05433655 0 171643815.05433655 -89558144.368988037 0 0 0 0 -359931833.44763947 255228023.12554932 0 255228023.12554932 -104147266.9021759 0 0 0 0 -154303088.9762249 175354739.75870132 0 175354739.75870132 -246090762.56622314 0 0 0 0 -166547751.00006866 165736445.92493439 0 165736445.92493439 -146048832.45928955 0 0 0 0 -240679145.75495911 172071765.38076782 0 172071765.38076782 -168048803.07759094 0 0 0 0 -97804188.592281818 107381856.18532181 0 107381856.18532181 -149642468.24520874 0 0 0 0 -144193815.86105919 141821327.0144043 0 141821327.0144043 -127438063.70413208 0 0 0 0 -140301376.54730225 144197960.90531921 0 144197960.90531921 -136228693.18431091 0 0 0 0 -106220965.59679413 140960820.57429504 0 140960820.57429504 -186108476.40674591 0 0 0 0 -160359007.24427032 139992259.52952576 0 139992259.52952576 -138377823.4884491 0 0 0 0 -124425334.93415642 174176737.21318817 0 174176737.21318817 -181465987.82369995 0 0 0 0 44093562.919531696 35865034.917919956 0 35865034.917919956 23973687.556644082 0 0 0 0 -117939055.6856699 198671627.20943832 0 198671627.20943832 -193816281.84591675 0 0 0 0 -145270150.81856155 160433713.17610168 0 160433713.17610168 -154015282.48918152 0 0 0 0 -122732222.28401184 215551146.98976135 0 215551146.98976135 -165297497.60955811 0 0 0 0 8333295.2423391342 153641284.70479965 0 153641284.70479965 -284452692.8518219 0 0 0 0 -77148338.17907238 232297973.30173492 0 232297973.30173492 -218955679.57873535 0 0 0 0 -386764900.51600838 460148815.86763573 0 460148815.86763573 -368312535.99542236 0 0 0 0 -431046301.86010742 472678101.61428833 0 472678101.61428833 -353638418.50985718 0 0 0 0 13647600.694049641 10020607.843691155 0 10020607.843691155 -9641975.4387865365 0 0 0 0 -134860775.63287735 257784300.3705864 0 257784300.3705864 -367403986.25463867 0 0 0 0 -93511588.447879791 62850991.585289001 0 62850991.585289001 -23565867.236293793 0 0 0 0 -79527925.686496735 177770223.18732834 0 177770223.18732834 61463782.233215332 0 0 0 0 -128780967.03225517 140528445.86318207 0 140528445.86318207 -56371423.76385498 0 0 0 0 -125239744.2019558 153867166.90242767 0 153867166.90242767 -39598594.690078735 0 0 0 0 -97421395.728937149 83154295.427986145 0 83154295.427986145 -42484707.315948725 0 0 0 0 -118246605.40594482 114984719.53898621 0 114984719.53898621 -100190063.83782959 0 0 0 0 -112253871.15108585 117903263.0650444 0 117903263.0650444 -123882724.30195618 0 0 0 0 -113110467.79738426 104579289.45652008 0 104579289.45652008 -110336477.31559753 0 0 0 0 -74506330.287225723 90912910.078617096 0 90912910.078617096 -124244274.96280837 0 0 0 0 -68726472.607585907 75082132.464488983 0 75082132.464488983 -123282452.94482422 0 0 0 0 -97985039.595835805 159544737.67740059 0 159544737.67740059 -48398021.297843933 0 0 0 0 -345128.27229060605 1911109.2421649098 0 1911109.2421649098 3216172.8434991837 0 0 0 0 -74151422.171617508 96396339.448322296 0 96396339.448322296 -125076059.63826752 0 0 0 0 -99161815.053129196 27722728.258850098 0 27722728.258850098 -28595395.022742748 0 0 0 0 -1277096.2185050398 792975.54817475379 0 792975.54817475379 2308301.153563112 0 0 0 0 -75378872.558969498 80968592.211975098 0 80968592.211975098 17667442.391372681 0 0 0 0 -15771518.538014889 78586317.47713995 0 78586317.47713995 50434.041709899902 0 0 0 0 -90761388.521244049 205998237.26307678 0 205998237.26307678 -55829481.127868652 0 0 0 0 -53773971.012386322 178125698.36101532 0 178125698.36101532 -97817590.865047455 0 0 0 0 -93328281.824770927 180583399.69783974 0 180583399.69783974 -77943163.392318726 0 0 0 0 -109792983.19911003 159965038.24734116 0 159965038.24734116 -103625011.22329712 0 0 0 0 -98314012.669818878 181339916.55535889 0 181339916.55535889 -145308870.19790649 0 0 0 0 -83445872.146383286 185940689.47534943 0 185940689.47534943 -158261210.74707031 0 0 0 0 -55197737.353355408 146940634.16513062 0 146940634.16513062 -122364504.49017334 0 0 0 0 -83132775.013187408 73602762.1994133 0 73602762.1994133 -82136327.79057312 0 0 0 0 -106950622.06230164 117415786.93479919 0 117415786.93479919 -136722182.52092743 0 0 0 0 -80871873.9220047 133601182.89466476 0 133601182.89466476 -78996955.618057251 0 0 0 0 29384477.204638958 185340152.73091316 0 185340152.73091316 -56713470.694473267 0 0 0 0 5610966.4240264893 68470920.901290894 0 68470920.901290894 -85282113.568389893 0 0 0 0 81691065.069137573 112160617.88703918 0 112160617.88703918 106197.35377502441 0 0 0 0 -75813992.21346283 187594816.40891266 0 187594816.40891266 32201521.40933609 0 0 0 0 -75146292.610121727 172299359.24256706 0 172299359.24256706 -41546798.086875916 0 0 0 0 -97635120.321100235 167996461.66862869 0 167996461.66862869 5897.8272705078125 0 0 0 0 -54956703.854534149 175064047.55330276 0 175064047.55330276 -180890436.88832855 0 0 0 0 -44891079.048736572 143455058.74273682 0 143455058.74273682 -87355538.628475189 0 0 0 0 31338177.107743591 28470245.442774445 0 28470245.442774445 18365795.735644385 0 0 0 0 -88848146.210922241 135683202.17579842 0 135683202.17579842 -76923485.041275024 0 0 0 0 -84296870.917413712 111872418.46688461 0 111872418.46688461 -175590.74726490813 0 0 0 0 2590202.9387872517 1866361.1275313385 0 1866361.1275313385 -664710.10776764154 0 0 0 0 177250457.91418481 -60757710.528635979 0 -60757710.528635979 -198094419.71182251 0 0 0 0 19496028.622237876 9508589.8634230494 0 9508589.8634230494 -1326781.0360695422 0 0 0 0 8728102.6942749023 157689217.68188477 0 157689217.68188477 344431.2061920166 0 0 0 0 46899881.348556519 65471037.665641785 0 65471037.665641785 -116568204.0773468 0 0 0 0 118200181.97193146 244987127.20155334 0 244987127.20155334 -170411399.36212158 0 0 0 0 5207214.9883221239 5296579.1215039045 0 5296579.1215039045 1425737.3123158216 0 0 0 0 6951509.9884262085 -14220273.998703003 0 -14220273.998703003 -268826417.10911179 0 0 0 0 237131889.32270718 14640108.10593605 0 14640108.10593605 -73342437.067169189 0 0 0 0 -246486.61415861547 14470171.192258775 0 14470171.192258775 -21880635.943559915 0 0 0 0 48011662.386898518 -12744112.019378662 0 -12744112.019378662 42644556.33631897 0 0 0 0 15928616.985160589 20326449.554921016 0 20326449.554921016 12192883.890067413 0 0 0 0 14749292.475063324 29726280.573284149 0 29726280.573284149 -16213274.472049713 0 0 0 0 36151474.31247139 48029329.894128799 0 48029329.894128799 -33451459.440093994 0 0 0 0 52074300.588968277 15012310.033248901 0 15012310.033248901 -39067929.589767456 0 0 0 0 -2824830.2361935601 14091354.531030342 0 14091354.531030342 -22897567.845483005 0 0 0 0 33695030.322845459 1168527.9059638977 0 1168527.9059638977 -26816690.801891327 0 0 0 0 17479171.922424316 16263738.617275238 0 16263738.617275238 -31479987.436164856 0 0 0 0 -76973718.34513855 44152963.088935852 0 44152963.088935852 -78146761.390399456 0 0 0 0 13860848.054314613 1984941.3563861847 0 1984941.3563861847 -87814159.032684326 0 0 0 0 131684.32360361516 -253667.54974032193 0 -253667.54974032193 -1179069.5296175182 0 0 0 0 269187914.45214844 172156327.78546143 0 172156327.78546143 -138963089.2850647 0 0 0 0 -88000542.327983141 234111745.02956343 0 234111745.02956343 -143338818.02248383 0 0 0 0 369928310.61520004 -141655044.50425339 0 -141655044.50425339 -61658694.066555023 0 0 0 0 111814879.4571991 180021772.16487122 0 180021772.16487122 -185635163.11446381 0 0 0 0 -57866686.111139297 24255407.117780685 0 24255407.117780685 81610541.885696411 0 0 0 0 -3923829.0294752121 65400948.893274307 0 65400948.893274307 -64794622.176437378 0 0 0 0 140182766.7659111 17861436.855594635 0 17861436.855594635 -139374300.30937195 0 0 0 0 8330047.4202302471 3010698.8770515174 0 3010698.8770515174 -10398562.6616835 0 0 0 0 194569055.56166458 -277510084.80197906 0 -277510084.80197906 304409732.02114105 0 0 0 0 185753813.60964203 128057735.49976349 0 128057735.49976349 -242973182.98629761 0 0 0 0 -293876846.68618965 211811845.31412029 0 211811845.31412029 -12101303.762695312 0 0 0 0 -8764490.1360528618 2933828.9550113976 0 2933828.9550113976 -134215.72725933418 0 0 0 0 -472863997.04586029 548261551.20045853 0 548261551.20045853 -537828425.3878479 0 0 0 0 -391806405.74648285 55311400.665340424 0 55311400.665340424 685249429.70455933 0 0 0 0 -831799475.69522476 712722230.02027512 0 712722230.02027512 1450037.2397537231 0 0 0 0 -415337603.28448868 925180529.77445793 0 925180529.77445793 -311324521.60046387 0 0 0 0 -823263934.64441681 485336405.88851166 0 485336405.88851166 263131879.50837708 0 0 0 0 -287231784.83284569 246474764.11123753 0 246474764.11123753 135039229.41738892 0 0 0 0 -364233466.27870941 482811463.36541748 0 482811463.36541748 -61686754.668998718 0 0 0 0 -330510426.85411072 299165004.05693817 0 299165004.05693817 -216553312.13452148 0 0 0 0 402707304.25935555 -128278131.23287201 0 -128278131.23287201 -22266078.753547668 0 0 0 0 711046974.12730408 446682614.57079315 0 446682614.57079315 -267896361.69534302 0 0 0 0 1134344150.6162109 644552633.09973907 0 644552633.09973907 -561999529.76002502 0 0 0 0 1358438925.9095812 -759214654.02638388 0 -759214654.02638388 222152905.91070557 0 0 0 0 7417668.1352326274 2025775.0565895736 0 2025775.0565895736 1520558.5955832452 0 0 0 0 -28183631.197250366 60477122.574661255 0 60477122.574661255 -280408.12645234243 0 0 0 0 -24547437.121231079 58718327.247497559 0 58718327.247497559 -112010195.5369873 0 0 0 0 324552122.38856125 -103397580.66834259 0 -103397580.66834259 42684701.659778595 0 0 0 0 336120905.04091644 -24562934.990951538 0 -24562934.990951538 -174254879.17023468 0 0 0 0 275363205.9965477 101376049.47186279 0 101376049.47186279 -161005112.16460085 0 0 0 0 291774325.92419052 58985187.117858887 0 58985187.117858887 -75821529.672485352 0 0 0 0 102887700.81531525 129571980.08837128 0 129571980.08837128 94247668.393028259 0 0 0 0 126919459.59338379 196833157.32478714 0 196833157.32478714 -43511066.64758873 0 0 0 0 3149181.4318719357 533270.87929700315 0 533270.87929700315 56270.208366438746 0 0 0 0 -277373673.80916977 316370237.47934723 0 316370237.47934723 1281364254.6377182 0 0 0 0 106325502.14784622 280341440.32936859 0 280341440.32936859 85299013.847167969 0 0 0 0 217048341.03219223 324404021.26598048 0 324404021.26598048 -1032095474.647934 0 0 0 0 225837779.65551758 483080955.01142883 0 483080955.01142883 -243160195.49146271 0 0 0 0 306334229.92697144 87328372.284496307 0 87328372.284496307 -438763982.73706055 0 0 0 0 81975087.30229187 280536961.02219391 0 280536961.02219391 -269787703.25779724 0 0 0 0 -72353869.49256134 289471432.76519394 0 289471432.76519394 -293845689.95726013 0 0 0 0 -606770376.21792221 629007408.32546043 0 629007408.32546043 -500469748.61684418 0 0 0 0 -481940373.3910141 -61248194.744682312 0 -61248194.744682312 -463915777.13833618 0 0 0 0 -263252370.80077362 974654253.37171936 0 974654253.37171936 -100821648.93839264 0 0 0 0 -93547247.882102966 291089149.72497559 0 291089149.72497559 481224681.32080841 0 0 0 0 -6610070.2283241898 5301470.5847204626 0 5301470.5847204626 -3677969.7171309292 0 0 0 0 -457749927.92074013 287140242.60903645 0 287140242.60903645 483531796.6518631 0 0 0 0 -65786137.375228882 -14284889.538139343 0 -14284889.538139343 24158180.916183472 0 0 0 0 123836259.26338196 18321013.091945648 0 18321013.091945648 -256861996.46676636 0 0 0 0 106240189.34092712 163941207.74955368 0 163941207.74955368 -709745579.79412842 0 0 0 0 73803853.700836182 134232193.78894806 0 134232193.78894806 -446576098.5954895 0 0 0 0 -15788935.819747925 329229749.6027832 0 329229749.6027832 -477631397.92037201 0 0 0 0 -109487759.79647446 356167751.09958458 0 356167751.09958458 -339647993.95515442 0 0 0 0 104419167.87231088 274596855.07775545 0 274596855.07775545 263884998.67173004 0 0 0 0 110705353.30486679 212717404.33177567 0 212717404.33177567 41172599.529319763 0 0 0 0 259160916.42019272 470899167.06929398 0 470899167.06929398 344761900.7550354 0 0 0 0 213898826.07473469 246909459.03231907 0 246909459.03231907 181338588.75636292 0 0 0 0 77687883.802379608 392345246.70601654 0 392345246.70601654 37705156.730560303 0 0 0 0 -253740313.95755768 461274966.12091446 0 461274966.12091446 309727775.43675232 0 0 0 0 -118336404.3947258 145865468.80749512 0 145865468.80749512 144251270.44833565 0 0 0 0 -193285221.65358734 295878593.18332672 0 295878593.18332672 5678456.5480194092 0 0 0 0 -338152284.19495773 190132743.66410065 0 190132743.66410065 -3242051.4617385864 0 0 0 0 -208503553.15531826 551299421.77401829 0 551299421.77401829 -514412648.08503723 0 0 0 0 -260557473.18101883 241985371.46408844 0 241985371.46408844 10050334.685119629 0 0 0 0 -276579501.09729004 195030134.27438354 0 195030134.27438354 -120413231.37561798 0 0 0 0 5238068.7505051941 7072820.4138795286 0 7072820.4138795286 -3800447.0790679157 0 0 0 0 500254.69472822174 9052533.2235769928 0 9052533.2235769928 -14278204.186144829 0 0 0 0 -308130683.1823082 132762468.36764526 0 132762468.36764526 -41633873.134284973 0 0 0 0 -318096122.76453781 157706368.3654747 0 157706368.3654747 44125779.822982788 0 0 0 0 -931653420.40447617 67433405.982814789 0 67433405.982814789 79592130.50452137 0 0 0 0 -1813777.5074517727 3031958.3116291612 0 3031958.3116291612 -4584037.87366575 0 0 0 0 63685280.342101097 65500503.570189476 0 65500503.570189476 35138255.086860657 0 0 0 0 -74996429.509777069 -238742105.2501545 0 -238742105.2501545 331087348.59528351 0 0 0 0 32364918.991931915 -56744118.692808151 0 -56744118.692808151 -181820292.12684202 0 0 0 0 -228942549.79549026 82865847.566506386 0 82865847.566506386 46201166.119514465 0 0 0 0 -422754601.61400223 415359227.67568207 0 415359227.67568207 -76237245.517738342 0 0 0 0 -41627550.679320335 40481618.283917904 0 40481618.283917904 163593885.7478714 0 0 0 0 -61942541.198623657 138558531.65265274 0 138558531.65265274 -43511156.092254639 0 0 0 0 31086891.024023056 156777849.03869629 0 156777849.03869629 -24252613.189567566 0 0 0 0 -250221255.46277618 95623814.859745026 0 95623814.859745026 270647442.04150391 0 0 0 0 16347829.532711029 119495861.84978104 0 119495861.84978104 271199264.14086533 0 0 0 0 26469406.380807877 140924500.31207657 0 140924500.31207657 187539458.6239624 0 0 0 0 165606685.29120731 -20137796.614754677 0 -20137796.614754677 12130976.528396606 0 0 0 0 5050973.1859440804 1127391.4841876626 0 1127391.4841876626 1284820.5629767478 0 0 0 0 25941168.765716553 185486164.54372025 0 185486164.54372025 526915899.74551773 0 0 0 0 27242715.687950134 224260948.89165878 0 224260948.89165878 726547129.13737488 0 0 0 0 305220433.34174728 284095539.29069901 0 284095539.29069901 429181909.36637878 0 0 0 0 347667094.36368275 -86685621.418564796 0 -86685621.418564796 -17461775.439064026 0 0 0 0 419424948.68556213 381446741.75601959 0 381446741.75601959 104962668.66964722 0 0 0 0 138987822.04538727 169870452.74681854 0 169870452.74681854 -222552475.48826218 0 0 0 0 138148575.4667511 -53890674.412956238 0 -53890674.412956238 -92544938.437496185 0 0 0 0 12926134.017551422 -35280343.060634613 0 -35280343.060634613 45051760.439041138 0 0 0 0 7690850.8909034729 -14695853.723594666 0 -14695853.723594666 -35617287.070570469 0 0 0 0 11667058.378760323 7256182.6599675268 0 7256182.6599675268 -2887770.1137227789 0 0 0 0 21533158.778879166 6934376.2292041779 0 6934376.2292041779 -8305708.3627510071 0 0 0 0 62098382.955799103 49876067.929946899 0 49876067.929946899 8840180.5118293762 0 0 0 0 17083294.664361954 36188818.01413393 0 36188818.01413393 23189774.931976318 0 0 0 0 163529559.14260101 251408031.92230606 0 251408031.92230606 78291855.513544083 0 0 0 0 -12744773.092088699 67440363.412893295 0 67440363.412893295 171025165.85443878 0 0 0 0 107201241.97377396 297875208.02155876 0 297875208.02155876 164021428.96977615 0 0 0 0 109475554.54689026 270383985.93324089 0 270383985.93324089 -89086194.403776169 0 0 0 0 146691224.88139725 65146194.569740295 0 65146194.569740295 -154441067.1412735 0 0 0 0 72412696.001708984 181554667.09485626 0 181554667.09485626 140614683.34107399 0 0 0 0 169789838.33579636 240230579.61590767 0 240230579.61590767 64788792.542655945 0 0 0 0 260216129.67967224 413829560.44468307 0 413829560.44468307 230303038.08388519 0 0 0 0 43532293.227703094 221531622.388134 0 221531622.388134 87332399.684139252 0 0 0 0 24253861.456707001 269858361.47057343 0 269858361.47057343 128046192.79894257 0 0 0 0 -37137453.388484955 -97120113.633441925 0 -97120113.633441925 23719623.984209061 0 0 0 0 408801113.9289093 135974940.4028511 0 135974940.4028511 55321963.143112183 0 0 0 0 -134848661.84075928 13941630.103672028 0 13941630.103672028 128974611.73186111 0 0 0 0 -35553907.50985913 18532765.024494931 0 18532765.024494931 -1966983.5614521988 0 0 0 0 -304661039.57363892 311286994.07500839 0 311286994.07500839 -490428797.09425735 0 0 0 0 -1535120.5605606288 3528867.8865039945 0 3528867.8865039945 -6230113.1027477533 0 0 0 0 36325512.570259094 -65186082.142375946 0 -65186082.142375946 -710724812.42123222 0 0 0 0 -111323958.56485748 392522496.44262695 0 392522496.44262695 74864161.814575195 0 0 0 0 92578636.705287933 86812691.719261169 0 86812691.719261169 -780940849.2310276 0 0 0 0 -8902480.2692422867 63222133.142615318 0 63222133.142615318 -513167143.38225174 0 0 0 0 66079273.055936813 237020151.47880554 0 237020151.47880554 351163566.24598694 0 0 0 0 -26075467.996902198 16103589.313189909 0 16103589.313189909 -1560195.785629645 0 0 0 0 -154910515.713274 -11050843.341254234 0 -11050843.341254234 -359889356.32715988 0 0 0 0 96468063.927696228 72383946.375616074 0 72383946.375616074 -784590325.60824323 0 0 0 0 -27957026.425237179 151647436.84478784 0 151647436.84478784 -50787698.473976135 0 0 0 0 62939437.001926422 136363028.58620071 0 136363028.58620071 -330114904.2457304 0 0 0 0 -4252599.6527899802 6478897.2907005921 0 6478897.2907005921 1876218.9891909882 0 0 0 0 -73682273.989391327 -29980545.82380867 0 -29980545.82380867 70875918.658046722 0 0 0 0 -108291269.53709793 5097083.2198143005 0 5097083.2198143005 -382569.77794742584 0 0 0 0 -301949135.81832886 -90498043.174880981 0 -90498043.174880981 7948395.8680267334 0 0 0 0 -1526213.8254339918 2887030.2584051788 0 2887030.2584051788 -1690636.4415069744 0 0 0 0 232936706.12266541 183101644.39005852 0 183101644.39005852 55470380.060646057 0 0 0 0 221038328.92398262 265881105.91602135 0 265881105.91602135 177318746.61903381 0 0 0 0 309405522.70034599 216021383.95179367 0 216021383.95179367 120242293.37215424 0 0 0 0 -4343357.8202187344 9796447.3668327928 0 9796447.3668327928 -12747412.015813768 0 0 0 0 111599717.73431873 88945001.380887985 0 88945001.380887985 161507895.90660858 0 0 0 0 -27276845.713241577 213723712.37964821 0 213723712.37964821 192043396.74494934 0 0 0 0 -65196812.304279327 150864120.70764923 0 150864120.70764923 217578641.12365341 0 0 0 0 59006906.293445587 -197688457.25809097 0 -197688457.25809097 -332573046.80224037 0 0 0 0 -397298578.84410906 6876848.6670842171 0 6876848.6670842171 -293511998.81884766 0 0 0 0 35675274.366083145 276304724.95207024 0 276304724.95207024 -461811096.80296326 0 0 0 0 -140188614.1602459 369780647.86550617 0 369780647.86550617 -286580527.1607132 0 0 0 0 -317683990.05718613 198238062.48905182 0 198238062.48905182 162561740.78539276 0 0 0 0 -282586587.24363327 3282806.6847400665 0 3282806.6847400665 995302026.14482117 0 0 0 0 -6517492.8188738376 2433750.1919912696 0 2433750.1919912696 -550509.86680651456 0 0 0 0 -518600208.20274353 523092328.19029617 0 523092328.19029617 -425246413.84512711 0 0 0 0 241918771.93688965 178047633.53231239 0 178047633.53231239 -1528139205.8732567 0 0 0 0 -274239137.32766914 -69341739.972488403 0 -69341739.972488403 -553570816.23366547 0 0 0 0 -17281601.688846678 10426766.030419767 0 10426766.030419767 -952384.3022296112 0 0 0 0 -400014270.73915672 315769222.74256516 0 315769222.74256516 924477259.27829742 0 0 0 0 165937144.89118576 88195862.941688538 0 88195862.941688538 -1022749193.7171223 0 0 0 0 -6511115.9670108855 2878007.9819190502 0 2878007.9819190502 3063620.7834002674 0 0 0 0 -155017320.31274605 -100240485.222229 0 -100240485.222229 207945343.80975723 0 0 0 0 -185396976.83325958 320829223.50886917 0 320829223.50886917 -287839376.22147942 0 0 0 0 -107792875.96265793 205607586.30826187 0 205607586.30826187 -139493570.85147095 0 0 0 0 -239427840.42772675 281757199.10541534 0 281757199.10541534 -222728851.56090164 0 0 0 0 239775890.87453461 207108075.36951828 0 207108075.36951828 -475547810.68403244 0 0 0 0 -359063457.26672363 -263160110.99435711 0 -263160110.99435711 309671173.61935425 0 0 0 0 -2963746.6379346102 737842.57321983576 0 737842.57321983576 316630.47851715237 0 0 0 0 -155278478.05383873 512217315.94000435 0 512217315.94000435 -815242167.52177429 0 0 0 0 -517880479.56580353 326434289.79421806 0 326434289.79421806 -62197225.401062012 0 0 0 0 -10828011.705108643 50217452.566055298 0 50217452.566055298 -155839809.16788101 0 0 0 0 -47046616.102552414 -62165470.850074768 0 -62165470.850074768 -365164067.25757599 0 0 0 0 -7308423.5723047256 -82787666.65618372 0 -82787666.65618372 139054372.59818268 0 0 0 0 -89312528.669988632 100876114.13811684 0 100876114.13811684 133376909.84597015 0 0 0 0 -103080783.20347357 138652991.35250378 0 138652991.35250378 204021798.96678925 0 0 0 0 -257663985.34088898 47123894.524505615 0 47123894.524505615 151702974.38944244 0 0 0 0 -3787381.5291193128 2423962.3160385489 0 2423962.3160385489 -423378.01110245287 0 0 0 0 74846446.036865234 100685570.14478683 0 100685570.14478683 -35043420.570195198 0 0 0 0 -72621658.591175079 -76774476.067741394 0 -76774476.067741394 56514993.029247284 0 0 0 0 63163264.223997116 212839784.99414062 0 212839784.99414062 -298729542.95716095 0 0 0 0 -2519015.8066755086 1614745.0891772658 0 1614745.0891772658 -324170.78648462519 0 0 0 0 -155239783.24747658 412974804.26858902 0 412974804.26858902 -441752634.16865158 0 0 0 0 -629448134.39404678 437609035.32503128 0 437609035.32503128 -139609431.07795358 0 0 0 0 -599209759.36389923 635542212.48254776 0 635542212.48254776 -205655115.93114471 0 0 0 0 -386935594.70301056 215525859.6999054 0 215525859.6999054 361857016.25101852 0 0 0 0 -447987449.75736237 -47363495.789604187 0 -47363495.789604187 -126841934.83850861 0 0 0 0 -339467409.89648056 63582888.311523438 0 63582888.311523438 -44641336.378078461 0 0 0 0 -140894351.07129669 115863495.09494781 0 115863495.09494781 -111786549.75775909 0 0 0 0 -60435619.162854195 101712926.62618923 0 101712926.62618923 -88798750.897277832 0 0 0 0 -37874388.271741867 21696271.831949234 0 21696271.831949234 -19212247.683469772 0 0 0 0 -13393655.737232685 -20652059.690711975 0 -20652059.690711975 -79448232.939838409 0 0 0 0 125600126.45074844 38882350.111398697 0 38882350.111398697 -94812515.276119232 0 0 0 0 4693235.8950538635 59261885.839439392 0 59261885.839439392 -49225507.890968323 0 0 0 0 53661432.260404587 45224051.655817032 0 45224051.655817032 -45262004.783103943 0 0 0 0 45200075.062595367 46202516.161155701 0 46202516.161155701 -3192102.4374961853 0 0 0 0 29444177.027713776 32063785.963386536 0 32063785.963386536 -10821586.957717896 0 0 0 0 51453870.188552856 25464769.41853714 0 25464769.41853714 -44336867.376693726 0 0 0 0 -4738454.2430281639 12514025.275903225 0 12514025.275903225 -45240459.124732971 0 0 0 0 173976176.26532555 108210994.62073898 0 108210994.62073898 -206527955.47014236 0 0 0 0 119851142.40519524 129716373.96679688 0 129716373.96679688 -95111910.793148041 0 0 0 0 98618960.406381607 6933907.8835468292 0 6933907.8835468292 -142050177.21853256 0 0 0 0 12000112.621297836 58073775.54318428 0 58073775.54318428 -152083887.24613953 0 0 0 0 15726936.880775452 176372341.95343924 0 176372341.95343924 -40016476.142936707 0 0 0 0 127336460.98571777 57892137.789272308 0 57892137.789272308 81940868.160820961 0 0 0 0 109785612.60307693 129915028.51037979 0 129915028.51037979 151175362.7076149 0 0 0 0 165523810.64858246 224254803.81089783 0 224254803.81089783 357255154.83581543 0 0 0 0 138164133.1103363 66391911.055355072 0 66391911.055355072 -7483119.7723388672 0 0 0 0 328931591.04640961 192893550.86390305 0 192893550.86390305 35337879.61870575 0 0 0 0 -5716407.2171433493 6378060.0627446175 0 6378060.0627446175 -3792960.0432561934 0 0 0 0 101381379.84694672 90056762.098926544 0 90056762.098926544 -26895747.491780281 0 0 0 0 155588639.87975979 269886363.33940601 0 269886363.33940601 204433682.69444275 0 0 0 0 143316755.75199127 173081493.70991516 0 173081493.70991516 257040760.13682175 0 0 0 0 220129848.79817963 114798694.98858261 0 114798694.98858261 -86975545.774520874 0 0 0 0 21108037.259094238 -53003401.472530365 0 -53003401.472530365 -52745138.217216492 0 0 0 0 -676075004.69698334 326805415.97282028 0 326805415.97282028 -107356342.28276062 0 0 0 0 -381582329.22997284 -137652302.61600876 0 -137652302.61600876 104902708.46392059 0 0 0 0 -1850990.7496683151 2433788.262927562 0 2433788.262927562 -2802089.6838998646 0 0 0 0 208921153.41034698 253164857.28620529 0 253164857.28620529 -410558887.02568054 0 0 0 0 -160934329.78821945 583276693.64785385 0 583276693.64785385 -449496362.51889181 0 0 0 0 22254612.096652985 266868730.21474075 0 266868730.21474075 -228135416.82708359 0 0 0 0 -737169342.23303032 316367239.38790894 0 316367239.38790894 -70074151.003074646 0 0 0 0 135867874.31259918 88915154.400035858 0 88915154.400035858 -94564254.25576973 0 0 0 0 206950322.36670259 35465488.767096907 0 35465488.767096907 -47839020.84614563 0 0 0 0 188369983.99975586 229923638.56667328 0 229923638.56667328 -361585939.35485077 0 0 0 0 50314591.786727905 281613641.422544 0 281613641.422544 -245473829.11048889 0 0 0 0 6418690.2291769981 148494265.48548603 0 148494265.48548603 -186835970.26855469 0 0 0 0 -176556811.12643814 283679641.22873688 0 283679641.22873688 -131423323.54607773 0 0 0 0 -160650104.49721909 250032332.57448578 0 250032332.57448578 -76728190.292803288 0 0 0 0 -118844155.40930557 229062091.99186134 0 229062091.99186134 -111283029.18109894 0 0 0 0 -143592607.55957413 132415482.32107544 0 132415482.32107544 -121340279.73870087 0 0 0 0 227942.63765144348 139521421.76271248 0 139521421.76271248 -170670003.29508972 0 0 0 0 9892547.2179893255 53486521.331408501 0 53486521.331408501 -116499223.16882706 0 0 0 0 -1143283.5946903229 33103649.097669601 0 33103649.097669601 -148003662.43851852 0 0 0 0 -18196586.953317642 145864431.46973228 0 145864431.46973228 -123250364.84302545 0 0 0 0 21237640.276361465 91398210.507614136 0 91398210.507614136 -70151814.194303513 0 0 0 0 14439162.660583496 79777815.76858139 0 79777815.76858139 -8861778.2407684326 0 0 0 0 -28701960.353708029 107042173.00892091 0 107042173.00892091 -16907667.563247681 0 0 0 0 -2362113.2612781525 6585818.5006008148 0 6585818.5006008148 -165642824.84369278 0 0 0 0 -29391768.750864029 57891014.148540497 0 57891014.148540497 -44698150.771940231 0 0 0 0 -15378544.717990875 2977917.6805267334 0 2977917.6805267334 -241839319.5900116 0 0 0 0 -91627659.126663208 72542705.646385193 0 72542705.646385193 -191579496.94145775 0 0 0 0 34499785.281980515 140051483.53621006 0 140051483.53621006 -450069270.3614769 0 0 0 0 -1702086.1666219831 2784978.2638377771 0 2784978.2638377771 1250846.7616585791 0 0 0 0 29132224.456274986 177280617.44339657 0 177280617.44339657 -379876553.66876602 0 0 0 0 -498364.94310247898 1276891.4518575519 0 1276891.4518575519 617053.15799200535 0 0 0 0 -64858975.942806244 205904531.07896423 0 205904531.07896423 -164566034.20912933 0 0 0 0 -59697793.666305542 164142501.21065521 0 164142501.21065521 -303184420.00005341 0 0 0 0 -78948437.351222992 104145919.13596725 0 104145919.13596725 -53034731.464075089 0 0 0 0 -71764119.28358078 124418676.75291824 0 124418676.75291824 -164432641.53541565 0 0 0 0 51196411.49663353 -40949956.64966011 0 -40949956.64966011 -246762608.55528259 0 0 0 0 -55652242.910240173 211767782.64775085 0 211767782.64775085 -270504025.64625549 0 0 0 0 -5227978.3774492443 2647956.8546014503 0 2647956.8546014503 1280638.1886881366 0 0 0 0 25947718.320732117 130924665.18833923 0 130924665.18833923 -296335945.64108658 0 0 0 0 61238429.088849843 336676030.96174508 0 336676030.96174508 -178281969.09014893 0 0 0 0 624700388.54893494 176509649.07671738 0 176509649.07671738 -177160543.75307465 0 0 0 0 -701814.89353374578 1782021.1236594245 0 1782021.1236594245 -1883138.4390127659 0 0 0 0 35940349.625179291 139465653.45039558 0 139465653.45039558 87772437.364955902 0 0 0 0 144952897.10260201 87544785.730312347 0 87544785.730312347 -32988498.605421066 0 0 0 0 -674700.75452109426 3822111.5761790127 0 3822111.5761790127 -5113336.8811589628 0 0 0 0 408947523.61744308 208257543.81292725 0 208257543.81292725 -11391765.522403717 0 0 0 0 150759696.71081543 172621315.76360774 0 172621315.76360774 155606162.86767578 0 0 0 0 -246865172.76523018 159502819.38607216 0 159502819.38607216 11855646.975509644 0 0 0 0 -167830674.81585884 34596574.538532257 0 34596574.538532257 -108140038.59328079 0 0 0 0 -54951065.145964384 283288440.24611115 0 283288440.24611115 -14597106.499938965 0 0 0 0 -114273367.55840492 236994425.78497314 0 236994425.78497314 -34583412.121606827 0 0 0 0 -294641197.74662018 91122361.236152649 0 91122361.236152649 102936713.64854431 0 0 0 0 -741783744.70801353 103584413.61701393 0 103584413.61701393 95532390.804912567 0 0 0 0 -115183330.24553755 208944065.58098316 0 208944065.58098316 -9509555.3379440308 0 0 0 0 -135079149.0535841 213891895.24877453 0 213891895.24877453 7434749.6880264282 0 0 0 0 -53642214.933703661 379753579.03907204 0 379753579.03907204 22397070.789051175 0 0 0 0 -75163397.323284149 403773544.25318694 0 403773544.25318694 60169153.498908997 0 0 0 0 -24658819.903719533 31794536.847889192 0 31794536.847889192 -37616247.339972079 0 0 0 0 138851402.16794264 244464956.05526721 0 244464956.05526721 -374361414.14595032 0 0 0 0 -274360918.67671967 355256105.73714447 0 355256105.73714447 86279233.359165192 0 0 0 0 26846686.931411974 213305444.24622864 0 213305444.24622864 3714311.8954315186 0 0 0 0 134286971.36601257 297326604.14538193 0 297326604.14538193 -57861488.758514404 0 0 0 0 97361986.263397217 60913969.924301147 0 60913969.924301147 28789086.910806656 0 0 0 0 -23114449.287952349 30803848.974387761 0 30803848.974387761 -37278305.372404918 0 0 0 0 73256792.548019409 139876628.227108 0 139876628.227108 -205712546.84912109 0 0 0 0 -53004859.267206192 110521044.01129532 0 110521044.01129532 -153145022.33991623 0 0 0 0 -161473326.97968769 416406086.70976448 0 416406086.70976448 -464522245.21113586 0 0 0 0 36243206.182387352 116235790.06854534 0 116235790.06854534 102685301.3213501 0 0 0 0 31784177.809516907 66237675.797142029 0 66237675.797142029 133449629.32045937 0 0 0 0 142020036.17090225 -49298301.249608994 0 -49298301.249608994 -101269947.74504089 0 0 0 0 76133969.155563354 -20413720.700771332 0 -20413720.700771332 88092140.997466087 0 0 0 0 80317661.409461975 16649935.420226097 0 16649935.420226097 -11996187.201667786 0 0 0 0 -109503664.35970688 487621395.49326324 0 487621395.49326324 -471759838.88911438 0 0 0 0 -210547382.409729 852067571.53691864 0 852067571.53691864 -1009280721.6119442 0 0 0 0 237750436.55721283 354140225.19441605 0 354140225.19441605 -598153607.93356323 0 0 0 0 168546142.07066345 133858521.7114563 0 133858521.7114563 -400036115.97145081 0 0 0 0 -726471243.31520081 365813728.72729492 0 365813728.72729492 -893810236.56703186 0 0 0 0 -4355173.8744500875 1693037.3952906653 0 1693037.3952906653 551145.06537305564 0 0 0 0 78725786.145116806 554898830.72857666 0 554898830.72857666 -927590766.50577545 0 0 0 0 202723274.14858627 117305153.30538559 0 117305153.30538559 -696223068.51476288 0 0 0 0 -1180936133.3123131 454644936.29628754 0 454644936.29628754 -95724801.605377197 0 0 0 0 -835274.78979031369 1827533.4527131543 0 1827533.4527131543 -4573804.2385728508 0 0 0 0 34031482.2253685 -63744249.082607269 0 -63744249.082607269 -149052202.83381081 0 0 0 0 -112766542.02640152 58033839.01158905 0 58033839.01158905 -29453380.510582566 0 0 0 0 -99309756.279781342 278949749.43540955 0 278949749.43540955 -263582023.62610626 0 0 0 0 -635347404.00928497 223916521.2069397 0 223916521.2069397 -33975618.169166327 0 0 0 0 -221127088.50112152 619767249.1529541 0 619767249.1529541 -558250860.51335144 0 0 0 0 -43799888.479278564 343520465.08894348 0 343520465.08894348 -335084790.53295135 0 0 0 0 -49859468.186286926 129759214.21873093 0 129759214.21873093 -49195302.800819397 0 0 0 0 -72228461.726852417 122000338.64813614 0 122000338.64813614 -38473339.499320984 0 0 0 0 -292600513.58506584 201032712.89341736 0 201032712.89341736 -46162412.03188324 0 0 0 0 -139592704.53539085 155899449.5755434 0 155899449.5755434 -41959897.616439819 0 0 0 0 -35474843.768901825 13871846.311660767 0 13871846.311660767 -4692356.0198640823 0 0 0 0 -75882267.345890045 90919852.14699173 0 90919852.14699173 -31867461.30317688 0 0 0 0 3579487.0127134323 8481286.1966457739 0 8481286.1966457739 -9159860.3565134108 0 0 0 0 29713682.241577707 26241849.872086968 0 26241849.872086968 13638402.200429231 0 0 0 0 30887368.515818596 50430047.181312561 0 50430047.181312561 3770461.1905593872 0 0 0 0 63677122.212071896 68259642.387805939 0 68259642.387805939 -8827718.6117134094 0 0 0 0 1398408.3842332363 71706384.902489662 0 71706384.902489662 39403681.46257019 0 0 0 0 723316.11345767975 68162184.463340759 0 68162184.463340759 20966121.53477478 0 0 0 0 29213889.055936195 31900547.093652837 0 31900547.093652837 24748757.32669659 0 0 0 0 2672126.1997909546 42518590.821914673 0 42518590.821914673 3841258.4689378738 0 0 0 0 53167954.927112579 83814541.794303894 0 83814541.794303894 -64280676.564620972 0 0 0 0 21297525.341571808 96162950.740299225 0 96162950.740299225 -4979126.2680511475 0 0 0 0 -85959793.236568451 166908534.73600006 0 166908534.73600006 -72673648.793640137 0 0 0 0 -30031396.664787292 128281156.03907776 0 128281156.03907776 -73263672.294498444 0 0 0 0 -51483954.618099213 103217612.61320114 0 103217612.61320114 10944379.392959595 0 0 0 0 93804313.910125732 78251878.183475494 0 78251878.183475494 72157018.776821136 0 0 0 0 81299420.016019821 41784729.546751022 0 41784729.546751022 -13110364.464260101 0 0 0 0 180137112.3480978 24729357.236915588 0 24729357.236915588 -30093748.639476776 0 0 0 0 4007591.1235216968 1897485.6561080441 0 1897485.6561080441 -5089117.2219331264 0 0 0 0 11428199.910946345 1830632.0307703912 0 1830632.0307703912 -37533325.015652865 0 0 0 0 84603648.620840073 25945914.664144516 0 25945914.664144516 -20780792.135601044 0 0 0 0 106058429.05983162 38763229.943342209 0 38763229.943342209 -42125519.404815674 0 0 0 0 64928218.563789368 69664493.259246826 0 69664493.259246826 -19232203.570570946 0 0 0 0 54609284.603370667 62610815.074266434 0 62610815.074266434 -42237212.610154785 0 0 0 0 67556850.915145874 76525446.844392776 0 76525446.844392776 -77747456.362006187 0 0 0 0 13100719.633574799 11784390.059098676 0 11784390.059098676 -50069890.544296533 0 0 0 0 126498268.05992031 89545004.158891678 0 89545004.158891678 16970967.576332092 0 0 0 0 137629170.99915934 104573537.6318264 0 104573537.6318264 -3080195.498916626 0 0 0 0 -58301585.866648674 110720144.59394836 0 110720144.59394836 100196467.98254395 0 0 0 0 84298745.447952271 -92737549.516418457 0 -92737549.516418457 -282924642.4715271 0 0 0 0 376383828.29971123 115732166.64742279 0 115732166.64742279 158820088.33563995 0 0 0 0 -4062679.75265662 914106.6049234271 0 914106.6049234271 -839729.85449117422 0 0 0 0 -88773057.162948608 215809525.64694214 0 215809525.64694214 255999564.11270142 0 0 0 0 28516603.376544952 200553955.83654022 0 200553955.83654022 147588474.79327393 0 0 0 0 13269909.672595739 280969912.46696663 0 280969912.46696663 211253827.85897827 0 0 0 0 -177775808.00364685 139470932.80331421 0 139470932.80331421 215365509.1146698 0 0 0 0 457599838.10326385 161440503.6807251 0 161440503.6807251 -51483189.055130005 0 0 0 0 -1439970.0493165553 5220972.55629462 0 5220972.55629462 -10664693.597965688 0 0 0 0 247036048.52628899 119940410.19769287 0 119940410.19769287 298601619.03434753 0 0 0 0 -17740838.265635528 31837779.033393804 0 31837779.033393804 -13980564.457348764 0 0 0 0 -51827657.646545172 49784955.174297333 0 49784955.174297333 34981429.739952087 0 0 0 0 57126857.193432808 41980612.893297195 0 41980612.893297195 -49206016.385185242 0 0 0 0 -5283418.413936615 44064980.879276276 0 44064980.879276276 33632559.908676147 0 0 0 0 3673376.2896575928 23739070.406211853 0 23739070.406211853 5486783.7286529541 0 0 0 0 8133174.7105034329 22141001.511092111 0 22141001.511092111 6528764.4032459557 0 0 0 0 11927781.170894623 21099856.718261719 0 21099856.718261719 10829427.67010498 0 0 0 0 1027113.7703262074 26387388.474604443 0 26387388.474604443 18280633.852314115 0 0 0 0 28749857.656864166 32960937.969333649 0 32960937.969333649 40352298.483718872 0 0 0 0 7258614.8425229862 28062219.034539312 0 28062219.034539312 14707154.475656331 0 0 0 0 5498560.4074850902 10182957.707835689 0 10182957.707835689 8585705.4772417843 0 0 0 0 -16945324.657314301 61023847.230800629 0 61023847.230800629 23611122.744506836 0 0 0 0 7712667.0513300896 42395055.255371094 0 42395055.255371094 16481458.467407227 0 0 0 0 -14291693.639227867 50557960.427360535 0 50557960.427360535 49331238.759597778 0 0 0 0 -38361790.98506546 18075373.442520142 0 18075373.442520142 39197241.925094604 0 0 0 0 -34544852.358055115 102968899.2966156 0 102968899.2966156 93624546.438247681 0 0 0 0 -14417067.797391891 48424495.38419342 0 48424495.38419342 44469540.786911011 0 0 0 0 4068046.6664848328 31412499.190704346 0 31412499.190704346 19392173.701751709 0 0 0 0 766498.69982629642 1831655.7379192412 0 1831655.7379192412 -10874462.139396824 0 0 0 0 -8707384.8539832961 9491466.8056268245 0 9491466.8056268245 -252115.74617378414 0 0 0 0 -17977724.390068054 17617768.807296753 0 17617768.807296753 -13822749.430175781 0 0 0 0 54391316.698937416 -19927949.116954803 0 -19927949.116954803 -79606970.728233337 0 0 0 0 -183821647.81589615 51245686.240464211 0 51245686.240464211 167397508.95065308 0 0 0 0 -103554450.97180939 16788718.475280762 0 16788718.475280762 93620288.022766113 0 0 0 0 -192182080.2615099 -17286359.955913544 0 -17286359.955913544 25205943.053833008 0 0 0 0 15517345.292411804 13036899.224029541 0 13036899.224029541 -35785799.8800354 0 0 0 0 -1121372.7676039822 3302566.5703445971 0 3302566.5703445971 -3199268.6200133041 0 0 0 0 2312662.194329299 26243549.597177714 0 26243549.597177714 -6765292.7198948329 0 0 0 0 8841031.4639692008 14881221.479289114 0 14881221.479289114 -11647744.903217271 0 0 0 0 -238632.81268787384 5711077.4036636353 0 5711077.4036636353 -17579341.05960083 0 0 0 0 -1385564.4799339175 26637712.19574669 0 26637712.19574669 1627085.7846950293 0 0 0 0 -6852825.7510465831 11932206.636607803 0 11932206.636607803 11515267.665093362 0 0 0 0 7291974.1107692719 28605183.279037476 0 28605183.279037476 11996500.00718689 0 0 0 0 6047802.2620754242 27338767.803886414 0 27338767.803886414 25283206.47883606 0 0 0 0 9737829.9560203552 22186418.438064575 0 22186418.438064575 17540998.381332397 0 0 0 0 8348390.8298820332 15452166.439030625 0 15452166.439030625 8903096.9514018595 0 0 0 0 6155444.1818566322 31090431.947147369 0 31090431.947147369 7077008.7560348511 0 0 0 0 -5515263.1899719238 15771034.280212402 0 15771034.280212402 41905463.330127716 0 0 0 0 -6931122.5262126923 23049955.065658569 0 23049955.065658569 -676354.65869140625 0 0 0 0 -828684.83804321289 26876256.769668579 0 26876256.769668579 42765543.089109421 0 0 0 0 3011978.5409178138 32385946.442198634 0 32385946.442198634 8698062.2947998047 0 0 0 0 10423443.910462692 36937291.994369552 0 36937291.994369552 12337284.860052846 0 0 0 0 -2114143.7074653357 15751747.065469563 0 15751747.065469563 16318006.661990305 0 0 0 0 2288494.7103204876 2149214.1078603566 0 2149214.1078603566 -5921830.3252616227 0 0 0 0 -19491416.971067429 230289393.3700161 0 230289393.3700161 49080476.65212822 0 0 0 0 3433948.1060284562 16755178.951599484 0 16755178.951599484 18644997.804895848 0 0 0 0 -5738261.0329322815 26408200.69966507 0 26408200.69966507 4707270.8210296631 0 0 0 0 216797473.28143311 101960258.07252502 0 101960258.07252502 -488992851.41046143 0 0 0 0 -937543480.52376556 -123047971.816185 0 -123047971.816185 -80217710.122520447 0 0 0 0 838529.84484630823 1721611.5643780977 0 1721611.5643780977 385137.94350503385 0 0 0 0 17379371.052825928 52996571.781509399 0 52996571.781509399 5607189.6811904907 0 0 0 0 7167457.7614277899 17554347.793674439 0 17554347.793674439 5207277.8556000888 0 0 0 0 -4020790.0595363975 8287527.732890103 0 8287527.732890103 -3842389.6068948805 0 0 0 0 -62639589.595363617 166267042.29082489 0 166267042.29082489 -85994049.679199219 0 0 0 0 -60041265.568500519 269113679.1544075 0 269113679.1544075 -26934182.60369873 0 0 0 0 -47522708.040885925 225290853.84479523 0 225290853.84479523 -126339586.12870789 0 0 0 0 75776444.569953918 371227006.49003601 0 371227006.49003601 -131809477.04291534 0 0 0 0 -15708719.621131897 33808270.008247375 0 33808270.008247375 16139083.374984741 0 0 0 0 -51478187.860408545 35083254.116291285 0 35083254.116291285 -35021420.504966736 0 0 0 0 32437283.924057007 60313760.504150391 0 60313760.504150391 -38145980.222961426 0 0 0 0 -7858573.564133212 30355571.168221667 0 30355571.168221667 24792386.800747942 0 0 0 0 -23042.492991156876 34991279.558339022 0 34991279.558339022 -5031684.9060178995 0 0 0 0 -6952047.5333786011 21062295.982246399 0 21062295.982246399 37278254.299545288 0 0 0 0 21992.752786636353 36686645.94527626 0 36686645.94527626 8647440.4414749146 0 0 0 0 -9711389.068880558 30064369.217030734 0 30064369.217030734 9971480.7695994079 0 0 0 0 -40798701.455004528 21269561.981250308 0 21269561.981250308 84523.539355339482 0 0 0 0 -7599915.907789886 22152067.643075358 0 22152067.643075358 -1917643.994717136 0 0 0 0 -65199472.390052795 103577007.08960724 0 103577007.08960724 -214387407.67926025 0 0 0 0 -43015728.91607666 -9472483.3925590515 0 -9472483.3925590515 -84128415.239631653 0 0 0 0 -63544253.654373169 30621027.204750061 0 30621027.204750061 5533293.6620864868 0 0 0 0 32439567.545066833 -208933210.48516846 0 -208933210.48516846 -310146489.89424896 0 0 0 0 91478951.647979736 -236027851.03009033 0 -236027851.03009033 -680579123.03164673 0 0 0 0 182118501.68325043 110896754.28659821 0 110896754.28659821 -938344472.2181282 0 0 0 0 140625932.47761536 150018394.84637451 0 150018394.84637451 -439176189.95147133 0 0 0 0 -18695280.862892151 330326910.39483643 0 330326910.39483643 -213815644.67890167 0 0 0 0 -59994798.153980255 540937063.98620224 0 540937063.98620224 -535062468.40034866 0 0 0 0 29894153.123214722 173209923.55408859 0 173209923.55408859 -165974365.04114532 0 0 0 0 52321547.921974182 180850258.9161377 0 180850258.9161377 -357471916.12039185 0 0 0 0 -48892801.338027954 209284209.93385315 0 209284209.93385315 -179135206.41174316 0 0 0 0 -32597176.221904755 256781471.3028183 0 256781471.3028183 -168443966.04864407 0 0 0 0 -30678054.997383118 285017150.77779579 0 285017150.77779579 -87447985.020927429 0 0 0 0 -35654795.336223602 229770506.79876709 0 229770506.79876709 -89606642.409686565 0 0 0 0 -41206630.428928375 295711524.63573837 0 295711524.63573837 -77072930.790878296 0 0 0 0 -23489840.662143707 167367771.86785126 0 167367771.86785126 112444055.07707596 0 0 0 0 -88819335.121468306 336775361.7858429 0 336775361.7858429 -33981759.945915222 0 0 0 0 -75454645.325714111 65074176.325267792 0 65074176.325267792 327430867.47362328 0 0 0 0 -21553628.10700798 59671672.211259842 0 59671672.211259842 118597050.52954102 0 0 0 0 -59413728.821015358 245581008.92853928 0 245581008.92853928 14365596.390571594 0 0 0 0 -36300414.461949348 118838909.50664473 0 118838909.50664473 -46162338.566925049 0 0 0 0 -74352598.288629532 158773787.35166168 0 158773787.35166168 -88017402.605010986 0 0 0 0 -65837419.602214813 237485948.74791908 0 237485948.74791908 -46397350.843109131 0 0 0 0 -107408418.99094009 135396016.59518433 0 135396016.59518433 -73049734.066581726 0 0 0 0 -130654678.64566708 190042016.99988842 0 190042016.99988842 -114566736.28631592 0 0 0 0 -121497594.92152786 185509292.4416275 0 185509292.4416275 -112499122.77949142 0 0 0 0 -121903706.08302307 200724984.58848953 0 200724984.58848953 -133993473.72740936 0 0 0 0 -152593161.81320572 222905267.61553955 0 222905267.61553955 -121684105.25750351 0 0 0 0 -159000765.26129055 232048984.01476765 0 232048984.01476765 -78486688.758605957 0 0 0 0 -140495879.13522339 200070122.92288208 0 200070122.92288208 -80651222.796981812 0 0 0 0 -163708742.97993368 197990565.7257759 0 197990565.7257759 -157107183.36430359 0 0 0 0 -219194068.01083374 208286894.56626129 0 208286894.56626129 -81494177.726610184 0 0 0 0 -164329816.53612518 223087311.61515808 0 223087311.61515808 -77502960.245544434 0 0 0 0 -65828464.743507385 183543411.99272537 0 183543411.99272537 -87348200.48789978 0 0 0 0 -23578071.734285355 205190708.30528069 0 205190708.30528069 -140401005.03910828 0 0 0 0 46436175.267967224 71687447.709125519 0 71687447.709125519 -51397428.623435974 0 0 0 0 99519362.308685303 17431046.147888184 0 17431046.147888184 -2458508.5282764435 0 0 0 0 -501335232.97827148 286824514.95875931 0 286824514.95875931 -177785796.15979004 0 0 0 0 -349819089.22221756 325774526.32079315 0 325774526.32079315 -280682352.51569366 0 0 0 0 3231316.6280128285 2267838.1499836873 0 2267838.1499836873 -2434917.0651941746 0 0 0 0 -327731577.36083031 -41935000.030124664 0 -41935000.030124664 -283257530.33938599 0 0 0 0 -67661121.893283844 182934366.72291183 0 182934366.72291183 -181128990.9773407 0 0 0 0 -33663142.751419067 210621250.44739532 0 210621250.44739532 -252306001.85329437 0 0 0 0 -22756408.744529724 273859463.16686249 0 273859463.16686249 -129797763.8141017 0 0 0 0 -37711838.148508072 258692558.8475666 0 258692558.8475666 -145055670.4469986 0 0 0 0 -83464490.709615707 198231728.48232841 0 198231728.48232841 -126218498.25934601 0 0 0 0 -85788496.403762817 199602029.40982056 0 199602029.40982056 -114562676.6231575 0 0 0 0 -140962651.72680855 131590624.76831627 0 131590624.76831627 -188521686.0188446 0 0 0 0 518086.21083068848 357966334.76917553 0 357966334.76917553 88824627.027019501 0 0 0 0 192048315.88240051 256376322.74121094 0 256376322.74121094 -169618084.71327209 0 0 0 0 -141057.14208866656 2361541.692894578 0 2361541.692894578 -3229210.3015411198 0 0 0 0 44072733.644393921 256095424.83231354 0 256095424.83231354 -53912435.543994904 0 0 0 0 187559231.61021423 55631077.33644104 0 55631077.33644104 12090716.878456116 0 0 0 0 223337065.46263504 71357854.001296997 0 71357854.001296997 -14638381.512516022 0 0 0 0 437468633.17823029 154086467.29014206 0 154086467.29014206 -30206117.731765747 0 0 0 0 380823984.83699989 141117486.25785828 0 141117486.25785828 11027846.268562317 0 0 0 0 204470386.31694794 111331589.78473663 0 111331589.78473663 -22545981.584803581 0 0 0 0 -821785.04313354194 1949653.0188845694 0 1949653.0188845694 -10999431.62336579 0 0 0 0 88147961.588010788 64184085.465583801 0 64184085.465583801 10476316.450332642 0 0 0 0 344052666.65126801 37626215.528484344 0 37626215.528484344 187006775.61264038 0 0 0 0 7051507.6842000708 8193028.4868081212 0 8193028.4868081212 -20248013.266075015 0 0 0 0 -66310105.472267151 -13186923.127052307 0 -13186923.127052307 56290108.72681427 0 0 0 0 -23122008.952110291 -27310387.597854614 0 -27310387.597854614 19429589.53793335 0 0 0 0 1002495516.0059738 280388723.67690849 0 280388723.67690849 -139396716.20763397 0 0 0 0 820061640.21796417 880433496.17747498 0 880433496.17747498 325749442.50598049 0 0 0 0 706938034.72846985 500662621.19479179 0 500662621.19479179 77014951.883247375 0 0 0 0 238313730.25032043 578900049.31937647 0 578900049.31937647 233212438.86574554 0 0 0 0 695495682.29679489 686441343.17965508 0 686441343.17965508 657239795.83901215 0 0 0 0 913008.22218134208 1446172226.5998173 0 1446172226.5998173 948077780.80960083 0 0 0 0 701843330.90990734 777099199.59021282 0 777099199.59021282 1203777073.8058929 0 0 0 0 1616602673.0396576 1692149846.235569 0 1692149846.235569 -1365698.0910949707 0 0 0 0 1796307014.9884644 1273796952.2771683 0 1273796952.2771683 47916331.126760483 0 0 0 0 3182536203.6467438 1190862361.3215714 0 1190862361.3215714 14287320.935913086 0 0 0 0 -84705044.654273987 16672143.120066643 0 16672143.120066643 47288346.371810913 0 0 0 0 1934958.2734229602 2888485.0761533976 0 2888485.0761533976 7892654.6806924343 0 0 0 0 1727242210.5209656 1144842993.2968216 0 1144842993.2968216 418214368.95930481 0 0 0 0 3730652.3162269518 12127615.753609926 0 12127615.753609926 24701387.317466289 0 0 0 0 1757176.2851238251 45043016.962166786 0 45043016.962166786 59606972.061157227 0 0 0 0 48688542.72354126 26846993.511665344 0 26846993.511665344 32741762.450294331 0 0 0 0 1538089533.5385895 1412291074.5449371 0 1412291074.5449371 366194874.31542969 0 0 0 0 1565080775.6910553 1182428653.3736076 0 1182428653.3736076 1145574847.1304169 0 0 0 0 7384095.8049867153 3799485.2435133457 0 3799485.2435133457 1937236.4987837148 0 0 0 0 1485641967.1247244 -332652897.53397846 0 -332652897.53397846 -180009687.06362915 0 0 0 0 1640436760.572937 1042000524.5125122 0 1042000524.5125122 319536514.61354828 0 0 0 0 33057687.407501221 100731055.66317749 0 100731055.66317749 -54395669.908248901 0 0 0 0 42061759.844768226 35472663.331909984 0 35472663.331909984 3861943.5307361875 0 0 0 0 -152179777.74601746 -176409958.3498764 0 -176409958.3498764 -253966285.59693909 0 0 0 0 1417288848.3017883 144577459.941185 0 144577459.941185 -345451385.50012207 0 0 0 0 46675952.931612581 34430819.397141427 0 34430819.397141427 -3195353.9498834424 0 0 0 0 -115187675.22824097 705378409.05496979 0 705378409.05496979 204149189.12116241 0 0 0 0 -323268619.66427231 150972757.64448929 0 150972757.64448929 214665523.47167969 0 0 0 0 -798973197.78649902 -362015139.82878113 0 -362015139.82878113 -338452654.3812561 0 0 0 0 3152898.4989975989 10814754.48567301 0 10814754.48567301 14748285.91129145 0 0 0 0 -179316540.96437073 -170910339.79286575 0 -170910339.79286575 14861534.694925308 0 0 0 0 45310780.66632843 39385177.283180237 0 39385177.283180237 34635537.882980347 0 0 0 0 8606084.1978714764 8313763.4077883363 0 8313763.4077883363 6650105.8219848871 0 0 0 0 47544289.696556091 44301915.589817047 0 44301915.589817047 45455156.403710917 0 0 0 0 51133001.24861145 81345170.841163635 0 81345170.841163635 43845776.273223877 0 0 0 0 38529506.78276825 47120429.700069427 0 47120429.700069427 -6879439.0308990479 0 0 0 0 37705531.066207886 33007228.180301666 0 33007228.180301666 65214961.410144806 0 0 0 0 34790810.509700775 45580848.189884186 0 45580848.189884186 35725729.349914551 0 0 0 0 1364251.1078850925 -528533.02902573347 0 -528533.02902573347 -3129196.6802445054 0 0 0 0 88141990.071128845 94077839.886079788 0 94077839.886079788 25377401.613792419 0 0 0 0 92001230.552604675 56559614.373353958 0 56559614.373353958 71487.164581298828 0 0 0 0 56139057.038085938 32896305.713207245 0 32896305.713207245 32580567.951086044 0 0 0 0 20666589.194732666 74201875.293769836 0 74201875.293769836 -59546.011253356934 0 0 0 0 28320887.986335754 95707899.112174988 0 95707899.112174988 8294685.6948013306 0 0 0 0 43556097.379188538 93800863.665035248 0 93800863.665035248 -57747.899879455566 0 0 0 0 -23946976.518672943 38083410.050876617 0 38083410.050876617 35823542.083404541 0 0 0 0 1843974.2497205138 -132485.12029379606 0 -132485.12029379606 -2023256.4820472002 0 0 0 0 36789927.349479675 48413666.661315918 0 48413666.661315918 37505746.923624039 0 0 0 0 41395564.101852417 87689242.470088959 0 87689242.470088959 10359916.861587524 0 0 0 0 41528069.931776047 49708448.763285637 0 49708448.763285637 30678015.92224884 0 0 0 0 43809918.266681671 55659466.866641998 0 55659466.866641998 25590326.075302124 0 0 0 0 40444608.496879578 45678128.356033325 0 45678128.356033325 26582518.568496704 0 0 0 0 36663680.076202393 42539662.785499573 0 42539662.785499573 28049774.331912994 0 0 0 0 -8198100.7174377441 223593074.09169769 0 223593074.09169769 30115861.992397666 0 0 0 0 44158826.210445344 36760465.64386934 0 36760465.64386934 81068.340493740805 0 0 0 0 281107619.00858688 58556996.763954163 0 58556996.763954163 24341763.922622681 0 0 0 0 221820670.24614906 -107520014.27274513 0 -107520014.27274513 175101874.31594086 0 0 0 0 40275414.153109401 35062412.178420335 0 35062412.178420335 893683.23973694281 0 0 0 0 -1541053756.3137207 252325206.01531982 0 252325206.01531982 215122908.91811371 0 0 0 0 139351797.71348572 -22333032.539703369 0 -22333032.539703369 105708750.12032318 0 0 0 0 57885207.448432922 42196629.908103943 0 42196629.908103943 -1645251.6317214966 0 0 0 0 -222012990.85765305 -360094074.4544273 0 -360094074.4544273 -27354223.941810608 0 0 0 0 -2664626.8870794475 2969362.5426574498 0 2969362.5426574498 -7047532.8261139691 0 0 0 0 38987003.880058289 96408990.939689636 0 96408990.939689636 -34431355.473457336 0 0 0 0 -800348.6131971851 -447639.9960064292 0 -447639.9960064292 3041338.1201803684 0 0 0 0 -101950589.27593231 175183808.62378693 0 175183808.62378693 -12082322.628631592 0 0 0 0 259899737.28190231 270141503.79103279 0 270141503.79103279 59290000.831451416 0 0 0 0 -43713309.174072266 -8370207.0444488525 0 -8370207.0444488525 31322141.804016113 0 0 0 0 -49797539.118347168 -9023102.1044960022 0 -9023102.1044960022 115433307.82543945 0 0 0 0 -263350034.08317471 -100563378.57337618 0 -100563378.57337618 38379649.384223938 0 0 0 0 -8960547.5195081234 17804507.634903863 0 17804507.634903863 -12120837.325568765 0 0 0 0 -277715447.31916809 50348956.599117279 0 50348956.599117279 64080854.620773315 0 0 0 0 -41480050.149742126 90184652.423639297 0 90184652.423639297 12627019.981437683 0 0 0 0 101599371.96197701 160972279.16087961 0 160972279.16087961 -14196900.734451294 0 0 0 0 -254406742.6178894 133186935.09418678 0 133186935.09418678 114691974.1513443 0 0 0 0 1739157.7723003477 1618948.5494945198 0 1618948.5494945198 7962255.1654755473 0 0 0 0 1155303302.139801 180807020.016922 0 180807020.016922 -253944174.87064362 0 0 0 0 398795083.75361633 -29385785.730228424 0 -29385785.730228424 41146266.756988525 0 0 0 0 258272622.53111267 265559983.20804596 0 265559983.20804596 134896597.9388752 0 0 0 0 200767860.57453918 78818702.861366272 0 78818702.861366272 55538782.388494015 0 0 0 0 -13570365.454071045 90744083.657604218 0 90744083.657604218 12477842.323761463 0 0 0 0 253733307.26440811 74836866.888930321 0 74836866.888930321 -8286773.8998718262 0 0 0 0 -2369825.7216204703 15316668.962844104 0 15316668.962844104 17492670.204953611 0 0 0 0 -16176717.068342209 31370553.689960837 0 31370553.689960837 -34397139.874033749 0 0 0 0 226007648.4969635 100421565.55515862 0 100421565.55515862 -3631334.9535527229 0 0 0 0 217535871.43124771 81584526.330947876 0 81584526.330947876 -31419202.211418152 0 0 0 0 -35070040.039051056 137986668.78848934 0 137986668.78848934 52109173.178089142 0 0 0 0 -52774143.498867035 15008983.591779709 0 15008983.591779709 787120.82209777832 0 0 0 0 -171280486.20307541 97164016.008319855 0 97164016.008319855 70083805.796173096 0 0 0 0 -1734339.8664508462 18249665.835393682 0 18249665.835393682 41753204.47283107 0 0 0 0 46484770.967041016 11785424.45930481 0 11785424.45930481 30043696.010543823 0 0 0 0 65204094.154327393 91806476.147766113 0 91806476.147766113 9516207.9455413818 0 0 0 0 -19612793.488095656 26161993.743050337 0 26161993.743050337 18052838.822069913 0 0 0 0 479148390.83187485 187102256.69727707 0 187102256.69727707 -48608276.141159058 0 0 0 0 92350316.374504089 198280114.06925964 0 198280114.06925964 152201511.30493164 0 0 0 0 -92320885.385177612 67251850.857643127 0 67251850.857643127 69156119.482559204 0 0 0 0 330625648.62697601 -86960252.437007904 0 -86960252.437007904 21627413.509872437 0 0 0 0 -92999194.887283325 46525179.760879517 0 46525179.760879517 211711722.93632507 0 0 0 0 -87605477.998199463 67030185.094528198 0 67030185.094528198 103758451.73306274 0 0 0 0 -100223772.47293091 91980080.96749115 0 91980080.96749115 17087575.670799255 0 0 0 0 -141244785.20819092 -35356404.868537903 0 -35356404.868537903 -22755263.962268829 0 0 0 0 -9471331.9635009766 51584033.248443604 0 51584033.248443604 51999583.173339844 0 0 0 0 56134681.712127686 56619111.376838684 0 56619111.376838684 -28218724.761508942 0 0 0 0 -1241133.3417183459 7269919.7895374 0 7269919.7895374 847940.78366284072 0 0 0 0 124677643.93216705 163979669.44298744 0 163979669.44298744 132006234.73144531 0 0 0 0 47394688.899810791 25238458.373100281 0 25238458.373100281 50639819.043518066 0 0 0 0 49977411.710388184 53996395.930244446 0 53996395.930244446 -27539905.296915054 0 0 0 0 39825686.55090332 116910023.05749512 0 116910023.05749512 52560302.227264404 0 0 0 0 -33389014.901985168 6412258.6203117371 0 6412258.6203117371 8677423.6522216797 0 0 0 0 130417075.3939209 117920692.43495178 0 117920692.43495178 26453835.524353027 0 0 0 0 144607300.83653259 98089449.85218811 0 98089449.85218811 52901352.060302734 0 0 0 0 277370124.24160767 144288490.93788147 0 144288490.93788147 74774532.378695011 0 0 0 0 292659999.85515594 168716915.70423508 0 168716915.70423508 88047191.792663574 0 0 0 0 216032345.5348053 180445328.06977844 0 180445328.06977844 86562729.309509277 0 0 0 0 299089042.86941528 139708648.86038208 0 139708648.86038208 210342413.04032898 0 0 0 0 369856791.21582031 75393846.191886902 0 75393846.191886902 128021466.42163086 0 0 0 0 345223030.44345093 120622065.23974609 0 120622065.23974609 96571096.142456055 0 0 0 0 268870522.11694336 126268675.83792877 0 126268675.83792877 77420972.638486862 0 0 0 0 268687196.42041016 113310992.49715424 0 113310992.49715424 165071639.29382324 0 0 0 0 322121344.54167175 182178864.69292068 0 182178864.69292068 133665722.82457733 0 0 0 0 270263070.38043213 191324525.81988525 0 191324525.81988525 -264214897.18099499 0 0 0 0 41225280.289520264 -70021495.569499969 0 -70021495.569499969 -303765089.89756775 0 0 0 0 -3159554.4194433689 664742.46690386534 0 664742.46690386534 501997.96211570501 0 0 0 0 381362702.95388794 142227545.34532166 0 142227545.34532166 67316063.196846008 0 0 0 0 353172649.37104797 338363532.62561035 0 338363532.62561035 -229698588.42445374 0 0 0 0 56834748.890144348 42219005.399219513 0 42219005.399219513 -53637878.90184021 0 0 0 0 40122978.285218954 43358980.752593338 0 43358980.752593338 -39003314.079162598 0 0 0 0 -178746509.07769012 29187284.319297791 0 29187284.319297791 172241606.92602062 0 0 0 0 62222367.525989532 47893349.036102295 0 47893349.036102295 -48274852.220535278 0 0 0 0 3428288.9172393158 2635272.7559119128 0 2635272.7559119128 -1366870.1645746231 0 0 0 0 -150422305.88976097 -54526506.047826767 0 -54526506.047826767 121376975.65620422 0 0 0 0 -83548927.332920074 91172287.258888245 0 91172287.258888245 -5112408.5482826233 0 0 0 0 -86485204.415679932 98740590.508243561 0 98740590.508243561 -23837410.763076782 0 0 0 0 -121752515.85150528 50086242.885522842 0 50086242.885522842 -3588964.4187927246 0 0 0 0 -88395435.874415398 66167617.25025177 0 66167617.25025177 -28623988.733947754 0 0 0 0 -98571489.424507141 25617944.069496155 0 25617944.069496155 9684180.3644943237 0 0 0 0 -72913306.902236938 22597934.901351929 0 22597934.901351929 -6631121.1038665771 0 0 0 0 -14019214.411484616 56557386.362135686 0 56557386.362135686 -3660045.6493895948 0 0 0 0 -22375723.229570493 12637385.305527158 0 12637385.305527158 -2826333.7103539109 0 0 0 0 -176932517.22127533 49649916.200653076 0 49649916.200653076 -7267795.9393310547 0 0 0 0 -142599412.56706429 82748937.550617218 0 82748937.550617218 3814941.4254837036 0 0 0 0 65033453.305183411 55199492.455350876 0 55199492.455350876 -30264724.873077393 0 0 0 0 48963254.887268066 50192527.234527588 0 50192527.234527588 54805580.740234375 0 0 0 0 6007992.5114483833 4975528.7092294544 0 4975528.7092294544 364918.66513881087 0 0 0 0 -3418495.6815185547 -19819224.004608154 0 -19819224.004608154 -36754854.498657227 0 0 0 0 17380762.324737549 20961243.329406738 0 20961243.329406738 -28523297.496459961 0 0 0 0 -46826273.608581543 -7005490.865020752 0 -7005490.865020752 -13177072.548431396 0 0 0 0 23951347.679794312 12945519.675392151 0 12945519.675392151 -18887235.269287109 0 0 0 0 13886114.300933838 -24477876.529968262 0 -24477876.529968262 -48938392.276199341 0 0 0 0 24320440.905302048 53541154.212630272 0 53541154.212630272 25314040.941314697 0 0 0 0 -82586914.777526855 -43415900.777984619 0 -43415900.777984619 -27604719.986038208 0 0 0 0 -19855071.472235966 44568218.297647029 0 44568218.297647029 11121129.02108258 0 0 0 0 -159116672.34356689 -4837153.7201080322 0 -4837153.7201080322 -493603.54833984375 0 0 0 0 -23036129.154136658 33597210.172332764 0 33597210.172332764 -1473642.0830078125 0 0 0 0 -10350144.495413482 68579273.642102897 0 68579273.642102897 25987351.04851681 0 0 0 0 -46262015.420764923 -4211490.6802845001 0 -4211490.6802845001 -23664592.35144043 0 0 0 0 47637127.361028939 36198404.599046558 0 36198404.599046558 -11066493.231605768 0 0 0 0 -67603115.981124118 36935438.838633694 0 36935438.838633694 33185933.35079807 0 0 0 0 -35038134.98804687 29384588.158602878 0 29384588.158602878 -8078924.0479891598 0 0 0 0 -125203367.22408295 74044084.876834869 0 74044084.876834869 125032849.28526306 0 0 0 0 -41320309.51058197 -14910691.232509613 0 -14910691.232509613 -89802622.854675293 0 0 0 0 68123203.762969971 31121897.01184082 0 31121897.01184082 -18608900.206420898 0 0 0 0 103342474.73110199 95718741.892292023 0 95718741.892292023 10016134.134399414 0 0 0 0 -49819406.381530762 26349877.244995117 0 26349877.244995117 -24310914.737792969 0 0 0 0 -69868393.011306763 26497109.536125183 0 26497109.536125183 -18432471.104587555 0 0 0 0 -30794167.978781156 25584030.723606318 0 25584030.723606318 -10482123.796507567 0 0 0 0 40088658.467987061 109186713.56781006 0 109186713.56781006 80703629.158691406 0 0 0 0 -75273017.153511047 -1962662.9147644043 0 -1962662.9147644043 -13531331.855491638 0 0 0 0 -79565812.423566818 15636685.842647552 0 15636685.842647552 2844116.3074035645 0 0 0 0 -85383024.894729614 34535410.6668396 0 34535410.6668396 -20240554.911804199 0 0 0 0 -59273305.709737778 8276801.7047920227 0 8276801.7047920227 -34120654.802307129 0 0 0 0 -8800046.2789666951 1389420.1163677126 0 1389420.1163677126 7033915.8920927644 0 0 0 0 -57011879.232475281 -2115883.2419967651 0 -2115883.2419967651 -43221348.774627686 0 0 0 0 11875012.246508598 162992562.69836807 0 162992562.69836807 138055001.84735107 0 0 0 0 20006720.055961609 88561272.827011108 0 88561272.827011108 15823881.53578186 0 0 0 0 36273923.41444397 85142295.284690857 0 85142295.284690857 90162302.902542114 0 0 0 0 -12195220.451951236 22157964.783923611 0 22157964.783923611 -27688836.321536422 0 0 0 0 -101502593.25984192 18208173.710296631 0 18208173.710296631 119418570.70600224 0 0 0 0 -72964841.667457581 147585933.52396393 0 147585933.52396393 23351352.410583496 0 0 0 0 100022329.45435333 97218941.939369202 0 97218941.939369202 42421732.312805176 0 0 0 0 -6496890.9454025757 6530506.1187324971 0 6530506.1187324971 25905360.107952625 0 0 0 0 -199014386.43317413 126530669.64719391 0 126530669.64719391 97681485.510498047 0 0 0 0 91305288.518951416 91446702.156219482 0 91446702.156219482 85740100.013122559 0 0 0 0 -236263293.09992599 50456760.556545258 0 50456760.556545258 153548965.80888367 0 0 0 0 -4205146.9774718583 13717039.964411397 0 13717039.964411397 22490317.204163522 0 0 0 0 -42865316.863550186 35292038.957663536 0 35292038.957663536 -51046526.810348511 0 0 0 0 132396925.65068054 57898098.883728027 0 57898098.883728027 214918307.43696594 0 0 0 0 380248662.38337708 -32269788.358215332 0 -32269788.358215332 217819037.91144562 0 0 0 0 378763593.47538757 55764797.255004883 0 55764797.255004883 128538795.78327942 0 0 0 0 221161176.40643311 17211897.695480347 0 17211897.695480347 233396016.62416077 0 0 0 0 260660819.58235931 98724119.359321594 0 98724119.359321594 111523722.79882812 0 0 0 0 251369676.81433105 112320396.93734741 0 112320396.93734741 103475249.92922974 0 0 0 0 332415392.73051453 123941079.49118042 0 123941079.49118042 75386273.01574707 0 0 0 0 95615126.962348938 110708260.63484192 0 110708260.63484192 163051002.91506958 0 0 0 0 168586742.50161743 111923802.91610718 0 111923802.91610718 109670363.82628632 0 0 0 0 170149435.92877197 101511276.00250244 0 101511276.00250244 74789850.357635498 0 0 0 0 102009786.76875305 83898564.05619812 0 83898564.05619812 75239468.278990746 0 0 0 0 166519097.51992798 121406189.61222076 0 121406189.61222076 27071883.999420166 0 0 0 0 255000173.67723083 126329928.34857178 0 126329928.34857178 59698432.786682129 0 0 0 0 246093444.41968536 139138845.32392883 0 139138845.32392883 82230578.703399658 0 0 0 0 160685657.1362915 131983373.58222961 0 131983373.58222961 65431854.904579163 0 0 0 0 225603546.64907837 119588754.30064011 0 119588754.30064011 29633398.671875 0 0 0 0 135571881.93814087 136496355.38401794 0 136496355.38401794 41584771.129699707 0 0 0 0 253002541.77510452 180686997.01305771 0 180686997.01305771 37606522.635192871 0 0 0 0 246608579.16925049 142082226.94908142 0 142082226.94908142 35540750.469207764 0 0 0 0 188369210.75076294 165379027.58950806 0 165379027.58950806 59095039.456487656 0 0 0 0 165711456.28747559 99834222.186183929 0 99834222.186183929 7954905.4895019531 0 0 0 0 72590761.266113281 87773820.98197937 0 87773820.98197937 30034021.652770996 0 0 0 0 103653231.85687256 71322124.104797363 0 71322124.104797363 19911539.043731689 0 0 0 0 224863712.89674282 33612594.629277229 0 33612594.629277229 40575020.520050049 0 0 0 0 -19880850.028312817 26714458.340774685 0 26714458.340774685 24776844.886461973 0 0 0 0 390823819.10993958 215883075.02191925 0 215883075.02191925 32462608.218643188 0 0 0 0 326391861.9392395 226643535.45146179 0 226643535.45146179 109072058.80644226 0 0 0 0 346477119.66790771 184589120.25166321 0 184589120.25166321 21666534.092132568 0 0 0 0 277867892.1227417 212602038.58276367 0 212602038.58276367 72505243.178826332 0 0 0 0 330009041.42718506 168114378.29562378 0 168114378.29562378 27753876.957000732 0 0 0 0 356918882.95589447 135165333.67647171 0 135165333.67647171 51482686.222625732 0 0 0 0 272786484.10423279 165802351.17781067 0 165802351.17781067 43943782.850006104 0 0 0 0 8063435.6873119771 6154531.1255650222 0 6154531.1255650222 15192755.601689965 0 0 0 0 119863473.02952576 96841853.09393692 0 96841853.09393692 42882331.884669662 0 0 0 0 -16299995.412528917 27721607.881321311 0 27721607.881321311 30725616.943429053 0 0 0 0 387667059.18362427 111102050.39506531 0 111102050.39506531 121773008.60974121 0 0 0 0 354385344.43589401 146081778.11103058 0 146081778.11103058 85188680.094238281 0 0 0 0 308384107.04727173 157703258.33201599 0 157703258.33201599 82506395.573127747 0 0 0 0 102764538.09063911 50937819.470404625 0 50937819.470404625 31841707.287506104 0 0 0 0 -224469808.93787789 1129745956.0350597 0 1129745956.0350597 -105950847.13024902 0 0 0 0 376173111.14476013 109815539.86306763 0 109815539.86306763 161990320.64456177 0 0 0 0 48542069.519195139 27902232.704677269 0 27902232.704677269 4526137.0104878414 0 0 0 0 37929795.72807312 33459405.606719971 0 33459405.606719971 27290538.198238283 0 0 0 0 -45775751.668624878 53149614.811504364 0 53149614.811504364 310717944.88000488 0 0 0 0 4995036.9167105854 5077902.9179517627 0 5077902.9179517627 5936995.9496249855 0 0 0 0 1370186242.6146545 32598286.519699097 0 32598286.519699097 -1140034886.3388062 0 0 0 0 543278929.64353943 -33328630.71547699 0 -33328630.71547699 157111930.9165802 0 0 0 0 469283246.3577652 360209918.70965195 0 360209918.70965195 -121660412.57318115 0 0 0 0 -341335.16986274719 7691097.6896486133 0 7691097.6896486133 2043563.6036058113 0 0 0 0 839859395.9825592 1109597784.3027649 0 1109597784.3027649 -3150941058.1549115 0 0 0 0 395710070.12559509 -183037022.75165558 0 -183037022.75165558 1267955318.6977386 0 0 0 0 7337422.9184592366 8070555.6595671177 0 8070555.6595671177 -5553824.3399296999 0 0 0 0 124101445.69837952 73648368.750732422 0 73648368.750732422 81710.414627075195 0 0 0 0 191832249.59452057 457814273.83060455 0 457814273.83060455 254557592.55541611 0 0 0 0 31113417.010726929 243666687.5958252 0 243666687.5958252 483310300.21372986 0 0 0 0 57480475.908182144 106916798.08265686 0 106916798.08265686 9486479.4919433594 0 0 0 0 83374477.219154358 63655567.113353729 0 63655567.113353729 15667075.342254639 0 0 0 0 13187800.119454734 10424812.340839058 0 10424812.340839058 2072426.3081429899 0 0 0 0 15589653.068321228 37073914.921348572 0 37073914.921348572 50889061.677398682 0 0 0 0 147485868.17828369 79540329.83688736 0 79540329.83688736 9526482.7338256836 0 0 0 0 -85613445.632932663 25056794.133015633 0 25056794.133015633 90811588.892166138 0 0 0 0 1355371.124427788 -2724546.0317207128 0 -2724546.0317207128 -1755731.1443066001 0 0 0 0 -36374.839920848608 -985685.01321542263 0 -985685.01321542263 -3200447.2686516941 0 0 0 0 231612420.55632782 120527524.63402176 0 120527524.63402176 -63788925.07723999 0 0 0 0 213102961.15570068 60745904.619018555 0 60745904.619018555 -59663412.538284302 0 0 0 0 145351104.10191345 51995313.230484009 0 51995313.230484009 -50576874.737670898 0 0 0 0 85539939.423934937 108514759.157341 0 108514759.157341 177091.76022338867 0 0 0 0 169913974.87210083 135042188.94786644 0 135042188.94786644 -32561803.718292236 0 0 0 0 -106165810.65887451 213785918.20684814 0 213785918.20684814 -54761918.393486023 0 0 0 0 55185558.418983459 83923407.479057312 0 83923407.479057312 3760133.8092308044 0 0 0 0 55509257.027053833 81161135.648147583 0 81161135.648147583 -20677508.288238525 0 0 0 0 -175111097.44729424 498964227.9521265 0 498964227.9521265 15764485.856170654 0 0 0 0 -148509089.9776516 452712054.85021782 0 452712054.85021782 -362583769.35144043 0 0 0 0 324270995.9357605 252988109.44940186 0 252988109.44940186 -625910.33933658944 0 0 0 0 6872274.5936069489 -49185374.555012703 0 -49185374.555012703 -233955043.21289062 0 0 0 0 210847.62932937965 -427065.63878026605 0 -427065.63878026605 5422748.9332996607 0 0 0 0 -236916709.27093315 163180989.64847755 0 163180989.64847755 285570134.17202759 0 0 0 0 628120098.83460236 273405489.55494308 0 273405489.55494308 -225728611.48875046 0 0 0 0 -256824376.39797592 -38848510.334564209 0 -38848510.334564209 -63069500.594711304 0 0 0 0 -262182030.52542877 31656792.326667786 0 31656792.326667786 87537594.150295258 0 0 0 0 -257363545.13411283 -42855728.035218954 0 -42855728.035218954 -350641429.61752319 0 0 0 0 -317725763.6641922 -59897293.218200684 0 -59897293.218200684 13850067.040931702 0 0 0 0 -133999223.29079437 -11001011.724647522 0 -11001011.724647522 3164613.3539276123 0 0 0 0 163650626.59134674 390117912.00082397 0 390117912.00082397 93844317.105880737 0 0 0 0 -927901.36447143555 141955915.27150726 0 141955915.27150726 163473872.03009224 0 0 0 0 470884.92293034494 -1443664.6648982316 0 -1443664.6648982316 15876613.562480599 0 0 0 0 62036053.713809967 81229717.167601585 0 81229717.167601585 215342660.60131836 0 0 0 0 -298640543.8434968 -66264371.328693867 0 -66264371.328693867 60263338.371429443 0 0 0 0 5284441.915184021 -36037352.071258545 0 -36037352.071258545 -15767082.15650177 0 0 0 0 -165009946.96282196 66554126.788108826 0 66554126.788108826 97314919.677200317 0 0 0 0 -115433367.34470367 948776.23558807373 0 948776.23558807373 113893675.22384644 0 0 0 0 4070506.2398481965 1375698.5423939973 0 1375698.5423939973 -6585313.3844234347 0 0 0 0 -18485513.597901747 21872351.481977478 0 21872351.481977478 -24558799.458863467 0 0 0 0 155091008.94030762 283070612.14936066 0 283070612.14936066 181948798.95986176 0 0 0 0 185726233.90363312 187462307.272789 0 187462307.272789 56716338.398384094 0 0 0 0 226775972.15663528 7109419.9647369385 0 7109419.9647369385 -197694758.00221252 0 0 0 0 -51698150.555484772 133745345.14470291 0 133745345.14470291 191220309.97354126 0 0 0 0 -29983815.453384399 192435301.55075836 0 192435301.55075836 308820134.33013916 0 0 0 0 56634177.9347229 132115480.57348633 0 132115480.57348633 321274914.56484985 0 0 0 0 250046072.11878967 80774450.632789612 0 80774450.632789612 270141085.90551758 0 0 0 0 79436093.604759216 234870087.59146118 0 234870087.59146118 161726681.67599487 0 0 0 0 -2793455.6013793945 111947153.51668549 0 111947153.51668549 123277589.11714172 0 0 0 0 -6225804.3319182098 1694430.7566897571 0 1694430.7566897571 -112557.71863514185 0 0 0 0 -1526939.9023666382 -18691396.930458069 0 -18691396.930458069 -254553260.86946106 0 0 0 0 -10433819.825363159 -317451402.19159698 0 -317451402.19159698 -184362262.46192932 0 0 0 0 -223281373.20101929 160169338.71258545 0 160169338.71258545 97839106.558563232 0 0 0 0 -213387421.18025208 -44381222.137191772 0 -44381222.137191772 176823004.59408569 0 0 0 0 -123583386.1734581 14164617.391483307 0 14164617.391483307 -262140125.41668701 0 0 0 0 -115710923.57980347 191833188.78732681 0 191833188.78732681 -195923293.4591217 0 0 0 0 -263473031.08700562 169313318.04085541 0 169313318.04085541 101272698.3170929 0 0 0 0 339819803.55363846 473455530.51005793 0 473455530.51005793 78830173.485458374 0 0 0 0 -9292203.4741342217 13961159.772926539 0 13961159.772926539 -19114009.519748747 0 0 0 0 394670110.97081757 108151916.58953857 0 108151916.58953857 103577698.1401825 0 0 0 0 92382406.495206356 417959203.5297966 0 417959203.5297966 186403837.64164734 0 0 0 0 -172808903.20172691 77400125.530475616 0 77400125.530475616 174413478.1423645 0 0 0 0 299916164.56868744 183874981.54663086 0 183874981.54663086 79542611.867218018 0 0 0 0 -85227681.880462646 242732152.31195831 0 242732152.31195831 98254765.093772888 0 0 0 0 123663613.57868481 232010094.0255003 0 232010094.0255003 -38975445.946853638 0 0 0 0 -114659863.16223907 86460497.190429688 0 86460497.190429688 -45401848.764831543 0 0 0 0 -44137886.980789185 26033472.986671448 0 26033472.986671448 -9636410.4313201904 0 0 0 0 -203088517.66017151 571231929.43827057 0 571231929.43827057 -626867740.20303535 0 0 0 0 -231673633.28305054 -8991275.5835342407 0 -8991275.5835342407 -101536694.56612396 0 0 0 0 -744133481.13368225 181633826.51708221 0 181633826.51708221 -157231534.89385986 0 0 0 0 -292006652.47335815 343052627.00897217 0 343052627.00897217 -67189223.163764954 0 0 0 0 180677296.93173981 142826117.89321899 0 142826117.89321899 15428002.336555481 0 0 0 0 399549597.93849182 330530650.66905212 0 330530650.66905212 -1063400455.0921097 0 0 0 0 169588706.83620453 234610090.53119659 0 234610090.53119659 -547501395.33499146 0 0 0 0 388944542.35125542 37976071.049093246 0 37976071.049093246 -632054153.03816223 0 0 0 0 552400162.2399292 41941637.460998535 0 41941637.460998535 -634056337.84480286 0 0 0 0 -87708035.225793839 82873964.933515549 0 82873964.933515549 306607905.19080353 0 0 0 0 -6466558.827713117 5198933.9378344119 0 5198933.9378344119 -1091456.8551005982 0 0 0 0 -349975969.55485535 380775979.92046356 0 380775979.92046356 501188.12004453351 0 0 0 0 -15414335.694595337 -13483148.041687012 0 -13483148.041687012 -1164799.983795166 0 0 0 0 -1296818486.234375 242312660.29794312 0 242312660.29794312 234138744.70318794 0 0 0 0 12527061.134342194 38225663.093708038 0 38225663.093708038 78779745.395271301 0 0 0 0 -15390022.801785588 6923314.3022696376 0 6923314.3022696376 -616454.57774646766 0 0 0 0 59646954.74896431 75723990.810749054 0 75723990.810749054 301684.23239898682 0 0 0 0 -1897579.4172046781 4216637.6609546244 0 4216637.6609546244 -8037495.1931266487 0 0 0 0 416881409.5498867 -100582051.50547314 0 -100582051.50547314 -635082172.53495789 0 0 0 0 -1030098.3395735268 2464310.366929546 0 2464310.366929546 -2136279.7469801009 0 0 0 0 -1398684798.0493469 255621797.26812744 0 255621797.26812744 248788146.66630554 0 0 0 0 -627706252.19631958 1360435120.3617249 0 1360435120.3617249 -1203445584.9457703 0 0 0 0 74044432.782943726 -256794165.92881775 0 -256794165.92881775 -69980187.359619141 0 0 0 0 -1233025995.3308735 464879655.0715065 0 464879655.0715065 17991225.871566772 0 0 0 0 436540313.28932953 68690239.731334686 0 68690239.731334686 -370005472.72402954 0 0 0 0 558628968.00339186 -114482750.59072924 0 -114482750.59072924 -642994171.41049194 0 0 0 0 530864391.8657074 912947155.0065918 0 912947155.0065918 -747312948.6083374 0 0 0 0 -589813244.25916672 1013746088.2685127 0 1013746088.2685127 -334799002.61579895 0 0 0 0 796564188.24825287 -109527957.04955292 0 -109527957.04955292 -329279951.85253906 0 0 0 0 -25481372.072525024 374015662.266716 0 374015662.266716 -397674565.75219154 0 0 0 0 6648734.0482521057 394359887.56674576 0 394359887.56674576 -428788576.89518738 0 0 0 0 -123298381.74884033 471208853.48290253 0 471208853.48290253 -424881040.03611231 0 0 0 0 -451912767.47251701 117766592.14999199 0 117766592.14999199 -131322571.27217102 0 0 0 0 -96943131.256141663 19370985.723106384 0 19370985.723106384 -144152144.39381313 0 0 0 0 -215405479.67902374 32836105.449270248 0 32836105.449270248 441874744.06335449 0 0 0 0 -155055262.16272736 429645250.40639496 0 429645250.40639496 188013195.36631012 0 0 0 0 255834339.13739777 -356520334.53225708 0 -356520334.53225708 -19912494.741043091 0 0 0 0 -432678.92509629019 5209625.7079941928 0 5209625.7079941928 -680112.20284894109 0 0 0 0 -155775597.02608681 32733927.741760254 0 32733927.741760254 -18885136.936965942 0 0 0 0 382867251.3333168 240417330.73230362 0 240417330.73230362 -788216965.34919739 0 0 0 0 -101763486.13762474 -378734603.93504524 0 -378734603.93504524 331120697.12147522 0 0 0 0 -146398439.94736099 131358700.94569397 0 131358700.94569397 -131414400.32022095 0 0 0 0 -20968621.53861618 162544561.56351471 0 162544561.56351471 104297195.95203972 0 0 0 0 -14340098.267391518 13910512.862745792 0 13910512.862745792 -12259983.795762584 0 0 0 0 -10717607.122795701 -15943149.305836916 0 -15943149.305836916 -22422184.70980835 0 0 0 0 324433861.7973938 387193134.65761185 0 387193134.65761185 262532502.77907562 0 0 0 0 290172812.19652176 229747682.91483307 0 229747682.91483307 210750966.93161774 0 0 0 0 -8156624.6701993868 9343233.1489718556 0 9343233.1489718556 11347191.028459966 0 0 0 0 -17687832.034764707 20536207.58289963 0 20536207.58289963 -16873370.013306767 0 0 0 0 -73831034.495517731 45741817.11964035 0 45741817.11964035 85731886.418624878 0 0 0 0 188255173.28890038 138085522.94361591 0 138085522.94361591 14289610.959320068 0 0 0 0 -7979326.0070571899 139515348.98891449 0 139515348.98891449 203549419.31814575 0 0 0 0 -112661383.15370941 88923018.09702301 0 88923018.09702301 -78755561.953611374 0 0 0 0 -21921153.747772217 8831035.1793518066 0 8831035.1793518066 -8205728.3892364502 0 0 0 0 -15619596.837030292 7816984.7772604823 0 7816984.7772604823 -3914644.7353497893 0 0 0 0 -118561843.46678925 -77623804.143379211 0 -77623804.143379211 -50927508.285293579 0 0 0 0 -36064668.766551971 -26278205.634395599 0 -26278205.634395599 3073033.7089691162 0 0 0 0 -20521720.942825317 18032948.415740967 0 18032948.415740967 -19840120.932098389 0 0 0 0 -203964606.6135788 -15541085.128185272 0 -15541085.128185272 26654929.197097778 0 0 0 0 -24875656.778315008 9037661.8785455376 0 9037661.8785455376 3091830.0327420831 0 0 0 0 -73518018.070480347 -23992346.012542725 0 -23992346.012542725 -30344623.572273254 0 0 0 0 -51689492.129867554 -6252392.8071594238 0 -6252392.8071594238 -61598226.715473175 0 0 0 0 -80469603.217961788 26875202.335825443 0 26875202.335825443 41866112.60609436 0 0 0 0 -76317164.101166725 -162632.15913295746 0 -162632.15913295746 19905592.702957153 0 0 0 0 57083967.826820374 39104265.289489746 0 39104265.289489746 33980465.338470459 0 0 0 0 -45125213.913345337 110014452.92369843 0 110014452.92369843 44437990.838459015 0 0 0 0 -70056719.746139526 8270577.9720001221 0 8270577.9720001221 695876.11986160278 0 0 0 0 -37505269.453258514 96442864.932411194 0 96442864.932411194 375811123.43857574 0 0 0 0 -23099318.342749238 18165082.578321323 0 18165082.578321323 -7335353.4745159447 0 0 0 0 28773089.798553467 53799130.464710236 0 53799130.464710236 6932147.3474960327 0 0 0 0 13637749.010650635 94529625.62493515 0 94529625.62493515 57814785.346178055 0 0 0 0 -79626038.783700943 38026533.486076355 0 38026533.486076355 61454890.329750061 0 0 0 0 -30286096.112098694 3059470.0251312256 0 3059470.0251312256 29516971.589950562 0 0 0 0 -72792280.926749587 29482495.398834288 0 29482495.398834288 20809874.517166138 0 0 0 0 182207450.26141548 371183026.48313141 0 371183026.48313141 311616772.37260437 0 0 0 0 -94493734.920269012 88566200.271533966 0 88566200.271533966 36252329.113645554 0 0 0 0 -16482624.760995284 10511258.883245915 0 10511258.883245915 -4902510.7336577326 0 0 0 0 238307186.77312279 308770560.07811356 0 308770560.07811356 170063015.70227814 0 0 0 0 304840957.91728592 411854879.64725113 0 411854879.64725113 310079452.07321167 0 0 0 0 410188921.91096115 265402660.62161255 0 265402660.62161255 26680385.785505295 0 0 0 0 183532359.21483564 203769570.06684589 0 203769570.06684589 369746880.49221039 0 0 0 0 209216051.28617477 143978076.85660934 0 143978076.85660934 138934457.19488525 0 0 0 0 10379041.214944839 262039596.74855995 0 262039596.74855995 70297737.000038147 0 0 0 0 310203933.84606171 280775954.228405 0 280775954.228405 222581182.91396332 0 0 0 0 185540545.17342186 366828469.46499443 0 366828469.46499443 315610494.38961792 0 0 0 0 604913895.69949722 535455738.6040802 0 535455738.6040802 376284039.06790161 0 0 0 0 -9239475.30497244 8008426.8010356873 0 8008426.8010356873 4508738.6846225262 0 0 0 0 131792868.07143021 80428517.941968918 0 80428517.941968918 -232335871.33975792 0 0 0 0 282443718.11127949 178951021.02803612 0 178951021.02803612 -310468533.23491669 0 0 0 0 242784028.65748787 162312496.93827438 0 162312496.93827438 129844.80414867401 0 0 0 0 156432477.41667175 230284106.18002319 0 230284106.18002319 174684709.81545758 0 0 0 0 298978680.04675388 255125845.43259716 0 255125845.43259716 -16884005.163421631 0 0 0 0 118078490.45127106 228403385.88487244 0 228403385.88487244 395561185.0951004 0 0 0 0 270156949.75914383 64108120.248855591 0 64108120.248855591 162704606.11785126 0 0 0 0 193451495.84669495 244674177.09046936 0 244674177.09046936 125746289.79570007 0 0 0 0 193146126.89560699 112014679.42155457 0 112014679.42155457 98211201.777503967 0 0 0 0 231388882.04150009 205131754.4179039 0 205131754.4179039 -51411188.15473175 0 0 0 0 191723222.48227116 243252346.62956631 0 243252346.62956631 -30410047.515533447 0 0 0 0 124709390.11363602 80384375.362865448 0 80384375.362865448 -164217627.36944962 0 0 0 0 51478554.321910858 299695700.3775301 0 299695700.3775301 -126281508.46247101 0 0 0 0 247704482.47390747 190737207.15118408 0 190737207.15118408 -72832347.410858154 0 0 0 0 246426831.79141617 105233219.48832703 0 105233219.48832703 -194817214.52575302 0 0 0 0 193049641.11566162 89004835.046592712 0 89004835.046592712 -187693425.90571022 0 0 0 0 214683675.47666931 116629606.16379738 0 116629606.16379738 -254576723.87741852 0 0 0 0 98180890.600585938 42985927.948236465 0 42985927.948236465 -250306185.82911682 0 0 0 0 -369053.23152599344 1848613.4688138142 0 1848613.4688138142 -2116983.1418097913 0 0 0 0 232888879.5216763 67305824.328080118 0 67305824.328080118 -48402727.326805115 0 0 0 0 -106202664.1117878 182868094.50872231 0 182868094.50872231 -161847265.27347183 0 0 0 0 69054496.639068604 43717134.362855911 0 43717134.362855911 -65309070.819820404 0 0 0 0 -1778466.9874343872 158909.96465682983 0 158909.96465682983 -50472303.893662453 0 0 0 0 271229171.41408157 -121082719.25481033 0 -121082719.25481033 -128940192.43439674 0 0 0 0 50238014.766361237 -89557898.236537933 0 -89557898.236537933 -121832543.06168509 0 0 0 0 285780757.90062904 51170379.708480835 0 51170379.708480835 -253790006.70262146 0 0 0 0 291140533.42078137 83774199.162521601 0 83774199.162521601 -390586246.44169617 0 0 0 0 421496039.09764099 -21334556.940380096 0 -21334556.940380096 -327712686.71864319 0 0 0 0 196815072.19329834 241872557.09209824 0 241872557.09209824 -29989437.773874283 0 0 0 0 205797874.77160263 -129898531.52197647 0 -129898531.52197647 83160661.796943665 0 0 0 0 569610681.0356617 122804542.63888931 0 122804542.63888931 -10413330.863563538 0 0 0 0 358682795.25410271 357846919.07667828 0 357846919.07667828 315127775.76589966 0 0 0 0 3275710.7683818266 -1824279.6636219472 0 -1824279.6636219472 1562444.3632326424 0 0 0 0 154408703.311306 154856856.63036728 0 154856856.63036728 219765720.27613068 0 0 0 0 181314282.08706284 197728926.73249054 0 197728926.73249054 103132977.05079651 0 0 0 0 170944893.07305908 17696903.580142975 0 17696903.580142975 116697329.97085953 0 0 0 0 115073797.28710938 201776738.12594604 0 201776738.12594604 -44905635.918945312 0 0 0 0 -28959579.956447601 215195887.38834 0 215195887.38834 167672555.90542603 0 0 0 0 198678672.79327774 175931740.99843979 0 175931740.99843979 9297614.3476257324 0 0 0 0 22942.788811162114 379726.53961803019 0 379726.53961803019 -50531.989158034325 0 0 0 0 191949336.04117966 56450518.379274368 0 56450518.379274368 229733109.42092514 0 0 0 0 91236226.248336792 104084659.64654541 0 104084659.64654541 -276731332.5507412 0 0 0 0 -1257184.4955243319 841146.05290032923 0 841146.05290032923 -186824.58872807026 0 0 0 0 39232895.639328003 -2012193.2343788147 0 -2012193.2343788147 -125446684.35314178 0 0 0 0 45676415.821056366 41563425.625997543 0 41563425.625997543 -16933009.870796204 0 0 0 0 583804.69941942394 4658.5685308724642 0 4658.5685308724642 -520732.68210101128 0 0 0 0 169215625.01990986 47639956.88175869 0 47639956.88175869 -16954590.620903015 0 0 0 0 138848731.60289001 -46642061.410423279 0 -46642061.410423279 30959168.846256256 0 0 0 0 199396293.54756165 118065102.5585556 0 118065102.5585556 -17996087.602180481 0 0 0 0 109620147.09178162 35526391.921157837 0 35526391.921157837 9262341.4895629883 0 0 0 0 54614696.493438721 -6350989.546043396 0 -6350989.546043396 6072950.2331752777 0 0 0 0 34585492.332292557 19973645.102247238 0 19973645.102247238 -15134975.13419342 0 0 0 0 216299904.47932434 45567208.119651794 0 45567208.119651794 216493152.61405182 0 0 0 0 315717184.90136337 160225831.21167564 0 160225831.21167564 57303101.474746704 0 0 0 0 93512710.71837616 247204025.61144257 0 247204025.61144257 242445097.61657715 0 0 0 0 117771521.31507874 97571768.372207642 0 97571768.372207642 38521371.338001251 0 0 0 0 221736135.91804504 111149319.21506119 0 111149319.21506119 11052372.874165535 0 0 0 0 180253262.59135246 137621517.46954918 0 137621517.46954918 151355360.73196411 0 0 0 0 98808525.35559845 45601439.647533417 0 45601439.647533417 70133953.978347778 0 0 0 0 188876558.22651672 117390690.61154175 0 117390690.61154175 80398595.597045898 0 0 0 0 101924599.60960388 116131315.72195053 0 116131315.72195053 155124263.25296783 0 0 0 0 172571607.08933258 128776079.70640182 0 128776079.70640182 58782932.218856812 0 0 0 0 195299951.2036972 161040080.95527649 0 161040080.95527649 91334507.624778748 0 0 0 0 213245634.77145004 149024923.04277802 0 149024923.04277802 65717192.023986816 0 0 0 0 255818665.52923584 133079032.66352844 0 133079032.66352844 55782298.801605225 0 0 0 0 272524392.14860535 48213510.69393158 0 48213510.69393158 -15164035.439193726 0 0 0 0 313376207.14865875 178423428.56826019 0 178423428.56826019 72220282.240661621 0 0 0 0 284268811.41669464 143414946.33122253 0 143414946.33122253 30950748.126815796 0 0 0 0 254455429.97071075 188139919.69709396 0 188139919.69709396 95413646.746017456 0 0 0 0 287975073.28578949 247908686.65901566 0 247908686.65901566 236254600.38222504 0 0 0 0 -79198897.715061069 -44752290.181939185 0 -44752290.181939185 131404784.27163696 0 0 0 0 652013593.98944855 135963496.71770477 0 135963496.71770477 30591814.999206543 0 0 0 0 1055365.3223269021 30963.927325703204 0 30963.927325703204 1098838.6420719177 0 0 0 0 612739654.73876953 224041568.78968048 0 224041568.78968048 74929822.08013916 0 0 0 0 611512.48640704155 2675445.9216506109 0 2675445.9216506109 2379650.1330191493 0 0 0 0 625364670.75341797 72626272.258148193 0 72626272.258148193 -136147375.85122681 0 0 0 0 208652.72255279124 -115307.65102034435 0 -115307.65102034435 118718.6764164418 0 0 0 0 5462481.324097327 -1758419.6468859911 0 -1758419.6468859911 1834422.8302525133 0 0 0 0 8254328.6380131245 4224582.6564944386 0 4224582.6564944386 1187322.3058319092 0 0 0 0 190357153.36286926 143646840.7608223 0 143646840.7608223 103840672.3579464 0 0 0 0 186242672.53519058 86043474.975902557 0 86043474.975902557 64943337.144844055 0 0 0 0 18844415.028294593 3067562.2524404377 0 3067562.2524404377 -434513.92648240924 0 0 0 0 214671477.9806633 119354295.15316772 0 119354295.15316772 99339614.375579834 0 0 0 0 223443601.45861816 131094063.92201996 0 131094063.92201996 59314181.104858398 0 0 0 0 194999603.45045471 173314371.9010849 0 173314371.9010849 48919152.693742752 0 0 0 0 218009518.3507719 152845193.24317646 0 152845193.24317646 62903266.73677063 0 0 0 0 197771299.78305817 159824014.43652725 0 159824014.43652725 98696331.02129364 0 0 0 0 178843290.04493713 153409099.60456467 0 153409099.60456467 100925341.37703705 0 0 0 0 178946200.88482285 151644012.51742172 0 151644012.51742172 125996537.69779587 0 0 0 0 188227820.55256081 188011949.55793571 0 188011949.55793571 103118521.4223938 0 0 0 0 114592920.10058364 35879471.912797391 0 35879471.912797391 2736601.7310333252 0 0 0 0 3461341.8812713521 2454431.7538368478 0 2454431.7538368478 -5638787.5425010324 0 0 0 0 10693944.620852537 -5643799.0483943969 0 -5643799.0483943969 2649913.0899519175 0 0 0 0 20865854.439509854 9642031.8847051412 0 9642031.8847051412 -47132362.505683899 0 0 0 0 61431709.434750333 49453337.918294668 0 49453337.918294668 6136053.1127263606 0 0 0 0 95052867.604103088 31564972.552375793 0 31564972.552375793 3526220.6399023533 0 0 0 0 97755105.690563202 45981174.745059967 0 45981174.745059967 2988445.4371118546 0 0 0 0 119641578.15414429 79981629.08134079 0 79981629.08134079 -24409179.729040146 0 0 0 0 116438816.8897438 -8912451.8724708557 0 -8912451.8724708557 22977524.810470581 0 0 0 0 34712999.619949341 91258817.144468307 0 91258817.144468307 39877130.666702271 0 0 0 0 296961786.90316772 89983947.15473175 0 89983947.15473175 -49718742.111133575 0 0 0 0 52549780.191246033 67551514.546321869 0 67551514.546321869 36661888.459571838 0 0 0 0 99148950.938659668 52214603.387321472 0 52214603.387321472 12548874.253505707 0 0 0 0 135793139.73659897 139409692.10186005 0 139409692.10186005 362822.85510253906 0 0 0 0 41394531.176137924 109459601.1065588 0 109459601.1065588 -4446687.1217575073 0 0 0 0 71275390.77494812 38735944.931358337 0 38735944.931358337 8305714.7904815674 0 0 0 0 53779491.482086182 37883760.742206573 0 37883760.742206573 13952940.748779297 0 0 0 0 91305612.245952606 19311215.774253845 0 19311215.774253845 5398139.4758148193 0 0 0 0 48732994.918045044 12433084.177757263 0 12433084.177757263 6196611.2597808838 0 0 0 0 18233791.190321252 2875804.499826476 0 2875804.499826476 -2269790.3393277377 0 0 0 0 41345509.642700195 47742828.7669487 0 47742828.7669487 6543589.3019838333 0 0 0 0 -3124436.2460813671 30752167.406926766 0 30752167.406926766 1420628.6305970848 0 0 0 0 4797636.7080072016 27221289.868879333 0 27221289.868879333 -19042.619094491005 0 0 0 0 32866474.239452362 29185370.426239014 0 29185370.426239014 7620736.7582321167 0 0 0 0 992137.36313385516 28807878.926469363 0 28807878.926469363 10765075.716360793 0 0 0 0 -21851937.60786438 48491739.463241577 0 48491739.463241577 -11845948.339416504 0 0 0 0 -10154617.764772415 177570.3756608963 0 177570.3756608963 -51003886.838317871 0 0 0 0 1236412.5659790039 72610384.823356628 0 72610384.823356628 -2547994.1217308044 0 0 0 0 -44082562.567480087 45051733.880119324 0 45051733.880119324 78689455.692192078 0 0 0 0 -17484297.699432373 145866505.9695282 0 145866505.9695282 308719389.90730286 0 0 0 0 -12438653.716212273 12408754.572160721 0 12408754.572160721 100826209.91578674 0 0 0 0 -48976065.926240921 52077948.261680603 0 52077948.261680603 188827603.03433228 0 0 0 0 -23866966.653999329 73878485.296165466 0 73878485.296165466 79007712.606628418 0 0 0 0 -30074217.852027893 72460162.262516022 0 72460162.262516022 -12307294.590621948 0 0 0 0 -41984106.412667997 33976342.002940536 0 33976342.002940536 7282383.8640506715 0 0 0 0 12253031.444313049 10502789.521243572 0 10502789.521243572 -58768.072401359677 0 0 0 0 35552593.875450134 116683248.13852692 0 116683248.13852692 60796836.723184586 0 0 0 0 78906497.362075806 142292440.71971512 0 142292440.71971512 -76121738.990707397 0 0 0 0 -12395685.0181427 186680792.92427063 0 186680792.92427063 7614761.5679473877 0 0 0 0 59767970.501235962 77996153.748165131 0 77996153.748165131 77345724.293416977 0 0 0 0 123058261.78157043 34316433.614227295 0 34316433.614227295 100012087.16849518 0 0 0 0 -69580005.909606934 58158459.837852478 0 58158459.837852478 145795394.08587646 0 0 0 0 102953082.59862518 177315583.37861252 0 177315583.37861252 38941818.119689941 0 0 0 0 69072019.828414917 165429737.62145233 0 165429737.62145233 73794251.180282593 0 0 0 0 -4003653.141708374 123833256.73603821 0 123833256.73603821 116282115.20878983 0 0 0 0 70651347.915842056 158021456.80640411 0 158021456.80640411 129769844.31967163 0 0 0 0 -37027907.991516113 43265920.891235352 0 43265920.891235352 76489272.828964233 0 0 0 0 12964659.276374817 129968960.69270325 0 129968960.69270325 14256519.692203522 0 0 0 0 212183518.25508118 282138864.70848083 0 282138864.70848083 -113745963.33479309 0 0 0 0 -48100292.833944321 230724748.39608765 0 230724748.39608765 27053131.817680359 0 0 0 0 137238357.99975586 191742508.97658539 0 191742508.97658539 33722362.36207962 0 0 0 0 134454135.55162048 161762320.26574707 0 161762320.26574707 -8182119.8862915039 0 0 0 0 150580439.81222916 5666691.8490791321 0 5666691.8490791321 88620335.122062683 0 0 0 0 324174382.49990845 98262284.215446472 0 98262284.215446472 -27418887.390253067 0 0 0 0 1400739468.1987724 -221912846.60183716 0 -221912846.60183716 -302765459.37867737 0 0 0 0 383943510.54431152 309666473.62678146 0 309666473.62678146 251696390.64073944 0 0 0 0 231260191.10385895 58801470.320934296 0 58801470.320934296 -95591671.423744202 0 0 0 0 -65577966.297683716 162482106.93902588 0 162482106.93902588 198924371.38758087 0 0 0 0 2726579.7605573162 3086090.5805631503 0 3086090.5805631503 647766.39844329655 0 0 0 0 -519438508.19887924 496501042.87584114 0 496501042.87584114 96573666.758651733 0 0 0 0 -102313113.07445526 425518179.29993439 0 425518179.29993439 -152556955.91947269 0 0 0 0 -429694323.13713074 359258731.11721802 0 359258731.11721802 297316806.71633339 0 0 0 0 440276124.14650726 169294843.17073059 0 169294843.17073059 115999629.92759418 0 0 0 0 -658606692.30110168 268801622.43465424 0 268801622.43465424 325889707.30301666 0 0 0 0 -796963.83014705218 1376121.7804025412 0 1376121.7804025412 -2875234.1391369253 0 0 0 0 -287985338.27476501 95257674.813714981 0 95257674.813714981 231110511.04862976 0 0 0 0 573979142.45038605 165326529.78496933 0 165326529.78496933 -470860833.98078156 0 0 0 0 443544062.81185913 -300600656.82461929 0 -300600656.82461929 201989039.69056702 0 0 0 0 140495222.64122772 137365802.12014389 0 137365802.12014389 -33333176.06854248 0 0 0 0 185244924.91453552 -124768733.52355957 0 -124768733.52355957 -71150492.450027466 0 0 0 0 14631770.687678196 6771990.3297407627 0 6771990.3297407627 -9496161.003479138 0 0 0 0 -137943518.01773071 37474676.96075058 0 37474676.96075058 86948325.314559937 0 0 0 0 403129244.62535095 -42466375.579395294 0 -42466375.579395294 -33474766.529571533 0 0 0 0 780955671.56705093 -199235617.94784164 0 -199235617.94784164 -62411976.295715332 0 0 0 0 6606642.9630884677 9630219.0156452134 0 9630219.0156452134 8373515.6520932168 0 0 0 0 -241249904.42436981 -260371993.22306061 0 -260371993.22306061 -1448512518.324585 0 0 0 0 344433359.90229797 -98773448.264816284 0 -98773448.264816284 141154744.30323792 0 0 0 0 403134693.33959961 26137893.362495422 0 26137893.362495422 51181959.222839355 0 0 0 0 343174180.69517517 -42050664.788696289 0 -42050664.788696289 -22517982.392822266 0 0 0 0 360301150.43788147 19304222.559883118 0 19304222.559883118 -31694685.053704262 0 0 0 0 382831949.87374592 -73321068.388676643 0 -73321068.388676643 -12427598.174163818 0 0 0 0 145970676.29749298 -55162261.594089508 0 -55162261.594089508 29896315.846298218 0 0 0 0 406153317.42574692 -6631205.7463703156 0 -6631205.7463703156 -12034598.864494324 0 0 0 0 347331805.5490036 -98600163.068180084 0 -98600163.068180084 -20078967.903144836 0 0 0 0 -1101508.6252180934 11792834.184473813 0 11792834.184473813 4064745.2062103152 0 0 0 0 -56495819.023639679 29009614.684299469 0 29009614.684299469 -36916376.215904236 0 0 0 0 107181163.55949783 95657155.605713367 0 95657155.605713367 -17567318.359703064 0 0 0 0 132987383.6287384 -16670342.645263672 0 -16670342.645263672 -32553275.897148132 0 0 0 0 225741319.27778625 76273023.820175171 0 76273023.820175171 4646084.3816719055 0 0 0 0 56239454.965875961 54383700.682115592 0 54383700.682115592 5506883.7288936228 0 0 0 0 67543957.870315552 56547203.234386444 0 56547203.234386444 20996022.877113342 0 0 0 0 103435874.9485817 54273191.336673737 0 54273191.336673737 19056570.113390923 0 0 0 0 96070306.533750534 37620077.131256104 0 37620077.131256104 21692662.553520203 0 0 0 0 113952430.97826767 23386475.661724091 0 23386475.661724091 19784180.368896961 0 0 0 0 262354261.34657478 -115056117.65706635 0 -115056117.65706635 92247803.229446411 0 0 0 0 72142709.078262329 92690266.227142334 0 92690266.227142334 -16977831.361270905 0 0 0 0 5702237.0236434629 55454368.48256997 0 55454368.48256997 -15171357.136822641 0 0 0 0 -401388992.83061981 720328256.32813263 0 720328256.32813263 -753810178.10806274 0 0 0 0 -425495150.7603035 -51143275.275249481 0 -51143275.275249481 494563834.97096252 0 0 0 0 113419875.01717377 174827034.23160172 0 174827034.23160172 102335810.03838348 0 0 0 0 87911435.837230682 269463621.43011093 0 269463621.43011093 -239040224.94648743 0 0 0 0 124678938.52718353 394623807.37767792 0 394623807.37767792 -194141773.57169342 0 0 0 0 -278530481.46496391 498097574.1422143 0 498097574.1422143 -164209466.55936432 0 0 0 0 239923694.35958862 272967597.94526672 0 272967597.94526672 -124388085.93986893 0 0 0 0 -6891566.7558794171 3632650.9120083749 0 3632650.9120083749 -558899.21764037013 0 0 0 0 -70286562.081314087 -236609856.08867645 0 -236609856.08867645 -51924098.748352051 0 0 0 0 -250339997.47253036 -110033150.27433014 0 -110033150.27433014 93058148.564037323 0 0 0 0 51037113.96899128 134290321.04254484 0 134290321.04254484 -245025887.06513977 0 0 0 0 -302725961.60341644 -135824827.46464539 0 -135824827.46464539 137164899.14892578 0 0 0 0 -8558715.6434376221 54836664.05442325 0 54836664.05442325 -12893164.08107394 0 0 0 0 -299335293.11532593 -14690029.67943573 0 -14690029.67943573 167508370.04978561 0 0 0 0 -34154060.14681673 102733874.07889795 0 102733874.07889795 43829526.51675415 0 0 0 0 24723522.869827271 129995935.63812256 0 129995935.63812256 -58543060.592523813 0 0 0 0 25113140.985794067 134441294.97404575 0 134441294.97404575 -14458534.076446533 0 0 0 0 242524567.55133057 290428821.25242996 0 290428821.25242996 81303225.255893707 0 0 0 0 135049048.6210022 151588007.43405914 0 151588007.43405914 -73996563.062728882 0 0 0 0 543495161.4934082 19801061.050998688 0 19801061.050998688 -33883228.429473877 0 0 0 0 -32017831.099136353 159008929.56691742 0 159008929.56691742 216701589.02844238 0 0 0 0 544872444.76789093 -121557129.21556473 0 -121557129.21556473 -38230509.908668518 0 0 0 0 -37707078.74937439 49864788.312156677 0 49864788.312156677 145591857.90693665 0 0 0 0 5966338.9050560445 2673871.9874281697 0 2673871.9874281697 212839.06489230692 0 0 0 0 -25341388.843986511 -1860589.0960083008 0 -1860589.0960083008 -10467267.230079651 0 0 0 0 -10254827.062759399 116093395.40358353 0 116093395.40358353 41848430.475692749 0 0 0 0 -144286521.06964874 1293582.8597412109 0 1293582.8597412109 249218.4503288269 0 0 0 0 505693991.72411776 188648248.90776348 0 188648248.90776348 31714313.381889343 0 0 0 0 -14033367.734866723 34385008.676758498 0 34385008.676758498 17359738.923437804 0 0 0 0 167576449.4617424 -75492230.365653992 0 -75492230.365653992 146623857.81799316 0 0 0 0 247200408.32748413 -174609957.16062927 0 -174609957.16062927 266582291.64533234 0 0 0 0 289619647.19389343 -49276630.494995117 0 -49276630.494995117 -40947017.962001801 0 0 0 0 -4504593.7640995383 10644374.686849669 0 10644374.686849669 35145904.178663492 0 0 0 0 -56642717.980583191 87440167.350021362 0 87440167.350021362 7783630.8306303024 0 0 0 0 -157373729.6332283 88245399.69432354 0 88245399.69432354 72019984.901542664 0 0 0 0 -80178557.632957458 22836172.429347992 0 22836172.429347992 42858901.208344221 0 0 0 0 104451274.53107452 127818047.05013657 0 127818047.05013657 54830047.618095398 0 0 0 0 112517644.20611238 235744667.53137338 0 235744667.53137338 102137989.08037949 0 0 0 0 -15381212.038435459 22680884.42238684 0 22680884.42238684 -33794235.826213971 0 0 0 0 92934723.352981567 62980775.789691925 0 62980775.789691925 52389636.022251129 0 0 0 0 13298674.50904274 176371034.81651402 0 176371034.81651402 148435371.08258438 0 0 0 0 -134847288.76198578 68245788.078689575 0 68245788.078689575 79042381.929290771 0 0 0 0 -56494624.477798462 39378635.212612152 0 39378635.212612152 52568723.108268857 0 0 0 0 -167558675.59851837 14918724.522859573 0 14918724.522859573 -21755680.09771347 0 0 0 0 -171240059.11367035 -3771790.6037330627 0 -3771790.6037330627 38816322.679172516 0 0 0 0 -90577488.8169384 183642427.73798847 0 183642427.73798847 -7937212.2033691406 0 0 0 0 -92947425.163818359 58461194.661478043 0 58461194.661478043 -58509855.837233543 0 0 0 0 -338353957.60751724 -58301218.283811569 0 -58301218.283811569 -43012842.8385849 0 0 0 0 -196249286.57045937 190385866.28479671 0 190385866.28479671 -226406063.01889038 0 0 0 0 302443871.70952606 80430331.260707855 0 80430331.260707855 -241725818.46890259 0 0 0 0 32832450.535980225 -15643079.815795898 0 -15643079.815795898 181021011.01866531 0 0 0 0 74869051.268093109 188755597.1331234 0 188755597.1331234 20546428.058929443 0 0 0 0 -202899707.23606873 -10775217.276218414 0 -10775217.276218414 34881889.327766418 0 0 0 0 411397.66099285334 14294271.075989097 0 14294271.075989097 -18855584.110897452 0 0 0 0 4893935.1701673716 32069328.250825286 0 32069328.250825286 53745392.968788415 0 0 0 0 152645583.06548309 112415862.89608765 0 112415862.89608765 52480203.588279724 0 0 0 0 479321895.50813293 -53308395.247919083 0 -53308395.247919083 -38018963.287391663 0 0 0 0 10968237.816960372 18311378.88857466 0 18311378.88857466 29061712.049730808 0 0 0 0 -129334342.47509766 -29926078.73695755 0 -29926078.73695755 208288902.37650871 0 0 0 0 -165208392.37822723 54140574.439569473 0 54140574.439569473 216746492.0010376 0 0 0 0 -184169172.34962463 193729488.47797012 0 193729488.47797012 428823758.20902252 0 0 0 0 -463487912.42669678 1004796565.177639 0 1004796565.177639 -89837584.530437469 0 0 0 0 347445322.51809692 516354325.43198776 0 516354325.43198776 -1016864761.4049168 0 0 0 0 -196357205.033144 283952392.1954174 0 283952392.1954174 -162555691.69003296 0 0 0 0 306297566.80712509 81331885.386673927 0 81331885.386673927 -474413405.94799042 0 0 0 0 -702101.11037603766 465245.11397109926 0 465245.11397109926 -10084243.926814929 0 0 0 0 406189560.41902924 246083017.62219238 0 246083017.62219238 -590717778.84716201 0 0 0 0 152353322.29611206 318018187.77832031 0 318018187.77832031 -584263827.97135925 0 0 0 0 528118291.55844116 93780782.490564346 0 93780782.490564346 -627773506.49438477 0 0 0 0 -14683677.143936157 -60971311.227336884 0 -60971311.227336884 63340621.153802872 0 0 0 0 -202510433.36909485 40043772.191638947 0 40043772.191638947 98741667.827049255 0 0 0 0 91747906.07289505 67760845.038537979 0 67760845.038537979 32428147.772010803 0 0 0 0 -11216316.821676612 5985283.8437674046 0 5985283.8437674046 -2720027.0924388021 0 0 0 0 -283419615.62219238 -43778381.014457703 0 -43778381.014457703 89396217.352470398 0 0 0 0 -654165889.89813232 98890468.527900696 0 98890468.527900696 263748031.25302124 0 0 0 0 -439719575.09269714 -27044528.181671143 0 -27044528.181671143 142848054.63687134 0 0 0 0 -435375190.64096069 166830303.11538696 0 166830303.11538696 193325206.53289795 0 0 0 0 -188670237.9341507 159402231.91881561 0 159402231.91881561 70232480.651794434 0 0 0 0 -193152908.87592959 40624097.489392459 0 40624097.489392459 96828649.999572754 0 0 0 0 -257894550.40938568 201732784.2785759 0 201732784.2785759 57544108.06199646 0 0 0 0 -38929950.1130476 46174225.607186198 0 46174225.607186198 43785071.572509766 0 0 0 0 -37397297.394378662 68146978.691917419 0 68146978.691917419 35151910.096538544 0 0 0 0 -26510715.819942474 64828458.990617752 0 64828458.990617752 61587328.497322083 0 0 0 0 1680854.6106033325 50272687.753501892 0 50272687.753501892 40318732.165460587 0 0 0 0 -78628471.113349915 127362595.53325653 0 127362595.53325653 62855480.959136963 0 0 0 0 -37868714.273796082 51893823.797065735 0 51893823.797065735 47338510.703882217 0 0 0 0 -21600464.998323441 153576802.79053068 0 153576802.79053068 22514711.943374634 0 0 0 0 2302425.566947937 64568245.891384125 0 64568245.891384125 30588741.707548141 0 0 0 0 8528413.7834379673 54122052.958023071 0 54122052.958023071 22963375.854957581 0 0 0 0 2828960.4990615845 54213878.926940918 0 54213878.926940918 35589455.800296783 0 0 0 0 8423784.2119979858 52911257.633590698 0 52911257.633590698 33837586.36668396 0 0 0 0 -9943234.8116760254 55494026.621910095 0 55494026.621910095 83464855.086330414 0 0 0 0 26911878.173770905 67866624.730054855 0 67866624.730054855 41084841.352073669 0 0 0 0 7115089.8665771484 30322021.488933563 0 30322021.488933563 29562850.417709351 0 0 0 0 -21704223.862373352 34775376.872016907 0 34775376.872016907 47859106.945186615 0 0 0 0 174882939.65172577 -124124346.42696762 0 -124124346.42696762 49040868.726615906 0 0 0 0 -29462769.809962571 9982959.04567343 0 9982959.04567343 -3391603.5893039554 0 0 0 0 12023212.511577606 92779684.159639359 0 92779684.159639359 101450701.20168686 0 0 0 0 -33126322.71496582 257764593.88118744 0 257764593.88118744 -252009484.89411163 0 0 0 0 -891618959.84017944 -64167433.897926331 0 -64167433.897926331 445470090.29257965 0 0 0 0 -657801225.02261353 44128705.83581543 0 44128705.83581543 -20933713.868019104 0 0 0 0 -430542633.48734283 379924860.08562088 0 379924860.08562088 -214291131.9641571 0 0 0 0 -88061595.318107605 162622599.4233532 0 162622599.4233532 -220190971.51748657 0 0 0 0 -103550111.02408981 158661597.11822128 0 158661597.11822128 -174321231.24246216 0 0 0 0 342453822.03338623 225840978.3344574 0 225840978.3344574 -243646664.11610794 0 0 0 0 -490461.68067646027 1625144.8205076456 0 1625144.8205076456 -1299953.0859647691 0 0 0 0 24708372.831016541 3483427.4194984436 0 3483427.4194984436 -35118701.471935272 0 0 0 0 130006583.40809631 1041313103.8927002 0 1041313103.8927002 164262590.78884506 0 0 0 0 385219669.88771057 36345933.591823578 0 36345933.591823578 -356702225.71022415 0 0 0 0 -12293480.242492676 36267652.131908417 0 36267652.131908417 63881726.272754669 0 0 0 0 -3287432.0741106868 1691318.7317204922 0 1691318.7317204922 27606.319176547229 0 0 0 0 20658203.484989166 -38715782.27820015 0 -38715782.27820015 5822776.1277160645 0 0 0 0 35030762.756851196 55138351.806694031 0 55138351.806694031 40498774.766342163 0 0 0 0 -55869942.566055298 -9098437.486366272 0 -9098437.486366272 189216486.55321693 0 0 0 0 -24813907.722415924 21139148.532345772 0 21139148.532345772 95939849.131980896 0 0 0 0 16328930.955627441 8545708.3205184937 0 8545708.3205184937 99767601.120792389 0 0 0 0 -35368594.858311057 15304885.173132315 0 15304885.173132315 -1506179.146930635 0 0 0 0 -19375139.043556213 38853924.534366608 0 38853924.534366608 17626949.274860382 0 0 0 0 -3315514.1460308209 6060942.8328067064 0 6060942.8328067064 1410133.0930786729 0 0 0 0 7439381.740447998 38703626.026596069 0 38703626.026596069 30809526.461227417 0 0 0 0 -8779796.0910942778 31355926.648486421 0 31355926.648486421 9301647.600913018 0 0 0 0 55198219.160625458 15240989.007460594 0 15240989.007460594 -5429631.8396606445 0 0 0 0 46647783.743591309 13880747.66425705 0 13880747.66425705 3963607.938175559 0 0 0 0 -9518636.9245223999 46485161.332969666 0 46485161.332969666 7790807.4525642395 0 0 0 0 -54962709.690301895 34052990.54412508 0 34052990.54412508 30053323.586345673 0 0 0 0 -8666744.1627807617 40472585.674167633 0 40472585.674167633 -28343060.74306488 0 0 0 0 -33212988.937347412 27084130.047687531 0 27084130.047687531 -22835828.065933228 0 0 0 0 -22777893.450042725 38420631.873897552 0 38420631.873897552 -14412999.45715332 0 0 0 0 1045732.8191190809 1784457.9948911816 0 1784457.9948911816 -3044178.1986481547 0 0 0 0 42591342.809265137 20970537.123380661 0 20970537.123380661 -3501860.1667175293 0 0 0 0 -47697166.416503906 60028473.258167267 0 60028473.258167267 -17111845.903877258 0 0 0 0 45294782.654891968 17469899.765735626 0 17469899.765735626 -1651561.6536636353 0 0 0 0 12276570.528519124 10096168.337360263 0 10096168.337360263 -4565364.6764115468 0 0 0 0 -5562305.1627044678 24192017.497116089 0 24192017.497116089 28208748.227548599 0 0 0 0 -1614788.5381469727 2864651.7557983398 0 2864651.7557983398 -5890680.2091827393 0 0 0 0 -20878117.353057861 25717865.941055298 0 25717865.941055298 47672770.652046204 0 0 0 0 -24731149.532928467 11826530.014358521 0 11826530.014358521 29669266.503288269 0 0 0 0 3652378.7107696533 18795972.494613647 0 18795972.494613647 31204261.364261627 0 0 0 0 3488763.5102106929 5287270.1690229401 0 5287270.1690229401 12719403.259617373 0 0 0 0 -12100793.629013062 26670786.511608124 0 26670786.511608124 -24041920.739423752 0 0 0 0 12755062.513427734 5715373.2207813263 0 5715373.2207813263 18883900.6664505 0 0 0 0 1216.9250793457031 30649986.460636139 0 30649986.460636139 -31046714.428565979 0 0 0 0 -43614264.708633423 47107382.52796936 0 47107382.52796936 -12072665.175338745 0 0 0 0 -12796624.473556519 28841762.213218689 0 28841762.213218689 -37848165.433097839 0 0 0 0 3082088.6250646561 6045534.9641453102 0 6045534.9641453102 -9960745.8352238536 0 0 0 0 -12298053.839982986 25103656.425496101 0 25103656.425496101 -31305046.661239624 0 0 0 0 -1663556.1208249331 456211.23015004396 0 456211.23015004396 8315517.9740372375 0 0 0 0 -1921.9349670410156 2084488.87059021 0 2084488.87059021 9499734.7996673584 0 0 0 0 808619.36459732056 20526372.327762604 0 20526372.327762604 875914859.45900726 0 0 0 0 2281711.5745366514 -311379.62084323168 0 -311379.62084323168 1801516.4183977991 0 0 0 0 -533723854.89000702 -139905553.12080383 0 -139905553.12080383 885045519.01425195 0 0 0 0 -1637717.2909130156 -2061163.1445773989 0 -2061163.1445773989 5007211.9011597112 0 0 0 0 -4665813.2303314209 -998725.20562362671 0 -998725.20562362671 18030735.439562321 0 0 0 0 -33823483.184860229 15401834.983612061 0 15401834.983612061 45239115.235729218 0 0 0 0 -30046937.559631348 5607628.0988311768 0 5607628.0988311768 34910356.34980011 0 0 0 0 33368.963045120239 336191887.92777348 0 336191887.92777348 -147549717.46405315 0 0 0 0 -149641344.45872879 215317028.99111652 0 215317028.99111652 178967264.78620338 0 0 0 0 -3993202.1824814677 5853736.1249344796 0 5853736.1249344796 -7999944.8929973394 0 0 0 0 191961360.47795868 -27683924.213191986 0 -27683924.213191986 -284108630.31862259 0 0 0 0 15506389.075798035 278696602.87883282 0 278696602.87883282 -181726653.78849792 0 0 0 0 204888710.11929321 84569696.579666138 0 84569696.579666138 16859461.176925659 0 0 0 0 -10836912.064456835 16568067.053086579 0 16568067.053086579 -22267139.587564766 0 0 0 0 221463128.91859436 277774942.32432747 0 277774942.32432747 358903.34201598167 0 0 0 0 130559793.07799339 349295635.35379982 0 349295635.35379982 198940161.46507263 0 0 0 0 354651924.78284371 166684410.78400522 0 166684410.78400522 -296930458.87937927 0 0 0 0 356930771.4098053 286028986.27257729 0 286028986.27257729 50430805.686819077 0 0 0 0 -52295574.477874756 152247898.83195114 0 152247898.83195114 221801065.82441854 0 0 0 0 77112310.618240356 95878495.927055359 0 95878495.927055359 -139884077.73646545 0 0 0 0 89674583.66944313 235844321.055233 0 235844321.055233 49875930.028190613 0 0 0 0 201934231.63479424 305128928.73630357 0 305128928.73630357 -34635107.906169891 0 0 0 0 130912354.86239243 188438780.47422791 0 188438780.47422791 18540898.288825989 0 0 0 0 61136275.628097534 96362840.605161667 0 96362840.605161667 -189665636.56426239 0 0 0 0 -251327.44031604379 1683522.4333402216 0 1683522.4333402216 -1037365.7310836539 0 0 0 0 -333032387.9286499 120403530.88780594 0 120403530.88780594 -101048440.28082275 0 0 0 0 -271515785.56976318 375383962.19353867 0 375383962.19353867 -425286918.78049088 0 0 0 0 11314603.433502197 19914575.657829285 0 19914575.657829285 -216972937.74693298 0 0 0 0 -166623207.17156982 3563077.6942176819 0 3563077.6942176819 -124973671.78507996 0 0 0 0 -48843634.532295227 110047947.95078659 0 110047947.95078659 1786082.8827896118 0 0 0 0 -47472095.381958008 68316583.929458618 0 68316583.929458618 -177743047.11627007 0 0 0 0 -121072624.68099976 174383649.95869827 0 174383649.95869827 -202946985.86491394 0 0 0 0 -147664668.79815674 163114320.13783455 0 163114320.13783455 -157366290.55485535 0 0 0 0 -100264963.08840942 211683408.41616821 0 211683408.41616821 -248917612.27368927 0 0 0 0 -189499030.41030884 258124524.3847847 0 258124524.3847847 -236836617.40419006 0 0 0 0 -205369919.546875 211276504.67951202 0 211276504.67951202 -241869606.00889206 0 0 0 0 -241192708.8033905 254267403.80299759 0 254267403.80299759 -217430666.66420746 0 0 0 0 -329965.67490386963 247189993.20867252 0 247189993.20867252 -666263062.63992119 0 0 0 0 -192284196.33642578 325947995.7298851 0 325947995.7298851 -321140629.35230064 0 0 0 0 -35825597.328605652 432030009.19146824 0 432030009.19146824 -1221626916.9453888 0 0 0 0 -153642699.43115234 313111535.35272121 0 313111535.35272121 -489460161.11732864 0 0 0 0 -131450267.95204163 478673710.06363869 0 478673710.06363869 -1238978644.2251377 0 0 0 0 -719800927.37327576 850745453.24405861 0 850745453.24405861 -722262298.56776047 0 0 0 0 -248793057.16236877 648468002.29700089 0 648468002.29700089 -1239245889.9390526 0 0 0 0 -672489118.548172 415145389.43533707 0 415145389.43533707 -167221067.6894908 0 0 0 0 -647481664.28822327 317134035.2286396 0 317134035.2286396 117090849.68217468 0 0 0 0 -587606104.75727844 -924143061.48904276 0 -924143061.48904276 -1199003498.0712395 0 0 0 0 -1081304.5828986689 2767597.4910502732 0 2767597.4910502732 -16660314.596178658 0 0 0 0 -323308413.30633545 -748727252.42771769 0 -748727252.42771769 -620259900.49258041 0 0 0 0 -33913096.118804932 -349756429.97500896 0 -349756429.97500896 -443931752.83338261 0 0 0 0 -262802654.14103699 -170444015.01453686 0 -170444015.01453686 85263492.988449097 0 0 0 0 -383394907.38438797 -484952244.81197882 0 -484952244.81197882 -259656283.99732399 0 0 0 0 235996326.09181976 -737851406.00498581 0 -737851406.00498581 -1550879645.171093 0 0 0 0 85026656.228149414 -486430961.57341957 0 -486430961.57341957 -740690600.31629372 0 0 0 0 -69413431.278060913 -396380010.92390823 0 -396380010.92390823 -433951330.71387482 0 0 0 0 435681142.35624695 -234897290.18784714 0 -234897290.18784714 -994756095.1637249 0 0 0 0 443418208.34671021 -326880253.80487823 0 -326880253.80487823 -953650266.44299603 0 0 0 0 234398878.41767883 -120282224.68735313 0 -120282224.68735313 -430218889.17557335 0 0 0 0 124384754.29469299 -142384750.11816311 0 -142384750.11816311 -303654063.14101505 0 0 0 0 145259129.36471558 -257441893.76718807 0 -257441893.76718807 -639179847.16170835 0 0 0 0 70098009.9585495 -120510842.59297633 0 -120510842.59297633 -307358355.83351517 0 0 0 0 103925004.56211853 1780649.0282497406 0 1780649.0282497406 -156992269.10386086 0 0 0 0 122479110.30853271 47344130.63792944 0 47344130.63792944 -197747736.55053806 0 0 0 0 119771280.40110779 -64186322.2709589 0 -64186322.2709589 -441999141.96400523 0 0 0 0 310056776.69085312 74022721.727441788 0 74022721.727441788 -136689737.6256485 0 0 0 0 15770383.065643311 -466893978.77267456 0 -466893978.77267456 56548572.056096435 0 0 0 0 -759254.69566944242 3785891.0929724276 0 3785891.0929724276 -42075970.504554048 0 0 0 0 408663433.65894318 51069627.127999783 0 51069627.127999783 -207545736.23701668 0 0 0 0 127657643.66246033 151889695.26474094 0 151889695.26474094 -73306440.081464767 0 0 0 0 194209847.47814941 145920460.79538059 0 145920460.79538059 -44800314.73814106 0 0 0 0 13875878.76940687 19117424.74728179 0 19117424.74728179 -52074263.33748053 0 0 0 0 43986683.966407776 -57338191.164692879 0 -57338191.164692879 32763709.018379211 0 0 0 0 163792790.27581787 -23190242.342956543 0 -23190242.342956543 -4411529.3249130249 0 0 0 0 115200945.1569519 110211522.58620644 0 110211522.58620644 25535217.430432916 0 0 0 0 108909869.25651169 66115080.409968257 0 66115080.409968257 -202170098.65254879 0 0 0 0 165608015.98454285 -3139768.9130785465 0 -3139768.9130785465 -174629806.19519424 0 0 0 0 123937817.85302734 126573189.63018513 0 126573189.63018513 -70968526.69412899 0 0 0 0 47140828.338668495 57622313.871631317 0 57622313.871631317 -8440673.0265594497 0 0 0 0 56450334.912147522 65324771.842813492 0 65324771.842813492 76377726.80645752 0 0 0 0 83913094.199855804 112342311.72547567 0 112342311.72547567 17337941.15801096 0 0 0 0 133410392.69532013 29201705.454069138 0 29201705.454069138 -35491935.926509857 0 0 0 0 31479193.892374784 6752924.360613808 0 6752924.360613808 -10644886.214414693 0 0 0 0 12739080.97548233 19181367.26018551 0 19181367.26018551 10267691.496382385 0 0 0 0 55489939.17388916 74521097.004179001 0 74521097.004179001 -31816667.356088638 0 0 0 0 30907551.674905598 49610047.505075634 0 49610047.505075634 -1789438.6890958622 0 0 0 0 6954002.1109466553 28987903.701118469 0 28987903.701118469 27001002.569885254 0 0 0 0 36385718.83466617 56447274.610083386 0 56447274.610083386 20805533.497691348 0 0 0 0 27943491.900059909 21544450.368198574 0 21544450.368198574 -20333785.280673891 0 0 0 0 23529504.314910889 31275225.516029358 0 31275225.516029358 4803052.2205734253 0 0 0 0 34318990.207721293 29571438.127399415 0 29571438.127399415 727929.47417389462 0 0 0 0 20842860.587852478 25354743.806272984 0 25354743.806272984 2486829.9241333008 0 0 0 0 -10780589.233810425 33399970.498310089 0 33399970.498310089 57352363.162443519 0 0 0 0 14459.465683728456 5317772.8451783434 0 5317772.8451783434 8844636.8763777725 0 0 0 0 21761083.712371826 29825539.407779694 0 29825539.407779694 8305144.07249403 0 0 0 0 23943014.817804337 19218051.468742371 0 19218051.468742371 23065350.073623657 0 0 0 0 4202168.7428419888 4243765.7950664163 0 4243765.7950664163 -3314784.0808095336 0 0 0 0 821960.82360386848 2125865.5882745087 0 2125865.5882745087 3038731.1593027338 0 0 0 0 45290478.797485352 -32789759.143880844 0 -32789759.143880844 54081112.771541595 0 0 0 0 19514314.515518188 44832938.038146973 0 44832938.038146973 24708204.684536457 0 0 0 0 34301857.16337204 15534851.891275406 0 15534851.891275406 4285240.7344474792 0 0 0 0 25904367.010818481 -6077295.4763736725 0 -6077295.4763736725 -102578642.08234406 0 0 0 0 -35720507.78666687 -66509543.128563881 0 -66509543.128563881 45069844.962890625 0 0 0 0 -169577.05784606934 61366921.799513817 0 61366921.799513817 -38460637.943580627 0 0 0 0 -76492578.582717896 202429811.92253113 0 202429811.92253113 -291570875.62090588 0 0 0 0 -77807563.080245972 49926452.900577545 0 49926452.900577545 49171156.589553833 0 0 0 0 -2204952.6062662005 -263786.82502554357 0 -263786.82502554357 1969132.6535198241 0 0 0 0 -52477514.503433228 142703906.70388412 0 142703906.70388412 -228430798.67433357 0 0 0 0 150228.66074860096 -2977714.4584073871 0 -2977714.4584073871 148515.01115703094 0 0 0 0 -28972766.876182556 35810711.390769005 0 35810711.390769005 -30217049.177829742 0 0 0 0 -10558851.057685852 6856002.2158384323 0 6856002.2158384323 15002391.97593689 0 0 0 0 -6839804.8971252441 24493180.833621979 0 24493180.833621979 123520527.14792538 0 0 0 0 25572.779846191406 45617061.127569199 0 45617061.127569199 67046063.281700134 0 0 0 0 -20422428.73790741 26257618.60178566 0 26257618.60178566 55557049.544212341 0 0 0 0 -2201687.8300056458 27647305.302116394 0 27647305.302116394 54360227.216430664 0 0 0 0 -4597076.6217651367 37600084.476200104 0 37600084.476200104 60827558.43624115 0 0 0 0 -5712512.5009489059 29573070.364755392 0 29573070.364755392 33350098.662269592 0 0 0 0 3706240.3869247437 46155040.050210953 0 46155040.050210953 40636366.347671509 0 0 0 0 5438239.9798698425 42381411.52657032 0 42381411.52657032 33733392.252693176 0 0 0 0 3233898.7629203796 44705584.076918602 0 44705584.076918602 38286867.619888306 0 0 0 0 2031.5649871826172 48370287.236413956 0 48370287.236413956 40116997.571788788 0 0 0 0 4101431.7836914062 36660848.614038467 0 36660848.614038467 53591249.098648071 0 0 0 0 1860045.8858642578 41716951.444852829 0 41716951.444852829 23478150.228851318 0 0 0 0 5002096.9428787231 50763787.212191582 0 50763787.212191582 31128132.523094177 0 0 0 0 -173629.66938018799 47863493.888824463 0 47863493.888824463 37181984.799025536 0 0 0 0 5310660.5366821289 59524273.927093506 0 59524273.927093506 -18201389.593125343 0 0 0 0 17992184.68409729 37398195.414035797 0 37398195.414035797 20131606.39547348 0 0 0 0 -18368.857802892391 49723958.84135823 0 49723958.84135823 17236326.026378632 0 0 0 0 -6257030.4530944824 31234935.835056305 0 31234935.835056305 -13623235.982170582 0 0 0 0 -9277176.6727867126 43886338.785399437 0 43886338.785399437 18363936.921844482 0 0 0 0 24233718.238750458 69215348.392926216 0 69215348.392926216 19486990.543876648 0 0 0 0 -5619348.6085689478 29820297.061469331 0 29820297.061469331 19207023.976325497 0 0 0 0 -36698749.036262512 39291464.718671799 0 39291464.718671799 25404311.949623108 0 0 0 0 47787000.225509644 60293953.083576202 0 60293953.083576202 2053204.1088598967 0 0 0 0 -1067315.4723129272 35800157.582645416 0 35800157.582645416 5276185.0117530823 0 0 0 0 38352381.108123779 64120721.635875702 0 64120721.635875702 18191802.279834747 0 0 0 0 35546249.815320969 59990804.78226018 0 59990804.78226018 27270155.274978638 0 0 0 0 104770797.53024292 119460867.27805328 0 119460867.27805328 71569600.223175049 0 0 0 0 -54233195.761520386 -8761520.6492614746 0 -8761520.6492614746 48363961.954017639 0 0 0 0 11399874.669372559 46492227.867424011 0 46492227.867424011 32654643.126434326 0 0 0 0 -6280536.992420543 28942289.524122715 0 28942289.524122715 29265951.193508357 0 0 0 0 163702769.38364601 -54352406.742915154 0 -54352406.742915154 2016882.4415054321 0 0 0 0 30195602.879684448 25105609.687326431 0 25105609.687326431 37018908.191412568 0 0 0 0 10388507.520352773 9878560.2524300218 0 9878560.2524300218 4269169.51706402 0 0 0 0 21607811.674430847 150271674.74506378 0 150271674.74506378 116305315.97223663 0 0 0 0 156488568.53196716 62391381.453224182 0 62391381.453224182 -6818048.8706475496 0 0 0 0 -1824113.8712924831 30445396.545656934 0 30445396.545656934 38328101.759195581 0 0 0 0 6711835.5549058616 9523275.8531619012 0 9523275.8531619012 13725646.318944901 0 0 0 0 28312641.970693588 37043208.989981174 0 37043208.989981174 77874135.241996765 0 0 0 0 35394375.518180847 73252689.665733337 0 73252689.665733337 117146790.65811539 0 0 0 0 25367.629976063967 -369625.63011808693 0 -369625.63011808693 -1029350.3155452609 0 0 0 0 36908063.572158813 52834917.550811768 0 52834917.550811768 82032865.713425159 0 0 0 0 32897843.42805481 89304269.182804108 0 89304269.182804108 87651251.947310925 0 0 0 0 32863567.688755035 85568120.485614777 0 85568120.485614777 44906089.313514709 0 0 0 0 35596266.434059143 73796641.972244263 0 73796641.972244263 56078567.768203735 0 0 0 0 27013476.71194458 98308937.629686356 0 98308937.629686356 53901658.599617004 0 0 0 0 37599652.454715729 71953603.448563099 0 71953603.448563099 56499278.691577911 0 0 0 0 30600846.151021481 96208637.332549095 0 96208637.332549095 58043221.4585495 0 0 0 0 23347764.949546814 82033102.091720581 0 82033102.091720581 38696491.813720703 0 0 0 0 11750750.194648743 74235939.299221039 0 74235939.299221039 40416694.425058842 0 0 0 0 25250180.886393547 98543424.358727217 0 98543424.358727217 54898828.750957489 0 0 0 0 8380907.9191970825 82418242.339645386 0 82418242.339645386 51719641.721366882 0 0 0 0 7576614.1342716217 70298588.6033535 0 70298588.6033535 51685186.194244385 0 0 0 0 4547982.3334579468 76437164.911720276 0 76437164.911720276 42743786.238510132 0 0 0 0 5408306.6481266022 62637031.178721428 0 62637031.178721428 29716950.809669495 0 0 0 0 18278801.352016449 79202497.05786705 0 79202497.05786705 35098552.285324097 0 0 0 0 26296151.55368042 124054740.53414917 0 124054740.53414917 100244799.96541405 0 0 0 0 -19364843.21975708 90532455.305768967 0 90532455.305768967 109369757.4822464 0 0 0 0 63999634.468734741 113986484.07342911 0 113986484.07342911 63688626.108246803 0 0 0 0 -1227398.7479476929 76120910.017868042 0 76120910.017868042 57935656.230597496 0 0 0 0 4597373.8651716113 91790942.83051604 0 91790942.83051604 80996546.1199646 0 0 0 0 36947500.231193542 130179033.1673584 0 130179033.1673584 66172854.977898598 0 0 0 0 2991571.5190353394 96894672.783935547 0 96894672.783935547 71606859.056720734 0 0 0 0 85372260.945808411 202274239.83858109 0 202274239.83858109 120517812.33955002 0 0 0 0 24253652.283103943 104716373.0050602 0 104716373.0050602 178960115.29827881 0 0 0 0 39510372.19178009 126700417.73429489 0 126700417.73429489 24275393.254077911 0 0 0 0 93782832.972709656 138967951.15025711 0 138967951.15025711 -11374304.853187561 0 0 0 0 46837102.94682312 80210446.267749786 0 80210446.267749786 -22155326.46219635 0 0 0 0 27528696.183204651 106702973.87221336 0 106702973.87221336 34982663.847316742 0 0 0 0 35591894.033683777 74581192.099700928 0 74581192.099700928 14048540.236112595 0 0 0 0 48736964.752304077 99613757.913299561 0 99613757.913299561 37041325.681396484 0 0 0 0 53386231.227777481 89023710.082838535 0 89023710.082838535 -11300150.846916199 0 0 0 0 37111898.824707031 58914198.035787582 0 58914198.035787582 -6812053.3300209045 0 0 0 0 111797420.47038651 -34490492.682711124 0 -34490492.682711124 18865781.862689495 0 0 0 0 -103135984.99900818 -121718740.21263075 0 -121718740.21263075 -120710316.38007927 0 0 0 0 8408259.3391799927 7381038.9028582573 0 7381038.9028582573 14911784.75974369 0 0 0 0 -248124883.92024231 102333922.79542065 0 102333922.79542065 43658997.267224193 0 0 0 0 106400866.05303192 -3369787.5628175735 0 -3369787.5628175735 35192141.625205517 0 0 0 0 -59520932.48925209 139592405.52276033 0 139592405.52276033 -163162496.8020668 0 0 0 0 -121886872.30474472 40610657.722451925 0 40610657.722451925 384304273.63748169 0 0 0 0 37784484.939092338 57035003.573028877 0 57035003.573028877 1920166.8820195312 0 0 0 0 46579102.519500732 72016597.817028046 0 72016597.817028046 11195529.065689087 0 0 0 0 41058269.750475168 58377340.435686007 0 58377340.435686007 3283620.2958019278 0 0 0 0 14156831.067260742 267389401.59576416 0 267389401.59576416 22079204.224627495 0 0 0 0 37349702.44178009 68109454.75453186 0 68109454.75453186 46078455.088752747 0 0 0 0 -55062686.29258728 97962610.995686054 0 97962610.995686054 285004994.12984157 0 0 0 0 98583982.160850525 154415944.08325267 0 154415944.08325267 -59489014.212730885 0 0 0 0 42728241.093658447 134146030.99358034 0 134146030.99358034 -59171743.380742118 0 0 0 0 104147621.16516876 225506835.97733235 0 225506835.97733235 -324619474.54675388 0 0 0 0 -35136416.065795898 158018850.67046738 0 158018850.67046738 -18290395.756842613 0 0 0 0 28031797.605484009 240243632.34709215 0 240243632.34709215 -288951575.75533009 0 0 0 0 -131436035.06300354 294085640.47190809 0 294085640.47190809 -286390729.68673897 0 0 0 0 146654295.62270737 298401921.92756414 0 298401921.92756414 -745751312.07757854 0 0 0 0 140020479.31920147 244044306.65532941 0 244044306.65532941 -630948494.6260376 0 0 0 0 -55203216.706283569 429960989.54647064 0 429960989.54647064 -715397030.47147942 0 0 0 0 152215529.21231079 105628375.22484875 0 105628375.22484875 -371189689.78005099 0 0 0 0 160993645.62051392 79429113.565056324 0 79429113.565056324 -532849804.50747871 0 0 0 0 343134766.45898438 147030394.18871307 0 147030394.18871307 -751523149.6063211 0 0 0 0 242359453.25255585 -114554809.86496019 0 -114554809.86496019 -684748375.84764862 0 0 0 0 563447399.40077972 -182428294.33765936 0 -182428294.33765936 -1199759583.864253 0 0 0 0 414643119.48744202 -36235084.682354927 0 -36235084.682354927 -803534611.60073948 0 0 0 0 394643623.29398727 45202168.71613133 0 45202168.71613133 -1093844282.4799595 0 0 0 0 670137810.20062256 -51207002.027020454 0 -51207002.027020454 -1082235797.0237231 0 0 0 0 383316036.85025024 165929866.79259872 0 165929866.79259872 -1143584527.4754567 0 0 0 0 260138891.82496643 356916541.34647799 0 356916541.34647799 -1236731412.7820339 0 0 0 0 539657001.78082275 164348851.91436863 0 164348851.91436863 -1303818427.382102 0 0 0 0 376445454.70090771 255619107.03545257 0 255619107.03545257 -1799505122.7182198 0 0 0 0 -1123898396.3832474 370076164.80474234 0 370076164.80474234 -189920466.51257086 0 0 0 0 215970914.49273682 579100296.08891296 0 579100296.08891296 -2287341578.7458744 0 0 0 0 -532520522.84526062 1131757589.2120619 0 1131757589.2120619 -1680307063.5407705 0 0 0 0 -362116751.73468018 766184707.68031931 0 766184707.68031931 -941966253.41421795 0 0 0 0 -137783308.62310028 -150429115.73789454 0 -150429115.73789454 -33627215.104055405 0 0 0 0 -157088422.27989197 1593638784.7066867 0 1593638784.7066867 667882366.83432329 0 0 0 0 -152410399.29793549 -33241650.183149815 0 -33241650.183149815 -317428312.96356583 0 0 0 0 -100136592.31854248 59819447.636197329 0 59819447.636197329 -159809840.65074348 0 0 0 0 -570420840.71508789 101727099.3964262 0 101727099.3964262 -137532354.78553581 0 0 0 0 -240779721.93756866 481878604.7217145 0 481878604.7217145 -577054072.41900349 0 0 0 0 -41505574.335977554 379013357.05217379 0 379013357.05217379 -697528039.34404755 0 0 0 0 136171894.7465744 92353925.731985092 0 92353925.731985092 -16135851.511763096 0 0 0 0 62933068.368896484 48907609.039373875 0 48907609.039373875 -27014555.633049965 0 0 0 0 61912735.694450378 -82082632.587353706 0 -82082632.587353706 -206720915.3333602 0 0 0 0 237139031.03344727 38949832.222842216 0 38949832.222842216 -132682235.30825686 0 0 0 0 168265834.39419556 273559376.23121524 0 273559376.23121524 238103635.77235651 0 0 0 0 -15856296.694393039 13524398.321087595 0 13524398.321087595 -5289857.4776001573 0 0 0 0 408119956.90232086 155673456.31153464 0 155673456.31153464 -220506783.80761704 0 0 0 0 37638479.439834595 71726029.339360237 0 71726029.339360237 -7706877.7025626898 0 0 0 0 -24472398.270002604 19527952.544124629 0 19527952.544124629 -4868486.5379819851 0 0 0 0 44604332.310163498 59550777.032105088 0 59550777.032105088 -6571307.1746106148 0 0 0 0 -116818313.87836456 158237105.26774502 0 158237105.26774502 -174126825.95682758 0 0 0 0 477562792.75889587 453550333.22998738 0 453550333.22998738 371537296.0356822 0 0 0 0 621076271.69705963 369477947.57253742 0 369477947.57253742 234007242.06675816 0 0 0 0 563499007.44667053 408233822.58160257 0 408233822.58160257 236733656.66981411 0 0 0 0 -4512172.2329734117 6760805.2711435258 0 6760805.2711435258 2393021.1741756275 0 0 0 0 176611747.776474 -102556676.6714772 0 -102556676.6714772 -341213687.58152467 0 0 0 0 5667785.3025669158 4332112.4165353216 0 4332112.4165353216 -5883946.1739654355 0 0 0 0 345428514.64360428 224889195.62672365 0 224889195.62672365 -666208545.32616448 0 0 0 0 -162834517.88875961 85508217.067869842 0 85508217.067869842 161653100.40273619 0 0 0 0 2091223.1479924023 19851393.520570531 0 19851393.520570531 -15336639.782868853 0 0 0 0 568760282.46621704 1033157920.9322413 0 1033157920.9322413 1058717228.2258921 0 0 0 0 341231476.37283325 766421683.23116016 0 766421683.23116016 1051907315.792908 0 0 0 0 -1945941.7532501221 50534913.459908962 0 50534913.459908962 -1580246.2975215912 0 0 0 0 -21677861.011207581 37338821.500190973 0 37338821.500190973 5602867.8979501724 0 0 0 0 10511934.63671875 22582249.432367563 0 22582249.432367563 -24658817.150215149 0 0 0 0 56863616.399703979 56302054.090124607 0 56302054.090124607 -13650990.202469826 0 0 0 0 10135553.612356342 28867828.248591051 0 28867828.248591051 -15691156.460947599 0 0 0 0 64399176.984191895 32194601.977349758 0 32194601.977349758 -30308611.814113379 0 0 0 0 45048290.96446991 53373554.969125271 0 53373554.969125271 11897821.389835835 0 0 0 0 -278164689.94293213 -135331479.06145161 0 -135331479.06145161 -105193130.10448539 0 0 0 0 512311805.31020737 405774241.29715729 0 405774241.29715729 41079986.916066408 0 0 0 0 1243432245.198822 873957637.10472393 0 873957637.10472393 91309916.38805151 0 0 0 0 414935654.55462646 89143213.144388199 0 89143213.144388199 -160373172.1363914 0 0 0 0 183998002.41654968 -579936329.82753181 0 -579936329.82753181 -372917369.74569881 0 0 0 0 1667401411.0090942 -60045131.207352877 0 -60045131.207352877 -1115076726.2236087 0 0 0 0 54563581.278335571 125747415.95485151 0 125747415.95485151 -36135069.093122482 0 0 0 0 366620468.12050629 40410061.269076288 0 40410061.269076288 -360994317.26900613 0 0 0 0 335253007.88946533 129386432.64920714 0 129386432.64920714 -158162536.88846111 0 0 0 0 23786034.282222301 6409329.6695467234 0 6409329.6695467234 -38233791.048223957 0 0 0 0 32197882.287059784 130858187.05502996 0 130858187.05502996 -384757855.754547 0 0 0 0 54302597.744918823 58746256.045652658 0 58746256.045652658 -151958521.09166145 0 0 0 0 41258083.713642195 46410759.178106159 0 46410759.178106159 11042919.386591703 0 0 0 0 20705497.932936817 51506368.00446859 0 51506368.00446859 7843502.6993263094 0 0 0 0 32572219.58581543 66703775.935604095 0 66703775.935604095 -31128103.756106377 0 0 0 0 39327608.801194131 58662046.004680082 0 58662046.004680082 -8155350.5702155326 0 0 0 0 52846829.300216675 94782492.489715576 0 94782492.489715576 -68424750.206677318 0 0 0 0 51909579.861068726 33631305.818181276 0 33631305.818181276 47577845.730435848 0 0 0 0 51147070.921994358 48151666.09672226 0 48151666.09672226 -46423392.404903114 0 0 0 0 97136790.854057312 31840185.453160763 0 31840185.453160763 -1269675.2310271263 0 0 0 0 71563074.628875732 57475408.808724403 0 57475408.808724403 -26901664.724758729 0 0 0 0 89696864.019897461 -81826528.601531506 0 -81826528.601531506 -110956371.76061946 0 0 0 0 94175708.356574059 4763765.3164495975 0 4763765.3164495975 15261088.600130081 0 0 0 0 37862973.287581861 55299110.683818117 0 55299110.683818117 3006737.1959538553 0 0 0 0 36139088.874328613 63951005.762550354 0 63951005.762550354 -21867621.571062803 0 0 0 0 13929095.928497314 -41621760.442146301 0 -41621760.442146301 187137319.36975104 0 0 0 0 19874786.939437866 56066332.266105652 0 56066332.266105652 -23967470.176139832 0 0 0 0 50066184.364746094 75790226.428127289 0 75790226.428127289 -38197425.477624893 0 0 0 0 19594665.369682312 87139893.772375107 0 87139893.772375107 -48778997.712799072 0 0 0 0 26904963.100646973 79551039.576709747 0 79551039.576709747 -46846437.623222351 0 0 0 0 10704735.296051025 84618823.057880402 0 84618823.057880402 -37720233.729496002 0 0 0 0 34378643.425979614 55271351.665939331 0 55271351.665939331 -78039988.753925323 0 0 0 0 -1814340.9053268433 97247695.021198273 0 97247695.021198273 -46848926.901428223 0 0 0 0 10633724.000957653 3411380.9151795208 0 3411380.9151795208 86232.002632707357 0 0 0 0 81461025.659049988 128520148.76709747 0 128520148.76709747 -9574308.2114105225 0 0 0 0 48912356.59270303 37928795.623101227 0 37928795.623101227 8552081.1200112104 0 0 0 0 -22130637.858764648 43618879.149650574 0 43618879.149650574 -48047775.320739746 0 0 0 0 -97197806.383789062 30920606.669582367 0 30920606.669582367 -1765738.8747558594 0 0 0 0 85826888.618652344 107520476.04587936 0 107520476.04587936 -115160792.42150879 0 0 0 0 66075927.471237183 123220162.43032074 0 123220162.43032074 6305471.9147872925 0 0 0 0 176688509.98323059 177165949.68021774 0 177165949.68021774 -29532990.943603516 0 0 0 0 -19818683.823501587 84482872.237052917 0 84482872.237052917 203004211.17402649 0 0 0 0 146451756.50932693 49359985.531669617 0 49359985.531669617 -371172.35375976562 0 0 0 0 -8989781.9204016179 3722820.6254632846 0 3722820.6254632846 4448344.2285456508 0 0 0 0 184198262.8955574 45442270.289234161 0 45442270.289234161 20656896.476104736 0 0 0 0 -28473757.13665659 36104032.641499907 0 36104032.641499907 8257853.831461966 0 0 0 0 -27326962.199839592 37366975.074580669 0 37366975.074580669 110908425.9480896 0 0 0 0 66583373.051925659 122898007.27025604 0 122898007.27025604 95161.338886260986 0 0 0 0 104410693.85898018 161518893.1039362 0 161518893.1039362 18220664.078269958 0 0 0 0 24901923.771297455 167356358.70065689 0 167356358.70065689 57348798.95463562 0 0 0 0 194725316.94908905 126996119.48974609 0 126996119.48974609 66651108.93315506 0 0 0 0 99291354.821395874 196798928.16109085 0 196798928.16109085 139355963.7961998 0 0 0 0 90540640.553117752 85498089.640642166 0 85498089.640642166 -49365586.331615448 0 0 0 0 -69680529.191307068 156206270.55441284 0 156206270.55441284 53406158.976898193 0 0 0 0 7383161.5249786377 134131238.38134766 0 134131238.38134766 59614022.400947571 0 0 0 0 -1563586.2988879308 161660.69577584416 0 161660.69577584416 790776.45715084672 0 0 0 0 -23179645.985813141 206204005.91047764 0 206204005.91047764 42059756.134803772 0 0 0 0 -39196912.128075793 33525457.947519466 0 33525457.947519466 8073345.5515207648 0 0 0 0 -63468620.413720131 212473790.26329923 0 212473790.26329923 46359270.071739197 0 0 0 0 98585353.857254028 167828772.07099152 0 167828772.07099152 214350746.13641357 0 0 0 0 -201868074.0670929 137563384.34059334 0 137563384.34059334 60348382.090354919 0 0 0 0 433024792.32714272 124429411.13817596 0 124429411.13817596 -90070387.714115143 0 0 0 0 179979537.49836874 -27590385.003572822 0 -27590385.003572822 64314232.443946838 0 0 0 0 5982005.3179149628 74025309.453962326 0 74025309.453962326 -50902390.320419312 0 0 0 0 -46807473.934463501 25793756.977329254 0 25793756.977329254 -44129778.208305359 0 0 0 0 17978755.23726368 48050540.062783241 0 48050540.062783241 -33198719.70349884 0 0 0 0 24232138.630683899 39395877.215801239 0 39395877.215801239 -42053057.375887871 0 0 0 0 31874984.931892395 45601091.997131348 0 45601091.997131348 -39293574.744926453 0 0 0 0 12548945.675477704 2790582.334781833 0 2790582.334781833 2160496.6564358473 0 0 0 0 153583965.38419533 15063586.805965424 0 15063586.805965424 -33154573.545963287 0 0 0 0 68869816.144579411 45463187.62271452 0 45463187.62271452 68404289.160171509 0 0 0 0 19031371.29586792 113384873.2279129 0 113384873.2279129 -28914189.421096802 0 0 0 0 52652576.013658524 35748678.007801414 0 35748678.007801414 8271673.1904628426 0 0 0 0 3532419.0777854919 95420646.841802597 0 95420646.841802597 -44678781.321182251 0 0 0 0 49382897.954790115 88467600.140706062 0 88467600.140706062 -79742331.042694092 0 0 0 0 16330866.360206306 28151615.673353076 0 28151615.673353076 -7546069.3600812554 0 0 0 0 54112657.494939804 96672117.719244003 0 96672117.719244003 94099567.907058716 0 0 0 0 22857458.506912231 48679228.278615952 0 48679228.278615952 -33237556.4063797 0 0 0 0 18846374.658282503 5629456.1216727048 0 5629456.1216727048 1645413.8970651478 0 0 0 0 66007157.355257034 23137376.349529266 0 23137376.349529266 -144552120.81318951 0 0 0 0 43583940.98141861 64529549.412488937 0 64529549.412488937 -56310049.808475494 0 0 0 0 28972776.192394257 136320872.54642296 0 136320872.54642296 224670678.71495533 0 0 0 0 93511030.126340866 50568863.635969162 0 50568863.635969162 98769281.093082428 0 0 0 0 9288128.9618237913 112769.42225953937 0 112769.42225953937 -1233289.6953838468 0 0 0 0 -8630164.3160057068 -8866425.6614532471 0 -8866425.6614532471 -84595692.083976746 0 0 0 0 61690961.025260925 22163068.954849243 0 22163068.954849243 -72127258.965209961 0 0 0 0 70575729.138771057 4072400.0068016052 0 4072400.0068016052 -60464125.860404968 0 0 0 0 627589.52921753377 -253100.23160028458 0 -253100.23160028458 -351880.63039216399 0 0 0 0 137287505.96100998 48979493.078016281 0 48979493.078016281 23987143.977631569 0 0 0 0 160803648.10799217 140774800.46583748 0 140774800.46583748 -10133912.788520813 0 0 0 0 81367521.776210785 1489286.3567256927 0 1489286.3567256927 -37250569.054656982 0 0 0 0 139060093.18496323 34377464.61803627 0 34377464.61803627 -39377707.438308716 0 0 0 0 67353634.611320496 8335624.9949607849 0 8335624.9949607849 -11479785.990608215 0 0 0 0 65064163.704694748 -14633110.90281868 0 -14633110.90281868 -35803231.999801636 0 0 0 0 67644211.539581299 4923704.103477478 0 4923704.103477478 462886.45261859894 0 0 0 0 77096729.524986267 -23140424.309299469 0 -23140424.309299469 -91724260.269889832 0 0 0 0 35181831.552474976 11635256.609111786 0 11635256.609111786 -39105428.823911667 0 0 0 0 64445570.140705109 70457337.010269165 0 70457337.010269165 -32496840.964838028 0 0 0 0 214478270.92251205 59071592.087478638 0 59071592.087478638 -140492984.93404961 0 0 0 0 196928519.48670244 166115904.47112989 0 166115904.47112989 19755264.444976807 0 0 0 0 268849192.45870304 -22960749.901026726 0 -22960749.901026726 -40672060.803375244 0 0 0 0 317582261.92784119 200677570.01467896 0 200677570.01467896 190863967.33718872 0 0 0 0 3681935.2287810892 1185327.245687753 0 1185327.245687753 -591688.60145302117 0 0 0 0 101226768.61154175 -73310949.954964638 0 -73310949.954964638 -261974804.15767288 0 0 0 0 100719999.93115997 318273230.03898621 0 318273230.03898621 502060813.58071899 0 0 0 0 31104473.196723938 117450023.71696472 0 117450023.71696472 377783439.11879349 0 0 0 0 129776475.88800812 184170312.48511124 0 184170312.48511124 100414807.40513611 0 0 0 0 22190647.165092468 86718683.145050049 0 86718683.145050049 58651836.573274612 0 0 0 0 39006383.892308235 -102513382.69121265 0 -102513382.69121265 90865907.708534241 0 0 0 0 2790775.9846857712 7158354.363165766 0 7158354.363165766 3342273.4451635629 0 0 0 0 -23613863.014434814 70797468.262401581 0 70797468.262401581 107746416.75379944 0 0 0 0 2547624.3582038879 4391906.2459041476 0 4391906.2459041476 3303950.7475612164 0 0 0 0 71767911.353797913 16340742.913780212 0 16340742.913780212 107153722.4004097 0 0 0 0 55102267.387734532 72078051.210603669 0 72078051.210603669 -2142565.1923651332 0 0 0 0 47492486.976238251 86168908.856702536 0 86168908.856702536 84086733.555510998 0 0 0 0 60673902.22209549 74840631.897624969 0 74840631.897624969 113236861.97799683 0 0 0 0 25516167.709537506 52801958.797523499 0 52801958.797523499 -269891373.66825867 0 0 0 0 15904263.048396215 44035243.68823541 0 44035243.68823541 77326167.377768576 0 0 0 0 76647935.147659302 115343865.62727499 0 115343865.62727499 50382013.086846828 0 0 0 0 48073234.806407928 121014637.4531312 0 121014637.4531312 41515090.773620605 0 0 0 0 27379444.512504578 101429525.46104062 0 101429525.46104062 74842084.901552081 0 0 0 0 22877210.313476562 112940060.84674454 0 112940060.84674454 79874117.939790785 0 0 0 0 45283901.766601562 112751277.21914497 0 112751277.21914497 58330043.139506221 0 0 0 0 39976781.583335876 135826471.04096532 0 135826471.04096532 61171474.76016891 0 0 0 0 39334950.732147217 142979815.07910383 0 142979815.07910383 76669863.510272026 0 0 0 0 28961518.511520386 153853737.40242696 0 153853737.40242696 65503768.601120472 0 0 0 0 61092581.116165668 77631471.052350938 0 77631471.052350938 4678569.0315508526 0 0 0 0 69168598.023971558 115485022.55624425 0 115485022.55624425 18445955.718707681 0 0 0 0 52009731.811233521 145867292.59336162 0 145867292.59336162 60229781.225104965 0 0 0 0 134804095.03576088 146578786.61212158 0 146578786.61212158 -59689549.331642151 0 0 0 0 64707750.953399658 115019275.93354321 0 115019275.93354321 58011158.578640953 0 0 0 0 66418912.364959717 136061027.77254605 0 136061027.77254605 59900448.819911718 0 0 0 0 3121815.0939496607 13396231.337052342 0 13396231.337052342 34372952.881298594 0 0 0 0 54251270.009689331 174718197.67503098 0 174718197.67503098 35378240.48009038 0 0 0 0 38622552.8802948 187303873.26678616 0 187303873.26678616 92216505.252818033 0 0 0 0 67311175.02162981 77929957.45499216 0 77929957.45499216 7419376.0790825747 0 0 0 0 132616363.52667236 83148390.393526107 0 83148390.393526107 -170785932.63942888 0 0 0 0 134327564.43586731 120868648.428608 0 120868648.428608 -200611433.29719895 0 0 0 0 73838029.460912704 93679537.908805847 0 93679537.908805847 42081684.577335358 0 0 0 0 -34648047.164978027 212738590.86006832 0 212738590.86006832 469528122.42176175 0 0 0 0 111141850.65319824 372025234.14415598 0 372025234.14415598 107137712.39408696 0 0 0 0 172014365.76249695 315881246.11568284 0 315881246.11568284 117496545.89149374 0 0 0 0 161032442.78778076 255695743.28854775 0 255695743.28854775 438067872.3679235 0 0 0 0 27124073.642929077 153915889.94450188 0 153915889.94450188 122737458.80863214 0 0 0 0 25732016.973999023 129204893.00521564 0 129204893.00521564 113071421.76035619 0 0 0 0 33086024.388956338 15288018.909654822 0 15288018.909654822 5464408.4068674445 0 0 0 0 23565100.241767883 129337299.42282653 0 129337299.42282653 116333735.28439474 0 0 0 0 15690642.77853775 57901147.263137579 0 57901147.263137579 97874841.429513454 0 0 0 0 113169761.34122467 -181520000.78522193 0 -181520000.78522193 408950167.12338376 0 0 0 0 12234075.11350286 5617735.3134299852 0 5617735.3134299852 2323327.1963160345 0 0 0 0 941467803.91485596 62088115.979407012 0 62088115.979407012 -629985383.01557565 0 0 0 0 -103073233.28756714 230854807.10918999 0 230854807.10918999 1179479617.8849189 0 0 0 0 403610222.29693604 -120588246.90986133 0 -120588246.90986133 -69794565.258431911 0 0 0 0 -201368187.62350464 -83435278.842810035 0 -83435278.842810035 148038429.9371357 0 0 0 0 -83865735.1344347 253546252.55645674 0 253546252.55645674 -423990828.17423868 0 0 0 0 -9770619.6427841187 2062441.7638151646 0 2062441.7638151646 -140712093.78261328 0 0 0 0 50228318.124355882 21096566.073058911 0 21096566.073058911 8117781.6685255347 0 0 0 0 72103784.197822571 118311067.06048274 0 118311067.06048274 -409974306.96036911 0 0 0 0 51868876.569290161 83163320.132265568 0 83163320.132265568 -53874185.187175751 0 0 0 0 46756546.875045776 102458780.9604702 0 102458780.9604702 19228885.863248825 0 0 0 0 15808926.053314209 40041433.275067329 0 40041433.275067329 22347455.903033733 0 0 0 0 17428160.199691772 66360473.058592319 0 66360473.058592319 111539629.17081785 0 0 0 0 59724585.770324707 100017214.7295084 0 100017214.7295084 -36922006.589999437 0 0 0 0 105999797.25547791 54470248.708570957 0 54470248.708570957 -3252182.8085379601 0 0 0 0 33107241.459243774 48561689.812827587 0 48561689.812827587 -19322762.310909986 0 0 0 0 104998419.00198364 160795917.69820738 0 160795917.69820738 80651342.361729622 0 0 0 0 48611088.726650238 176106419.32258782 0 176106419.32258782 9460638.6661806107 0 0 0 0 -58595951.091415405 122165899.90689003 0 122165899.90689003 -156501111.85202694 0 0 0 0 116887199.68681335 76971206.01996541 0 76971206.01996541 -165449275.72825813 0 0 0 0 -35409124.806343079 -81408913.593350172 0 -81408913.593350172 -130202384.70554733 0 0 0 0 7871389.1920852661 13075211.463224411 0 13075211.463224411 -134276325.23221993 0 0 0 0 -5753876.6271209717 -143061816.18547106 0 -143061816.18547106 -2033294.7739915848 0 0 0 0 159622631.13661957 -148684940.55203199 0 -148684940.55203199 -225203349.95979643 0 0 0 0 60059933.583572388 17885693.248596668 0 17885693.248596668 -398060132.55699158 0 0 0 0 53712903.394700527 -55970922.216433764 0 -55970922.216433764 -123238570.75900078 0 0 0 0 -16249539.839111328 112614692.94538355 0 112614692.94538355 -49858847.58745575 0 0 0 0 -188791224.07295227 116167035.59061861 0 116167035.59061861 -224031672.05677843 0 0 0 0 76626743.992052078 -10115055.369878411 0 -10115055.369878411 -136714789.44142723 0 0 0 0 89513642.490028381 -3903826.841629982 0 -3903826.841629982 -239016403.70016289 0 0 0 0 85323764.966369629 66534045.150758266 0 66534045.150758266 -23415065.089884281 0 0 0 0 153931925.26278687 97258818.731728077 0 97258818.731728077 -68452121.131226063 0 0 0 0 82351162.534355164 246992768.42485523 0 246992768.42485523 224819856.56087685 0 0 0 0 141018960.67932129 199573357.79615879 0 199573357.79615879 -201160744.51041794 0 0 0 0 187252261.5602417 446260496.64658356 0 446260496.64658356 78278568.593522072 0 0 0 0 -452828568.76818848 293460564.43252087 0 293460564.43252087 -126523891.59054184 0 0 0 0 -305097639.31002808 439319911.55522251 0 439319911.55522251 -189688554.95906329 0 0 0 0 -17466307.35345459 84470689.843175888 0 84470689.843175888 -335596783.30853081 0 0 0 0 -140522473.3988266 171511014.57231903 0 171511014.57231903 202627387.42726898 0 0 0 0 5224155.0466645658 1588455.6398898363 0 1588455.6398898363 -16511360.471035998 0 0 0 0 -175027617.14332199 560239488.6622076 0 560239488.6622076 -399300145.96815491 0 0 0 0 57839965.202102661 282149989.24627936 0 282149989.24627936 -653927956.01174355 0 0 0 0 -136002089.08810425 693715022.96855259 0 693715022.96855259 -5348807.2818188667 0 0 0 0 73557266.150260925 357523729.95970535 0 357523729.95970535 -1239091149.383961 0 0 0 0 -50603274.998748779 288632074.9786396 0 288632074.9786396 1467393264.3430252 0 0 0 0 -2461025.2843788564 -32261.417488357052 0 -32261.417488357052 -1477115.9732024521 0 0 0 0 -29477463.759185791 317999813.26112175 0 317999813.26112175 -2535694487.4312787 0 0 0 0 -4681779.5899581909 386896640.08785415 0 386896640.08785415 678750171.87897396 0 0 0 0 -5422139.7888128757 1676012.4507705607 0 1676012.4507705607 -1866792.9846422365 0 0 0 0 -1291126.566008091 6347903.3575537205 0 6347903.3575537205 -2058805.8526526913 0 0 0 0 2236774.2778778076 -21641445.925222397 0 -21641445.925222397 -21783132.792104244 0 0 0 0 97057010.556137085 86116828.343954563 0 86116828.343954563 285896586.10097027 0 0 0 0 121187759.86351776 200938650.1107778 0 200938650.1107778 174466182.51752949 0 0 0 0 116436524.63088989 206649812.48829985 0 206649812.48829985 242101833.54269886 0 0 0 0 -12619968.850814164 10813214.096082469 0 10813214.096082469 -3827113.121854756 0 0 0 0 133077721.43591309 207309597.14515734 0 207309597.14515734 172075340.57150173 0 0 0 0 100930381.11322021 84194694.988749027 0 84194694.988749027 182189869.6382122 0 0 0 0 110048470.187253 185507882.94352779 0 185507882.94352779 276959713.15280151 0 0 0 0 4880162.6063079834 -7342258.0431199074 0 -7342258.0431199074 -33715327.173841476 0 0 0 0 -30350537.543521881 15894698.683135509 0 15894698.683135509 18564638.60575676 0 0 0 0 -1383307.6448455453 5102387.421636723 0 5102387.421636723 812827.62741291337 0 0 0 0 -50306464.015176773 312318900.09696651 0 312318900.09696651 -880440918.54518318 0 0 0 0 -55919716.40612793 216100567.52421665 0 216100567.52421665 -683263982.6240387 0 0 0 0 -101956346.40497398 188564223.77249682 0 188564223.77249682 -710865328.98136139 0 0 0 0 -23623422.450660706 223979629.63106155 0 223979629.63106155 -695885767.6785965 0 0 0 0 -69229121.033813477 310999260.19403601 0 310999260.19403601 -766802953.79225636 0 0 0 0 -67119397.89245224 277140306.11367035 0 277140306.11367035 -508753626.59340858 0 0 0 0 142788005.51306534 323245373.80361843 0 323245373.80361843 -685521944.74459362 0 0 0 0 156458097.33534241 205825074.84543419 0 205825074.84543419 -488719677.50209522 0 0 0 0 -271531317.50024414 326553277.60556459 0 326553277.60556459 -242463371.36537361 0 0 0 0 -270614004.5958786 308803886.96195459 0 308803886.96195459 -89805305.183513641 0 0 0 0 70248400.118903637 193270852.64997444 0 193270852.64997444 -67011764.100179672 0 0 0 0 -541532192.3444519 183557311.79302883 0 183557311.79302883 -54130028.33412838 0 0 0 0 -563190826.47930717 370013980.70055711 0 370013980.70055711 -2398858.0746612549 0 0 0 0 -568723928.5645752 528193324.15691566 0 528193324.15691566 -350189084.19855261 0 0 0 0 -592013142.52752304 491766959.22908783 0 491766959.22908783 -253875762.17060471 0 0 0 0 -569795657.07111847 192307488.40120187 0 192307488.40120187 -853439015.31877804 0 0 0 0 1520560.2411355525 762657.00230401754 0 762657.00230401754 -7516515.1049503312 0 0 0 0 -1427644709.2095032 1315768008.2214975 0 1315768008.2214975 -776066452.29899788 0 0 0 0 313681473.71300507 -267982492.15732169 0 -267982492.15732169 -336830479.23557663 0 0 0 0 -543919314.6290741 459453191.59259033 0 459453191.59259033 -172421210.22232056 0 0 0 0 -61441318.134048462 279882111.72226334 0 279882111.72226334 -756160898.22022247 0 0 0 0 -263523757.39348602 884718881.86697292 0 884718881.86697292 -632970919.70976448 0 0 0 0 -2128672782.6435852 1155633148.3118231 0 1155633148.3118231 -378569972.27497888 0 0 0 0 -988360967.57845306 799923839.21594763 0 799923839.21594763 -756660680.54196715 0 0 0 0 2363388521.9714508 190770897.74578542 0 190770897.74578542 -929051901.07449043 0 0 0 0 579425.44486632105 7267932.5595576167 0 7267932.5595576167 -12697392.492386721 0 0 0 0 1808514.2827451914 16800065.452546865 0 16800065.452546865 -24206484.805147748 0 0 0 0 -154619485.4577446 241918802.39133978 0 241918802.39133978 -577300304.02217436 0 0 0 0 -1298020650.9639549 471986046.7718358 0 471986046.7718358 74404830.312474251 0 0 0 0 -649613761.46583843 78976320.470622659 0 78976320.470622659 124515668.26372528 0 0 0 0 -7594087.2694892883 1014597540.0499475 0 1014597540.0499475 55660101.387399912 0 0 0 0 1858309244.8855772 307051285.03908676 0 307051285.03908676 -819079699.7472657 0 0 0 0 -30622378.066741943 1044192966.361762 0 1044192966.361762 20788348.339212418 0 0 0 0 2096536.2592657153 21546871.887703463 0 21546871.887703463 -12422420.627251249 0 0 0 0 270917545.77133942 68338049.711141109 0 68338049.711141109 -4842600.0863647461 0 0 0 0 71265429.52431488 65408591.773298264 0 65408591.773298264 -134747788.26820374 0 0 0 0 -30320443.357559204 -10005878.866426468 0 -10005878.866426468 -107886879.73838615 0 0 0 0 -291484763.59457397 -14095927.52045536 0 -14095927.52045536 -31995526.991264343 0 0 0 0 7859036.7524739802 3665346.0623391476 0 3665346.0623391476 -7568297.2777277501 0 0 0 0 -1361178673.5441246 880937891.1941632 0 880937891.1941632 -562010244.82630157 0 0 0 0 -50059128.048660278 936156851.37788296 0 936156851.37788296 1735014239.7935534 0 0 0 0 -225914653.06159973 1281024120.6126232 0 1281024120.6126232 14618865.856740713 0 0 0 0 218563609.42250824 1354887637.6591449 0 1354887637.6591449 16492152.145824142 0 0 0 0 -1126549800.5725327 -416838677.76946044 0 -416838677.76946044 -1102728073.1961055 0 0 0 0 175643987.41370773 1766615723.3591781 0 1766615723.3591781 -1879884821.7223158 0 0 0 0 283668766.11217499 284241028.58659291 0 284241028.58659291 -857424763.06604016 0 0 0 0 279968315.07500458 368972226.61593485 0 368972226.61593485 209908605.40850914 0 0 0 0 916989519.52631378 -447156266.00261414 0 -447156266.00261414 -195303002.65598121 0 0 0 0 -844711321.69978333 220067153.68686241 0 220067153.68686241 -138929624.14267957 0 0 0 0 -20510119.911643982 89123884.527047545 0 89123884.527047545 -267432431.37158525 0 0 0 0 -199518459.34289932 224976544.32789475 0 224976544.32789475 -264652122.04476589 0 0 0 0 -400601885.63839722 293221586.76220262 0 293221586.76220262 -242186894.60899666 0 0 0 0 -23327273.671257019 389046825.21072739 0 389046825.21072739 -416551722.50568753 0 0 0 0 6298385.8734512329 368150429.40420431 0 368150429.40420431 -419073445.85453188 0 0 0 0 561063448.17117691 435709584.19325793 0 435709584.19325793 -641897907.78712213 0 0 0 0 346435031.43639374 539502965.09013391 0 539502965.09013391 -662503144.31966197 0 0 0 0 272070003.9724884 157911658.47895998 0 157911658.47895998 -391551508.94192064 0 0 0 0 149739651.22028732 264855265.05195469 0 264855265.05195469 -363274558.08177698 0 0 0 0 352974323.37114716 791897432.19865346 0 791897432.19865346 -1105069734.1571507 0 0 0 0 -1141026184.5030975 1553328166.3739152 0 1553328166.3739152 -1006138462.3760777 0 0 0 0 -818803876.55256653 873389304.11422586 0 873389304.11422586 -730633813.56691098 0 0 0 0 -118268750.40351868 -6567466.8282859325 0 -6567466.8282859325 -666657063.40848207 0 0 0 0 -715995989.41094208 719714655.61601985 0 719714655.61601985 -417127599.65918493 0 0 0 0 5279990.6154612154 2188069.7889318019 0 2188069.7889318019 -13301498.575399945 0 0 0 0 -307485859.29010773 648222317.28679585 0 648222317.28679585 -315920602.00326586 0 0 0 0 74819457.395133972 331786440.6528253 0 331786440.6528253 -55743964.000563979 0 0 0 0 1596582.4271309972 1280615.5719030052 0 1280615.5719030052 -4215740.3596161222 0 0 0 0 -1210237459.7983627 1321501859.894814 0 1321501859.894814 -464119411.25216627 0 0 0 0 1033795835.286293 -136783856.85555649 0 -136783856.85555649 -349270413.01296878 0 0 0 0 -161162659.08836365 264870678.20599213 0 264870678.20599213 -666213933.13055515 0 0 0 0 -631160903.38621521 249828898.03999949 0 249828898.03999949 -437656692.34540272 0 0 0 0 274884203.73774719 137518879.27394962 0 137518879.27394962 -579523568.06025219 0 0 0 0 75251549.010810852 87083466.856385469 0 87083466.856385469 -129429096.46158409 0 0 0 0 133233178.97010803 -63099321.059294224 0 -63099321.059294224 -205969055.50066757 0 0 0 0 325755672.44192123 403061862.11758673 0 403061862.11758673 436742703.42137718 0 0 0 0 270031206.88131714 -1976910.8673195839 0 -1976910.8673195839 -108634627.35974073 0 0 0 0 115436929.0656715 1052970234.099072 0 1052970234.099072 -809154140.75688601 0 0 0 0 -75874491.95811367 93549245.386246696 0 93549245.386246696 -77476322.459997654 0 0 0 0 127951020.24424744 145992852.23358393 0 145992852.23358393 -962834400.65642262 0 0 0 0 507592526.72528839 600712841.15308046 0 600712841.15308046 -603494510.53363681 0 0 0 0 15567254.107933044 169989908.58073401 0 169989908.58073401 -601450685.5707283 0 0 0 0 -127895508.82575989 215158782.42374611 0 215158782.42374611 -772114876.51232076 0 0 0 0 -174288360.4948616 31120136.2417062 0 31120136.2417062 -1288922711.9781981 0 0 0 0 -243533107.14476013 433364712.85038203 0 433364712.85038203 -471919206.16716087 0 0 0 0 111094883.65281677 471717171.16087925 0 471717171.16087925 -961781597.76079714 0 0 0 0 -191349582.44632721 526783062.9222483 0 526783062.9222483 -484350835.44561183 0 0 0 0 170594384.13370132 643004976.76627409 0 643004976.76627409 -457415568.30279958 0 0 0 0 170599142.3874855 308107420.28931493 0 308107420.28931493 -512372562.6754992 0 0 0 0 468059231.489151 -197405222.94233674 0 -197405222.94233674 26359431.843238533 0 0 0 0 -666087743.01509094 435803294.41471839 0 435803294.41471839 -178601229.73910859 0 0 0 0 -299816918.8234024 245999459.31163958 0 245999459.31163958 -282834897.407556 0 0 0 0 -425024398.20909119 812054941.79499507 0 812054941.79499507 -1132905770.8544769 0 0 0 0 124179797.85808563 441842321.73870403 0 441842321.73870403 -2828017858.3224578 0 0 0 0 -725370943.704422 1305138101.6251678 0 1305138101.6251678 -1209464747.4842577 0 0 0 0 -5605413.8923383653 5525774.0996714905 0 5525774.0996714905 -2809465.4841270284 0 0 0 0 -598053102.70152664 649548123.87710154 0 649548123.87710154 764072528.12037885 0 0 0 0 -3208054.1699071825 7936562.8028967679 0 7936562.8028967679 -11671464.877983188 0 0 0 0 -77997232.242154121 1804837495.5124633 0 1804837495.5124633 -578392711.03115082 0 0 0 0 384343459.10142326 -427742372.36903846 0 -427742372.36903846 -1125003703.1685982 0 0 0 0 370076705.97761536 -322234836.61250019 0 -322234836.61250019 -1900021691.6650801 0 0 0 0 378280355.14962769 -19708721.95742321 0 -19708721.95742321 -102800007.9595993 0 0 0 0 700914865.50848389 14280791.120798111 0 14280791.120798111 -1184449417.6951609 0 0 0 0 -6251305.49137339 16126219.388274327 0 16126219.388274327 -22401974.024983417 0 0 0 0 919218744.63792419 898142731.36579323 0 898142731.36579323 -84162522.704491913 0 0 0 0 841837502.885149 546964175.39107466 0 546964175.39107466 -166762191.97361183 0 0 0 0 193666680.98233795 319507652.21098602 0 319507652.21098602 -123634797.42435212 0 0 0 0 417302086.69426346 28339189.899250269 0 28339189.899250269 -743989648.1060946 0 0 0 0 334228514.71186066 677456844.36572802 0 677456844.36572802 -1362261394.053906 0 0 0 0 -117492177.41743469 380850919.82749355 0 380850919.82749355 -678793872.81046629 0 0 0 0 322904041.20748901 12178118.384040274 0 12178118.384040274 -424320345.93572903 0 0 0 0 -320841407.01683044 191887609.14513645 0 191887609.14513645 -104210434.75572866 0 0 0 0 -408696104.05870056 291508527.33346742 0 291508527.33346742 -257074772.83916706 0 0 0 0 -269108317.8086853 273361978.47475857 0 273361978.47475857 -255911309.44572389 0 0 0 0 -104271727.34978676 312488885.84540176 0 312488885.84540176 -372817898.33318841 0 0 0 0 -272078981.85127258 462151470.03933316 0 462151470.03933316 -492626580.09835601 0 0 0 0 -467300535.57413483 710232953.42704594 0 710232953.42704594 -642885571.97888768 0 0 0 0 -368651218.79322815 556064462.8142271 0 556064462.8142271 -419356028.65123177 0 0 0 0 -133072306.373909 796517808.40197551 0 796517808.40197551 -925051622.45463991 0 0 0 0 119928414.1511116 692861045.89323497 0 692861045.89323497 -992399464.19644642 0 0 0 0 -1370073102.2066469 1043880142.1224641 0 1043880142.1224641 -556783923.43621802 0 0 0 0 -276826160.8304863 1246641534.6013515 0 1246641534.6013515 -1743406694.7803729 0 0 0 0 160559296.7440567 -165609832.79406166 0 -165609832.79406166 -1814766890.7714233 0 0 0 0 -35327217.483467102 195316511.08792567 0 195316511.08792567 -223619438.40799332 0 0 0 0 12067824.43734479 14031272.092550436 0 14031272.092550436 -8707282.3943399675 0 0 0 0 -5013752.8700853735 13836445.457706749 0 13836445.457706749 -13255572.322874533 0 0 0 0 -51915088.114051819 335361835.60901582 0 335361835.60901582 155057819.78166854 0 0 0 0 5413526.5702885091 10440268.190096073 0 10440268.190096073 272976.15037183015 0 0 0 0 171940596.98249817 160050402.28173649 0 160050402.28173649 -747271920.67116117 0 0 0 0 159779994.52049637 820812983.81394458 0 820812983.81394458 -950989035.3277328 0 0 0 0 112015828.88922119 763849261.23406148 0 763849261.23406148 -683954184.52840018 0 0 0 0 316912440.95831299 484400990.1445297 0 484400990.1445297 -715960739.51405156 0 0 0 0 265818093.61587524 861606584.77891064 0 861606584.77891064 -950687514.99771214 0 0 0 0 178316026.91891861 1134965488.2820768 0 1134965488.2820768 -1803895961.2608104 0 0 0 0 -416323138.38789368 451774430.55301714 0 451774430.55301714 -709155886.0762713 0 0 0 0 -340526168.37890625 1187450796.6349769 0 1187450796.6349769 -941287520.4432981 0 0 0 0 101097876.5447998 818945709.21381021 0 818945709.21381021 -460074728.04099822 0 0 0 0 -3264030.0246696472 633544317.76339698 0 633544317.76339698 -389335621.76926899 0 0 0 0 84882803.827644348 144376858.73446786 0 144376858.73446786 185296488.47859907 0 0 0 0 -46053049.539894104 802200600.09243631 0 802200600.09243631 -187312908.17187595 0 0 0 0 53441391.762468338 319959766.79546583 0 319959766.79546583 58338774.874939919 0 0 0 0 130576391.81634521 669449009.19619942 0 669449009.19619942 405392294.86585641 0 0 0 0 203216552.07489014 79982735.272429466 0 79982735.272429466 760923426.26393986 0 0 0 0 -129294716.38111115 399615080.99550438 0 399615080.99550438 848503539.18730736 0 0 0 0 1946730.7309147716 9139286.4399574902 0 9139286.4399574902 24168.491241752708 0 0 0 0 374134545.23713684 276098359.40109372 0 276098359.40109372 633343798.39863479 0 0 0 0 383939625.33277893 792218920.26029861 0 792218920.26029861 968787032.42976046 0 0 0 0 -185769774.40927124 381028045.7806468 0 381028045.7806468 1944723508.5972884 0 0 0 0 438501.91771569848 3255578.0199574302 0 3255578.0199574302 683985.4383842242 0 0 0 0 450477599.43441772 193766417.65097845 0 193766417.65097845 -791430855.71833122 0 0 0 0 70378802.615324974 184347591.21553066 0 184347591.21553066 670864978.04332638 0 0 0 0 332199850.94801331 529371987.28694868 0 529371987.28694868 -28927804.624733686 0 0 0 0 -135674.93278503418 462957273.56650567 0 462957273.56650567 545833348.25147009 0 0 0 0 -21496092.073516846 209154880.33243847 0 209154880.33243847 -203785748.01684213 0 0 0 0 438161.71141052246 651981904.71523786 0 651981904.71523786 -703365182.84775209 0 0 0 0 -54446379.060127258 376685344.35874271 0 376685344.35874271 -1003534177.5918217 0 0 0 0 -411528.12244415283 628458130.99569464 0 628458130.99569464 -1156325985.5112684 0 0 0 0 -103713067.06139374 549087932.62903404 0 549087932.62903404 -1205518478.1059198 0 0 0 0 79024201.128406525 622687301.6024667 0 622687301.6024667 -1362929837.4742932 0 0 0 0 -337927141.89573789 1011993563.0751519 0 1011993563.0751519 -1035841363.7487688 0 0 0 0 -334644225.05434418 1099305673.0897417 0 1099305673.0897417 773953330.44828606 0 0 0 0 465131063.80905342 72838053.57324177 0 72838053.57324177 -2262159429.3693237 0 0 0 0 -3483231.8487200141 7824698.8204895556 0 7824698.8204895556 -11022115.066911627 0 0 0 0 -331257409.62834167 900186962.79589176 0 900186962.79589176 -1307719629.0046098 0 0 0 0 -1042929088.3756638 630581461.89591169 0 630581461.89591169 -380641179.76944923 0 0 0 0 938794777.72480917 237068370.17071125 0 237068370.17071125 -975870641.42379665 0 0 0 0 156983022.67760849 227377132.92426789 0 227377132.92426789 -1403603584.024229 0 0 0 0 343186253.01805878 -137330617.94640636 0 -137330617.94640636 -700079232.94586134 0 0 0 0 233400552.99890137 212761474.58458376 0 212761474.58458376 -2855931594.5026417 0 0 0 0 -107810789.38904572 745411853.97323751 0 745411853.97323751 -2322491684.7993279 0 0 0 0 -771799430.32640839 -173088696.81739998 0 -173088696.81739998 -1805751605.4578795 0 0 0 0 231370.71612548828 315574916.82881784 0 315574916.82881784 -1784573281.6046858 0 0 0 0 -87338396.230163574 631697731.36001587 0 631697731.36001587 -1395247203.3494778 0 0 0 0 -382163584.83271027 344783446.46615601 0 344783446.46615601 -1240473954.3373489 0 0 0 0 14006274.87727356 89896351.885120392 0 89896351.885120392 155225853.04680383 0 0 0 0 28138741.991584778 77745376.502914429 0 77745376.502914429 128073659.42182541 0 0 0 0 -57708215.025539398 83030713.307186127 0 83030713.307186127 127957108.09041023 0 0 0 0 42084419.975574493 59676999.713912964 0 59676999.713912964 105644606.12558174 0 0 0 0 33916258.104509354 50891686.587882042 0 50891686.587882042 170504632.97416687 0 0 0 0 71451413.225326538 21090304.766683578 0 21090304.766683578 157824358.3431778 0 0 0 0 33270119.188606262 32471896.418979645 0 32471896.418979645 172443237.61765671 0 0 0 0 40453138.221626282 35030774.076137543 0 35030774.076137543 160348307.84239197 0 0 0 0 14789172.657094806 21836839.947599992 0 21836839.947599992 154302277.27387238 0 0 0 0 56830890.834877014 30595114.274158478 0 30595114.274158478 174448419.57893944 0 0 0 0 213506376.82551575 77044187.195041656 0 77044187.195041656 -177414278.72194672 0 0 0 0 47633596.683455326 76216511.363872528 0 76216511.363872528 -2743521.9268066445 0 0 0 0 37623079.971031189 27783822.896453857 0 27783822.896453857 174076735.44874001 0 0 0 0 159562758.63420105 68873886.670791626 0 68873886.670791626 -105107277.6365242 0 0 0 0 223970867.50638771 -30665215.277320862 0 -30665215.277320862 -50096006.804214478 0 0 0 0 288581136.95853043 51419166.17363739 0 51419166.17363739 -168681186.16890717 0 0 0 0 383871921.26162529 66749896.191570282 0 66749896.191570282 -170646458.41149569 0 0 0 0 354630779.2557497 101715195.37056732 0 101715195.37056732 -89575744.735298157 0 0 0 0 380507970.7140007 116052778.5771904 0 116052778.5771904 -142951646.07429504 0 0 0 0 -106682137.41169131 88573303.896613955 0 88573303.896613955 -46608135.773492813 0 0 0 0 252596133.43602371 283715434.02540588 0 283715434.02540588 -45792111.828979492 0 0 0 0 115381501.69153214 89905951.170227051 0 89905951.170227051 -145435365.60712433 0 0 0 0 -64989406.768436432 238136600.77979279 0 238136600.77979279 -52058574.264764786 0 0 0 0 92259925.479438782 90829799.200801849 0 90829799.200801849 155236939.90221012 0 0 0 0 50501756.590049744 26293828.044845581 0 26293828.044845581 165844578.24825478 0 0 0 0 43080497.705742329 79520605.951914832 0 79520605.951914832 -9287394.4941580482 0 0 0 0 -10161938.849794388 111369987.23182392 0 111369987.23182392 217555780.2686367 0 0 0 0 -21239516.418330066 44580500.352481969 0 44580500.352481969 -15664701.226381198 0 0 0 0 63173211.427051544 206970499.11289978 0 206970499.11289978 -93273259.412940025 0 0 0 0 -982683.95081138611 128120905.35244942 0 128120905.35244942 -26845854.346557617 0 0 0 0 5870042.1375171691 72379798.015081182 0 72379798.015081182 -10383162.917466702 0 0 0 0 5578845.3265107572 39404248.668378569 0 39404248.668378569 -27012651.559945583 0 0 0 0 4919425.7146327496 280695732.23607653 0 280695732.23607653 297286560.55124283 0 0 0 0 -12225431.276889801 68719394.726264954 0 68719394.726264954 140505740.22932243 0 0 0 0 -32870852.46257782 91949843.80821228 0 91949843.80821228 206307232.6403656 0 0 0 0 8412309.3739337921 107657483.25930691 0 107657483.25930691 74028717.010057449 0 0 0 0 -132326098.14577675 51386672.823521614 0 51386672.823521614 62163302.779668808 0 0 0 0 -316993853.75568581 290364096.15610743 0 290364096.15610743 68434220.300056458 0 0 0 0 162028726.56045532 150055525.7064991 0 150055525.7064991 85615934.555894852 0 0 0 0 184898210.0858078 256254995.83080292 0 256254995.83080292 -489750995.0136261 0 0 0 0 -14959215.858074188 184492457.20768738 0 184492457.20768738 -381985013.16854954 0 0 0 0 -169967718.87836123 -100010308.43559098 0 -100010308.43559098 -254719684.78232574 0 0 0 0 -31733599.806209564 145794246.77857208 0 145794246.77857208 -139095159.60220909 0 0 0 0 25936495.030231476 97259145.598142624 0 97259145.598142624 -202237488.20029831 0 0 0 0 9539982.6934490204 5827103.518986702 0 5827103.518986702 53571764.775348663 0 0 0 0 59307769.36498642 69362003.835437775 0 69362003.835437775 -14487898.636217117 0 0 0 0 -14921720.181686401 54756406.474412441 0 54756406.474412441 -15187418.787399292 0 0 0 0 31058928.701023102 63482735.356168747 0 63482735.356168747 -81511936.728343964 0 0 0 0 -718732.68343734741 15356272.452833176 0 15356272.452833176 -1506628.6873426437 0 0 0 0 298089509.51703262 328591919.9141674 0 328591919.9141674 198745461.19089746 0 0 0 0 10033923.054214478 23515.914830207825 0 23515.914830207825 127792129.66956806 0 0 0 0 25257103.889530182 -9317722.0148544312 0 -9317722.0148544312 32269396.294818878 0 0 0 0 1853638.2385740411 4198652.6541767754 0 4198652.6541767754 3027193.9056252539 0 0 0 0 59686022.266376495 4941505.9164009094 0 4941505.9164009094 -7085951.0492773056 0 0 0 0 21897815.364369392 11850273.461490631 0 11850273.461490631 41948793.193748474 0 0 0 0 57559835.36497055 72890142.079839319 0 72890142.079839319 61658045.374756113 0 0 0 0 -151980182.65288162 615758815.09929562 0 615758815.09929562 454760369.97812748 0 0 0 0 261291883.33839417 -116237213.30460358 0 -116237213.30460358 -125299760.29620743 0 0 0 0 422740602.95684528 -172702872.12228036 0 -172702872.12228036 -246739118.00643158 0 0 0 0 4289487.8710225597 4508401.3452303484 0 4508401.3452303484 5370856.7287935019 0 0 0 0 -27184097.917648315 88388101.645559788 0 88388101.645559788 -1574984.3872442245 0 0 0 0 -59854329.87348938 130294068.96777201 0 130294068.96777201 24333138.105066776 0 0 0 0 -106406877.54011154 43723254.286689758 0 43723254.286689758 64976266.402373314 0 0 0 0 1467412.079990387 88578484.283679962 0 88578484.283679962 45696388.408321381 0 0 0 0 58486654.314567566 -50900381.32503891 0 -50900381.32503891 129747230.32141018 0 0 0 0 73892349.239063263 160879183.91044521 0 160879183.91044521 107334358.30059719 0 0 0 0 65420892.943655409 74669747.70251365 0 74669747.70251365 55621458.236611411 0 0 0 0 85155441.279553413 161842022.47576427 0 161842022.47576427 53964979.408098221 0 0 0 0 -3420157.6760690212 138515195.81775612 0 138515195.81775612 127916516.95313263 0 0 0 0 199842159.68815613 -75616397.695512772 0 -75616397.695512772 11867748.531158447 0 0 0 0 -2365758.2137699649 11660094.415108029 0 11660094.415108029 10369629.581332264 0 0 0 0 5436683.1357688904 165777977.97084904 0 165777977.97084904 159360753.46709061 0 0 0 0 13972416.746313095 162286147.89699554 0 162286147.89699554 -136061424.90643692 0 0 0 0 41376522.73109436 135125340.9133091 0 135125340.9133091 -194951415.79675484 0 0 0 0 633567243.4902916 -20881710.292271614 0 -20881710.292271614 -433683663.56797981 0 0 0 0 525686217.0240097 706861560.91253376 0 706861560.91253376 -1474923208.4638968 0 0 0 0 49710337.472569466 20413907.17825985 0 20413907.17825985 6238194.910823822 0 0 0 0 65050044.052845001 104377951.92225838 0 104377951.92225838 108517796.35359859 0 0 0 0 81499776.581302643 39452739.221315384 0 39452739.221315384 167808963.69223785 0 0 0 0 7427800.372966662 19852380.519387126 0 19852380.519387126 24933275.923296027 0 0 0 0 49394850.453336716 2212015.1476039886 0 2212015.1476039886 134993339.3367424 0 0 0 0 131623769.09718704 35486149.138954163 0 35486149.138954163 45943964.805077553 0 0 0 0 18301774.098155942 17791492.425087932 0 17791492.425087932 -6574074.2639310621 0 0 0 0 21105018.010795593 79798905.399171829 0 79798905.399171829 71207616.523386002 0 0 0 0 191862026.81294632 74821355.261003494 0 74821355.261003494 -17811052.789016724 0 0 0 0 22605584.742679052 30908513.49211793 0 30908513.49211793 18396041.876127508 0 0 0 0 23251919.849197865 33861124.782944322 0 33861124.782944322 -3705787.3706827164 0 0 0 0 37053731.464242734 54383190.848943844 0 54383190.848943844 -3898477.3713390976 0 0 0 0 62197220.98374176 42167274.669206619 0 42167274.669206619 -12924679.792190075 0 0 0 0 31764460.787933826 54636518.196368217 0 54636518.196368217 -30974324.396509916 0 0 0 0 38039725.608289719 67253148.573522568 0 67253148.573522568 -21158803.338581085 0 0 0 0 44997867.748859406 61920336.270267487 0 61920336.270267487 -32404421.553567886 0 0 0 0 29220795.072415341 27587633.489810705 0 27587633.489810705 3715784.9021812715 0 0 0 0 36940728.246720731 84070692.38168779 0 84070692.38168779 33998810.99430187 0 0 0 0 38615189.707629204 64328989.672684669 0 64328989.672684669 -16489101.341868639 0 0 0 0 -150611918.89311314 2362454.4698562622 0 2362454.4698562622 -81629844.697761536 0 0 0 0 40557583.085512802 60084326.114932552 0 60084326.114932552 -32687839.670927294 0 0 0 0 33414493.655549183 36359521.236882612 0 36359521.236882612 351192.33551393979 0 0 0 0 43013530.556648254 44986063.402878761 0 44986063.402878761 14270184.679801941 0 0 0 0 22259165.132858276 46545698.641713917 0 46545698.641713917 -4952343.7893090248 0 0 0 0 40870860.467960209 73179347.97302258 0 73179347.97302258 -4677550.4284833614 0 0 0 0 33271235.146141052 117808220.04343033 0 117808220.04343033 -123991092.39914322 0 0 0 0 23115965.579545498 93018480.323348999 0 93018480.323348999 -23343109.212890625 0 0 0 0 15544774.507889748 96002965.086805344 0 96002965.086805344 -110020414.01408386 0 0 0 0 19325508.882444382 74706437.716526031 0 74706437.716526031 -52937848.86971283 0 0 0 0 9466126.8759937584 11130080.930264464 0 11130080.930264464 -8449544.7804263905 0 0 0 0 -47342403.36515522 -5850098.749835968 0 -5850098.749835968 -114982947.88062501 0 0 0 0 15478272.303767547 92842744.958997935 0 92842744.958997935 -28640270.922241211 0 0 0 0 16136323.775073037 23700547.882990845 0 23700547.882990845 -34379240.774803296 0 0 0 0 -34086738.831688643 44022956.972385593 0 44022956.972385593 -15556537.367571339 0 0 0 0 139759359.79676819 -43489924.13507843 0 -43489924.13507843 -85063417.70352459 0 0 0 0 -8136261.17808937 7080656.5054654442 0 7080656.5054654442 -6081728.0663415641 0 0 0 0 -43423711.844080687 50243187.397073746 0 50243187.397073746 -134687932.03824997 0 0 0 0 -171384535.51976514 257056225.4755764 0 257056225.4755764 -196515446.63977432 0 0 0 0 -57635297.004882336 68116134.309457779 0 68116134.309457779 -98788290.5583992 0 0 0 0 -52864142.005982399 46303869.85046196 0 46303869.85046196 -101876095.95850372 0 0 0 0 -52605824.293260574 177584133.10991478 0 177584133.10991478 -57760104.929981232 0 0 0 0 57361402.223867416 237951191.49181175 0 237951191.49181175 -33743381.96647644 0 0 0 0 -81880619.797552109 335508602.23979092 0 335508602.23979092 74361420.326980591 0 0 0 0 -189650932.37066603 103709587.89565909 0 103709587.89565909 -106414652.52897644 0 0 0 0 54120494.383073807 67786983.443944931 0 67786983.443944931 -189891011.47967529 0 0 0 0 41340070.373452187 148768640.6934967 0 148768640.6934967 -201712108.44989014 0 0 0 0 -103491429.31953812 160917611.09415817 0 160917611.09415817 130131835.41144276 0 0 0 0 -98744414.985534668 448167423.07104874 0 448167423.07104874 -74263863.613362312 0 0 0 0 26279101.696212769 503450811.15993309 0 503450811.15993309 -633222290.50689697 0 0 0 0 -128723917.20875168 345036672.42987633 0 345036672.42987633 -102250644.25205803 0 0 0 0 13270964.544490814 193429007.89515114 0 193429007.89515114 -125708992.82649422 0 0 0 0 63696011.374103546 185532564.41142273 0 185532564.41142273 -125791956.33731365 0 0 0 0 48047508.873260498 239034011.58852005 0 239034011.58852005 -205419285.07197571 0 0 0 0 228218818.64635658 188595450.36565304 0 188595450.36565304 -195765444.95950699 0 0 0 0 12773354.302352905 84208410.839992523 0 84208410.839992523 52437397.603353024 0 0 0 0 -40893996.017799377 227419230.98111629 0 227419230.98111629 37305037.614948273 0 0 0 0 -47073187.748296082 28485378.477274224 0 28485378.477274224 -2295492.6338960305 0 0 0 0 -85135338.066555023 218118849.04895782 0 218118849.04895782 229900451.07654572 0 0 0 0 -149488916.49608421 52238756.996871948 0 52238756.996871948 370992743.96637726 0 0 0 0 -171763129.57000279 163876681.22271419 0 163876681.22271419 203960641.58959579 0 0 0 0 -433086779.30400324 280294458.43448257 0 280294458.43448257 -254128877.12977791 0 0 0 0 -44096150.128736071 -5907642.5635775551 0 -5907642.5635775551 -373811.77796921134 0 0 0 0 -266714760.79330248 275863676.46480942 0 275863676.46480942 -266761465.50798798 0 0 0 0 36756637.138916373 152030753.93917465 0 152030753.93917465 -347870106.83531189 0 0 0 0 -58594102.844637871 77050944.930864334 0 77050944.930864334 -30693658.072399139 0 0 0 0 -19528405.671853304 155747389.13161278 0 155747389.13161278 106751210.49551392 0 0 0 0 -11131729.933560904 -1195116.9255331792 0 -1195116.9255331792 1391313.2314901277 0 0 0 0 -2663626.1606489085 9143733.9414802417 0 9143733.9414802417 178264.88487029076 0 0 0 0 -84446543.575037479 251525132.59456062 0 251525132.59456062 15072797.929412127 0 0 0 0 -271791612.2554698 386657731.96178818 0 386657731.96178818 -77975179.039775848 0 0 0 0 -292388570.28419757 215883497.00954628 0 215883497.00954628 -9633514.6966962814 0 0 0 0 -286450910.36496997 136718468.47779399 0 136718468.47779399 -167427346.59906387 0 0 0 0 -226996177.0546152 293000130.71105003 0 293000130.71105003 -336261442.37282562 0 0 0 0 213022114.96169108 446320614.06294835 0 446320614.06294835 36067355.992431641 0 0 0 0 175615137.86543036 284873983.49792862 0 284873983.49792862 8261138.0633239746 0 0 0 0 154323184.94176483 294708086.38323212 0 294708086.38323212 341315477.82062483 0 0 0 0 186006911.08042371 202757288.40179491 0 202757288.40179491 38803703.034637451 0 0 0 0 231578085.01609278 184893236.85677147 0 184893236.85677147 -122360115.61631775 0 0 0 0 -62909091.993548393 69478543.109075546 0 69478543.109075546 -55502089.190086365 0 0 0 0 75116423.368839502 139025874.59185028 0 139025874.59185028 -182893851.38395691 0 0 0 0 907112.69992877357 192398.94090659171 0 192398.94090659171 -105072.07579107583 0 0 0 0 15739333.818266392 229779652.33936501 0 229779652.33936501 -131067644.79195023 0 0 0 0 23607863.207012653 297378397.77556992 0 297378397.77556992 395081065.51473618 0 0 0 0 123525496.2362299 242018663.32844925 0 242018663.32844925 347196971.21546936 0 0 0 0 -24041390.015928853 31024495.701785184 0 31024495.701785184 -36724067.041918546 0 0 0 0 37077044.814264297 222934728.82012558 0 222934728.82012558 -13924463.675880432 0 0 0 0 -22925613.694839716 -66910956.236517906 0 -66910956.236517906 -31321348.158554077 0 0 0 0 -242243635.63536072 1119648.2954616547 0 1119648.2954616547 25702815.339645386 0 0 0 0 203975386.14826393 71445174.524578094 0 71445174.524578094 69356530.929786682 0 0 0 0 158683308.54976273 175448347.65851784 0 175448347.65851784 10320059.844902039 0 0 0 0 126322771.11830711 136321924.71915245 0 136321924.71915245 9492594.1550064087 0 0 0 0 51907724.536417007 137854105.22245789 0 137854105.22245789 57385722.240970612 0 0 0 0 -18711665.156960495 28220851.661632374 0 28220851.661632374 -36518810.793130234 0 0 0 0 133538465.10347939 145975263.48070145 0 145975263.48070145 18502478.484640121 0 0 0 0 -81072982.00451088 85251208.65854454 0 85251208.65854454 86261862.222232819 0 0 0 0 406136495.50780487 265109691.53102875 0 265109691.53102875 190560144.22525024 0 0 0 0 -9191364.9797453284 11848663.067288555 0 11848663.067288555 -4498991.1667333245 0 0 0 0 -185531736.70771927 263881223.52318746 0 263881223.52318746 25845279.481567383 0 0 0 0 727377546.68655109 7043976.3169765472 0 7043976.3169765472 -55035848.479539871 0 0 0 0 -1259303.0469845925 -206159.37943011522 0 -206159.37943011522 4132854.6105467975 0 0 0 0 -10116660.999552976 10993075.373002604 0 10993075.373002604 2395804.4852710813 0 0 0 0 386721500.76556206 155816497.79832268 0 155816497.79832268 55449929.873931885 0 0 0 0 727815555.59688663 418349895.62968445 0 418349895.62968445 -34310872.290969849 0 0 0 0 28138808.437261581 124510926.85295868 0 124510926.85295868 15582860.287769318 0 0 0 0 -21951687.353131607 30930862.400922567 0 30930862.400922567 -41974552.337828815 0 0 0 0 -67527320.73035717 182700872.51388073 0 182700872.51388073 71417053.594921112 0 0 0 0 -422389342.24626446 28290883.746145725 0 28290883.746145725 136363697.72538757 0 0 0 0 554465826.3912468 211420771.49236488 0 211420771.49236488 -141209477.40950775 0 0 0 0 543265.5317416694 -1175130.8752537817 0 -1175130.8752537817 -1478608.8401751667 0 0 0 0 510032026.28755474 74101152.819945335 0 74101152.819945335 -128614043.86390686 0 0 0 0 82972269.013122559 30148673.413497925 0 30148673.413497925 -19445322.371665955 0 0 0 0 444222048.2083168 -58842438.140821457 0 -58842438.140821457 -48492545.250640869 0 0 0 0 391961559.89011383 124420710.09486008 0 124420710.09486008 93665303.282424927 0 0 0 0 -14450930.693271637 139910371.55356598 0 139910371.55356598 13734279.037307739 0 0 0 0 -13267672.092617035 140544244.44537735 0 140544244.44537735 13566011.416728973 0 0 0 0 38843645.786268234 159906202.31645966 0 159906202.31645966 17937945.504837036 0 0 0 0 -12488705.218540668 162859427.8536725 0 162859427.8536725 9337661.1286773682 0 0 0 0 -11697606.646730423 156141345.85231781 0 156141345.85231781 37827363.017787933 0 0 0 0 49324140.635067821 160331367.33162296 0 160331367.33162296 12376375.940483093 0 0 0 0 -15769025.691522598 128712770.30242729 0 128712770.30242729 53332654.935581207 0 0 0 0 -11451627.889513016 136312957.17425156 0 136312957.17425156 -18006265.307430267 0 0 0 0 -23728812.614601135 119324916.24114418 0 119324916.24114418 -26279356.016468048 0 0 0 0 -74252210.143667221 179461654.65997696 0 179461654.65997696 32601726.137653351 0 0 0 0 -33672060.950111389 185762205.48274994 0 185762205.48274994 -14381530.927908897 0 0 0 0 -62782202.942756653 129059902.06469345 0 129059902.06469345 79644683.49379921 0 0 0 0 -152550391.27417374 253838577.69442177 0 253838577.69442177 -23266087.557975769 0 0 0 0 -26574676.756793976 121377646.75340271 0 121377646.75340271 -193767448.84365845 0 0 0 0 -921616.64661543071 1352960.9721707255 0 1352960.9721707255 -1113657.8685161769 0 0 0 0 -143479683.68266678 122041457.14664268 0 122041457.14664268 174889282.12088013 0 0 0 0 -22318479.484781265 195094223.80147171 0 195094223.80147171 -222570363.49459076 0 0 0 0 51123800.980068207 111831513.13273335 0 111831513.13273335 141441042.48308563 0 0 0 0 19244338.265659332 43471286.215301514 0 43471286.215301514 103848762.57832909 0 0 0 0 -71636411.70862484 125473181.32748699 0 125473181.32748699 79828997.148445129 0 0 0 0 21723642.44049263 73063154.815847397 0 73063154.815847397 69051955.812862396 0 0 0 0 -40785644.243099213 134268917.61388969 0 134268917.61388969 47806949.167459011 0 0 0 0 -53593918.362733841 157457625.73151398 0 157457625.73151398 54673975.980686188 0 0 0 0 -21711443.174214363 146770136.47214127 0 146770136.47214127 52268768.992660522 0 0 0 0 -21884663.493883133 88807786.926685333 0 88807786.926685333 94477745.095663071 0 0 0 0 -12585728.287864685 52659490.930335999 0 52659490.930335999 58425428.43938446 0 0 0 0 64219762.436789989 71767200.414235592 0 71767200.414235592 41019548.631561279 0 0 0 0 60919430.134593964 46801875.913135529 0 46801875.913135529 -5916663.8288879395 0 0 0 0 67440900.435184479 59212398.94106102 0 59212398.94106102 -4255474.1806650162 0 0 0 0 53460858.287254333 36036146.807975769 0 36036146.807975769 14538031.399494171 0 0 0 0 -13787795.715425491 58763592.263048172 0 58763592.263048172 25608656.800750732 0 0 0 0 -29850900.089191437 -23221814.863037109 0 -23221814.863037109 -736380.17110443115 0 0 0 0 -4142885.1749382019 43879042.803110123 0 43879042.803110123 55170371.32358551 0 0 0 0 295216.15994117409 -17932.615124702454 0 -17932.615124702454 158012.09860892594 0 0 0 0 -2483898.6049905568 2835678.2280351818 0 2835678.2280351818 -2218116.0880162865 0 0 0 0 60925326.07985878 70423144.933925629 0 70423144.933925629 94441413.232471466 0 0 0 0 19211688.655132294 63281822.709606171 0 63281822.709606171 101413360.50643539 0 0 0 0 72985947.748920441 76669819.684955597 0 76669819.684955597 109327526.91156769 0 0 0 0 21780640.124591827 83725192.982563019 0 83725192.982563019 109124971.57427406 0 0 0 0 50980498.325448751 113856624.46923137 0 113856624.46923137 155425795.65247345 0 0 0 0 -2523561.2478580698 3258564.5691844076 0 3258564.5691844076 -2656503.5263600945 0 0 0 0 -226018.24774765968 -816810.29522651434 0 -816810.29522651434 -200365.98863731325 0 0 0 0 -8874861.0238673687 -14713811.528662801 0 -14713811.528662801 30456517.262145996 0 0 0 0 -1947415.9613655284 2938907.9986049235 0 2938907.9986049235 -3011932.5187866837 0 0 0 0 52674429.600504875 123192877.5334549 0 123192877.5334549 148116224.28066254 0 0 0 0 32163585.208202362 58744117.358913422 0 58744117.358913422 133169341.69129276 0 0 0 0 12419828.557052612 54503769.657535553 0 54503769.657535553 29939453.001464844 0 0 0 0 18299051.760883331 25815240.179107666 0 25815240.179107666 52738894.304534912 0 0 0 0 22993214.787254333 141590715.61106873 0 141590715.61106873 149849593.70063782 0 0 0 0 59110261.308494568 94016524.627609134 0 94016524.627609134 2790440.2104258537 0 0 0 0 69585942.904003143 113287298.13477325 0 113287298.13477325 124115419.62023163 0 0 0 0 8190137.5260925293 101447283.49128509 0 101447283.49128509 127566159.59098172 0 0 0 0 72323021.633102417 82927135.515176773 0 82927135.515176773 58942740.417461395 0 0 0 0 44473217.890392676 72404530.876515552 0 72404530.876515552 2972054.0752808023 0 0 0 0 26312245.992588043 58152373.882303715 0 58152373.882303715 50971469.530768394 0 0 0 0 26868818.36498642 39829317.844452888 0 39829317.844452888 120028317.5057146 0 0 0 0 56228340.003237724 64182937.195426941 0 64182937.195426941 57651972.929580688 0 0 0 0 33904963.825267881 71774714.524602219 0 71774714.524602219 2399566.7762526367 0 0 0 0 24226547.250148773 108196655.23675418 0 108196655.23675418 39668358.330618024 0 0 0 0 30062003.562675476 102158338.7446034 0 102158338.7446034 -37954930.338917017 0 0 0 0 -4332889.4162883759 51939687.994364738 0 51939687.994364738 23940218.217467546 0 0 0 0 21198496.507878304 82115469.725421607 0 82115469.725421607 -155881575.71918011 0 0 0 0 -1168382.412021637 54323633.281484127 0 54323633.281484127 -70709123.350888968 0 0 0 0 19116740.205265045 107096879.07326746 0 107096879.07326746 -115121654.13822079 0 0 0 0 41636662.001050949 84059502.550454378 0 84059502.550454378 -171696645.67667389 0 0 0 0 71508852.387390137 83895146.693267345 0 83895146.693267345 -26953266.339266777 0 0 0 0 8997705.0938644409 69990737.116548061 0 69990737.116548061 -29548089.513366699 0 0 0 0 43939445.425758362 78445464.753689766 0 78445464.753689766 -96839612.850419998 0 0 0 0 46706641.256404877 94665822.887014031 0 94665822.887014031 -98358646.11438942 0 0 0 0 13947753.159851074 75252736.325829029 0 75252736.325829029 -95403144.079659462 0 0 0 0 22068608.519020081 95910732.294493318 0 95910732.294493318 -98177495.564674377 0 0 0 0 61915893.004463196 102168463.17927027 0 102168463.17927027 -135232811.53075409 0 0 0 0 64344393.045290723 28855387.514029246 0 28855387.514029246 3015942.6872579553 0 0 0 0 21621014.02003479 87259623.082849503 0 87259623.082849503 1922500.788651228 0 0 0 0 35437862.589637756 42585633.531013966 0 42585633.531013966 -82104895.215060234 0 0 0 0 -14169081.581501007 8938857.378139019 0 8938857.378139019 -10569154.532987535 0 0 0 0 39342279.621826172 71705396.816339657 0 71705396.816339657 806904.22927381471 0 0 0 0 -16352231.665184021 45681774.551458776 0 45681774.551458776 84395022.615581051 0 0 0 0 6064879.5304756165 92130097.122459412 0 92130097.122459412 43293724.306981564 0 0 0 0 -12065572.176826477 50706955.467713222 0 50706955.467713222 127608607.66482544 0 0 0 0 14252294.147460148 70741888.371241674 0 70741888.371241674 3836102.8450279478 0 0 0 0 -13480197.336277008 89717707.273153305 0 89717707.273153305 71122714.696918488 0 0 0 0 17133151.676530838 70392038.686371803 0 70392038.686371803 82172474.909385681 0 0 0 0 23637264.705421105 71516098.193546101 0 71516098.193546101 2300260.2071669693 0 0 0 0 18701176.394470215 34387418.226962209 0 34387418.226962209 118753928.06571792 0 0 0 0 20843514.204982758 92378176.290357471 0 92378176.290357471 21308276.803055286 0 0 0 0 32879184.586858749 28484655.560653448 0 28484655.560653448 21073307.410282135 0 0 0 0 -6236398.3347854614 38557491.157603264 0 38557491.157603264 -2657469.3994457722 0 0 0 0 1982145.9477386475 33588404.356021881 0 33588404.356021881 -106258955.13389778 0 0 0 0 1337733.5107040405 76257112.224186659 0 76257112.224186659 -66871100.031939983 0 0 0 0 1043269.6329523623 30190853.307945296 0 30190853.307945296 -62011284.345496476 0 0 0 0 249533981.58470917 297433644.82999706 0 297433644.82999706 28254997.072076797 0 0 0 0 22344929.303424835 68833005.962069988 0 68833005.962069988 -28528907.253389359 0 0 0 0 -25321588.641541004 14050184.114389062 0 14050184.114389062 -61807577.044090271 0 0 0 0 243073709.9068985 505232840.84406281 0 505232840.84406281 146758672.35460663 0 0 0 0 2935083.0483109802 27370693.293909654 0 27370693.293909654 -61800924.066351995 0 0 0 0 295790510.90004921 96270200.473595619 0 96270200.473595619 -217978449.8677578 0 0 0 0 202961383.64370346 119497420.92697716 0 119497420.92697716 71721300.544992685 0 0 0 0 169873506.91592598 -5876346.4591593742 0 -5876346.4591593742 -84765797.363037109 0 0 0 0 157783827.59083748 16334494.706074715 0 16334494.706074715 -118235680.23361206 0 0 0 0 214986678.09133911 145456383.39715385 0 145456383.39715385 -274697918.54006195 0 0 0 0 166127478.77230072 164770612.16759682 0 164770612.16759682 -16115721.997948647 0 0 0 0 -2775468.3037241437 6101386.5883316137 0 6101386.5883316137 -13876096.594708927 0 0 0 0 145599742.52321243 103196462.41971779 0 103196462.41971779 46009849.906852722 0 0 0 0 152456870.950737 83449987.550649166 0 83449987.550649166 -197014705.09972382 0 0 0 0 157682447.90385437 169278140.25458717 0 169278140.25458717 34166984.609105051 0 0 0 0 157913111.90048599 168643648.09204292 0 168643648.09204292 -38834606.234554291 0 0 0 0 156748113.76460648 90903460.689798355 0 90903460.689798355 -183148693.55140495 0 0 0 0 90328142.34503901 225563323.55523455 0 225563323.55523455 -390139088.70380783 0 0 0 0 77736163.006851196 6597383.3254795074 0 6597383.3254795074 -79686481.395824432 0 0 0 0 -33485196.534225464 58873060.512948036 0 58873060.512948036 -114743863.87050152 0 0 0 0 -871517.03936348855 5897323.3237170652 0 5897323.3237170652 -15920640.65694936 0 0 0 0 3055524.4022241905 34551377.297535278 0 34551377.297535278 -59285622.983357541 0 0 0 0 157370353.0432663 99476204.542597771 0 99476204.542597771 -156280864.58355141 0 0 0 0 -2251439.5652704239 103984078.24608874 0 103984078.24608874 -165812178.91940784 0 0 0 0 83265111.194229126 74488010.190445423 0 74488010.190445423 -137298971.56479073 0 0 0 0 -887384.11090950668 9906657.3952840213 0 9906657.3952840213 -8443998.8594126664 0 0 0 0 -6020543.1195035875 26095077.931850847 0 26095077.931850847 -24613596.207554255 0 0 0 0 -25996984.151367188 40746030.459363937 0 40746030.459363937 -20501067.268543243 0 0 0 0 51876413.213237047 3155944.9989976883 0 3155944.9989976883 -9477827.5094947815 0 0 0 0 111035384.26145554 156933211.87522411 0 156933211.87522411 155667110.19322777 0 0 0 0 437212973.82987976 -50193973.721317291 0 -50193973.721317291 -367278580.20289946 0 0 0 0 -303049027.08082581 -157422547.37954712 0 -157422547.37954712 -39429305.839975357 0 0 0 0 -1169924.5253465474 848777.78893975168 0 848777.78893975168 -418.42332844436169 0 0 0 0 56899374.864830017 54536011.881374359 0 54536011.881374359 53979141.620485306 0 0 0 0 186438037.94595337 119039629.81880188 0 119039629.81880188 -9130846.3962612152 0 0 0 0 177846309.43943024 114999595.15208483 0 114999595.15208483 -10914785.238853455 0 0 0 0 117674548.42868996 -15834925.802090645 0 -15834925.802090645 -60077692.838905334 0 0 0 0 205507060.96165466 122772802.77403259 0 122772802.77403259 -36781648.171470642 0 0 0 0 -29730027.518672943 30881820.761389732 0 30881820.761389732 -56914322.155042648 0 0 0 0 -3267461.5643836334 15574266.52110903 0 15574266.52110903 767395.72011227906 0 0 0 0 -58168659.04891777 69551218.878230095 0 69551218.878230095 -11374584.955093384 0 0 0 0 -72903386.504516602 25776319.27013588 0 25776319.27013588 13085068.968214035 0 0 0 0 -29430681.882293701 353294988.41204834 0 353294988.41204834 131339575.29902077 0 0 0 0 26323381.519218445 82587142.211214066 0 82587142.211214066 -141176299.73550987 0 0 0 0 -2472167.3965517581 880980.30290769786 0 880980.30290769786 591353.63528068736 0 0 0 0 -162340760.58345795 62920742.842769623 0 62920742.842769623 415588799.85375214 0 0 0 0 206126820.17701402 207824653.69221139 0 207824653.69221139 92167882.310054779 0 0 0 0 339022643.3656311 244123765.408041 0 244123765.408041 71264614.420452118 0 0 0 0 -173432127.93183899 12466096.109189987 0 12466096.109189987 226411993.76197815 0 0 0 0 278350009.23844147 74600825.642307281 0 74600825.642307281 -43103541.361668825 0 0 0 0 1095471.4865736514 2140747.0630510002 0 2140747.0630510002 4665161.9127251506 0 0 0 0 -199715501.76568604 200595454.173563 0 200595454.173563 309299897.07460022 0 0 0 0 258942661.81109619 522257788.4870224 0 522257788.4870224 465663863.33583641 0 0 0 0 560163328.53224182 -211196695.13669586 0 -211196695.13669586 382811209.74872088 0 0 0 0 166127607.7746048 305809761.73354149 0 305809761.73354149 417007596.84999847 0 0 0 0 -92239.476212274283 9490315.8644085415 0 9490315.8644085415 -16928585.383589789 0 0 0 0 -59097787.729602814 135424876.37689495 0 135424876.37689495 314158636.83823013 0 0 0 0 -58322841.631961823 22612246.915140152 0 22612246.915140152 154050145.43824577 0 0 0 0 84925408.06972599 24315697.404402733 0 24315697.404402733 -30824285.662590027 0 0 0 0 117903715.76735687 148337238.7276144 0 148337238.7276144 87452389.219718933 0 0 0 0 15100736.241825104 -40787852.384166718 0 -40787852.384166718 42034892.411190033 0 0 0 0 58522199.602722168 -45469092.316282272 0 -45469092.316282272 -9030552.9209861755 0 0 0 0 40851192.843791962 -20754270.986289978 0 -20754270.986289978 -41833795.969631195 0 0 0 0 40804682.102485657 66949676.569272995 0 66949676.569272995 62061135.788999557 0 0 0 0 165900142.15230942 135866349.99358845 0 135866349.99358845 16789592.91904068 0 0 0 0 155581878.45967865 123019325.92592621 0 123019325.92592621 5478772.5583839417 0 0 0 0 169426625.10980415 137623628.59113503 0 137623628.59113503 16818085.34658432 0 0 0 0 145191413.25572205 128656133.16930008 0 128656133.16930008 35389930.459753156 0 0 0 0 127480052.55464172 129715792.33112907 0 129715792.33112907 18166808.93302536 0 0 0 0 138693372.05814362 99607926.486507416 0 99607926.486507416 -8275791.8211097717 0 0 0 0 -25800995.14616394 102562513.05701065 0 102562513.05701065 63377470.741789818 0 0 0 0 58612750.796264648 92392304.326919556 0 92392304.326919556 71436191.752200127 0 0 0 0 23534123.395055771 187736015.29610741 0 187736015.29610741 141940083.94027138 0 0 0 0 85109210.475341797 115170536.40018153 0 115170536.40018153 -138424803.06633711 0 0 0 0 -21995225.360492706 151718631.76174414 0 151718631.76174414 -129647645.82410526 0 0 0 0 80153129.445358276 130314776.35779738 0 130314776.35779738 -376478837.3376627 0 0 0 0 134482321.83599854 26732196.191189766 0 26732196.191189766 -88581692.170272663 0 0 0 0 -974358.31180000305 399695519.71481818 0 399695519.71481818 -207987558.44027901 0 0 0 0 -117738083.8217926 94694319.521371365 0 94694319.521371365 -87349183.774611473 0 0 0 0 -8150776.430519104 165176112.64374781 0 165176112.64374781 115111832.45071936 0 0 0 0 138414610.18154144 137303987.18842387 0 137303987.18842387 92228454.565858841 0 0 0 0 -5369685.8964729756 4899370.80460985 0 4899370.80460985 177295.58681200445 0 0 0 0 -104898269.67932129 99074419.250051022 0 99074419.250051022 -40826906.099320173 0 0 0 0 25903553.973129272 -43926327.154986382 0 -43926327.154986382 -8942802.6902799606 0 0 0 0 -242490934.14637375 161371452.61805427 0 161371452.61805427 6271595.6569647789 0 0 0 0 -173696169.62944031 -17663977.496264935 0 -17663977.496264935 82831780.700747967 0 0 0 0 16714242.836426988 33834229.331775635 0 33834229.331775635 19409442.319676325 0 0 0 0 4552089.8073272705 64595611.323933601 0 64595611.323933601 -69478943.456238747 0 0 0 0 47474606.856288999 13946432.620376855 0 13946432.620376855 -10200140.884704847 0 0 0 0 248604921.79467583 360990046.49602288 0 360990046.49602288 -244324611.718297 0 0 0 0 18086315.810709909 31397931.118573219 0 31397931.118573219 307196.03742057737 0 0 0 0 9486909.6979484558 46514134.093249798 0 46514134.093249798 -40094933.56111908 0 0 0 0 8663691.1097488403 47319999.499934196 0 47319999.499934196 -34119192.747893333 0 0 0 0 32754709.28366816 30988657.505550779 0 30988657.505550779 -9877582.1654798314 0 0 0 0 8986971.3096542358 50084320.500305176 0 50084320.500305176 -38149330.399129629 0 0 0 0 8799956.5169754028 49530312.561608315 0 49530312.561608315 -35405811.755438566 0 0 0 0 -16545732.960663363 21877108.911294952 0 21877108.911294952 -17959047.385414489 0 0 0 0 -27024686.022256374 46916042.590883851 0 46916042.590883851 -39790890.801679611 0 0 0 0 -13048991.255981445 38071125.669490814 0 38071125.669490814 -3273428.8494262695 0 0 0 0 -13381975.687621057 6921410.2522735298 0 6921410.2522735298 -3956815.464058727 0 0 0 0 26719248.446411133 -7064827.0476531982 0 -7064827.0476531982 -420294216.74186802 0 0 0 0 -89056973.461921692 528990851.47991562 0 528990851.47991562 571975715.96627808 0 0 0 0 667381180.27252388 -400623396.62211609 0 -400623396.62211609 -222026515.53401566 0 0 0 0 -448856152.42327118 -221446145.58788681 0 -221446145.58788681 523806279.28885269 0 0 0 0 -549922054.75849152 45214044.107923508 0 45214044.107923508 156226341.68736458 0 0 0 0 2775925.6159248352 21608182.757265091 0 21608182.757265091 -9329291.1721754074 0 0 0 0 8545535.0888973698 22879284.214991853 0 22879284.214991853 -7877830.1656758264 0 0 0 0 -131558863.4773407 -17881733.427864075 0 -17881733.427864075 -204040298.49346924 0 0 0 0 -2848178.0934181213 23746460.915502548 0 23746460.915502548 -8639928.7954530716 0 0 0 0 -22937887.33640822 17749348.990373641 0 17749348.990373641 -7091744.0852915049 0 0 0 0 1214663.5293884277 21072717.10773468 0 21072717.10773468 -7320658.7455749512 0 0 0 0 -17481041.341117606 42531239.797393337 0 42531239.797393337 -18848482.771164481 0 0 0 0 -233055.74180945754 30829969.069792166 0 30829969.069792166 -17721625.491422985 0 0 0 0 -18716411.953176454 17080426.713387787 0 17080426.713387787 -6833394.4276963957 0 0 0 0 -19360288.697669983 36880486.034635544 0 36880486.034635544 -2148842.5807952881 0 0 0 0 -13763000.27305603 37449190.473777771 0 37449190.473777771 -2192763.4999294281 0 0 0 0 -39480179.82238096 31185927.937082458 0 31185927.937082458 -13733144.811749976 0 0 0 0 -204546.89077758789 26312411.172322273 0 26312411.172322273 -5400790.010863781 0 0 0 0 -7821345.6535100341 9883450.3848078549 0 9883450.3848078549 -3625006.5201744651 0 0 0 0 -15470986.217508793 11305058.783752002 0 11305058.783752002 -3242887.8496110337 0 0 0 0 -21460068.490076065 15489442.642487407 0 15489442.642487407 -11419549.186612129 0 0 0 0 27281620.372344971 100273592.57928848 0 100273592.57928848 83429798.531562567 0 0 0 0 6868831.7754135132 26268582.917380333 0 26268582.917380333 -29198999.830072165 0 0 0 0 77275.797903224826 13829606.560095578 0 13829606.560095578 -10965264.633002289 0 0 0 0 -18310538.554533005 17436463.131540298 0 17436463.131540298 5340568.5463266373 0 0 0 0 -355046.29068228602 2999910.7242972367 0 2999910.7242972367 -5035083.59120999 0 0 0 0 -6535772.815612793 105733974.24422932 0 105733974.24422932 201451219.14581966 0 0 0 0 -16800239.231391907 145671269.55836344 0 145671269.55836344 444897794.15822601 0 0 0 0 18728363.026390076 418352794.18615723 0 418352794.18615723 -646530175.82832956 0 0 0 0 33424222.194076538 473821840.42052364 0 473821840.42052364 -520621542.97213745 0 0 0 0 -16898653.516397476 306618847.64464879 0 306618847.64464879 -534091647.44549942 0 0 0 0 -130168503.92915344 274121133.21948242 0 274121133.21948242 -538726140.22559547 0 0 0 0 1996597.9226153195 7235069.597394295 0 7235069.597394295 433967.89775723871 0 0 0 0 -121717195.80818176 349494108.90329552 0 349494108.90329552 -537937445.45311928 0 0 0 0 -137442196.09242249 348324929.6266098 0 348324929.6266098 -314649875.25691891 0 0 0 0 227691511.78547668 146065085.15252113 0 146065085.15252113 -450615643.47684479 0 0 0 0 -38322.025330796838 1215478.4685798883 0 1215478.4685798883 1844096.9004304521 0 0 0 0 -29435036.434051514 251875434.16204834 0 251875434.16204834 -235430081.14192963 0 0 0 0 -479290987.02194977 441668985.21847248 0 441668985.21847248 -271955939.44234085 0 0 0 0 -131219317.62444305 609274647.11318016 0 609274647.11318016 -437262568.72777557 0 0 0 0 -501584530.52328491 792464995.32640648 0 792464995.32640648 -487848019.17213964 0 0 0 0 -157961209.19004059 77601152.005578756 0 77601152.005578756 -279237267.12736416 0 0 0 0 9368391.5058174133 157467151.35980892 0 157467151.35980892 -254590605.97078991 0 0 0 0 -121859927.6516571 10248657.227384567 0 10248657.227384567 29447911.884088516 0 0 0 0 17513709.425734997 12986008.444620557 0 12986008.444620557 -4826468.0113901943 0 0 0 0 -251985966.06224442 165359658.08384466 0 165359658.08384466 -42848963.53711319 0 0 0 0 941429019.14582825 839858337.7081604 0 839858337.7081604 -794209969.49373627 0 0 0 0 18427745.784191132 50368339.975646019 0 50368339.975646019 -7539988.7443804741 0 0 0 0 7639082.5701248944 12955482.393728644 0 12955482.393728644 -3298724.5348875448 0 0 0 0 21700789.555641174 42829911.415077209 0 42829911.415077209 8430857.4811973572 0 0 0 0 21130602.631083883 24768027.939006552 0 24768027.939006552 -17924342.411525987 0 0 0 0 16438225.067067839 24479743.010720894 0 24479743.010720894 -16620574.799822964 0 0 0 0 104141895.76952553 -4456268.3022785187 0 -4456268.3022785187 -79781250.603527069 0 0 0 0 -454651048.23347282 581993448.36319876 0 581993448.36319876 -295456313.1815567 0 0 0 0 -662259229.34938812 570012942.6211195 0 570012942.6211195 -289740389.00065804 0 0 0 0 -628969773.98571777 368447549.42188644 0 368447549.42188644 242807140.25743961 0 0 0 0 -655334765.94863892 131198029.11458206 0 131198029.11458206 -238889614.49643135 0 0 0 0 -490151752.26456451 687608169.72771406 0 687608169.72771406 -579133623.45164108 0 0 0 0 134484724.59445953 792464505.14074326 0 792464505.14074326 -777811681.68933582 0 0 0 0 -2633121.5292346328 5104985.7694266811 0 5104985.7694266811 -6061560.7578344047 0 0 0 0 851509694.88221741 485652680.52168274 0 485652680.52168274 -665277889.72209215 0 0 0 0 -829084374.42931366 732566131.00497007 0 732566131.00497007 -18033847.50850296 0 0 0 0 61073308.893844604 328773314.6344347 0 328773314.6344347 338760095.21867657 0 0 0 0 517247162.06178284 -37185379.022862434 0 -37185379.022862434 -112318665.34197235 0 0 0 0 423530854.38658905 313628192.90863514 0 313628192.90863514 -620739447.38595724 0 0 0 0 134944161.68310928 322936854.1500752 0 322936854.1500752 -420942900.75665283 0 0 0 0 -75562921.589080811 180126587.63715363 0 180126587.63715363 -198243169.87580872 0 0 0 0 -109469061.6319809 52432056.215339661 0 52432056.215339661 -14886923.35891819 0 0 0 0 -396440.4102217406 4074253.8164558373 0 4074253.8164558373 -2184617.4202674925 0 0 0 0 22515342.158144668 2988751.0028453693 0 2988751.0028453693 -1709943.0148396716 0 0 0 0 25337550.923431396 2614945.3384017944 0 2614945.3384017944 -20029460.373062134 0 0 0 0 28014397.765022278 4667978.1139144897 0 4667978.1139144897 -19495921.928039551 0 0 0 0 26183696.898259163 -1873299.9033515453 0 -1873299.9033515453 -25461945.754390717 0 0 0 0 29305345.885211945 628651.44148159027 0 628651.44148159027 -14991224.119033813 0 0 0 0 25564267.674903512 -1332727.5718525611 0 -1332727.5718525611 -3533405.0772283394 0 0 0 0 26151732.128356934 -2215599.2335548401 0 -2215599.2335548401 -17409740.115301132 0 0 0 0 22019154.274673462 -773449.92861175537 0 -773449.92861175537 -24754587.769062042 0 0 0 0 25454708.650461778 -1393300.2448173128 0 -1393300.2448173128 -4424341.1868520174 0 0 0 0 19474484.431594849 5450101.8815193176 0 5450101.8815193176 -21286221.741889954 0 0 0 0 16967119.063770294 11273522.110159874 0 11273522.110159874 -34321723.146308899 0 0 0 0 25632136.874832153 -7205297.2843551636 0 -7205297.2843551636 -40620706.875673294 0 0 0 0 3797721.9575802758 2369566.7818390466 0 2369566.7818390466 1400914.8371391222 0 0 0 0 360720522.69548798 -50290891.49514389 0 -50290891.49514389 -227571653.2120657 0 0 0 0 16669480.167051315 15101638.793022156 0 15101638.793022156 -35259631.897499084 0 0 0 0 17807917.385643005 11715037.594370842 0 11715037.594370842 -35259825.039962769 0 0 0 0 18644318.517639875 657899.14794643968 0 657899.14794643968 -4449269.1611337923 0 0 0 0 14044966.702435315 14592479.52762083 0 14592479.52762083 -5904224.555144174 0 0 0 0 191386193.15095901 198672207.22524548 0 198672207.22524548 -32202078.660934448 0 0 0 0 3695512.4858016968 117923404.6972847 0 117923404.6972847 309098115.81404877 0 0 0 0 -147035668.40599442 151562865.29760218 0 151562865.29760218 -105920231.64564514 0 0 0 0 -291055254.3553009 486781430.26203537 0 486781430.26203537 -795377278.81175041 0 0 0 0 1398844.8822002709 4799578.6712254882 0 4799578.6712254882 -990154.44648842514 0 0 0 0 113688106.14624023 246084390.05615616 0 246084390.05615616 278140991.36088848 0 0 0 0 -192898541.30553055 -174014701.08784389 0 -174014701.08784389 -973523182.10043335 0 0 0 0 281218676.69744873 234770763.95721436 0 234770763.95721436 -682710596.86312866 0 0 0 0 -230241955.41383362 127779699.82938385 0 127779699.82938385 684510640.80039454 0 0 0 0 -87293788.020080566 260143211.4261322 0 260143211.4261322 -592579418.91369629 0 0 0 0 5325209.401845172 -1206781.5370429978 0 -1206781.5370429978 -1132518.8403902911 0 0 0 0 13042742.238688812 6923007.0386257917 0 6923007.0386257917 -139000.59453456476 0 0 0 0 -84812049.641647339 11483328.68390274 0 11483328.68390274 384322061.92431641 0 0 0 0 -426413504.5563488 -753801701.39018393 0 -753801701.39018393 -102639109.14920044 0 0 0 0 532859731.96695709 185540541.69317627 0 185540541.69317627 -126522072.87479401 0 0 0 0 63396573.194541931 120428489.99059296 0 120428489.99059296 125733893.24502563 0 0 0 0 121466028.30882263 54489051.740584373 0 54489051.740584373 -44346641.937318802 0 0 0 0 220265578.70491028 119358677.72810936 0 119358677.72810936 -92455512.327373505 0 0 0 0 78153153.794021606 16742144.425033569 0 16742144.425033569 -87275080.556791782 0 0 0 0 103645762.20484543 56137841.758102417 0 56137841.758102417 -154323923.47757339 0 0 0 0 111354272.33621216 29693718.303560257 0 29693718.303560257 -101349274.36442018 0 0 0 0 -20435616.299575806 184347053.65382767 0 184347053.65382767 -219138081.19478035 0 0 0 0 58002740.377159119 39403156.386119843 0 39403156.386119843 -141794539.32698822 0 0 0 0 15881194.151018143 143451758.33521605 0 143451758.33521605 -174796429.49594498 0 0 0 0 86677640.31867981 40566691.946334839 0 40566691.946334839 -167722777.8535378 0 0 0 0 74419887.058708191 53510115.714269638 0 53510115.714269638 -130304303.08073425 0 0 0 0 87354040.382598877 -78643872.236282349 0 -78643872.236282349 -150907858.33081651 0 0 0 0 76070380.986066818 -22058887.468623161 0 -22058887.468623161 26589470.765533447 0 0 0 0 174129995.14723206 54053209.743453026 0 54053209.743453026 188094069.18888187 0 0 0 0 25342742.932044983 110004710.78516173 0 110004710.78516173 167234887.66390228 0 0 0 0 54052264.275097609 137244881.28663629 0 137244881.28663629 -401972002.48641205 0 0 0 0 -177487758.57485199 -166151426.82217598 0 -166151426.82217598 -150784918.32648468 0 0 0 0 44297931.826171875 222628039.44617701 0 222628039.44617701 -34781163.622406006 0 0 0 0 -46946286.285170555 290687311.78787994 0 290687311.78787994 -76016896.020526886 0 0 0 0 164627167.37477875 -68746041.213653564 0 -68746041.213653564 -576407662.85767746 0 0 0 0 358801856.77733231 668349903.451931 0 668349903.451931 582618575.44620717 0 0 0 0 465568339.11275101 447688373.75830269 0 447688373.75830269 313052263.61161995 0 0 0 0 160674174.69884396 370935978.28937531 0 370935978.28937531 611134115.70039749 0 0 0 0 194686585.49596405 82945207.960622787 0 82945207.960622787 86345485.466201782 0 0 0 0 50096559.665519714 2286424.4235038757 0 2286424.4235038757 -47957269.84637928 0 0 0 0 39205453.505508423 41980857.583011627 0 41980857.583011627 -34102649.738399506 0 0 0 0 1274000.5702896118 -18096963.352115631 0 -18096963.352115631 -31147415.854442596 0 0 0 0 534265172.90136719 157167948.56449127 0 157167948.56449127 427289065.95744705 0 0 0 0 6553606.0393261313 7057032.0096313357 0 7057032.0096313357 -12867615.292004526 0 0 0 0 671668064.79890442 537006725.16941071 0 537006725.16941071 407275912.43322754 0 0 0 0 279908256.8164978 356780706.3758812 0 356780706.3758812 397557284.73171997 0 0 0 0 606601905.15023804 571744617.27952576 0 571744617.27952576 528427208.56576538 0 0 0 0 1451849.9256055504 872313.17285273969 0 872313.17285273969 -3021836.8840981089 0 0 0 0 841959219.37639618 -68817142.539940357 0 -68817142.539940357 590157962.49228668 0 0 0 0 -120417659.38146973 265184087.67028427 0 265184087.67028427 -34327792.227703094 0 0 0 0 368195648.40396881 863638316.71836472 0 863638316.71836472 65855777.484268188 0 0 0 0 364546100.63845825 77881867.665363312 0 77881867.665363312 25864199.019863129 0 0 0 0 589814788.280056 544961060.60862827 0 544961060.60862827 74314151.150169373 0 0 0 0 242441662.99617004 160006314.01071167 0 160006314.01071167 14612466.923297882 0 0 0 0 242114310.82722473 251229286.11845016 0 251229286.11845016 110709490.87253189 0 0 0 0 221639001.11238098 193206090.95513916 0 193206090.95513916 147543774.34323883 0 0 0 0 262954909.94786072 217574237.54093552 0 217574237.54093552 32630179.505683899 0 0 0 0 81448465.857913971 67789744.583637238 0 67789744.583637238 4232572.8512134552 0 0 0 0 17628790.233650208 46496136.214786053 0 46496136.214786053 25743129.450820923 0 0 0 0 18512287.052200317 10022011.947799683 0 10022011.947799683 15493712.962097168 0 0 0 0 39670423.076972961 10051327.398155212 0 10051327.398155212 -43751468.052907944 0 0 0 0 -44807600.540222168 79054657.02274704 0 79054657.02274704 -55743310.184696198 0 0 0 0 34707133.948513031 331814.41400527954 0 331814.41400527954 -16880722.718711853 0 0 0 0 14801563.319592506 8422500.4600842111 0 8422500.4600842111 -7264533.3671921641 0 0 0 0 18701731.399709702 30636715.375468254 0 30636715.375468254 -19468438.183174133 0 0 0 0 3137281.3387793303 2561554.6208763663 0 2561554.6208763663 -442865.37274805456 0 0 0 0 -8385365.2110210657 9078181.5242030472 0 9078181.5242030472 -731878.78461644053 0 0 0 0 42025572.788362503 41255702.624820709 0 41255702.624820709 1685926.2631912231 0 0 0 0 122836527.67986298 105519052.97198486 0 105519052.97198486 91668925.843688965 0 0 0 0 19530143.557541698 9010989.8427072354 0 9010989.8427072354 -6043526.9938017353 0 0 0 0 144814542.86660004 -23272740.861797333 0 -23272740.861797333 -375687173.63879395 0 0 0 0 138812415.5026741 114601610.45643616 0 114601610.45643616 -267649232.0471344 0 0 0 0 222740841.29566193 125826676.55299377 0 125826676.55299377 -301378077.59415817 0 0 0 0 190394813.99440002 135973251.29516602 0 135973251.29516602 -568476491.7888031 0 0 0 0 199503798.23725891 -53278868.18642807 0 -53278868.18642807 -359816631.17990875 0 0 0 0 133216561.66641235 218916950.07339096 0 218916950.07339096 57569955.76360321 0 0 0 0 226163188.95770264 174207863.72423935 0 174207863.72423935 -155572890.83310318 0 0 0 0 141798738.69675446 120489524.78670502 0 120489524.78670502 33775072.993019104 0 0 0 0 -8761051.8066558838 65592640.949556351 0 65592640.949556351 -120819849.37613297 0 0 0 0 301363018.21894836 252289200.59919739 0 252289200.59919739 118107057.86192322 0 0 0 0 330544939.53632355 398345733.19236374 0 398345733.19236374 73721436.03673172 0 0 0 0 125775809.82383728 371167825.97829056 0 371167825.97829056 163795978.25758362 0 0 0 0 354044865.57645416 293265580.38852882 0 293265580.38852882 190070076.73978424 0 0 0 0 190619181.90692329 160186896.5086689 0 160186896.5086689 560398770.56321716 0 0 0 0 189424745.54371643 338250991.12843323 0 338250991.12843323 243610044.75245285 0 0 0 0 525789479.02703857 654278121.0226326 0 654278121.0226326 350701322.14780426 0 0 0 0 71518678.450942993 661581274.63896561 0 661581274.63896561 908397854.77328491 0 0 0 0 202581900.70134735 226005225.59119415 0 226005225.59119415 43664846.014062881 0 0 0 0 80487400.769859314 339961758.38376236 0 339961758.38376236 442859551.63848877 0 0 0 0 93109950.313278198 578810796.81182861 0 578810796.81182861 491527110.17302704 0 0 0 0 285036602.06881714 630776965.69126511 0 630776965.69126511 190548895.43698168 0 0 0 0 125833802.5835247 271865015.71074963 0 271865015.71074963 146592663.31167603 0 0 0 0 108719990.19448853 392372857.8387413 0 392372857.8387413 -23691096.661846161 0 0 0 0 4691392.9140853919 -1645645.649558723 0 -1645645.649558723 -1985390.6786550134 0 0 0 0 -119013243.4161377 263858216.99772644 0 263858216.99772644 -59803479.967956543 0 0 0 0 28182105.710810184 3216199.0174371004 0 3216199.0174371004 -10243629.734550476 0 0 0 0 20050341.564314425 477209.23735942319 0 477209.23735942319 -6833186.1460041963 0 0 0 0 735284.32170444727 -731453.12949691713 0 -731453.12949691713 -1758326.7905921377 0 0 0 0 -157105281.56427765 -11623553.168869019 0 -11623553.168869019 -9160193.2742595673 0 0 0 0 137171846.35616302 220745275.60575485 0 220745275.60575485 -335946498.30178452 0 0 0 0 451372722.65364742 294809043.20968962 0 294809043.20968962 205416589.36307907 0 0 0 0 544915579.90353394 235601290.57585526 0 235601290.57585526 126738891.25127769 0 0 0 0 362273697.63417053 314385880.14118576 0 314385880.14118576 108801922.73154068 0 0 0 0 587707316.92150879 355293979.96832228 0 355293979.96832228 102287911.19403076 0 0 0 0 377974214.98566628 278135860.86672497 0 278135860.86672497 125913104.52385712 0 0 0 0 15986047.397359654 -849938.0598426275 0 -849938.0598426275 -3858822.4582673311 0 0 0 0 21148047.564956665 -522783.15364837646 0 -522783.15364837646 -30824475.076560974 0 0 0 0 19233291.357139587 -2115078.2143611908 0 -2115078.2143611908 -15216047.4897995 0 0 0 0 11431820.759567261 9335528.9911804199 0 9335528.9911804199 -31981475.784518242 0 0 0 0 10781311.064227123 506238.59237196296 0 506238.59237196296 -11482442.141114645 0 0 0 0 31618594.958141327 -751419.24971961975 0 -751419.24971961975 -16709582.225572586 0 0 0 0 27023184.75202179 -7120683.4168872833 0 -7120683.4168872833 -23441662.464923859 0 0 0 0 -11306416.441734314 -10014735.041301727 0 -10014735.041301727 6279527.9240989685 0 0 0 0 43973706.357650757 1046246.8210406303 0 1046246.8210406303 -32068727.316596985 0 0 0 0 6418276.8738513812 -386419.42974023521 0 -386419.42974023521 -4599275.9027296156 0 0 0 0 -57136.328647615388 -527784.24730421603 0 -527784.24730421603 -1334250.1729137897 0 0 0 0 -26274376.215047836 93751027.724319458 0 93751027.724319458 -134710367.87907791 0 0 0 0 -24638102.963195801 59490448.026191711 0 59490448.026191711 -40852322.134904861 0 0 0 0 -22754065.588287354 18284797.878025055 0 18284797.878025055 -13457468.996778488 0 0 0 0 31135514.33449173 67311329.293207169 0 67311329.293207169 -123611144.84201813 0 0 0 0 -7819739.2142982483 82699602.315016747 0 82699602.315016747 -118673922.18972778 0 0 0 0 7330109.260635376 32163143.311901093 0 32163143.311901093 -79503288.803279877 0 0 0 0 -5709478.2364234924 56970898.355985641 0 56970898.355985641 -117699669.38631058 0 0 0 0 16258855.006890155 3214799.6856516488 0 3214799.6856516488 -3872287.0278953817 0 0 0 0 16681810.907855988 -14049574.448617935 0 -14049574.448617935 -43259249.577161789 0 0 0 0 -10431307.394504547 16572777.787080765 0 16572777.787080765 -14173873.127552032 0 0 0 0 9199658.9291381836 7337515.3191413879 0 7337515.3191413879 -12511814.681157112 0 0 0 0 -697277.73497009277 18064660.885757446 0 18064660.885757446 -23775357.281000137 0 0 0 0 9478623.1232184321 4458667.2252541855 0 4458667.2252541855 -2140918.7975266613 0 0 0 0 -26975802.56554985 -27870569.022704124 0 -27870569.022704124 -23372027.599170685 0 0 0 0 31659578.934501648 -2204723.0468139648 0 -2204723.0468139648 -18680570.78205204 0 0 0 0 58129059.26146698 -39845719.989597321 0 -39845719.989597321 -78779876.227069855 0 0 0 0 -43561188.583381653 44612448.751914978 0 44612448.751914978 -180894853.78593063 0 0 0 0 5684842.1617750078 1133136.2069618404 0 1133136.2069618404 -1247994.0379472226 0 0 0 0 211977615.36998749 4676716.5567436218 0 4676716.5567436218 -96281001.811248779 0 0 0 0 -19378475.306812286 170136429.07947731 0 170136429.07947731 -300199680.46445942 0 0 0 0 -40325143.226802826 126558634.04022408 0 126558634.04022408 -407285637.5359726 0 0 0 0 -53106884.230709076 -72499658.148292542 0 -72499658.148292542 -335506758.44301605 0 0 0 0 -20382417.646335602 58765310.242341995 0 58765310.242341995 -234243133.71115112 0 0 0 0 3508462.2678604126 69990175.104148865 0 69990175.104148865 -229302034.29185486 0 0 0 0 38487566.419502258 23679274.513009071 0 23679274.513009071 -172432011.01085281 0 0 0 0 12443628.041091919 115814361.25219345 0 115814361.25219345 -225934447.00349236 0 0 0 0 -23652162.247829437 130120000.20799923 0 130120000.20799923 -126245400.65930939 0 0 0 0 -25696257.076595306 145391190.50082207 0 145391190.50082207 -166863060.47696686 0 0 0 0 -80736954.703586578 208238127.29045868 0 208238127.29045868 -120651149.10595322 0 0 0 0 -91024343.557193756 213825899.51652336 0 213825899.51652336 -169751835.67270088 0 0 0 0 -35759002.909862518 181839299.84209728 0 181839299.84209728 -158170490.17067719 0 0 0 0 -120624162.62968063 154347046.85957432 0 154347046.85957432 -76817763.279918671 0 0 0 0 -49589133.176515579 210991439.50381565 0 210991439.50381565 -179742563.86652756 0 0 0 0 -117990982.57468796 275694029.55289841 0 275694029.55289841 -229721187.43816566 0 0 0 0 135727015.99110603 -97615259.331280708 0 -97615259.331280708 -313259796.76745462 0 0 0 0 -210793933.37821388 132025954.25890923 0 132025954.25890923 123214512.33440018 0 0 0 0 -221718494.88707376 208184011.3957963 0 208184011.3957963 -11782621.28269577 0 0 0 0 -922130.24608583003 2506009.8362109885 0 2506009.8362109885 -5898068.4327951223 0 0 0 0 63475256.744377136 -197766077.67806625 0 -197766077.67806625 99126098.729604244 0 0 0 0 -34567382.516320229 -8815375.5754384995 0 -8815375.5754384995 -205043040.99838257 0 0 0 0 -23931650.374644279 30533301.159066677 0 30533301.159066677 -66592866.738948822 0 0 0 0 -31352860.34778595 64414298.467679977 0 64414298.467679977 -130485880.15044403 0 0 0 0 -31768452.073360443 113845859.52695274 0 113845859.52695274 -153817924.97471237 0 0 0 0 103620363.72212982 165264515.43605995 0 165264515.43605995 -72823576.682882309 0 0 0 0 98271949.811385632 170517908.81700516 0 170517908.81700516 21811367.273983002 0 0 0 0 291415123.33919144 152173948.27970982 0 152173948.27970982 -84566104.67547226 0 0 0 0 -75574813.806003571 82484949.244333267 0 82484949.244333267 2056384.697517395 0 0 0 0 -68701758.402614594 132461039.32105827 0 132461039.32105827 6203831.9090709686 0 0 0 0 147994874.90677643 79927071.36076355 0 79927071.36076355 -32987957.781497955 0 0 0 0 -300754959.60531425 165599747.31488419 0 165599747.31488419 60413859.712215424 0 0 0 0 -210075238.14901447 -68965491.324793339 0 -68965491.324793339 37429250.942573547 0 0 0 0 488156436.03224182 222673082.85279465 0 222673082.85279465 -70587647.310428619 0 0 0 0 153764345.26390076 69233004.110407352 0 69233004.110407352 -62871062.147174835 0 0 0 0 281733514.45056915 148228966.10181618 0 148228966.10181618 97329203.507486343 0 0 0 0 -1191560.9695598446 2550640.8037767485 0 2550640.8037767485 595447.76153847575 0 0 0 0 225446936.91951561 226320366.34514713 0 226320366.34514713 55632987.175174713 0 0 0 0 42521996.09633255 38487847.629025936 0 38487847.629025936 -51654162.027454376 0 0 0 0 -45744052.741847992 23932761.661764145 0 23932761.661764145 10330677.719408989 0 0 0 0 -430309.73121648282 1693770.4377828129 0 1693770.4377828129 -230737.56129041314 0 0 0 0 -104270906.58613157 275262608.73657179 0 275262608.73657179 -414120767.40362167 0 0 0 0 -339103877.60123444 207107262.0313015 0 207107262.0313015 -71039242.905682564 0 0 0 0 546353429.47808075 154365703.06045628 0 154365703.06045628 -244457379.04192162 0 0 0 0 314940080.15351772 313426882.36646223 0 313426882.36646223 16260238.234573364 0 0 0 0 275303820.49955988 469529623.42937708 0 469529623.42937708 -497804610.60149002 0 0 0 0 168594239.36043549 196032054.7878685 0 196032054.7878685 -790667258.27956772 0 0 0 0 105231538.93251038 -15783500.646053314 0 -15783500.646053314 -840366542.57859993 0 0 0 0 -53007310.983604431 110336928.63416672 0 110336928.63416672 -425277013.9960947 0 0 0 0 18388830.621154785 552946476.14413834 0 552946476.14413834 1145973189.4394512 0 0 0 0 3269149.9130269885 2552709.4821029641 0 2552709.4821029641 -893901.55561820418 0 0 0 0 229700180.58729935 440848788.62478447 0 440848788.62478447 1052185632.3751373 0 0 0 0 173907269.46187019 388088300.89900589 0 388088300.89900589 458126106.09786987 0 0 0 0 156896391.30001068 334310767.81199265 0 334310767.81199265 1075443911.5676889 0 0 0 0 519204368.26203918 154187987.8382225 0 154187987.8382225 533144005.51051712 0 0 0 0 343402955.80460548 527136871.02664471 0 527136871.02664471 272329783.17230225 0 0 0 0 76695653.468929291 173222058.72014332 0 173222058.72014332 34950136.173568726 0 0 0 0 91551987.931522369 683722334.05381012 0 683722334.05381012 944104539.62716293 0 0 0 0 21020235.117387772 239643765.06792068 0 239643765.06792068 -37157366.069355011 0 0 0 0 -101971760.05055237 159511999.49381256 0 159511999.49381256 46257101.774287224 0 0 0 0 27204455.192947388 236438278.75158882 0 236438278.75158882 111604026.19332695 0 0 0 0 41945192.746264935 174120485.45727539 0 174120485.45727539 30128574.583827972 0 0 0 0 -73931465.14661026 142590678.91399002 0 142590678.91399002 55657943.449148178 0 0 0 0 -74814117.473075867 145060548.78594398 0 145060548.78594398 48784868.962207794 0 0 0 0 -109641741.25457001 106016273.31770325 0 106016273.31770325 49198598.202999115 0 0 0 0 -155499489.28061676 133723696.61932755 0 133723696.61932755 56742780.279922485 0 0 0 0 -223998769.41627121 195695745.61805916 0 195695745.61805916 -4117751.5649795532 0 0 0 0 -84114598.111936569 144397156.86449051 0 144397156.86449051 13316412.057395935 0 0 0 0 -115892420.96041107 158063375.56068611 0 158063375.56068611 -39010467.988342285 0 0 0 0 -221972783.08223724 256151068.48437881 0 256151068.48437881 -124175979.12113571 0 0 0 0 58733922.691104889 242179616.18013 0 242179616.18013 -546611052.50460052 0 0 0 0 -128816428.08270645 224718446.82079315 0 224718446.82079315 -38469927.694057465 0 0 0 0 1044631.3161083162 1880854.8847440407 0 1880854.8847440407 -1018721.7327250242 0 0 0 0 -40024893.313396454 419659247.4972229 0 419659247.4972229 904052057.9902935 0 0 0 0 105974726.64465046 555682564.77600241 0 555682564.77600241 213364256.33957672 0 0 0 0 58605670.915576935 287214149.80179977 0 287214149.80179977 -57586834.893966675 0 0 0 0 -174969624.79212952 243867160.34477234 0 243867160.34477234 -82651928.943382263 0 0 0 0 -284055239.91744232 169089132.9640274 0 169089132.9640274 15584631.541004181 0 0 0 0 -131324303.09147263 174286807.60259819 0 174286807.60259819 -106362676.15049744 0 0 0 0 186225664.77017975 150352959.0921669 0 150352959.0921669 -219198574.38868713 0 0 0 0 -10771602.61076355 291782124.8806076 0 291782124.8806076 94237851.972763062 0 0 0 0 273604706.03665924 434736090.50968933 0 434736090.50968933 249374245.49238968 0 0 0 0 338128185.0750556 245377628.03333044 0 245377628.03333044 83619085.014015198 0 0 0 0 86410785.253593445 203978242.42833328 0 203978242.42833328 479053537.2913456 0 0 0 0 184928712.85464859 225092033.39196587 0 225092033.39196587 -241351905.05508423 0 0 0 0 85703372.47882843 -50816781.424480438 0 -50816781.424480438 -258176251.0660305 0 0 0 0 193475258.77797127 305763534.57890701 0 305763534.57890701 -47271029.388061523 0 0 0 0 -51972069.597812653 63648818.448097229 0 63648818.448097229 141502815.15742016 0 0 0 0 46591056.929214478 -221021032.66796684 0 -221021032.66796684 -970665621.75208664 0 0 0 0 67875235.019273281 135818246.77745879 0 135818246.77745879 -449214219.10967255 0 0 0 0 3542081.103086248 7215085.1817413643 0 7215085.1817413643 -2104635.8867030889 0 0 0 0 12670064.433685303 26068298.77293396 0 26068298.77293396 -797429086.21126962 0 0 0 0 139877131.80431366 -79031688.783676147 0 -79031688.783676147 -800784644.25556946 0 0 0 0 130016088.77088928 253883240.35952759 0 253883240.35952759 302752315.54408073 0 0 0 0 -262212900.96907043 94546057.972160339 0 94546057.972160339 -393083857.42182922 0 0 0 0 -45741481.488098145 -71435972.686103821 0 -71435972.686103821 -385287740.68230057 0 0 0 0 1961888.2280999497 3073895.561166985 0 3073895.561166985 2053117.0248484761 0 0 0 0 -219614723.57354736 -403232024.38949966 0 -403232024.38949966 -918008413.53092957 0 0 0 0 -31082425.055923462 62968489.744060516 0 62968489.744060516 -335621739.11434174 0 0 0 0 6155322.9533996582 222922153.96086884 0 222922153.96086884 -827816385.05700397 0 0 0 0 77168569.657775879 -19122298.576904297 0 -19122298.576904297 -360033190.58281708 0 0 0 0 -87755240.920532227 326055107.38816071 0 326055107.38816071 -330713447.24203491 0 0 0 0 137065638.86354494 191845739.81845617 0 191845739.81845617 229187302.60944366 0 0 0 0 178789798.48170471 209439350.47298431 0 209439350.47298431 124445206.3761673 0 0 0 0 220705351.43067932 226179371.9032402 0 226179371.9032402 110832811.12866783 0 0 0 0 222457806.63431931 239093696.65938568 0 239093696.65938568 51817690.298610687 0 0 0 0 181285672.25165558 268253407.3464241 0 268253407.3464241 239712025.29238129 0 0 0 0 202062751.51296234 252437465.64310551 0 252437465.64310551 178821596.090168 0 0 0 0 189305144.44048691 279797307.45322227 0 279797307.45322227 164752181.79720306 0 0 0 0 175298955.64349937 190140104.40704536 0 190140104.40704536 146554279.19292068 0 0 0 0 215581770.58694839 193354205.65708542 0 193354205.65708542 67968177.878509521 0 0 0 0 214520687.9367733 212301945.13851833 0 212301945.13851833 145195002.5977211 0 0 0 0 241566812.62319183 209912001.96304321 0 209912001.96304321 88113570.084512711 0 0 0 0 189729637.34886169 202952673.63780594 0 202952673.63780594 95843606.818336487 0 0 0 0 -254154515.73170853 96910929.19017601 0 96910929.19017601 -30373536.861643314 0 0 0 0 -269987136.12245941 197656095.77566528 0 197656095.77566528 -82280859.450828552 0 0 0 0 -254057960.96203613 158956286.12583923 0 158956286.12583923 -16756645.133171082 0 0 0 0 -275077318.91083527 136679136.6281395 0 136679136.6281395 -8246542.1153564453 0 0 0 0 -247337172.67677307 134279702.0082016 0 134279702.0082016 -14104822.26177597 0 0 0 0 -226336219.68322372 153117650.76613426 0 153117650.76613426 -23932199.03729248 0 0 0 0 -240154224.27972984 165725061.10123444 0 165725061.10123444 126859473.52464294 0 0 0 0 -214530499.61670685 230617608.90214539 0 230617608.90214539 250882292.1096139 0 0 0 0 185980863.76645851 339032375.03836155 0 339032375.03836155 -75845400.527347565 0 0 0 0 -138697524.33403778 117298103.14314461 0 117298103.14314461 -33865384.340751648 0 0 0 0 -6461249.7337766811 3570786.6066825595 0 3570786.6066825595 2328035.6373510957 0 0 0 0 -40510727.072241545 329127392.16611242 0 329127392.16611242 215158304.62139893 0 0 0 0 140901950.1163559 115027396.91876793 0 115027396.91876793 -17441671.236190796 0 0 0 0 -37888142.589503631 30119831.044946212 0 30119831.044946212 -20010325.646387763 0 0 0 0 -249575156.61633492 192358976.09633446 0 192358976.09633446 -109685113.57078171 0 0 0 0 -401977511.9391613 432643987.20269394 0 432643987.20269394 337360485.78823376 0 0 0 0 -460510640.45338726 501776884.26543236 0 501776884.26543236 346670852.63461304 0 0 0 0 -44312983.728678539 29401318.888968352 0 29401318.888968352 -18125664.742850326 0 0 0 0 -602813283.1517601 580682365.58772278 0 580682365.58772278 307129110.68508911 0 0 0 0 -46085687.836427867 384048057.48870611 0 384048057.48870611 66223944.44165802 0 0 0 0 -235687294.84237289 107555068.00228691 0 107555068.00228691 -97845480.479797363 0 0 0 0 -366777738.49329519 540365912.43533707 0 540365912.43533707 -4480575.6664924622 0 0 0 0 -16892523.241395593 303716928.94706464 0 303716928.94706464 -169956779.27378845 0 0 0 0 267349447.20402145 280413502.19829845 0 280413502.19829845 66230613.79970932 0 0 0 0 205362182.87600803 186382750.73773193 0 186382750.73773193 93161199.77132225 0 0 0 0 -12163241.232352257 265819240.85453415 0 265819240.85453415 119382124.70812988 0 0 0 0 219289243.02115655 262498817.20638227 0 262498817.20638227 65178618.470718384 0 0 0 0 229768131.09511423 216387549.27768612 0 216387549.27768612 135463995.32091522 0 0 0 0 -187932121.07793403 59532065.229233742 0 59532065.229233742 -332560.59018325806 0 0 0 0 -63567098.615667343 243865073.70406914 0 243865073.70406914 259272749.5704422 0 0 0 0 192754069.88786697 162707374.33703709 0 162707374.33703709 302281233.89652634 0 0 0 0 234624149.71137238 172864313.2043438 0 172864313.2043438 162397792.87402725 0 0 0 0 96618706.070320129 -24313900.934833527 0 -24313900.934833527 -23404121.456644058 0 0 0 0 -23586134.419337824 28845742.077738415 0 28845742.077738415 -24897644.446005106 0 0 0 0 204732870.28540421 207876580.61202049 0 207876580.61202049 152134553.0313158 0 0 0 0 6752219.7629018053 5351829.0782956444 0 5351829.0782956444 -8482522.0613508895 0 0 0 0 436515968.67548752 246909221.38470459 0 246909221.38470459 114515483.11022949 0 0 0 0 -396413827.00104523 46997093.645641327 0 46997093.645641327 266660927.22372055 0 0 0 0 -812558636.77006531 143032188.04692078 0 143032188.04692078 246132979.81694984 0 0 0 0 483010411.70814514 -67014235.979421616 0 -67014235.979421616 37134063.194854736 0 0 0 0 -410734800.33248329 108122745.79770565 0 108122745.79770565 6508794.5995407104 0 0 0 0 -1188302365.4658623 -614200721.97257471 0 -614200721.97257471 463079664.97373581 0 0 0 0 611937968.08231735 112172850.131567 0 112172850.131567 -77620722.099349976 0 0 0 0 609346224.04415894 188156989.85330582 0 188156989.85330582 -192019050.62790418 0 0 0 0 -346321131.54564667 591890616.33165169 0 591890616.33165169 -144434711.72532654 0 0 0 0 -16671374.533913884 25328664.708039667 0 25328664.708039667 -24643847.501414061 0 0 0 0 -365574522.73825073 564997117.6663456 0 564997117.6663456 -949269829.02386093 0 0 0 0 518228526.91804028 380377765.03973198 0 380377765.03973198 162258241.9475708 0 0 0 0 379506410.41032982 342184217.39110947 0 342184217.39110947 228779375.583004 0 0 0 0 429543002.22819042 361117272.65151978 0 361117272.65151978 308981419.68199158 0 0 0 0 331819478.37537479 504320065.99500179 0 504320065.99500179 366359297.98680878 0 0 0 0 650931842.08296204 587990185.15434647 0 587990185.15434647 362309516.27098083 0 0 0 0 869041446.60253525 469126985.67441559 0 469126985.67441559 172562265.48155212 0 0 0 0 724693549.68282318 397664385.12908173 0 397664385.12908173 233056978.13282394 0 0 0 0 -1236085630.2174339 -375775782.3363533 0 -375775782.3363533 9638206.9272842407 0 0 0 0 -4213064.4930577911 5608699.9175197817 0 5608699.9175197817 -7588443.6030725688 0 0 0 0 -13202647.659605358 18380761.664407808 0 18380761.664407808 -15552942.89368695 0 0 0 0 885154834.72705364 623428165.25750589 0 623428165.25750589 315226831.72895813 0 0 0 0 -244595282.75261226 340871359.71770358 0 340871359.71770358 505767699.90085602 0 0 0 0 -220812812.32636833 272109281.04851532 0 272109281.04851532 397951982.66161728 0 0 0 0 93169541.892721176 291709910.51358032 0 291709910.51358032 273875860.86730003 0 0 0 0 120960813.56681347 341312893.97852898 0 341312893.97852898 279847206.90072632 0 0 0 0 372113298.8695367 414834075.13562655 0 414834075.13562655 291435657.39225769 0 0 0 0 -157921451.28605461 353922932.8635273 0 353922932.8635273 475180184.73211479 0 0 0 0 42920775.646497607 392290409.38905811 0 392290409.38905811 429575560.9641037 0 0 0 0 47371728.476922989 380841454.47813034 0 380841454.47813034 364900321.61074257 0 0 0 0 -186434200.98236299 397552303.12986565 0 397552303.12986565 431902369.09693527 0 0 0 0 -388267253.83320761 374863366.26695061 0 374863366.26695061 452308082.69616318 0 0 0 0 -406857720.6139183 506577982.76543951 0 506577982.76543951 153693617.2949295 0 0 0 0 -135132017.29468012 396024447.61545277 0 396024447.61545277 175696086.89004517 0 0 0 0 -152968329.18385792 413330181.40216064 0 413330181.40216064 405074144.18041134 0 0 0 0 144583572.7108593 631866555.36435413 0 631866555.36435413 174783394.06455231 0 0 0 0 56951720.431105137 548138537.14733791 0 548138537.14733791 350940747.99647141 0 0 0 0 203256550.42059135 393835784.27240181 0 393835784.27240181 418014682.96578503 0 0 0 0 367159793.27276039 601919874.02986717 0 601919874.02986717 438065687.03859329 0 0 0 0 624336065.39697266 484089628.63421249 0 484089628.63421249 338055783.85634422 0 0 0 0 574043126.19372177 486750718.19615936 0 486750718.19615936 300956694.46220779 0 0 0 0 688596016.62076378 624018902.9221859 0 624018902.9221859 459715152.54029846 0 0 0 0 780881372.85752106 495474656.65959167 0 495474656.65959167 524314730.29100037 0 0 0 0 973615803.73484802 350965910.87616348 0 350965910.87616348 485334916.37218475 0 0 0 0 923653371.70155334 504490110.55462646 0 504490110.55462646 356129712.71098709 0 0 0 0 575209601.43022537 576406980.8640976 0 576406980.8640976 441391981.2274437 0 0 0 0 1494303241.9853592 551653056.53649521 0 551653056.53649521 178300165.41043091 0 0 0 0 1475672477.9250169 1054441883.1275272 0 1054441883.1275272 132927790.16419983 0 0 0 0 914677282.02831268 701094998.22522736 0 701094998.22522736 189307394.92325974 0 0 0 0 946278479.68353462 589831045.49331951 0 589831045.49331951 224394764.77317047 0 0 0 0 566670302.226511 604039943.15221977 0 604039943.15221977 280058273.13763428 0 0 0 0 872737255.36999893 779269300.34378815 0 779269300.34378815 301262675.54148102 0 0 0 0 837131733.93053436 759318366.58908653 0 759318366.58908653 189812351.42339325 0 0 0 0 547543372.84998322 618017819.25774002 0 618017819.25774002 211009785.34001398 0 0 0 0 923153326.10698199 1129344101.1116159 0 1129344101.1116159 392916774.2146225 0 0 0 0 342578734.55987883 469258408.59721708 0 469258408.59721708 -23860864.466934204 0 0 0 0 242372543.47660065 474458179.2239418 0 474458179.2239418 369698226.23897171 0 0 0 0 607466490.73957157 574273108.15913773 0 574273108.15913773 163161672.93708038 0 0 0 0 291168503.21686554 493398868.06673813 0 493398868.06673813 217291493.71833992 0 0 0 0 415815943.63853359 467422994.88075447 0 467422994.88075447 -104121983.06278229 0 0 0 0 40767427.538432121 319399815.57392788 0 319399815.57392788 46127550.576953888 0 0 0 0 378614999.87666321 415133086.49763298 0 415133086.49763298 104979730.47211802 0 0 0 0 393560802.00407624 531229992.99835169 0 531229992.99835169 376789202.27205658 0 0 0 0 660828798.08406448 834538744.31832123 0 834538744.31832123 333307467.81794739 0 0 0 0 572814524.96771049 643336643.27431679 0 643336643.27431679 88892967.295749664 0 0 0 0 207981691.28142071 245013173.77596378 0 245013173.77596378 -550483506.63652611 0 0 0 0 179779736.53986359 210100156.11247349 0 210100156.11247349 79289673.554576874 0 0 0 0 -76587558.714697838 544693758.76368713 0 544693758.76368713 -833510970.37294579 0 0 0 0 -104720318.91640282 -158240662.5174675 0 -158240662.5174675 -511966359.19847393 0 0 0 0 -864761349.18519068 347355150.71924543 0 347355150.71924543 109613845.92028809 0 0 0 0 -63275322.59822607 390953178.89484787 0 390953178.89484787 23200462.726341248 0 0 0 0 90103828.170730591 238993147.43466616 0 238993147.43466616 86608644.685394287 0 0 0 0 72961800.812402725 461006183.26589942 0 461006183.26589942 97971810.744056702 0 0 0 0 -16653255.508323669 437160839.28420067 0 437160839.28420067 185288222.77020836 0 0 0 0 22944634.596000671 398137212.71972656 0 398137212.71972656 198866718.58961868 0 0 0 0 23110412.616523743 380142316.88690758 0 380142316.88690758 156642131.5620966 0 0 0 0 165752429.87491608 373047292.36452866 0 373047292.36452866 142527533.96272755 0 0 0 0 163979297.83202076 328808770.78444177 0 328808770.78444177 85764351.369312286 0 0 0 0 80086497.558952332 429252342.80310631 0 429252342.80310631 105703858.19227982 0 0 0 0 267970567.91867828 417041540.89740181 0 417041540.89740181 52520399.326658249 0 0 0 0 97670182.075332642 526299957.22199059 0 526299957.22199059 18781444.495376587 0 0 0 0 246701401.00920486 370663698.45133114 0 370663698.45133114 38682611.811431885 0 0 0 0 365717921.15248108 482733949.86154175 0 482733949.86154175 10765651.354621887 0 0 0 0 437524866.77833557 329233352.06343842 0 329233352.06343842 18413166.605529785 0 0 0 0 430685388.37809753 357332521.23855972 0 357332521.23855972 -8550265.5150527954 0 0 0 0 321419033.44850159 438916465.52867889 0 438916465.52867889 -4759444.8376646042 0 0 0 0 -235083384.67125034 160292084.79726571 0 160292084.79726571 78817001.44871521 0 0 0 0 58939920.913047791 502140699.48274803 0 502140699.48274803 12045630.120319366 0 0 0 0 -997291419.40433502 236673395.34954166 0 236673395.34954166 322153539.31381035 0 0 0 0 -214076954.79698944 612377832.12979507 0 612377832.12979507 90335545.015192986 0 0 0 0 34808105.42700386 434953976.75535965 0 434953976.75535965 105481806.95937347 0 0 0 0 1162437094.5797043 349329990.22753716 0 349329990.22753716 224586776.41830635 0 0 0 0 -1623109.3238259926 5420683.9621479809 0 5420683.9621479809 -8708253.2837148309 0 0 0 0 629467407.97122765 325659753.46365356 0 325659753.46365356 514437839.19002533 0 0 0 0 408550920.13083649 218809052.48144341 0 218809052.48144341 334561061.28257656 0 0 0 0 582500821.99423981 452995360.00583458 0 452995360.00583458 197878963.14975739 0 0 0 0 1089519201.8213291 654682112.58262253 0 654682112.58262253 242009196.65562248 0 0 0 0 858642449.66689873 144168270.87897587 0 144168270.87897587 -16779018.474933624 0 0 0 0 267163075.08050537 678976971.41410446 0 678976971.41410446 271863936.28863907 0 0 0 0 -8373163.1622919999 16204391.640787566 0 16204391.640787566 -20141574.604774013 0 0 0 0 329557375.38045526 398597291.43871069 0 398597291.43871069 149121454.22743607 0 0 0 0 325384008.83878708 359648631.25597858 0 359648631.25597858 78788117.860664368 0 0 0 0 169402230.17639923 319831777.37685966 0 319831777.37685966 182335074.67128563 0 0 0 0 369291073.89855194 253507198.7565155 0 253507198.7565155 258883028.16519547 0 0 0 0 290492109.72620392 406344850.42809296 0 406344850.42809296 96430303.023376465 0 0 0 0 -2307692421.5008659 348314633.8194313 0 348314633.8194313 904157122.07532501 0 0 0 0 -892385569.85389709 -856914100.90732002 0 -856914100.90732002 -223427183.74525452 0 0 0 0 396544109.06374741 935845350.41322327 0 935845350.41322327 332903722.76100159 0 0 0 0 -500469757.63319397 -98109971.640789032 0 -98109971.640789032 -479103869.60690308 0 0 0 0 -3604845.6848304048 5780811.286513593 0 5780811.286513593 -5866840.201703161 0 0 0 0 739133030.75111485 430124661.20186663 0 430124661.20186663 15160171.479110718 0 0 0 0 -10225751.499356437 16106552.2929231 0 16106552.2929231 -19441096.865639195 0 0 0 0 660352947.78264618 223392385.42762756 0 223392385.42762756 44021119.968257904 0 0 0 0 258482158.1745224 398169749.73546219 0 398169749.73546219 39533544.68019104 0 0 0 0 363739096.01234436 273086643.90129089 0 273086643.90129089 138017909.00276279 0 0 0 0 481132369.96068954 385676062.67835236 0 385676062.67835236 6296201.3394851685 0 0 0 0 452851968.81349945 285954735.88239288 0 285954735.88239288 24167596.793576717 0 0 0 0 414076774.44737625 348720422.27245903 0 348720422.27245903 -54750401.619552612 0 0 0 0 281447811.46594238 285842734.01065063 0 285842734.01065063 9336881.3638553619 0 0 0 0 153539269.01392365 356394123.19827271 0 356394123.19827271 385301.49115371704 0 0 0 0 265059125.56562042 344938345.50276184 0 344938345.50276184 -110783719.19315338 0 0 0 0 -47303349.397285461 413873029.09191895 0 413873029.09191895 32685805.846226692 0 0 0 0 153528510.76490021 377827827.98215485 0 377827827.98215485 -214068844.76678467 0 0 0 0 37417445.189476013 443857649.3510685 0 443857649.3510685 22187856.492767334 0 0 0 0 252334970.17832375 371559351.22299433 0 371559351.22299433 -32286660.014312744 0 0 0 0 112220233.7677269 416477513.7550087 0 416477513.7550087 123579573.78604507 0 0 0 0 77974021.354576111 370937374.12207222 0 370937374.12207222 151464190.83701897 0 0 0 0 -113142873.48937607 381760568.66567612 0 381760568.66567612 161847792.94749451 0 0 0 0 112151220.02104187 323224958.09250641 0 323224958.09250641 173575095.18418503 0 0 0 0 32204528.452377319 380373399.56420708 0 380373399.56420708 -5330301.6283836365 0 0 0 0 -37606891.193344116 350713557.00170517 0 350713557.00170517 4222332.6594734192 0 0 0 0 -122002137.66240692 474885906.93858337 0 474885906.93858337 -160629412.85868073 0 0 0 0 -62275426.806301117 260853994.61323786 0 260853994.61323786 -379768079.5005188 0 0 0 0 -226905562.63807678 400106214.74611092 0 400106214.74611092 -558935999.00131226 0 0 0 0 -665432968.97128296 137692774.95500183 0 137692774.95500183 -343454267.92615509 0 0 0 0 29179435.87991333 137527209.70796585 0 137527209.70796585 -682337442.34853363 0 0 0 0 21718780.242477417 207709771.6038475 0 207709771.6038475 -412763512.539814 0 0 0 0 133149012.86035156 227978362.50914383 0 227978362.50914383 -166315802.11395741 0 0 0 0 90282827.982919693 331453307.87965012 0 331453307.87965012 -375639345.59191132 0 0 0 0 293334367.80496979 279763872.12934494 0 279763872.12934494 -175235382.37475586 0 0 0 0 143358377.55620575 268887393.03055191 0 268887393.03055191 -88515024.258460999 0 0 0 0 150017377.5429039 92078785.643648148 0 92078785.643648148 -109996139.8991394 0 0 0 0 158196382.78767395 121359300.80506134 0 121359300.80506134 -247353068.15821838 0 0 0 0 42829075.699264526 33529919.641269684 0 33529919.641269684 -294134603.55872154 0 0 0 0 -56734556.540962219 -75009104.84340477 0 -75009104.84340477 -90946678.5210495 0 0 0 0 82833829.334781647 -2555930.9100494385 0 -2555930.9100494385 -56739153.428247452 0 0 0 0 20839998.702589929 2911043.6728996485 0 2911043.6728996485 -4074691.8779098336 0 0 0 0 -67942185.272018433 -158566808.52578354 0 -158566808.52578354 -431118271.45506096 0 0 0 0 48583975.06073761 144376187.98132133 0 144376187.98132133 170047695.18622208 0 0 0 0 -218640583.51850128 77691317.428302765 0 77691317.428302765 -26975488.470291138 0 0 0 0 2531604.4406191409 5563290.4188848659 0 5563290.4188848659 -3867860.7111751251 0 0 0 0 2413018.3464551568 3576389.2095034942 0 3576389.2095034942 -4669071.2847984061 0 0 0 0 616610230.63819885 155567241.02058983 0 155567241.02058983 -3191789.9618148804 0 0 0 0 673367412.77127838 166049863.90338802 0 166049863.90338802 -98448251.944282532 0 0 0 0 600933455.94169617 198909452.5664711 0 198909452.5664711 119139374.53154755 0 0 0 0 548948706.16053009 346065465.3489151 0 346065465.3489151 172444909.29774094 0 0 0 0 698719632.1648407 232773463.25833511 0 232773463.25833511 -61033039.503576279 0 0 0 0 571816420.19361496 269169636.21613693 0 269169636.21613693 -36361573.03212738 0 0 0 0 309155859.49523926 200513573.30004883 0 200513573.30004883 -5971908.339673996 0 0 0 0 461327370.65546417 312266254.72227573 0 312266254.72227573 -50313633.643768311 0 0 0 0 568227616.66592789 353624779.1410265 0 353624779.1410265 -23508078.303398132 0 0 0 0 516192451.5697937 234849700.7134285 0 234849700.7134285 27093869.406700134 0 0 0 0 312091931.2257843 226337116.2181282 0 226337116.2181282 -23092574.24723053 0 0 0 0 292201832.91844177 218963576.42552948 0 218963576.42552948 -14054140.888866425 0 0 0 0 48544937.035987854 -9939535.3534889221 0 -9939535.3534889221 30832808.639966965 0 0 0 0 184401696.92430115 247319222.6902771 0 247319222.6902771 247347991.8781414 0 0 0 0 593320774.39051819 399100579.29784012 0 399100579.29784012 61121964.233268738 0 0 0 0 621684925.53442001 619396458.57057381 0 619396458.57057381 504955961.81111908 0 0 0 0 723493266.45503235 238898505.97066116 0 238898505.97066116 -77911502.143249512 0 0 0 0 731709013.59528351 247385267.13233376 0 247385267.13233376 -87360345.666503906 0 0 0 0 1143473897.6092529 147437893.42387009 0 147437893.42387009 -336018393.35538483 0 0 0 0 1120734020.8050537 464130777.6468811 0 464130777.6468811 -81727118.627826333 0 0 0 0 669514292.98748016 60115488.24584198 0 60115488.24584198 -103850610.4072876 0 0 0 0 807258791.6824646 178768659.42338562 0 178768659.42338562 -102442652.62203979 0 0 0 0 7757628.9572238773 930775.10133631527 0 930775.10133631527 -386164.24350181222 0 0 0 0 1525724.147418201 1053786.2367057726 0 1053786.2367057726 -1005056.0121996701 0 0 0 0 1175956531.4240723 -107839670.8729744 0 -107839670.8729744 -902436420.77127075 0 0 0 0 65734337.254257202 353342473.46491241 0 353342473.46491241 -854995519.71877527 0 0 0 0 452959412.00655365 614844283.87091827 0 614844283.87091827 420993415.88892746 0 0 0 0 799437033.30134964 437498284.75426292 0 437498284.75426292 22630104.889396667 0 0 0 0 3841322.7023735046 53650896.774378777 0 53650896.774378777 20248917.107097626 0 0 0 0 439030751.1147995 -101131058.55989742 0 -101131058.55989742 -590830792.09643555 0 0 0 0 294072915.97393036 144136598.09773445 0 144136598.09773445 39837564.332252502 0 0 0 0 141878461.96100998 42277526.593065262 0 42277526.593065262 97664454.75485611 0 0 0 0 -12404242.893859915 9909741.0340313949 0 9909741.0340313949 -5476906.7439226806 0 0 0 0 327090375.00289154 420796724.9137001 0 420796724.9137001 477061521.08391857 0 0 0 0 253562406.86305237 134793644.75091934 0 134793644.75091934 128006598.98132515 0 0 0 0 212749237.11696243 259417957.75696945 0 259417957.75696945 212197840.24577904 0 0 0 0 46158289.366588593 51288724.081007004 0 51288724.081007004 42346296.217943192 0 0 0 0 72908946.298500061 85399737.618372917 0 85399737.618372917 -81300344.596494675 0 0 0 0 65774721.247154236 103483017.6834116 0 103483017.6834116 16337984.738056183 0 0 0 0 -12110094.72193867 14068624.81891904 0 14068624.81891904 -8717655.0423293784 0 0 0 0 13667405.703266144 68631560.67647171 0 68631560.67647171 -42211774.058628559 0 0 0 0 54997691.990310669 15763383.213465691 0 15763383.213465691 -5142954.3157501221 0 0 0 0 20731131.397834778 30646447.3198452 0 30646447.3198452 30171835.533781052 0 0 0 0 15212391.341766357 44919343.8855896 0 44919343.8855896 -367331.01895904541 0 0 0 0 471489.04466819763 -41419939.167577028 0 -41419939.167577028 -109865196.0708847 0 0 0 0 1533818.1109419018 5381936.3095178343 0 5381936.3095178343 -10240012.009753183 0 0 0 0 -47669026.512821198 51708227.247503281 0 51708227.247503281 14565946.227596283 0 0 0 0 122772187.23665619 58660216.108789444 0 58660216.108789444 -2072229.631816864 0 0 0 0 462722485.11661911 515905564.10704041 0 515905564.10704041 314021876.26085663 0 0 0 0 559665.07361078262 -255074143.25402546 0 -255074143.25402546 -354561357.52791977 0 0 0 0 319838.42859821022 2136636.3425428513 0 2136636.3425428513 -3449537.7391802967 0 0 0 0 110407285.36946487 188699332.94256306 0 188699332.94256306 372049943.01851463 0 0 0 0 152041808.42980576 35232201.099060059 0 35232201.099060059 30572548.742101073 0 0 0 0 122153113.97714996 56397043.9185009 0 56397043.9185009 79399333.527435303 0 0 0 0 14401816.292020254 22155577.451471895 0 22155577.451471895 -13682393.246527985 0 0 0 0 233073981.67801857 213963344.54612732 0 213963344.54612732 -54929165.207773209 0 0 0 0 299246470.24004745 89469093.598350525 0 89469093.598350525 7225803.4150352478 0 0 0 0 544764604.52281952 85106249.150158882 0 85106249.150158882 -182349961.94996357 0 0 0 0 10704652.525793478 16304985.037247002 0 16304985.037247002 -14443662.216197811 0 0 0 0 -1493317677.3459873 663930829.30818701 0 663930829.30818701 -32308101.52340889 0 0 0 0 -1434966416.6658688 339229217.27566528 0 339229217.27566528 -164602203.08934975 0 0 0 0 6207034.6875067204 7880323.5658336431 0 7880323.5658336431 -16505168.437391095 0 0 0 0 -1549649874.8119774 451224560.30172539 0 451224560.30172539 -41367909.783252716 0 0 0 0 832894410.54575348 -300290201.56122208 0 -300290201.56122208 -96016732.285274506 0 0 0 0 1137980105.4265404 -225665284.5771122 0 -225665284.5771122 -235774501.91611862 0 0 0 0 535847736.81026077 131869719.38431358 0 131869719.38431358 -176962840.48590469 0 0 0 0 476963024.67773438 40127970.772865295 0 40127970.772865295 -316014462.45370388 0 0 0 0 421186871.86268234 240217948.87126064 0 240217948.87126064 -525682831.91392517 0 0 0 0 101839812.2636261 508936636.56256866 0 508936636.56256866 -389302223.62371922 0 0 0 0 165392600.03316498 216040929.69317627 0 216040929.69317627 -304347233.29557133 0 0 0 0 167803550.05244446 265796528.29172516 0 265796528.29172516 -618948235.7566452 0 0 0 0 -542349126.84690857 36146117.383266449 0 36146117.383266449 -549868158.19282341 0 0 0 0 -201725970.98705292 378561958.9049511 0 378561958.9049511 -397898990.14865112 0 0 0 0 -114878389.96022797 299692132.56890488 0 299692132.56890488 -742878162.67417336 0 0 0 0 -104181485.3971405 405951235.8325882 0 405951235.8325882 -466531652.20774841 0 0 0 0 -134457.30251665413 1263727.5492960773 0 1263727.5492960773 -416880.76684243605 0 0 0 0 22472164.055843353 345278370.9549942 0 345278370.9549942 -796842663.42723846 0 0 0 0 -47032210.369655609 259467248.97805214 0 259467248.97805214 537006792.18831635 0 0 0 0 139448092.58403778 441968764.76376915 0 441968764.76376915 -732705963.07455826 0 0 0 0 -40456148.879219055 382393099.27217674 0 382393099.27217674 -657616342.72448349 0 0 0 0 266848924.90007019 371156757.36617851 0 371156757.36617851 -397684677.33967781 0 0 0 0 297972397.61243653 390878050.89039034 0 390878050.89039034 -392823195.03691101 0 0 0 0 158682839.34953308 303268121.6060524 0 303268121.6060524 -162955194.45924568 0 0 0 0 430187965.23928452 528136203.02105856 0 528136203.02105856 107607653.045084 0 0 0 0 -5250284.6321004927 9863420.2591685578 0 9863420.2591685578 -10535016.405760244 0 0 0 0 647502736.28702164 630568583.62768412 0 630568583.62768412 68685134.233474731 0 0 0 0 169054490.87077332 159076722.50295115 0 159076722.50295115 -26229353.785085678 0 0 0 0 132612146.53000641 162886804.78087997 0 162886804.78087997 231078183.70904207 0 0 0 0 -497685055.83187866 287976467.61140633 0 287976467.61140633 204257053.69406319 0 0 0 0 -493068405.20010376 424370813.57182598 0 424370813.57182598 -329624618.86120415 0 0 0 0 -994626106.07054901 385307813.51701355 0 385307813.51701355 148157895.12641144 0 0 0 0 -1156043518.9284077 694436563.80563974 0 694436563.80563974 -212302276.4516716 0 0 0 0 -1038184494.7551575 237841039.4922781 0 237841039.4922781 -129522528.14275575 0 0 0 0 -891628140.64079475 501968883.99806738 0 501968883.99806738 3139230.7879180908 0 0 0 0 -631680666.64315414 146271242.98431253 0 146271242.98431253 122662.95360183716 0 0 0 0 -906347019.65955353 680348504.30907917 0 680348504.30907917 -261114801.5520401 0 0 0 0 -6385429.1060055774 1881861.9605271965 0 1881861.9605271965 -144809.34655740857 0 0 0 0 -70687811.203186035 138129687.44446754 0 138129687.44446754 -220051468.10156822 0 0 0 0 -19660268.279769897 6133319.3173589706 0 6133319.3173589706 -14228133.117868423 0 0 0 0 -38640843.420011878 30092407.76126036 0 30092407.76126036 71768340.757202148 0 0 0 0 -472652.79722994426 -628518.2183418721 0 -628518.2183418721 -346317.78110412508 0 0 0 0 -558472607.1061554 327799048.43407059 0 327799048.43407059 -204393109.84568977 0 0 0 0 98463831.214431763 324623502.68826103 0 324623502.68826103 -114988663.6765213 0 0 0 0 -22272138.397165298 89405419.683004856 0 89405419.683004856 271729832.76570702 0 0 0 0 11250094.418502808 -16643964.452601433 0 -16643964.452601433 807199.47093200684 0 0 0 0 -7991362.2199294269 7451431.8389950469 0 7451431.8389950469 3704455.536242269 0 0 0 0 -334212461.16792297 314919868.1556797 0 314919868.1556797 -322580783.9275341 0 0 0 0 376537732.28475952 259679212.0967741 0 259679212.0967741 115015404.49179649 0 0 0 0 624806765.09190369 260069151.23035431 0 260069151.23035431 84565297.335250854 0 0 0 0 -606186228.55674362 550747207.86406946 0 550747207.86406946 -250732531.38178635 0 0 0 0 -657811416.66723633 488708159.69347572 0 488708159.69347572 -165043312.96010399 0 0 0 0 -509460940.91598511 546721073.56982517 0 546721073.56982517 -438428495.08011627 0 0 0 0 -121120745.10905838 254062435.60140514 0 254062435.60140514 -256994684.12972832 0 0 0 0 -229944718.45901108 69964372.501679897 0 69964372.501679897 15448255.201284409 0 0 0 0 -9851208.8769119084 9144729.7874720991 0 9144729.7874720991 5402782.8859059736 0 0 0 0 -70670099.034011841 112398470.72573566 0 112398470.72573566 -187115435.51710701 0 0 0 0 -4352201.1931979032 14158266.820045717 0 14158266.820045717 11938043.024207473 0 0 0 0 18668871.875580192 76376773.302004755 0 76376773.302004755 83039188.333677292 0 0 0 0 -236201873.38868713 316674069.97101402 0 316674069.97101402 -366659409.40977383 0 0 0 0 -28836961.636115357 -874548.81148613989 0 -874548.81148613989 3657244.3964207508 0 0 0 0 -445452576.35511017 145667009.09618855 0 145667009.09618855 -50510666.340139389 0 0 0 0 -20901851.904975891 188797394.88482952 0 188797394.88482952 -131032428.89105225 0 0 0 0 -374743266.67732239 -50334290.538064957 0 -50334290.538064957 23079950.616609573 0 0 0 0 118475842.17467713 1691600.2224110961 0 1691600.2224110961 -42121228.372119904 0 0 0 0 -351123870.04943848 94405623.053595543 0 94405623.053595543 90668884.150598526 0 0 0 0 702295.28006190294 12538488.734055497 0 12538488.734055497 4725032.6886044741 0 0 0 0 -510303394.9772836 296634924.04650247 0 296634924.04650247 -169482931.60235023 0 0 0 0 -609941374.23472214 541978497.6682291 0 541978497.6682291 -258409831.18757153 0 0 0 0 -494815572.27593613 163760899.14377689 0 163760899.14377689 24944983.618935585 0 0 0 0 -1020384389.4925728 357077007.6864624 0 357077007.6864624 -45691074.163467884 0 0 0 0 -1017885359.0789795 768214658.34682465 0 768214658.34682465 -259162833.90882301 0 0 0 0 -694113369.19404221 491924306.07934952 0 491924306.07934952 -236681523.38328362 0 0 0 0 1484549555.3630142 90478291.365685463 0 90478291.365685463 47060740.23547554 0 0 0 0 856071111.71478271 176879633.85441208 0 176879633.85441208 115204849.09728336 0 0 0 0 52551374.934465408 197443255.48622513 0 197443255.48622513 151132417.96463013 0 0 0 0 316130285.4753952 165222266.53785133 0 165222266.53785133 124053302.62054729 0 0 0 0 216137828.55651093 -26690032.044329643 0 -26690032.044329643 -318598578.20928574 0 0 0 0 -107668634.82981491 330124026.57063484 0 330124026.57063484 59824137.600744247 0 0 0 0 775083.3972312957 870122.03035708517 0 870122.03035708517 -3707375.3577842638 0 0 0 0 243326532.8655014 -149511289.05722046 0 -149511289.05722046 76691235.413009644 0 0 0 0 472263354.64024353 -37333047.454246521 0 -37333047.454246521 -406757391.54874516 0 0 0 0 544556068.93380356 146775083.1330061 0 146775083.1330061 48922795.008285522 0 0 0 0 256108576.10570145 -109764393.75251198 0 -109764393.75251198 194898749.18727112 0 0 0 0 853969952.12078094 -161028512.4810276 0 -161028512.4810276 -214579544.63102174 0 0 0 0 859106317.49365616 -47290142.434781075 0 -47290142.434781075 202820459.58834076 0 0 0 0 1004365601.1161108 -549618995.92995238 0 -549618995.92995238 231193502.61915588 0 0 0 0 -430307387.16594696 -428171151.30302048 0 -428171151.30302048 139065270.38400459 0 0 0 0 -1585954018.3599396 1228417214.8695583 0 1228417214.8695583 -928624553.24617386 0 0 0 0 -10921352.993314847 -963860.00508254021 0 -963860.00508254021 -566239.84110914171 0 0 0 0 -2525129867.3479996 189579866.4791832 0 189579866.4791832 113395019.15148544 0 0 0 0 -380084008.51221466 -11606504.181201935 0 -11606504.181201935 -107642063.68595028 0 0 0 0 -1822599223.9452896 165945086.53828239 0 165945086.53828239 77508506.071008682 0 0 0 0 1648589528.4702835 -418180105.43419743 0 -418180105.43419743 -15942880.047416687 0 0 0 0 -1564608531.4803085 912822181.38341665 0 912822181.38341665 -306241362.11326027 0 0 0 0 -1620959132.4088898 1114204393.4162683 0 1114204393.4162683 -959915187.7936058 0 0 0 0 1871762.6992390454 1864188.919099316 0 1864188.919099316 -8576349.4278299585 0 0 0 0 -781412264.72544003 671934779.65906572 0 671934779.65906572 -699913970.69661331 0 0 0 0 219017677.385849 -482560478.47212791 0 -482560478.47212791 403748376.28433222 0 0 0 0 -1003899050.2845163 51339266.905956268 0 51339266.905956268 159924468.97592163 0 0 0 0 -685232405.49857759 339397188.39755785 0 339397188.39755785 132228687.53203392 0 0 0 0 -347597968.92067719 141076479.93333435 0 141076479.93333435 167571779.98732567 0 0 0 0 -670936076.70868683 441476156.69946003 0 441476156.69946003 434656908.47651607 0 0 0 0 345652865.98133469 198767020.494349 0 198767020.494349 -37731660.049747467 0 0 0 0 -1438396.6229080632 3134501.2583186179 0 3134501.2583186179 -4588980.9647356793 0 0 0 0 345281032.91013336 137641268.3809185 0 137641268.3809185 70379641.641941071 0 0 0 0 364596059.09957886 127970366.10835075 0 127970366.10835075 27124966.35603714 0 0 0 0 422025871.02792168 144579472.98138571 0 144579472.98138571 -25528648.409626007 0 0 0 0 345841622.30857086 156537603.91457939 0 156537603.91457939 124434295.65328979 0 0 0 0 373810318.71368408 162226166.67386818 0 162226166.67386818 65278840.30789566 0 0 0 0 -165914.73876869678 4166658.08779414 0 4166658.08779414 -8276483.2848109528 0 0 0 0 330210100.41677094 219065607.35829735 0 219065607.35829735 140272764.58677244 0 0 0 0 378857382.74150085 261810673.65293121 0 261810673.65293121 85084192.161403656 0 0 0 0 809586301.20140839 793701305.8980751 0 793701305.8980751 -671110783.5074234 0 0 0 0 283076855.73614502 255931916.85482407 0 255931916.85482407 122821198.13271379 0 0 0 0 91341528.529918671 288914751.52231503 0 288914751.52231503 119487756.92329025 0 0 0 0 304726605.00686646 260211049.6342392 0 260211049.6342392 74037151.001613617 0 0 0 0 367749036.2591095 220375166.30357361 0 220375166.30357361 87120704.284275055 0 0 0 0 337746416.32189178 295049786.25381851 0 295049786.25381851 75454940.789424896 0 0 0 0 324309709.86901093 271945393.52338982 0 271945393.52338982 36209516.20199585 0 0 0 0 436473477.58792114 252114495.0775528 0 252114495.0775528 24877239.943330765 0 0 0 0 376151286.03949165 195057216.46703315 0 195057216.46703315 44563619.723152161 0 0 0 0 465202546.60147095 209865531.7286377 0 209865531.7286377 25375777.986428261 0 0 0 0 397822120.04588318 199966387.54697037 0 199966387.54697037 24242506.115215302 0 0 0 0 386367489.60411072 276264436.59326649 0 276264436.59326649 18615477.430450439 0 0 0 0 530969814.19824219 277958677.5111618 0 277958677.5111618 12540916.999763489 0 0 0 0 610083388.2467804 322036767.15594292 0 322036767.15594292 36323421.740539551 0 0 0 0 510042885.96270752 255207551.37073708 0 255207551.37073708 129595924.94562531 0 0 0 0 564672657.57806396 236101077.81146622 0 236101077.81146622 40281345.822730064 0 0 0 0 450832783.26846313 214010590.2392807 0 214010590.2392807 38968079.846343994 0 0 0 0 560169580.00386429 156694651.28934383 0 156694651.28934383 230413626.83176422 0 0 0 0 429645471.58473969 232660707.09613037 0 232660707.09613037 187708814.91001129 0 0 0 0 732877704.2550354 276205669.82044411 0 276205669.82044411 129510125.19678271 0 0 0 0 655794939.78486633 181515459.82177258 0 181515459.82177258 505136907.5907135 0 0 0 0 466773183.26317596 352035249.57781315 0 352035249.57781315 361338180.64700699 0 0 0 0 439018408.5256424 214376339.31301594 0 214376339.31301594 233898613.74520588 0 0 0 0 -190924753.29664421 252828949.07678652 0 252828949.07678652 638406487.56958961 0 0 0 0 171164185.31824112 251800616.7471714 0 251800616.7471714 242796640.95737076 0 0 0 0 426291610.24524689 265888191.45237207 0 265888191.45237207 -4646104.2647018433 0 0 0 0 61974175.71496582 565771420.28187752 0 565771420.28187752 -199872636.03947067 0 0 0 0 -226545972.16518021 128279527.64673233 0 128279527.64673233 25181959.919529915 0 0 0 0 -596391284.15695953 302660720.39302349 0 302660720.39302349 492027341.07800293 0 0 0 0 -183473275.90145111 241867324.64746666 0 241867324.64746666 474720045.91489124 0 0 0 0 -143639496.13082886 242777659.00163937 0 242777659.00163937 489110230.9533329 0 0 0 0 -391673937.52432251 348619133.59264946 0 348619133.59264946 550985883.52885056 0 0 0 0 -423723123.87501907 285225810.94977713 0 285225810.94977713 426906857.36631775 0 0 0 0 -269285088.54597092 406476173.69778347 0 406476173.69778347 180136815.77321815 0 0 0 0 -307748536.16317368 410495538.00832462 0 410495538.00832462 494766867.78010988 0 0 0 0 311210314.21834183 289555687.06608868 0 289555687.06608868 113938498.5511322 0 0 0 0 338298570.40076447 353635719.65138245 0 353635719.65138245 259489217.40502548 0 0 0 0 1179182102.2896423 775442299.05383587 0 775442299.05383587 460867703.87409306 0 0 0 0 1507943649.8414459 70459268.628858566 0 70459268.628858566 516277637.8350563 0 0 0 0 270369046.75116539 269528015.20407963 0 269528015.20407963 989554899.34152412 0 0 0 0 193894782.21067047 447790149.78701305 0 447790149.78701305 574694797.18502045 0 0 0 0 -1337822260.5229492 721022851.73168373 0 721022851.73168373 -79681991.740157127 0 0 0 0 -1057305725.0955305 732762786.47731256 0 732762786.47731256 -139843391.24255753 0 0 0 0 -952232685.25855255 705995794.80440521 0 705995794.80440521 -205662132.84996223 0 0 0 0 -1273372223.1586456 465165027.38789368 0 465165027.38789368 -121701374.94028711 0 0 0 0 -1102997.8802371584 3783884.0983347446 0 3783884.0983347446 1141196.0449948013 0 0 0 0 -1265275732.7673836 511135895.39125061 0 511135895.39125061 -99983147.472990036 0 0 0 0 -695404.31616760045 9761929.9073284641 0 9761929.9073284641 2409911.1192336529 0 0 0 0 251121575.43272018 76628270.648854256 0 76628270.648854256 -4603294.5672006607 0 0 0 0 624143445.81225204 415298596.35272026 0 415298596.35272026 218656163.23349857 0 0 0 0 -212970665.53301334 178306182.15163755 0 178306182.15163755 166169395.85520554 0 0 0 0 -605124887.64864922 700377699.63475275 0 700377699.63475275 311569346.57863808 0 0 0 0 -915583549.5646286 523966103.1427393 0 523966103.1427393 237842520.93719673 0 0 0 0 -925834693.71118927 832908267.34322071 0 832908267.34322071 -4340003.8318958282 0 0 0 0 -2309624794.5596871 623062863.41633511 0 623062863.41633511 129187601.58613396 0 0 0 0 -1413685435.5102005 788532182.50000381 0 788532182.50000381 101588733.10496902 0 0 0 0 -1258475564.0028744 825154406.66825199 0 825154406.66825199 51252957.471248627 0 0 0 0 -1268990315.9519958 818106319.77373695 0 818106319.77373695 -325746671.10968971 0 0 0 0 -1359899648.2492981 586507648.09965611 0 586507648.09965611 -12688518.55872345 0 0 0 0 -1406771322.080549 656463329.61744106 0 656463329.61744106 92846004.447048187 0 0 0 0 -1116818249.0484238 757143001.13494492 0 757143001.13494492 -119712307.94387436 0 0 0 0 -6380111.980047226 17648892.48101902 0 17648892.48101902 -51096274.039348602 0 0 0 0 -1008426.0123856589 5238387.6564519554 0 5238387.6564519554 -2812845.5056560487 0 0 0 0 -47534289.226482391 132768958.03330898 0 132768958.03330898 -13703099.559494019 0 0 0 0 -1595865622.1747103 152381298.70586896 0 152381298.70586896 18989905.635906219 0 0 0 0 -1347327208.7054367 910208933.54471016 0 910208933.54471016 -182036513.96056747 0 0 0 0 -1258350304.6782532 775304442.26757812 0 775304442.26757812 -153908366.83330917 0 0 0 0 -1265400369.6874886 908574434.98068428 0 908574434.98068428 -271761939.30836868 0 0 0 0 -1209101636.0427551 988038331.31363487 0 988038331.31363487 -163258277.75568235 0 0 0 0 -1108993493.8601418 909346671.80252361 0 909346671.80252361 -290666688.75158501 0 0 0 0 -1176663337.5481701 896658665.97637439 0 896658665.97637439 -201017890.12417603 0 0 0 0 -1207447265.4712257 1081468196.6080542 0 1081468196.6080542 -238407274.5937233 0 0 0 0 -1047205497.8272552 1006383664.6079025 0 1006383664.6079025 -108121042.69954491 0 0 0 0 -869149392.24429703 862685274.95175552 0 862685274.95175552 99951209.271720409 0 0 0 0 -1047238311.4838725 729847885.79672337 0 729847885.79672337 2629354.813249588 0 0 0 0 -1242168918.5153351 1014805596.1028328 0 1014805596.1028328 -108867398.91916561 0 0 0 0 -1157581826.73875 916183979.23572969 0 916183979.23572969 -299593778.51908302 0 0 0 0 -2231036106.8987427 1359381824.1861382 0 1359381824.1861382 -455914901.93862534 0 0 0 0 -25180834.617665797 6292373.8030439839 0 6292373.8030439839 1239530.8196617067 0 0 0 0 -682348669.72486115 1243622292.0553818 0 1243622292.0553818 -1969343912.9796486 0 0 0 0 -1101349744.5389442 972505710.90237331 0 972505710.90237331 -656682858.78394508 0 0 0 0 -17608382.091881946 4925721.907097742 0 4925721.907097742 13563662.350758776 0 0 0 0 -47732506.841651917 29307035.270588875 0 29307035.270588875 -3604002.0119781494 0 0 0 0 -4470399.4625492692 16801193.032024629 0 16801193.032024629 7296972.0944243073 0 0 0 0 -56719835.846544266 43691728.07412529 0 43691728.07412529 19275859.523899078 0 0 0 0 -384283924.42817688 434706555.88300133 0 434706555.88300133 -561642487.56902695 0 0 0 0 -35272959.780147552 39902446.665792465 0 39902446.665792465 10967359.227724075 0 0 0 0 -46652355.891262054 34383975.634078979 0 34383975.634078979 8444166.2602729797 0 0 0 0 -45041658.94701767 46082760.669789314 0 46082760.669789314 1872436.0037250519 0 0 0 0 -6657464.5594488829 5490794.4359347224 0 5490794.4359347224 20654840.651261963 0 0 0 0 914784878.01369476 269588859.09085083 0 269588859.09085083 -195571070.28848267 0 0 0 0 971447306.31595612 276311057.65742588 0 276311057.65742588 -18920048.620603561 0 0 0 0 446634771.32931709 132818415.65894961 0 132818415.65894961 -43396157.540464401 0 0 0 0 217458419.81581306 435470907.49064064 0 435470907.49064064 112263114.46989632 0 0 0 0 -870059249.36230052 464084452.88055247 0 464084452.88055247 254154450.80063057 0 0 0 0 -542027170.94290924 575332341.31777 0 575332341.31777 36988013.717178345 0 0 0 0 -1332942727.6328506 448217241.99653244 0 448217241.99653244 45960233.074941635 0 0 0 0 -610186062.06593323 398594521.00545883 0 398594521.00545883 16647741.919345379 0 0 0 0 -242164419.01395416 126142571.1042223 0 126142571.1042223 2382346.2589073181 0 0 0 0 -583582819.77213478 368638884.51323366 0 368638884.51323366 -275164704.92428398 0 0 0 0 -1365529196.8829041 551504844.07261848 0 551504844.07261848 -201900478.15211916 0 0 0 0 -1771056319.0573721 25827220.321827412 0 25827220.321827412 -880105342.31480789 0 0 0 0 -1021723332.2156982 1026357696.1857738 0 1026357696.1857738 -2199303717.3483677 0 0 0 0 -518524352.65275717 386569544.3778075 0 386569544.3778075 -277653.2745475769 0 0 0 0 -1010720795.36866 854554397.13002014 0 854554397.13002014 -307149717.4263916 0 0 0 0 -489639580.6102829 524713888.22836494 0 524713888.22836494 -1020009243.679266 0 0 0 0 -71762899.157073975 623949807.61026573 0 623949807.61026573 -427960968.41867352 0 0 0 0 231072132.44563293 78736879.775354385 0 78736879.775354385 280433412.77114105 0 0 0 0 274866727.6240387 270324992.86891937 0 270324992.86891937 -458723137.83684349 0 0 0 0 277403058.70361853 312137217.20341271 0 312137217.20341271 173689975.00151825 0 0 0 0 -14305792.006379083 35709082.853659935 0 35709082.853659935 -11357375.261995897 0 0 0 0 865558415.63243484 454080144.62360382 0 454080144.62360382 -185941617.78362465 0 0 0 0 723554502.24695587 702954538.74269676 0 702954538.74269676 499389092.69179535 0 0 0 0 83547151.804546356 56007842.791021347 0 56007842.791021347 -27752967.346250534 0 0 0 0 61886384.93427968 55711684.862177849 0 55711684.862177849 -16197048.833591461 0 0 0 0 69057385.677436829 22393743.637399673 0 22393743.637399673 -58999145.855415344 0 0 0 0 62457942.698020935 31798360.357194901 0 31798360.357194901 -35920833.284029007 0 0 0 0 73303118.158559799 14878823.897857666 0 14878823.897857666 -21291927.080848694 0 0 0 0 109552451.41125107 32024749.702466965 0 32024749.702466965 -43773324.368387222 0 0 0 0 85181847.196329117 67472370.719343185 0 67472370.719343185 -5342780.850315094 0 0 0 0 160069388.00340366 109423120.39054203 0 109423120.39054203 -29164366.047466278 0 0 0 0 101043244.54284286 60203884.155504227 0 60203884.155504227 -2015275.9779319763 0 0 0 0 -17215844.811958916 32715272.63498912 0 32715272.63498912 -24720773.919056609 0 0 0 0 -419043184.33189392 320173992.65048981 0 320173992.65048981 -27725058.032196045 0 0 0 0 -305698.76439206302 -669878.45443605632 0 -669878.45443605632 225915.32429404557 0 0 0 0 241187201.19054127 -14050622.882616043 0 -14050622.882616043 -19599555.07698822 0 0 0 0 -31596999.092136383 100617865.3918457 0 100617865.3918457 13169729.530390739 0 0 0 0 -16763989.19033014 38944566.605514482 0 38944566.605514482 -29145438.108509205 0 0 0 0 -23074188.265174866 104912184.25532722 0 104912184.25532722 -20961023.83101368 0 0 0 0 -7827834.3469621316 41884374.122621797 0 41884374.122621797 56690803.735003389 0 0 0 0 -1228108.5697059631 144924029.24389029 0 144924029.24389029 -82565729.557615608 0 0 0 0 -51367372.442687988 101169307.30831337 0 101169307.30831337 -126784426.19853973 0 0 0 0 -144666787.57907867 320046413.88602448 0 320046413.88602448 -144214430.14079475 0 0 0 0 -164096068.5324564 -15174008.616501808 0 -15174008.616501808 86321373.721115112 0 0 0 0 -366084021.90751266 82938164.282957077 0 82938164.282957077 -3117714.4479370117 0 0 0 0 -187536786.427948 169771432.43038177 0 169771432.43038177 -160219713.98897171 0 0 0 0 -184729334.96043015 196571509.99761391 0 196571509.99761391 13432548.525960922 0 0 0 0 1770179.2696919069 11538781.273027241 0 11538781.273027241 12396452.893671244 0 0 0 0 41801123.945520401 67365071.426293373 0 67365071.426293373 9315198.6439971924 0 0 0 0 -9247219.9190053418 31062754.868892476 0 31062754.868892476 -19605369.286152512 0 0 0 0 58038530.0437603 41777768.046510696 0 41777768.046510696 -58984434.175056458 0 0 0 0 112540251.08863831 196050024.37703705 0 196050024.37703705 97260444.630559921 0 0 0 0 -337098085.63415527 331561969.65279007 0 331561969.65279007 -73358316.539839029 0 0 0 0 -304237.97529220581 286126819.13352203 0 286126819.13352203 -150801916.61289215 0 0 0 0 -17170824.271219842 34442706.667470247 0 34442706.667470247 -42898271.506659217 0 0 0 0 -95021458.839851379 243461537.62531662 0 243461537.62531662 88665695.379272461 0 0 0 0 -2382321.7899627686 222532382.33635712 0 222532382.33635712 -99116240.598892212 0 0 0 0 65357717.18542099 26488785.434100151 0 26488785.434100151 -36284455.598430634 0 0 0 0 -214852375.32641602 210334780.71311378 0 210334780.71311378 -101830755.19107056 0 0 0 0 385176.5117919445 7774991.1872756109 0 7774991.1872756109 -10259954.303488985 0 0 0 0 26799023.207055099 16526253.953345444 0 16526253.953345444 -28607090.206652574 0 0 0 0 29570712.477636337 21132178.188467026 0 21132178.188467026 -30272229.681781769 0 0 0 0 60523976.25863266 3586430.7840251923 0 3586430.7840251923 -53741799.921531677 0 0 0 0 32482658.848279104 19235473.737859473 0 19235473.737859473 -43983256.295264319 0 0 0 0 -6932033.3084564209 275406338.48258972 0 275406338.48258972 -297238776.91271973 0 0 0 0 -132958982.02027559 255292554.06438279 0 255292554.06438279 -149353898.48852539 0 0 0 0 -137863379.41459692 365100752.75033474 0 365100752.75033474 -244356911.2996521 0 0 0 0 53485865.908420563 183390086.39852905 0 183390086.39852905 -160092657.0682745 0 0 0 0 68610438.85333252 79096964.446960449 0 79096964.446960449 -196158053.28456116 0 0 0 0 37100562.148010254 125167783.23469543 0 125167783.23469543 -230458074.63575745 0 0 0 0 217313134.95446014 -67792998.76399231 0 -67792998.76399231 -466839821.40476894 0 0 0 0 24372653.051809311 269628278.41392899 0 269628278.41392899 -409664337.31089783 0 0 0 0 227676899.32502747 58344878.476074219 0 58344878.476074219 -455027414.41964722 0 0 0 0 -79946347.012508392 455841960.06689453 0 455841960.06689453 -600880007.04754639 0 0 0 0 -110721784.58146667 444264447.25723267 0 444264447.25723267 -581164765.32359314 0 0 0 0 246228394.77346802 112098200.38131714 0 112098200.38131714 -853619454.28785706 0 0 0 0 113898745.49275208 125628123.65892029 0 125628123.65892029 -458738934.66296387 0 0 0 0 -476724508.58498001 562369540.77771759 0 562369540.77771759 -483101023.07818604 0 0 0 0 170466528.66956329 -1339901.4492225647 0 -1339901.4492225647 -512120463.43355942 0 0 0 0 -502244742.83231711 216211506.72598553 0 216211506.72598553 -87203189.838409424 0 0 0 0 -3390873.9556848221 5391182.5197838489 0 5391182.5197838489 -6653200.8411264718 0 0 0 0 -234049879.39405823 -705035512.42138672 0 -705035512.42138672 -788143782.85240936 0 0 0 0 131375738.45993042 357375268.46418762 0 357375268.46418762 -1319796513.085907 0 0 0 0 -175666377.86715698 644652561.41702271 0 644652561.41702271 -1003012829.7220306 0 0 0 0 -348453321.95521545 351483805.39968109 0 351483805.39968109 -191133953.35128784 0 0 0 0 132427305.44994736 -39060552.232345581 0 -39060552.232345581 -145806689.71362686 0 0 0 0 123104226.37516785 408731068.75871277 0 408731068.75871277 -784025443.61185455 0 0 0 0 182227669.59818268 223559451.31889343 0 223559451.31889343 -273689996.03663635 0 0 0 0 64509669.242034912 116684634.40088654 0 116684634.40088654 -112154275.52655029 0 0 0 0 137145837.69204712 141141236.03621674 0 141141236.03621674 -208989507.07258606 0 0 0 0 138194222.53178024 164758368.51443481 0 164758368.51443481 -352198944.22637939 0 0 0 0 51047652.091407776 116557645.18297958 0 116557645.18297958 -21479412.749809265 0 0 0 0 64820470.957299948 53891568.132439852 0 53891568.132439852 -64195578.754959106 0 0 0 0 132204074.93793106 127050870.28170395 0 127050870.28170395 -1815561.4904823303 0 0 0 0 59331237.44458127 82381194.877925873 0 82381194.877925873 37551141.946022034 0 0 0 0 55881.618415322155 18848215.076633722 0 18848215.076633722 -17160461.336321265 0 0 0 0 94882011.333156586 -165360.83763313293 0 -165360.83763313293 -36373885.843063354 0 0 0 0 3407945.457177341 3306000.1808586419 0 3306000.1808586419 3346379.0831489265 0 0 0 0 -12529147.532520294 139989232.18013382 0 139989232.18013382 -4771077.8389587402 0 0 0 0 -114885440.48659134 -10817865.199028015 0 -10817865.199028015 58632671.080917358 0 0 0 0 -292246736.37019348 230583926.07923126 0 230583926.07923126 -34103522.254257202 0 0 0 0 -261245517.79949427 27075745.22065258 0 27075745.22065258 53923516.547805786 0 0 0 0 -3752370.0114116669 352360154.14681435 0 352360154.14681435 -87685413.198378086 0 0 0 0 23685511.225165129 219675955.84306741 0 219675955.84306741 -187367255.02835083 0 0 0 0 -13914587.807478666 215225294.35859346 0 215225294.35859346 -84601163.47240448 0 0 0 0 69399794.774857134 67117817.58805272 0 67117817.58805272 33939532.694739699 0 0 0 0 17197871.574024439 163774927.15232706 0 163774927.15232706 -143174995.80834961 0 0 0 0 64066544.18384067 61397641.652801678 0 61397641.652801678 37632525.593297273 0 0 0 0 18332778.114753723 274411439.99427605 0 274411439.99427605 147774671.69989014 0 0 0 0 -67447448.511648178 120789920.35230827 0 120789920.35230827 -31815212.520258427 0 0 0 0 -6127386.276673317 65417797.668006897 0 65417797.668006897 143905103.64574432 0 0 0 0 -124440932.15877533 80389395.20108223 0 80389395.20108223 34725445.689910889 0 0 0 0 -70626779.74368 162005645.12985992 0 162005645.12985992 27470396.885688782 0 0 0 0 -186247805.5061965 169149722.48690653 0 169149722.48690653 -11537840.608963013 0 0 0 0 -186426609.2647686 170983897.12905121 0 170983897.12905121 117575978.89791107 0 0 0 0 -193278255.31432533 53959829.620083809 0 53959829.620083809 7179108.2070159912 0 0 0 0 -297923275.07114482 -31057610.440561295 0 -31057610.440561295 187619623.11347008 0 0 0 0 2451814.4784803158 4312866.3834721893 0 4312866.3834721893 -824454.79150420427 0 0 0 0 -27077744.434805557 41858446.768635005 0 41858446.768635005 -17284519.992535487 0 0 0 0 -223889663.51085663 75707088.912601471 0 75707088.912601471 61170926.628528595 0 0 0 0 -3499704.5199251175 6426552.1049728394 0 6426552.1049728394 -150656988.82535744 0 0 0 0 -177464410.82313251 155717484.74672985 0 155717484.74672985 50925367.849998474 0 0 0 0 40958093.835383721 23782142.034031138 0 23782142.034031138 -49611214.259323135 0 0 0 0 79083879.124258041 55999453.333942413 0 55999453.333942413 -21277863.849609375 0 0 0 0 103486735.83644867 117288624.37275696 0 117288624.37275696 113652017.39080346 0 0 0 0 54761799.925403595 88239917.864180565 0 88239917.864180565 217079.11280059814 0 0 0 0 136087221.62611008 162143935.5703392 0 162143935.5703392 114088586.63426208 0 0 0 0 27273516.417485286 49600312.167798847 0 49600312.167798847 210248.15004663169 0 0 0 0 48972167.212562561 76088940.346408844 0 76088940.346408844 37134998.784301758 0 0 0 0 40134835.89622879 33716084.909063146 0 33716084.909063146 -11507932.637539119 0 0 0 0 114127295.85313416 86201687.604354858 0 86201687.604354858 55797937.527740479 0 0 0 0 -18943731.41238904 57015985.386817932 0 57015985.386817932 47596983.135551453 0 0 0 0 7451083.8328134529 39611344.335717738 0 39611344.335717738 24006457.879462391 0 0 0 0 33153792.271957397 46204924.235656738 0 46204924.235656738 7541987.928527832 0 0 0 0 7576921.8655506745 56812918.363928452 0 56812918.363928452 9783528.8477412164 0 0 0 0 28983680.524014726 63376671.824601598 0 63376671.824601598 -4262602.1443570107 0 0 0 0 1631217.8431809526 7134900.351327694 0 7134900.351327694 -8682561.8703580499 0 0 0 0 35325126.783649445 49953970.821159363 0 49953970.821159363 4713159.6937332153 0 0 0 0 108948972.98837852 74094678.731389999 0 74094678.731389999 -1304898.9528503418 0 0 0 0 15160214.898444284 4719955.2840663418 0 4719955.2840663418 -17654145.706769079 0 0 0 0 -2672946.9893012047 144856880.78641319 0 144856880.78641319 93146225.367752075 0 0 0 0 112721241.25922012 79870889.495328903 0 79870889.495328903 7508431.8059272766 0 0 0 0 29460143.339977264 31200249.73084259 0 31200249.73084259 3502964.3593902588 0 0 0 0 9144841.9917081222 30928713.199652035 0 30928713.199652035 21876991.292857148 0 0 0 0 21283170.374319818 20646966.068598896 0 20646966.068598896 -9439069.8330199569 0 0 0 0 -9259278.2670269273 35359630.551823199 0 35359630.551823199 -39743667.163452268 0 0 0 0 99864848.927035332 66829682.477191925 0 66829682.477191925 -5860907.5604629517 0 0 0 0 95007867.793593407 84883671.54110527 0 84883671.54110527 -6006709.1508398056 0 0 0 0 368616.57987135649 117488408.81267139 0 117488408.81267139 -55728952.696451187 0 0 0 0 105061612.75593758 79287707.552592278 0 79287707.552592278 10926624.59954071 0 0 0 0 127980881.41654205 76010132.256408691 0 76010132.256408691 -17802883.796800613 0 0 0 0 72261719.24329567 59214067.329771042 0 59214067.329771042 -68507609.66477108 0 0 0 0 41649182.339899063 72287498.913429499 0 72287498.913429499 -27013891.482270718 0 0 0 0 252194855.34200096 113377871.06746292 0 113377871.06746292 -136574567.34673119 0 0 0 0 107591869.71611595 82961104.037693024 0 82961104.037693024 15808292.937511444 0 0 0 0 221243793.05690527 169500851.47752571 0 169500851.47752571 -25836313.880222321 0 0 0 0 110498522.56740004 47464417.268710256 0 47464417.268710256 -3320506.5087089539 0 0 0 0 -10332259.248409059 19636702.571245518 0 19636702.571245518 -40939041.177456856 0 0 0 0 90016563.950370789 31081242.089460373 0 31081242.089460373 -87463163.449295044 0 0 0 0 62733315.170553207 10235123.308754444 0 10235123.308754444 -71736378.727535248 0 0 0 0 102197186.0742979 8382768.0185050964 0 8382768.0185050964 -45224997.022886276 0 0 0 0 157829714.47752571 69265287.108685732 0 69265287.108685732 -78922173.449420929 0 0 0 0 75795778.501365662 61255251.028104782 0 61255251.028104782 -79634379.840652466 0 0 0 0 -288078656.02059275 76768927.100231171 0 76768927.100231171 164941889.60891724 0 0 0 0 -35582632.96519006 31447037.45156008 0 31447037.45156008 -29568269.496781304 0 0 0 0 15490933.773957983 427657070.66361952 0 427657070.66361952 76489770.506254196 0 0 0 0 32368200.598824859 19759899.782230377 0 19759899.782230377 -43531880.076473236 0 0 0 0 -365387469.75223589 73911045.294504166 0 73911045.294504166 9208818.0689907074 0 0 0 0 -230375.41319317278 220912.36071085185 0 220912.36071085185 -4375009.5655093119 0 0 0 0 92086206.36377418 -118114933.53222895 0 -118114933.53222895 250443898.10508347 0 0 0 0 -468280780.71848965 90745275.034318924 0 90745275.034318924 38217497.242534637 0 0 0 0 -435767747.36130691 167853161.88217926 0 167853161.88217926 27553904.95345211 0 0 0 0 -352883075.10815662 176921871.10194862 0 176921871.10194862 14747792.235301971 0 0 0 0 -200695274.71846762 35522694.824708462 0 35522694.824708462 33488531.791004181 0 0 0 0 -190953565.60586077 44886120.924104452 0 44886120.924104452 -234763181.50780487 0 0 0 0 -470657258.46134436 -19007663.093111992 0 -19007663.093111992 44850677.821975708 0 0 0 0 -309880259.65798879 -161728890.48533726 0 -161728890.48533726 132982248.36424255 0 0 0 0 -7228877.6938126273 14427161.510913359 0 14427161.510913359 -26485166.139539897 0 0 0 0 3771704.6918921471 -130052649.7683773 0 -130052649.7683773 -97548900.922370911 0 0 0 0 -135470017.42463326 448876206.25782013 0 448876206.25782013 -235658339.8098259 0 0 0 0 -88991238.330230951 -45137573.393699527 0 -45137573.393699527 -71374164.917152405 0 0 0 0 -2161056.2054900164 4495301.8711660523 0 4495301.8711660523 -10963986.546177857 0 0 0 0 -862059608.86508143 59002602.80179882 0 59002602.80179882 64805648.280147552 0 0 0 0 171723251.46094131 17267640.031478882 0 17267640.031478882 16476208.653707474 0 0 0 0 125623561.41517067 69508768.425242424 0 69508768.425242424 -41478699.318872452 0 0 0 0 -50370362.510761261 -72328202.712488174 0 -72328202.712488174 -22271747.953620911 0 0 0 0 -19615580.40265274 43520704.745553017 0 43520704.745553017 -28363943.978378296 0 0 0 0 101553353.35581923 -22880930.358852625 0 -22880930.358852625 -35869670.857662201 0 0 0 0 65606891.040031433 47001962.63215065 0 47001962.63215065 9398519.9930963516 0 0 0 0 59216778.242427826 -18528564.576948166 0 -18528564.576948166 -83166100.749685287 0 0 0 0 346723991.32339096 197077391.68741894 0 197077391.68741894 -89479240.168239594 0 0 0 0 345842205.82309902 335424473.07242894 0 335424473.07242894 145032289.06977463 0 0 0 0 128295883.19114304 9718486.9257659912 0 9718486.9257659912 -10504226.601581573 0 0 0 0 266096445.99565887 129912000.96483421 0 129912000.96483421 15213081.574316949 0 0 0 0 258380189.9475956 89249365.125612259 0 89249365.125612259 140030739.284935 0 0 0 0 609630933.01843071 387998308.38836575 0 387998308.38836575 131265477.87099075 0 0 0 0 323301942.99452972 254239796.20538139 0 254239796.20538139 267055673.40580559 0 0 0 0 414478397.6542511 184965217.69767475 0 184965217.69767475 63619323.453899384 0 0 0 0 234356556.15040588 104469074.20159149 0 104469074.20159149 66845697.304395735 0 0 0 0 202004306.6415863 296498754.71873188 0 296498754.71873188 113615125.99009705 0 0 0 0 447632330.41742325 301114355.66493797 0 301114355.66493797 95543076.887924194 0 0 0 0 331309078.00040817 207879531.9650259 0 207879531.9650259 -9781240.9373893738 0 0 0 0 207441266.22452545 153314053.87207031 0 153314053.87207031 -33532128.191505432 0 0 0 0 251171470.80651665 126063889.85498524 0 126063889.85498524 -23782502.768600464 0 0 0 0 -316345807.84609985 335093933.31697655 0 335093933.31697655 235681131.00205326 0 0 0 0 -65932800.984588623 186714076.00870132 0 186714076.00870132 -13925149.775323868 0 0 0 0 91766161.287414551 235492834.17026901 0 235492834.17026901 80324501.344768524 0 0 0 0 134266838.00802612 315178627.93652821 0 315178627.93652821 66278442.293371201 0 0 0 0 190260835.62033081 486719990.58258057 0 486719990.58258057 281180581.6663332 0 0 0 0 -140106118.02404785 353405327.22035599 0 353405327.22035599 246277570.04757309 0 0 0 0 -682552325.10378265 431315327.32884026 0 431315327.32884026 529272313.71796036 0 0 0 0 -115790616.56927109 394248018.01392937 0 394248018.01392937 252988250.66442871 0 0 0 0 -99461753.816253662 790223472.83549118 0 790223472.83549118 747644580.81811523 0 0 0 0 -466899790.74401855 1024940165.1509743 0 1024940165.1509743 604443304.25859833 0 0 0 0 180051038.12961197 1079829247.2491817 0 1079829247.2491817 596964755.92873001 0 0 0 0 1353059834.0889049 1134738738.8331692 0 1134738738.8331692 286696416.59486008 0 0 0 0 782029269.3171463 525619863.83777618 0 525619863.83777618 204179883.1633873 0 0 0 0 183873790.96970749 482163067.18441677 0 482163067.18441677 280325414.41363907 0 0 0 0 525973793.19245911 542126527.73367596 0 542126527.73367596 426589621.30765533 0 0 0 0 -582637060.09833527 1020420305.2090836 0 1020420305.2090836 192240367.58180618 0 0 0 0 526470412.51036072 1060550774.6589279 0 1060550774.6589279 -347355854.1802597 0 0 0 0 168914084.83731842 683024446.38027382 0 683024446.38027382 357932631.67031097 0 0 0 0 534145786.09318542 706744504.03530121 0 706744504.03530121 326707314.96126175 0 0 0 0 715743347.3182373 148247507.52579498 0 148247507.52579498 -81141063.62364769 0 0 0 0 -494677265.92893982 1199236494.6839504 0 1199236494.6839504 1195258265.3087082 0 0 0 0 558405244.93345642 457762180.55078888 0 457762180.55078888 96282840.747188568 0 0 0 0 435452420.4587326 334772914.95192337 0 334772914.95192337 37239422.106433868 0 0 0 0 87844917.880565643 572539849.12017727 0 572539849.12017727 56242314.035728455 0 0 0 0 373292525.28466797 381233887.33627701 0 381233887.33627701 69971120.115636826 0 0 0 0 442564969.6594696 591196010.35646439 0 591196010.35646439 -36144134.037769318 0 0 0 0 733808971.01289368 572308448.68893242 0 572308448.68893242 367972667.74700928 0 0 0 0 542210998.09591675 617789891.84955597 0 617789891.84955597 246683695.16434479 0 0 0 0 319223293.19405746 432126600.98690701 0 432126600.98690701 92628007.011383057 0 0 0 0 472560142.95927429 476750118.84781265 0 476750118.84781265 483760245.74688721 0 0 0 0 486923046.65630722 374685762.85819101 0 374685762.85819101 277405400.01220703 0 0 0 0 651435125.23680878 447019481.11425161 0 447019481.11425161 255793846.6000061 0 0 0 0 503654504.2335434 321558300.83602524 0 321558300.83602524 175127885.77730179 0 0 0 0 840039467.76048279 836080569.69064236 0 836080569.69064236 487173023.41303635 0 0 0 0 608370286.2725296 404319954.97722244 0 404319954.97722244 330985309.55359459 0 0 0 0 1145357156.5281906 695121273.82093048 0 695121273.82093048 434791636.43179035 0 0 0 0 508673341.28881073 711041726.08747101 0 711041726.08747101 872475571.8833313 0 0 0 0 1005018725.3544006 997876744.26257801 0 997876744.26257801 631299209.00035381 0 0 0 0 2132672.5269437768 -3742975.0304270834 0 -3742975.0304270834 6107079.0634194016 0 0 0 0 1118762695.8118362 1447118319.4742804 0 1447118319.4742804 1018596739.8963346 0 0 0 0 -1314951488.0151138 18640226.704739571 0 18640226.704739571 615703620.4885273 0 0 0 0 -765420419.11514282 599835751.53511429 0 599835751.53511429 1126530703.9807036 0 0 0 0 304193283.71356201 598246030.20147133 0 598246030.20147133 1385663172.622097 0 0 0 0 -552934410.73130035 -39874511.880245209 0 -39874511.880245209 -37517716.862546921 0 0 0 0 -6765913.5767622814 2723721.4723088443 0 2723721.4723088443 24312199.126959059 0 0 0 0 -197641068.50793076 181007525.00776958 0 181007525.00776958 -56446752.950201035 0 0 0 0 -313531151.69990921 133144226.86703038 0 133144226.86703038 8877702.9749584198 0 0 0 0 59622877.320426941 294260986.08494663 0 294260986.08494663 944067730.70963192 0 0 0 0 1149445800.9058208 892581238.06565762 0 892581238.06565762 494834965.05203056 0 0 0 0 -2664320.720307216 10792235.565067686 0 10792235.565067686 3703803.1326226294 0 0 0 0 1407708625.5812893 -48213276.978230715 0 -48213276.978230715 -32322931.898590088 0 0 0 0 672162055.15734482 -42214948.357506752 0 -42214948.357506752 30123266.979049683 0 0 0 0 -155585075.31267929 115557822.12196028 0 115557822.12196028 4793913.3052577972 0 0 0 0 -27337800.663747542 27570758.578984369 0 27570758.578984369 53002476.707379974 0 0 0 0 -56874415.116008759 126989904.22372818 0 126989904.22372818 -56791500.673091888 0 0 0 0 -93393278.647724152 195805724.49747586 0 195805724.49747586 -24831010.44083786 0 0 0 0 13491646.214439392 117675796.3057971 0 117675796.3057971 -80307358.851922661 0 0 0 0 15378704.650928497 118849135.44557309 0 118849135.44557309 -82858067.472866058 0 0 0 0 97007369.618824005 82088976.301807404 0 82088976.301807404 -71860998.091697931 0 0 0 0 54600547.894451141 160411315.14698148 0 160411315.14698148 -77751718.936485291 0 0 0 0 145141956.30306625 61158020.227396965 0 61158020.227396965 -47077563.320790768 0 0 0 0 177302714.94789314 184275201.29717684 0 184275201.29717684 -52587593.766971588 0 0 0 0 59056026.26140213 136002036.65386248 0 136002036.65386248 -63804297.41632843 0 0 0 0 921690.7612991333 282596910.25678015 0 282596910.25678015 -31262958.306465626 0 0 0 0 -192485249.51274014 166705559.90808892 0 166705559.90808892 -21556700.915481567 0 0 0 0 -152060542.14324379 988438910.87860596 0 988438910.87860596 -147313231.0434761 0 0 0 0 23164253.063598633 850509040.74767303 0 850509040.74767303 -556119721.79670715 0 0 0 0 -1827124.9484100342 1197011546.9713759 0 1197011546.9713759 -788666394.38020086 0 0 0 0 -106525345.99845886 804936505.06804466 0 804936505.06804466 -395256069.55997467 0 0 0 0 86420088.850254059 1093432409.4975271 0 1093432409.4975271 -196703004.5056076 0 0 0 0 -264937448.2933197 1014008945.4563875 0 1014008945.4563875 405586431.72792053 0 0 0 0 1138667.5023040771 1148674639.0159645 0 1148674639.0159645 729339407.80525589 0 0 0 0 -303994963.48310852 807037868.16979218 0 807037868.16979218 -121136077.59859824 0 0 0 0 -137866527.04071426 664105730.95360184 0 664105730.95360184 -63299510.192047119 0 0 0 0 138084342.4408493 678365855.91554451 0 678365855.91554451 -311690647.14051151 0 0 0 0 -131314673.14562988 645822891.14320946 0 645822891.14320946 -268837680.76154518 0 0 0 0 153807225.71226597 540676940.39575875 0 540676940.39575875 -397417222.06113434 0 0 0 0 341706458.86180115 534958949.54187679 0 534958949.54187679 -493909111.65199375 0 0 0 0 35120156.756530762 763597447.88119221 0 763597447.88119221 -380330989.52579308 0 0 0 0 217137966.51599121 54735127.195637703 0 54735127.195637703 -1062010558.2116013 0 0 0 0 192620818.89021301 786325344.28128672 0 786325344.28128672 -916495061.97380447 0 0 0 0 262843221.59886169 286218056.91625977 0 286218056.91625977 -375869704.62897706 0 0 0 0 595902161.53136063 776671371.07641602 0 776671371.07641602 -435335257.29830933 0 0 0 0 236379232.38788986 820223128.76436758 0 820223128.76436758 615745944.9306221 0 0 0 0 150615014.81047821 194276161.72754574 0 194276161.72754574 -326207279.2792511 0 0 0 0 431965192.28356171 374057092.72126579 0 374057092.72126579 -384113103.77737999 0 0 0 0 122132831.17410278 -9568232.8783912659 0 -9568232.8783912659 -601132572.33369005 0 0 0 0 311531263.62393951 290485468.82564116 0 290485468.82564116 -584334780.03190613 0 0 0 0 115844916.95153046 12978996.180486679 0 12978996.180486679 -668133547.07404327 0 0 0 0 102249201.86195374 22733359.211432457 0 22733359.211432457 -651764739.23210716 0 0 0 0 85108150.288383484 836249310.85010052 0 836249310.85010052 -553077981.80079508 0 0 0 0 205864291.4841404 882968412.6691258 0 882968412.6691258 -1835586049.8116293 0 0 0 0 385.19128763414511 42001931.28298445 0 42001931.28298445 8359491.3271903992 0 0 0 0 -115335845.5436554 -621081856.44740677 0 -621081856.44740677 -2370227237.9421558 0 0 0 0 -3718106.8899714649 4321568.331904687 0 4321568.331904687 -8156409.1282067634 0 0 0 0 35084619.049133301 62352840.420669556 0 62352840.420669556 19341868.203789711 0 0 0 0 -69280220.166389465 -224757983.68778896 0 -224757983.68778896 -580087001.66218948 0 0 0 0 -10041357.934967548 14097583.651543885 0 14097583.651543885 -20718656.048327491 0 0 0 0 35929087.2515769 21428225.496825825 0 21428225.496825825 -21123815.644147873 0 0 0 0 -6662488.4799041748 35912183.293172359 0 35912183.293172359 -2819349.114066124 0 0 0 0 218159.53986358643 66095180.157020926 0 66095180.157020926 28810177.629984021 0 0 0 0 78114254.227226257 141798216.27732897 0 141798216.27732897 101797011.46478891 0 0 0 0 108743579.16847229 10220570.63850379 0 10220570.63850379 -15859903.733481407 0 0 0 0 -23580088.766601562 -7011561.8739386797 0 -7011561.8739386797 27273826.580874443 0 0 0 0 271045851.18103504 80540676.843457073 0 80540676.843457073 -75220274.783020973 0 0 0 0 4999275.772928834 2028896.9674316496 0 2028896.9674316496 779973.41733561072 0 0 0 0 9146808.2794647217 -54314670.063830003 0 -54314670.063830003 -300432408.5595749 0 0 0 0 1240589294.7824707 1107454573.5906956 0 1107454573.5906956 -147652484.10093501 0 0 0 0 317601051.91584778 335062847.54922575 0 335062847.54922575 121227732.16838153 0 0 0 0 138393.72591400146 246042140.92657763 0 246042140.92657763 710502890.03499019 0 0 0 0 -76315432.655578613 435030430.87105405 0 435030430.87105405 303049643.71697718 0 0 0 0 -26635666.536911011 126839440.42752104 0 126839440.42752104 -272540836.91519773 0 0 0 0 -47983598.752365112 71027157.880110428 0 71027157.880110428 -151902899.05747268 0 0 0 0 -154674376.48025513 121047186.01871711 0 121047186.01871711 -86037196.50563997 0 0 0 0 -16159858.360061646 -107129198.42914145 0 -107129198.42914145 -401127021.22826886 0 0 0 0 -41236737.241226196 -2667563.6878457665 0 -2667563.6878457665 -14018935.940281555 0 0 0 0 -52242035.303825378 62253179.107802927 0 62253179.107802927 -11595715.883246422 0 0 0 0 8335642.8033041954 11514014.397052556 0 11514014.397052556 569109.60746807791 0 0 0 0 -16808065.33471489 111347396.90454459 0 111347396.90454459 -114314141.69760148 0 0 0 0 -97984308.655670166 17579991.41643852 0 17579991.41643852 33437225.508131921 0 0 0 0 -2108065.893894732 3641927.7859524786 0 3641927.7859524786 8435252.4451652411 0 0 0 0 -16127325.320898533 46357777.548534751 0 46357777.548534751 -99576237.31697464 0 0 0 0 -13446910.247405887 23960911.031719543 0 23960911.031719543 30042826.097454276 0 0 0 0 -39758982.745941162 140636994.42126465 0 140636994.42126465 -208088464.61458015 0 0 0 0 -14106691.975769043 15824740.480828285 0 15824740.480828285 -5048025.8210568428 0 0 0 0 -15830187.996934414 50239327.315100372 0 50239327.315100372 -171365525.84024048 0 0 0 0 -17158924.582922369 27345122.793967023 0 27345122.793967023 -22088428.997527122 0 0 0 0 20371701.830200195 -35742740.853937149 0 -35742740.853937149 -181624484.9848156 0 0 0 0 106052584.62322998 106878753.41870546 0 106878753.41870546 -238684434.5955658 0 0 0 0 71059401.939872742 29284042.886638641 0 29284042.886638641 -394634046.45780563 0 0 0 0 232511192.97190857 137478818.51564312 0 137478818.51564312 -409543444.00484848 0 0 0 0 140807893.89744568 195685563.33127022 0 195685563.33127022 -307333272.91429234 0 0 0 0 76859621.495498657 160715167.65511894 0 160715167.65511894 -313223485.67197847 0 0 0 0 -255933386.08215332 222964826.08885765 0 222964826.08885765 -159800164.65693092 0 0 0 0 -316375116.83110046 275290811.61744499 0 275290811.61744499 -135946999.27508163 0 0 0 0 -6867175.9409765005 4795719.2911571413 0 4795719.2911571413 8157419.9762402922 0 0 0 0 97611344.916107178 246408697.23010254 0 246408697.23010254 -284919490.24020004 0 0 0 0 1368477955.3216705 252262403.09228802 0 252262403.09228802 -22130293.396734238 0 0 0 0 581479114.0340271 52207999.138334274 0 52207999.138334274 267746437.16540575 0 0 0 0 109622304.23179626 762280968.58817863 0 762280968.58817863 272454286.14618635 0 0 0 0 -949391.12042179704 7665051.562971741 0 7665051.562971741 -4551668.2701714188 0 0 0 0 -12376416.399497986 9331728.7034883499 0 9331728.7034883499 141064874.81406403 0 0 0 0 744024699.69699097 590542170.59747505 0 590542170.59747505 414049994.89238739 0 0 0 0 729748032.37564087 299768050.15474606 0 299768050.15474606 -15167019.39056778 0 0 0 0 1234276.3661022186 99080525.571645051 0 99080525.571645051 957467.93553414941 0 0 0 0 -14422632.041240335 29770464.458783582 0 29770464.458783582 -37123437.773403086 0 0 0 0 -39675310.287063599 131583380.48431778 0 131583380.48431778 -106069584.05569553 0 0 0 0 -14389808.128853053 22443827.00526236 0 22443827.00526236 28787230.659681279 0 0 0 0 -5134338.6868782043 67599777.488899678 0 67599777.488899678 5338072.2338861823 0 0 0 0 -41656576.015151978 66038408.984569788 0 66038408.984569788 7320557.7171727344 0 0 0 0 -3626738.6312942505 70785155.322504371 0 70785155.322504371 -108183917.04755613 0 0 0 0 -73771892.286804199 100698622.90178829 0 100698622.90178829 -29103371.187118113 0 0 0 0 60916752.615589142 85988419.059604019 0 85988419.059604019 -37921829.42073226 0 0 0 0 5859896.1198272705 40045402.863179117 0 40045402.863179117 -24878525.15855296 0 0 0 0 -22180395.961952209 98469132.61390692 0 98469132.61390692 5068681.6743832529 0 0 0 0 -1972804.2108421326 18855763.244565651 0 18855763.244565651 -34661214.642555684 0 0 0 0 -36290154.762609482 19134163.3332811 0 19134163.3332811 -81834373.528932005 0 0 0 0 11276888.434944153 26777789.144489914 0 26777789.144489914 -116080384.01292926 0 0 0 0 610449908.83151627 601304697.84239483 0 601304697.84239483 476089930.85800171 0 0 0 0 473927871.35449982 707946343.27142525 0 707946343.27142525 438847342.66462326 0 0 0 0 -12307759.46095334 24534197.229277 0 24534197.229277 -26694794.156566493 0 0 0 0 47998562.515640259 40862442.152165592 0 40862442.152165592 -62773969.339014113 0 0 0 0 -14366572.636670753 24193171.548110075 0 24193171.548110075 -37755673.139087901 0 0 0 0 879436895.63275146 699858746.35556316 0 699858746.35556316 181615910.76955032 0 0 0 0 818140348.82533455 508774281.41406512 0 508774281.41406512 11526119.131332397 0 0 0 0 510093889.43556213 537975000.68902683 0 537975000.68902683 -170980576.02229118 0 0 0 0 605000903.38111877 369875010.2981596 0 369875010.2981596 120142797.17006874 0 0 0 0 811892599.29618835 451331369.89017296 0 451331369.89017296 187497079.99634784 0 0 0 0 674782947.50613594 601549097.21431684 0 601549097.21431684 34264654.027942657 0 0 0 0 481380325.30718231 328962330.71554756 0 328962330.71554756 132301426.1855526 0 0 0 0 573603386.24975586 295984911.00242424 0 295984911.00242424 -7078761.1909725666 0 0 0 0 397487596.13154793 62556035.072872162 0 62556035.072872162 -179699728.87841415 0 0 0 0 351299653.33851624 150455297.34380531 0 150455297.34380531 -328768650.87396902 0 0 0 0 555651811.37337875 88693902.309477329 0 88693902.309477329 -332136053.45615005 0 0 0 0 379835983.80208588 647746260.29198551 0 647746260.29198551 466794155.09858894 0 0 0 0 401419973.13499641 -262770386.51636457 0 -262770386.51636457 -1004248048.574789 0 0 0 0 4982756.9001498222 1802821.6123881564 0 1802821.6123881564 -1202233.8027135339 0 0 0 0 67200104.171203613 12971062.545797348 0 12971062.545797348 -219964150.84047699 0 0 0 0 640766590.50145721 141642236.0290947 0 141642236.0290947 -283712169.85967827 0 0 0 0 1182741630.6278954 635668247.8865304 0 635668247.8865304 -212706980.05610657 0 0 0 0 293839451.49414825 421917405.5618782 0 421917405.5618782 -257880778.19247246 0 0 0 0 312266392.91426086 566599854.60531425 0 566599854.60531425 -186984366.87730789 0 0 0 0 94357033.502603531 441847264.88563251 0 441847264.88563251 -30719996.701770782 0 0 0 0 339895523.10635376 589041077.45810318 0 589041077.45810318 -169525694.7174778 0 0 0 0 240442857.64713287 395682533.56765842 0 395682533.56765842 -79801796.707431793 0 0 0 0 411494946.43763351 499159619.29482698 0 499159619.29482698 -390569174.13976479 0 0 0 0 8956426.0294944644 4133284.0515207248 0 4133284.0515207248 -2654876.7659964487 0 0 0 0 316531322.50545502 220887194.92499924 0 220887194.92499924 -699184630.45607185 0 0 0 0 185433503.10222626 263677398.03929996 0 263677398.03929996 -462952019.57151794 0 0 0 0 160816236.94332886 181396917.91335678 0 181396917.91335678 -1199452896.7148349 0 0 0 0 4105550.8813947141 2695199.9354992602 0 2695199.9354992602 -1386435.5879238807 0 0 0 0 56885722.861668587 367405627.54547083 0 367405627.54547083 -174921071.63820648 0 0 0 0 321893496.25622559 605271279.45361805 0 605271279.45361805 -62499741.468825817 0 0 0 0 459028535.53916359 398724640.98145282 0 398724640.98145282 18626672.515911102 0 0 0 0 486829068.65060425 491483238.78767014 0 491483238.78767014 -114582511.0049901 0 0 0 0 733627879.71334839 505817532.25298214 0 505817532.25298214 59019274.893517494 0 0 0 0 141838145.24391079 390013542.6942327 0 390013542.6942327 211518801.37736511 0 0 0 0 204201745.55728149 285449139.39958096 0 285449139.39958096 130691728.95125294 0 0 0 0 520780071.72094345 226629350.4595356 0 226629350.4595356 -32024091.372283936 0 0 0 0 377219765.24707794 429124873.85963249 0 429124873.85963249 12937268.142861366 0 0 0 0 369911830.52890778 376661667.33387661 0 376661667.33387661 179607033.53305721 0 0 0 0 434660211.89015198 413017406.42122078 0 413017406.42122078 191691705.19998264 0 0 0 0 165857716.90898895 506657194.99935436 0 506657194.99935436 159091370.87164879 0 0 0 0 72652337.726409912 440001035.65010118 0 440001035.65010118 116626777.39281082 0 0 0 0 278632927.56355286 439897917.34655952 0 439897917.34655952 39513255.976997375 0 0 0 0 -43893517.785919189 571888971.45202446 0 571888971.45202446 -152335392.74922848 0 0 0 0 170465986.2895546 359555990.66454458 0 359555990.66454458 -17826305.561870575 0 0 0 0 -138612854.10111713 911514112.29281402 0 911514112.29281402 -292385447.06440926 0 0 0 0 -194078229.52585602 528275974.80706382 0 528275974.80706382 -160220715.65424538 0 0 0 0 -144200706.41468811 605659100.0500946 0 605659100.0500946 -256420678.05090141 0 0 0 0 -261189678.35292816 277331526.10546398 0 277331526.10546398 -165150967.1521306 0 0 0 0 218925659.50325394 258686590.1439786 0 258686590.1439786 -205338697.13961792 0 0 0 0 184827572.89234161 296971802.48290634 0 296971802.48290634 3067110.7416138649 0 0 0 0 206432996.88671494 -1673910.3760137558 0 -1673910.3760137558 -368483018.46138382 0 0 0 0 -23563084.009586334 341745351.55640554 0 341745351.55640554 -317249923.60971451 0 0 0 0 38524524.327934265 403690579.15713286 0 403690579.15713286 -1033942432.2541504 0 0 0 0 -568836174.96205139 104536106.3299799 0 104536106.3299799 -353501678.14166832 0 0 0 0 50259557.95942688 500074496.25710678 0 500074496.25710678 -394380398.80085194 0 0 0 0 548997545.95905304 760995114.19851494 0 760995114.19851494 -343131163.22189975 0 0 0 0 309767691.84401321 236111099.27495646 0 236111099.27495646 -177341518.71389198 0 0 0 0 -684530856.27811432 376705406.41719055 0 376705406.41719055 -561962627.09524536 0 0 0 0 -451093814.41104126 1248898869.8763609 0 1248898869.8763609 -994084132.48449707 0 0 0 0 -98245842.709487915 869128596.64501762 0 869128596.64501762 -588460728.29140282 0 0 0 0 -413092765.41585636 1452912906.0297542 0 1452912906.0297542 -113089631.06573868 0 0 0 0 -128491148.38690567 846622081.55207491 0 846622081.55207491 323586212.82873154 0 0 0 0 81296082.726036072 1579952595.4420338 0 1579952595.4420338 187370712.81066704 0 0 0 0 14358370.307303935 17117166.833869271 0 17117166.833869271 6745825.8273625001 0 0 0 0 -222865933.66286469 37569590.839608192 0 37569590.839608192 38271523.486277103 0 0 0 0 -86245788.420425415 121600002.04590416 0 121600002.04590416 1240350.3015975952 0 0 0 0 -5928037.6277068853 4643565.3307847679 0 4643565.3307847679 531062.58826121315 0 0 0 0 -489210727.82179928 755143147.23040271 0 755143147.23040271 -78528244.928314209 0 0 0 0 -1834078460.386795 960406849.86265373 0 960406849.86265373 -78559068.407858849 0 0 0 0 -1629461504.6669159 645813272.88479996 0 645813272.88479996 -544256074.05747032 0 0 0 0 -2857387151.9272094 1206137977.8262982 0 1206137977.8262982 -166225655.50478745 0 0 0 0 3802879.9368359125 5882292.5216454715 0 5882292.5216454715 -12281959.835660897 0 0 0 0 -950327090.18856812 1217417856.499795 0 1217417856.499795 -2468942519.342741 0 0 0 0 -14975178.785547376 -147257895.82383001 0 -147257895.82383001 -862381195.52339554 0 0 0 0 -58783707.588821411 790894289.37504005 0 790894289.37504005 -1283208859.0487404 0 0 0 0 -835168332.44059753 1157732219.7111697 0 1157732219.7111697 -663041009.8455143 0 0 0 0 -1396645875.7488708 330203844.10437536 0 330203844.10437536 -505272687.35266495 0 0 0 0 -626325763.87531281 661997467.12452698 0 661997467.12452698 -378962098.42825794 0 0 0 0 -541350728.24767876 519819254.45964384 0 519819254.45964384 -258959261.12220955 0 0 0 0 -477329628.39707565 1004761765.9822859 0 1004761765.9822859 -337432540.79087639 0 0 0 0 -314782751.22942352 868329184.2480135 0 868329184.2480135 -208931229.01810265 0 0 0 0 -373412429.67940521 999672989.38108635 0 999672989.38108635 -323525148.01083374 0 0 0 0 -442915267.82696533 887337574.00393295 0 887337574.00393295 133974520.02864122 0 0 0 0 -187858568.82719803 668233328.74438858 0 668233328.74438858 -485614440.83667946 0 0 0 0 -105833772.13152695 456208388.23573351 0 456208388.23573351 -41746851.046360016 0 0 0 0 -312703330.94738007 878173391.64250946 0 878173391.64250946 -516074686.51854897 0 0 0 0 -117238586.23579407 509057636.97601795 0 509057636.97601795 -399798137.90618134 0 0 0 0 7273642.2687676549 10388740.522078522 0 10388740.522078522 8066395.5144785941 0 0 0 0 -415482245.90541077 393211408.78581905 0 393211408.78581905 -244827578.81950188 0 0 0 0 -463659334.79654884 333978874.40472579 0 333978874.40472579 -119065606.48779869 0 0 0 0 -407979677.17464828 251926690.51346195 0 251926690.51346195 -48872517.817131042 0 0 0 0 -105842639.11980057 164326962.41919518 0 164326962.41919518 -77247332.048444748 0 0 0 0 -409232384.77174377 362540669.2673378 0 362540669.2673378 167446209.6307478 0 0 0 0 -386327340.34523773 409472644.5531292 0 409472644.5531292 -60942442.69596529 0 0 0 0 203926098.25056076 139202119.76622772 0 139202119.76622772 -35168829.779935837 0 0 0 0 -475271417.25672913 617262023.6831255 0 617262023.6831255 149934629.49328709 0 0 0 0 700464396.32839966 571674501.98741126 0 571674501.98741126 344662418.36779594 0 0 0 0 -2847846.0848392695 4916233.4351911321 0 4916233.4351911321 -4246367.5840184689 0 0 0 0 -919593122.76048279 443734130.83690262 0 443734130.83690262 1053131418.8678703 0 0 0 0 1851370.6011698246 4552085.7922967374 0 4552085.7922967374 3479403.2316046767 0 0 0 0 -315184073.48406982 890451205.3994627 0 890451205.3994627 -858063809.80081749 0 0 0 0 -657693205.55982971 657573703.97049141 0 657573703.97049141 2003574087.2909889 0 0 0 0 -657376148.64258194 1264879521.3850794 0 1264879521.3850794 -504261559.43345642 0 0 0 0 -284371892.44230652 1037695900.7832432 0 1037695900.7832432 1360474252.0103874 0 0 0 0 -472430791.54522705 1188869245.3488617 0 1188869245.3488617 -1536170078.3849602 0 0 0 0 -1047705459.089447 -107358172.61605072 0 -107358172.61605072 1426674929.9757276 0 0 0 0 379428682.95596313 25470119.652105331 0 25470119.652105331 700825759.40393448 0 0 0 0 -3975362.4027191401 4268588.8375410736 0 4268588.8375410736 1849296.064549163 0 0 0 0 -546556461.20231247 582734851.75096798 0 582734851.75096798 -243525613.11582375 0 0 0 0 -801550984.4549408 904170600.06373405 0 904170600.06373405 -569864486.3029232 0 0 0 0 -358182022.26281166 484588017.42196572 0 484588017.42196572 -842170821.77366257 0 0 0 0 -835482145.83132935 705839919.55920792 0 705839919.55920792 -253858867.00228643 0 0 0 0 -777804062.19436836 806338508.78957868 0 806338508.78957868 -347514951.11553192 0 0 0 0 -412593042.02186966 1014917325.8210802 0 1014917325.8210802 -245677557.74236107 0 0 0 0 -265119394.92732239 913387239.88895035 0 913387239.88895035 -314015903.22491837 0 0 0 0 -291125275.54721832 998669780.78619003 0 998669780.78619003 -354494336.49629402 0 0 0 0 -318694462.55886841 899877088.8477602 0 899877088.8477602 -271766478.52110386 0 0 0 0 335357836.24234772 774777308.30006218 0 774777308.30006218 -351034825.04352903 0 0 0 0 -280033022.90789795 902159159.05371189 0 902159159.05371189 -235125863.40032768 0 0 0 0 -939901877.52246857 869751713.85631275 0 869751713.85631275 -124817037.33970451 0 0 0 0 -219413276.69695091 1203771071.7803121 0 1203771071.7803121 -156195510.99296474 0 0 0 0 1336226759.508667 924080283.84384441 0 924080283.84384441 -123801119.57070673 0 0 0 0 -6444065.0077940375 7202590.3748774156 0 7202590.3748774156 -4173092.6827938408 0 0 0 0 -1436002851.5120773 1134056600.2941008 0 1134056600.2941008 -408004817.48259079 0 0 0 0 -1070101634.9284229 736234395.6379981 0 736234395.6379981 -173224078.09817123 0 0 0 0 -920813107.59661102 660754438.66557789 0 660754438.66557789 -262450159.82620239 0 0 0 0 -845257746.74658966 788312647.81325006 0 788312647.81325006 -474019456.9618187 0 0 0 0 -829989345.25503922 679440481.97729778 0 679440481.97729778 -323096060.137043 0 0 0 0 -1058551713.5104141 406098612.06793308 0 406098612.06793308 40687927.810241699 0 0 0 0 -954069937.37394714 809946192.6237669 0 809946192.6237669 -154850903.31515503 0 0 0 0 -1061977610.6000004 752432707.68218529 0 752432707.68218529 -182444812.7955265 0 0 0 0 -2282155277.3019218 186340353.59218025 0 186340353.59218025 39811649.810712814 0 0 0 0 279468917.99726486 574411826.58308983 0 574411826.58308983 564866644.33610058 0 0 0 0 982103472.29998016 786171865.36665535 0 786171865.36665535 409124904.27220154 0 0 0 0 -15823708.076329023 17482161.177185655 0 17482161.177185655 -7613896.0322937444 0 0 0 0 -425908942.9286747 139409061.82547855 0 139409061.82547855 -93025808.300535202 0 0 0 0 -478145047.41352081 66606674.43277359 0 66606674.43277359 42776721.282518089 0 0 0 0 -253281743.55983829 40992727.641120911 0 40992727.641120911 -60606298.102500916 0 0 0 0 -331616179.20360661 320072712.34591532 0 320072712.34591532 180307772.42577362 0 0 0 0 19489844.249351501 255687928.10998535 0 255687928.10998535 89255795.324829102 0 0 0 0 62197053.397331238 369596163.23515272 0 369596163.23515272 375024056.87288857 0 0 0 0 -211591502.8152504 144936586.93398523 0 144936586.93398523 635367883.3286171 0 0 0 0 -227320924.06422043 138749265.07076359 0 138749265.07076359 837262964.92716217 0 0 0 0 -251202630.50547409 212038401.2552948 0 212038401.2552948 111573688.74828339 0 0 0 0 -310627983.59339142 101690415.4778862 0 101690415.4778862 381130962.35157585 0 0 0 0 -222667322.80332184 55170717.23841095 0 55170717.23841095 347760345.22625542 0 0 0 0 -294378036.64420319 101637278.32316971 0 101637278.32316971 468195099.45480347 0 0 0 0 -232475114.36290741 229383415.57836914 0 229383415.57836914 274600068.67020416 0 0 0 0 -212724081.41513824 51236233.590740204 0 51236233.590740204 291835602.60559273 0 0 0 0 91028521.111602783 314666293.34010506 0 314666293.34010506 -65134417.82490921 0 0 0 0 -728123190.901577 530007660.53221226 0 530007660.53221226 63629270.456663132 0 0 0 0 -291362401.98546219 291860945.25129986 0 291860945.25129986 -18975969.271255493 0 0 0 0 -603069203.06768799 781872554.1679287 0 781872554.1679287 -51454044.737567902 0 0 0 0 -1118183208.0612578 755996598.04511428 0 755996598.04511428 35332427.63923645 0 0 0 0 -1344146736.5406933 857025043.85562539 0 857025043.85562539 194041648.57530212 0 0 0 0 -243446742.92791748 1038359348.525219 0 1038359348.525219 -99870102.900449753 0 0 0 0 236461926.37171936 144674488.94172668 0 144674488.94172668 91137129.08313942 0 0 0 0 25166779.004486084 142218590.50711823 0 142218590.50711823 414713135.9902935 0 0 0 0 -5364322.5366583914 3965227.3126755059 0 3965227.3126755059 -606712.06389819086 0 0 0 0 448113895.92810822 292462608.03768921 0 292462608.03768921 56223671.09532547 0 0 0 0 -5273392.3834381253 5629988.6092503518 0 5629988.6092503518 572549.47160058469 0 0 0 0 16772927.994384766 379562387.43560219 0 379562387.43560219 736381041.35161209 0 0 0 0 -11732097.084564209 -22602002.735384941 0 -22602002.735384941 553902381.75815582 0 0 0 0 -131045325.68880081 124839003.06273746 0 124839003.06273746 297874599.70776367 0 0 0 0 89857963.489961624 210753068.38928503 0 210753068.38928503 246745460.53467178 0 0 0 0 23226050.179737091 89644953.548380852 0 89644953.548380852 43537401.654743195 0 0 0 0 -28440487.642044067 40912555.830749512 0 40912555.830749512 -7238401.3823986053 0 0 0 0 -20235999.05580318 21327686.480534405 0 21327686.480534405 -16221375.595148414 0 0 0 0 102585081.41606903 51133524.164861679 0 51133524.164861679 49691570.895683348 0 0 0 0 -10033086.612472326 6038855.7456164062 0 6038855.7456164062 14429744.361463226 0 0 0 0 -26348011.970428467 30072274.476732254 0 30072274.476732254 -5341057.8127319813 0 0 0 0 -7237670.5878562927 43564819.746767044 0 43564819.746767044 -2451776.7054862976 0 0 0 0 46492754.165592194 104027508.10219002 0 104027508.10219002 45240593.338632584 0 0 0 0 -22514447.886918709 22391756.408339344 0 22391756.408339344 -22531649.677857742 0 0 0 0 -9696206.191444397 41291797.479125977 0 41291797.479125977 -2733888.2664694786 0 0 0 0 -2290502.8897452354 49881414.186753333 0 49881414.186753333 7195346.312664032 0 0 0 0 -32650038.615192413 45443827.911587715 0 45443827.911587715 19267550.967124939 0 0 0 0 -1292496.3682301342 13802342.772714347 0 13802342.772714347 38836143.255424112 0 0 0 0 -339617944.58431625 93981065.916397095 0 93981065.916397095 -195162333.83477783 0 0 0 0 -206476354.98972702 -100689604.63166809 0 -100689604.63166809 -30531726.358131409 0 0 0 0 -44827786.999893188 104281837.28818321 0 104281837.28818321 27091450.212607384 0 0 0 0 -18329349.22434932 31085957.842016354 0 31085957.842016354 -20644443.344778396 0 0 0 0 -2424071.4814815521 47457834.687988222 0 47457834.687988222 6141862.7640380859 0 0 0 0 12124526.737838745 40837835.280893326 0 40837835.280893326 -8137726.6695156097 0 0 0 0 2204699.1279873624 8380252.9423470944 0 8380252.9423470944 28546066.618505932 0 0 0 0 -622394466.87567711 109087900.31663799 0 109087900.31663799 441904651.56074142 0 0 0 0 -24943065.323028564 44021112.586847305 0 44021112.586847305 -12419211.305580139 0 0 0 0 -186825603.05363274 100266634.59113455 0 100266634.59113455 67755023.965522766 0 0 0 0 -43674916.585899353 70856803.543408394 0 70856803.543408394 275462957.64210129 0 0 0 0 -180064134.64237976 -1615206.5297412872 0 -1615206.5297412872 268582451.04066586 0 0 0 0 -161006588.61554337 -64062241.272492409 0 -64062241.272492409 472482397.27325439 0 0 0 0 -137625806.08210373 102035004.54047823 0 102035004.54047823 467117914.93543625 0 0 0 0 1711180.836724177 4550076.3421845287 0 4550076.3421845287 10609748.02988793 0 0 0 0 -46879307.79006958 -232602212.44725895 0 -232602212.44725895 506920225.18425751 0 0 0 0 -34615387.39125061 -160185570.53430557 0 -160185570.53430557 147927024.9303627 0 0 0 0 -190985990.34039307 -65556979.396511078 0 -65556979.396511078 477982208.55661583 0 0 0 0 -190523133.62824059 -42304286.64075017 0 -42304286.64075017 840999599.42332077 0 0 0 0 232298092.72637939 1225457332.1357107 0 1225457332.1357107 472514098.95365906 0 0 0 0 621796071.3445282 740281050.73246384 0 740281050.73246384 266385547.59687614 0 0 0 0 94818061.209686279 800787176.98523331 0 800787176.98523331 479301900.25575829 0 0 0 0 -26797698.053433388 29752388.091209754 0 29752388.091209754 -15472383.527605645 0 0 0 0 198037559.06562996 324494860.3196075 0 324494860.3196075 267805305.04795265 0 0 0 0 31306612.718078613 119928666.32939339 0 119928666.32939339 -279507981.75133705 0 0 0 0 28610728.477935791 421194083.14187241 0 421194083.14187241 976575648.26837921 0 0 0 0 -273219265.97094727 203218805.57811546 0 203218805.57811546 270244329.47529221 0 0 0 0 -269456845.21392822 -139644950.40132523 0 -139644950.40132523 17026359.93106842 0 0 0 0 559725240.55989075 -192399000.09249115 0 -192399000.09249115 324096891.80944443 0 0 0 0 1417600171.0725279 868734446.70258951 0 868734446.70258951 113706831.03866577 0 0 0 0 1198617797.3357201 2113862610.3969386 0 2113862610.3969386 32149444.77935791 0 0 0 0 -1271819393.5653992 693003705.17016983 0 693003705.17016983 278373535.08968163 0 0 0 0 -495630727.38790321 2194770091.9103794 0 2194770091.9103794 499776131.27709579 0 0 0 0 -337283897.54793549 176311479.00177002 0 176311479.00177002 -6428032.2906303406 0 0 0 0 -403346875.45394897 454802193.57297325 0 454802193.57297325 -890912556.27144814 0 0 0 0 -506329072.31253433 -282954127.41436195 0 -282954127.41436195 -390065328.02677155 0 0 0 0 -13012110.438083947 3550002.0169020239 0 3550002.0169020239 -673771.19544848427 0 0 0 0 -1865491260.6391029 -433207501.00559139 0 -433207501.00559139 1040797590.5368767 0 0 0 0 -1596786527.4329681 -572491299.69439697 0 -572491299.69439697 950419860.52976608 0 0 0 0 148211773.48397064 -84198814.028198242 0 -84198814.028198242 340345345.22948456 0 0 0 0 -2289772511.5909271 -447729720.67531586 0 -447729720.67531586 933302910.21175957 0 0 0 0 1820988982.3019753 -213198695.46498013 0 -213198695.46498013 -1155587076.7177477 0 0 0 0 -1938631993.8070374 -249619505.29120255 0 -249619505.29120255 604921159.61870575 0 0 0 0 -330705113.80725098 256003816.79422951 0 256003816.79422951 -28610009.76922226 0 0 0 0 -734003358.50727081 -1076447940.8956146 0 -1076447940.8956146 -1700534045.6663189 0 0 0 0 -23746063.247088537 31887748.720459133 0 31887748.720459133 -29298514.499377549 0 0 0 0 -107384010.15907288 450213589.7761507 0 450213589.7761507 -997000282.91904831 0 0 0 0 -990833697.59172821 789935689.77346611 0 789935689.77346611 -74686199.480649948 0 0 0 0 -426159992.94129658 670558740.12513709 0 670558740.12513709 298630645.15748978 0 0 0 0 -434637774.21846521 364714735.99200368 0 364714735.99200368 202293356.40028381 0 0 0 0 -461565536.94046021 554269034.8876915 0 554269034.8876915 455278640.22661591 0 0 0 0 -434035176.03701019 -14609376.893539429 0 -14609376.893539429 174366702.14286137 0 0 0 0 -210698647.64304352 347078612.94586277 0 347078612.94586277 402741470.16247749 0 0 0 0 166940769.10585785 269882769.04782057 0 269882769.04782057 301758028.67929459 0 0 0 0 -298479569.19926453 495450125.55050087 0 495450125.55050087 472912111.69636345 0 0 0 0 -263444545.97636986 784032253.71484363 0 784032253.71484363 713142663.97089386 0 0 0 0 -132118616.33943939 621614901.09252739 0 621614901.09252739 564817939.02769279 0 0 0 0 -29752549.286045879 641814140.14184427 0 641814140.14184427 488761125.34259796 0 0 0 0 18886594.654907227 635620378.14661026 0 635620378.14661026 442400543.96077681 0 0 0 0 172763813.59335327 600012920.36765957 0 600012920.36765957 450332102.21038628 0 0 0 0 148966960.29335403 667620237.16537952 0 667620237.16537952 304024161.47174072 0 0 0 0 151110859.51325989 551049968.56888294 0 551049968.56888294 430758460.94713211 0 0 0 0 108143261.4871521 493796341.06151867 0 493796341.06151867 449529611.92745972 0 0 0 0 136559653.95571136 489846408.44537163 0 489846408.44537163 449557851.74431801 0 0 0 0 527693717.4234314 431271861.25331593 0 431271861.25331593 309823126.31590557 0 0 0 0 205525220.16330719 316869217.63431692 0 316869217.63431692 271828490.51309013 0 0 0 0 -21313483.592987537 22061588.571455933 0 22061588.571455933 -7242178.3112422079 0 0 0 0 601756785.01893616 -647583637.6561594 0 -647583637.6561594 102377140.54943085 0 0 0 0 601398601.04173279 613458396.10197639 0 613458396.10197639 369398854.42780685 0 0 0 0 232809824.83621216 485849232.17274189 0 485849232.17274189 446079439.74615288 0 0 0 0 233397817.51828766 521737319.5146122 0 521737319.5146122 423359260.24282265 0 0 0 0 444593309.95331573 497620771.38885307 0 497620771.38885307 376485220.93002319 0 0 0 0 283735938.66143036 542271696.91215229 0 542271696.91215229 439290349.56833839 0 0 0 0 443312814.49530792 496378232.05472088 0 496378232.05472088 467377613.19625664 0 0 0 0 253165061.28005219 401683994.0125246 0 401683994.0125246 422156270.7475338 0 0 0 0 266863529.3456459 371513863.88263929 0 371513863.88263929 214021762.33448029 0 0 0 0 278788090.52952957 543674794.80139685 0 543674794.80139685 303863538.32639503 0 0 0 0 245359706.93534851 506584229.13376427 0 506584229.13376427 319997724.45998573 0 0 0 0 255926199.66183281 477323947.24765968 0 477323947.24765968 364157232.81832123 0 0 0 0 325438885.69554138 711698275.24086761 0 711698275.24086761 -47206339.534791946 0 0 0 0 297196106.33896637 658253021.76652145 0 658253021.76652145 179649425.24168587 0 0 0 0 280355461.50232315 613336705.09602451 0 613336705.09602451 95105316.608541489 0 0 0 0 369835207.24192047 506380822.80879211 0 506380822.80879211 128091409.99966049 0 0 0 0 247208281.12290192 564086125.63786459 0 564086125.63786459 -1850417.4608516693 0 0 0 0 128687781.23979187 589163286.03055382 0 589163286.03055382 -111670631.57863045 0 0 0 0 273265947.73923492 542497852.14976501 0 542497852.14976501 -283946373.50319099 0 0 0 0 87525830.306722641 400239654.57966304 0 400239654.57966304 -263446805.60762787 0 0 0 0 317143332.44919682 565126688.89578032 0 565126688.89578032 -230262664.72576523 0 0 0 0 282015721.68666077 741883465.65974522 0 741883465.65974522 31125972.636587143 0 0 0 0 79692331.049942017 504059542.35202217 0 504059542.35202217 -134879694.49469662 0 0 0 0 329193600.06185913 671998100.41212273 0 671998100.41212273 -154916067.65658092 0 0 0 0 261687609.36385345 695099131.75624752 0 695099131.75624752 78107268.491439819 0 0 0 0 315179984.96058655 698624871.35277033 0 698624871.35277033 76594208.066425323 0 0 0 0 377796201.7984848 799238079.7782917 0 799238079.7782917 52566746.561763763 0 0 0 0 459929809.9657135 797377034.69140339 0 797377034.69140339 -44256953.388046265 0 0 0 0 354227539.78285599 775082460.55034971 0 775082460.55034971 349930919.95237732 0 0 0 0 476179882.62893677 893072204.45168686 0 893072204.45168686 184111392.54917431 0 0 0 0 287617420.81667328 894878906.26321983 0 894878906.26321983 485823177.81292915 0 0 0 0 345727988.3611908 862820271.85633659 0 862820271.85633659 280483671.47688866 0 0 0 0 189652392.2598877 902659679.41056824 0 902659679.41056824 500394035.85443115 0 0 0 0 277417866.65307236 815037942.55703115 0 815037942.55703115 288924759.00162506 0 0 0 0 274412431.71816254 776626439.1959877 0 776626439.1959877 162679753.08354855 0 0 0 0 192010187.39644241 742027533.81268883 0 742027533.81268883 377885928.31402397 0 0 0 0 148539027.90061951 820896286.65086365 0 820896286.65086365 396743934.67536449 0 0 0 0 -28846006.70044139 801614244.64907861 0 801614244.64907861 563701418.64496994 0 0 0 0 28244966.585830688 916461812.87715936 0 916461812.87715936 728366716.23426437 0 0 0 0 -4004327.4274291992 787954204.53402138 0 787954204.53402138 549247468.26309109 0 0 0 0 349021922.47470951 675190801.82959962 0 675190801.82959962 837137169.73908997 0 0 0 0 252925716.41641617 947452927.65011787 0 947452927.65011787 774500933.74690628 0 0 0 0 253957653.98231506 888733834.96584511 0 888733834.96584511 496797069.54623222 0 0 0 0 317087025.24897766 889255947.27787018 0 889255947.27787018 633387606.7938633 0 0 0 0 -251575955.49688721 498619151.20108032 0 498619151.20108032 463227993.559062 0 0 0 0 -178299206.14300537 811219249.65425968 0 811219249.65425968 1047567816.5393333 0 0 0 0 -38575095.588165283 150728871.93766594 0 150728871.93766594 -222612555.71116352 0 0 0 0 -26926380.677116394 210185948.79952145 0 210185948.79952145 76943581.908695221 0 0 0 0 -236961198.1622467 56049024.013816833 0 56049024.013816833 431712480.21893692 0 0 0 0 -300699525.40690994 -117700832.00781202 0 -117700832.00781202 62717737.249351501 0 0 0 0 1905764.3320151269 -2151124.4975491166 0 -2151124.4975491166 3978874.9196461067 0 0 0 0 -12780096.620239258 47195705.933269501 0 47195705.933269501 34023665.759208679 0 0 0 0 -29697674.591671646 10053727.663967254 0 10053727.663967254 -3169322.8786698394 0 0 0 0 -53308220.588283539 112488649.11750412 0 112488649.11750412 -36672125.262945175 0 0 0 0 29618675.043395996 498197421.70214272 0 498197421.70214272 815718169.40658092 0 0 0 0 112715003.0922935 821529153.44101572 0 821529153.44101572 -63159621.490859985 0 0 0 0 7443550.2157970667 12024335.502752006 0 12024335.502752006 7021024.7153381258 0 0 0 0 357814539.31009674 -124965790.45252419 0 -124965790.45252419 88746765.292401314 0 0 0 0 84201920.435092926 324079955.64232969 0 324079955.64232969 2009109844.207058 0 0 0 0 4146091.5234136581 11403843.438233947 0 11403843.438233947 5347121.2955978513 0 0 0 0 -36142768.894740582 18410844.838202052 0 18410844.838202052 7987032.7152210288 0 0 0 0 -25251815.782211304 -111466982.15956783 0 -111466982.15956783 787644423.86778259 0 0 0 0 -593246.09773829579 166531.32411433756 0 166531.32411433756 19814453.500326924 0 0 0 0 -91544579.502532959 23459581.828636169 0 23459581.828636169 100494220.18873119 0 0 0 0 449010325.53412628 1153701707.6773748 0 1153701707.6773748 1412069636.0803337 0 0 0 0 317238008.76695251 951904837.08262253 0 951904837.08262253 1117806199.4720974 0 0 0 0 625164233.61101532 1283234257.9638577 0 1283234257.9638577 1709188041.8126335 0 0 0 0 281439359.96071625 926419648.26835346 0 926419648.26835346 1371762131.4171791 0 0 0 0 539843654.98264408 809268043.19563437 0 809268043.19563437 1091664484.6881866 0 0 0 0 504430650.33654785 1104435054.4802208 0 1104435054.4802208 1263537781.6562996 0 0 0 0 405721031.27067947 864918896.42830467 0 864918896.42830467 868423271.71077347 0 0 0 0 245449736.20497131 903911809.92082787 0 903911809.92082787 1425254604.9828029 0 0 0 0 362578465.16469574 952045785.85908699 0 952045785.85908699 858567255.68727875 0 0 0 0 464423836.19471741 883669388.37758446 0 883669388.37758446 486188759.36696512 0 0 0 0 586003914.94010925 921920914.36245918 0 921920914.36245918 403578970.59149742 0 0 0 0 819929566.83892822 889276672.28803253 0 889276672.28803253 729558692.2200489 0 0 0 0 398203947.45539856 724852181.1068325 0 724852181.1068325 675317213.88443375 0 0 0 0 711610712.55399323 631288536.86255121 0 631288536.86255121 509445448.82891273 0 0 0 0 406512647.74186707 400603297.12824059 0 400603297.12824059 463865479.87543535 0 0 0 0 1092447658.1829834 474178168.88705254 0 474178168.88705254 1238145368.841392 0 0 0 0 504384161.56978989 731291734.23039436 0 731291734.23039436 1184358789.9265747 0 0 0 0 1213449977.4425201 1099187821.2816811 0 1099187821.2816811 1208145219.6113605 0 0 0 0 186575468.21380615 1160321607.3212242 0 1160321607.3212242 1996389656.5512366 0 0 0 0 399226443.05256081 756631953.4139123 0 756631953.4139123 1271752804.7728729 0 0 0 0 451544242.31608582 564703410.53269768 0 564703410.53269768 1917927107.6215706 0 0 0 0 201512822.55969238 973542670.93818665 0 973542670.93818665 1152430798.729517 0 0 0 0 434362889.89129639 1135482012.9875994 0 1135482012.9875994 1218306148.0760231 0 0 0 0 327794468.27357483 1196860212.4585571 0 1196860212.4585571 819878125.94180679 0 0 0 0 467786206.62110138 765101159.3284111 0 765101159.3284111 367056983.62737274 0 0 0 0 973380542.54112244 1456729041.645998 0 1456729041.645998 1013436052.4237785 0 0 0 0 1166872750.2010117 673596139.05977058 0 673596139.05977058 128290475.06070709 0 0 0 0 327521802.05366516 734219440.19611359 0 734219440.19611359 581591765.08237076 0 0 0 0 71822580.699829102 1375458129.9549217 0 1375458129.9549217 1414671481.2172279 0 0 0 0 7302431.0333404541 1245572381.6505299 0 1245572381.6505299 1202773279.4724808 0 0 0 0 499422351.21620178 1299333826.9851227 0 1299333826.9851227 958702487.60929489 0 0 0 0 602096541.32454515 1604174156.7665179 0 1604174156.7665179 1462767131.7600403 0 0 0 0 544150093.24159241 937145907.85474777 0 937145907.85474777 1427446373.0956688 0 0 0 0 -950723.02110290527 -192697760.1275177 0 -192697760.1275177 -183647848.74656677 0 0 0 0 -3044441.0500394702 4447072.3991658241 0 4447072.3991658241 6133295.2847094834 0 0 0 0 1904638683.9892426 1567137253.1665573 0 1567137253.1665573 1142871655.0480938 0 0 0 0 1382678.1294403076 -189727607.01954651 0 -189727607.01954651 -186250487.15329552 0 0 0 0 670897613.71196747 853786017.24009037 0 853786017.24009037 1106193453.6872377 0 0 0 0 671174506.75762939 849958640.29943085 0 849958640.29943085 742076297.52277184 0 0 0 0 -9721810.8326045424 7738256.2862716019 0 7738256.2862716019 9727479.6344376951 0 0 0 0 -251991305.24243927 107702673.24197388 0 107702673.24197388 789377896.24254227 0 0 0 0 -281245493.94906616 -102821578.16998672 0 -102821578.16998672 130484962.81235886 0 0 0 0 14226696.920289733 -103469145.05568066 0 -103469145.05568066 -80796756.203145832 0 0 0 0 268360506.19602966 408111072.73358917 0 408111072.73358917 -23676182.944599152 0 0 0 0 69234750.483734131 201272730.91839409 0 201272730.91839409 88102130.714007139 0 0 0 0 -2021566.1932144165 -71317009.516162872 0 -71317009.516162872 -194629838.93272781 0 0 0 0 4754990.0816393942 2654145.1495035887 0 2654145.1495035887 8488127.0663815737 0 0 0 0 -354431317.78925323 30672727.173731804 0 30672727.173731804 8457323.483001709 0 0 0 0 137602149.02009583 199685307.95652008 0 199685307.95652008 -326234781.49357605 0 0 0 0 12361490.51159668 14869576.986522675 0 14869576.986522675 -10707290.570037842 0 0 0 0 -144149589.06463623 134821678.03368187 0 134821678.03368187 -102336153.62563324 0 0 0 0 -557088.26358450577 4578861.1422931701 0 4578861.1422931701 13167845.594168358 0 0 0 0 -45269532.330169678 -5048740.1780471802 0 -5048740.1780471802 10006406.473339319 0 0 0 0 -544540.72454163432 599942.45584901422 0 599942.45584901422 19331951.705851689 0 0 0 0 10939154.044491529 2476418.2322994471 0 2476418.2322994471 5032741.3290692363 0 0 0 0 -85507987.889373779 37120930.149433136 0 37120930.149433136 20761882.096761703 0 0 0 0 -72377993.421356201 366517977.4559288 0 366517977.4559288 -376757866.31784439 0 0 0 0 -112610174.5710144 268328035.70602226 0 268328035.70602226 -184503839.6858654 0 0 0 0 44861850.38192749 183809971.98168755 0 183809971.98168755 -307946315.77558136 0 0 0 0 20508438.765097141 6782312.6482343003 0 6782312.6482343003 -554046.15342184901 0 0 0 0 -87666722.466186523 93263882.937215805 0 93263882.937215805 -133168668.29382133 0 0 0 0 13942673.391532898 8944455.4675803185 0 8944455.4675803185 10975321.65586853 0 0 0 0 -10196874.827327728 90680226.216096878 0 90680226.216096878 -65759471.866157532 0 0 0 0 -10628439.14758803 12315369.504950181 0 12315369.504950181 7186355.5112886652 0 0 0 0 510834769.23517609 472735035.63678741 0 472735035.63678741 476705552.14706039 0 0 0 0 260933936.64828491 368405922.9570961 0 368405922.9570961 537491353.61376953 0 0 0 0 359070696.94039917 492687840.8468914 0 492687840.8468914 604271452.44174194 0 0 0 0 -594008.97155120969 3267038.0058057308 0 3267038.0058057308 1254789.0650782287 0 0 0 0 484162380.43031311 861024882.22837353 0 861024882.22837353 337273626.22404861 0 0 0 0 328207671.86108398 605080882.67300415 0 605080882.67300415 103696478.27946091 0 0 0 0 220495296.85945129 721000764.17015266 0 721000764.17015266 -13399434.430335999 0 0 0 0 224711335.87168884 443893400.90213966 0 443893400.90213966 -457132745.47984505 0 0 0 0 247019407.46781921 632900095.21194077 0 632900095.21194077 -26306455.562445402 0 0 0 0 154901144.01269531 -36022733.810596466 0 -36022733.810596466 -734667502.1169672 0 0 0 0 2314744.6121048629 3218683.5417302549 0 3218683.5417302549 516425.24829533696 0 0 0 0 -315128145.68031311 467354565.48898697 0 467354565.48898697 -646102999.37115097 0 0 0 0 247310102.38726139 580769940.00645196 0 580769940.00645196 -767781635.57241058 0 0 0 0 -316245853.33190918 234425492.21142578 0 234425492.21142578 -350984787.14313507 0 0 0 0 -251370869.6769104 554715146.58182526 0 554715146.58182526 -568225603.07981777 0 0 0 0 -474921942.11555481 370304116.39617729 0 370304116.39617729 -319071261.18120575 0 0 0 0 -45809142.847351074 355761234.99424171 0 355761234.99424171 -243304872.42058706 0 0 0 0 -162098276.80276489 394874117.59993744 0 394874117.59993744 -317843444.7908659 0 0 0 0 -281450835.24993896 460506508.45301056 0 460506508.45301056 -201435576.72504807 0 0 0 0 -236080248.88766479 247204648.84700012 0 247204648.84700012 -348962507.66636658 0 0 0 0 -184461644.92726898 464488796.54572964 0 464488796.54572964 -158941813.10656357 0 0 0 0 71959104.113739014 448307047.94558334 0 448307047.94558334 -233750940.48695564 0 0 0 0 103551277.80003166 441539229.42001605 0 441539229.42001605 -269374794.81110001 0 0 0 0 119105147.27182007 447656945.05096245 0 447656945.05096245 -401170439.46720976 0 0 0 0 36863982.119010925 440792046.81487083 0 440792046.81487083 -268632787.67988205 0 0 0 0 -158279150.31054688 483742898.6608572 0 483742898.6608572 -159561929.27915573 0 0 0 0 -24086166.763912201 536118115.9147315 0 536118115.9147315 -204289931.33798599 0 0 0 0 -241825741.63795471 539247662.77869606 0 539247662.77869606 -84346672.085382938 0 0 0 0 -311215443.44754028 493722987.44707966 0 493722987.44707966 -59254741.446685791 0 0 0 0 -295768883.78643799 446745853.42464066 0 446745853.42464066 -60648970.586041451 0 0 0 0 -966814355.23447418 261268065.68759632 0 261268065.68759632 199288336.46410179 0 0 0 0 -579825.73824810237 2333388.716776371 0 2333388.716776371 4711660.2207162157 0 0 0 0 -601895098.51274109 545098872.83283806 0 545098872.83283806 364598162.65718341 0 0 0 0 645392124.66681671 606515898.16863632 0 606515898.16863632 355515169.07141113 0 0 0 0 -405648729.68740845 190002844.63524246 0 190002844.63524246 -73527622.763694763 0 0 0 0 670102.98980951984 -108426752.15160361 0 -108426752.15160361 -8597787.6697235107 0 0 0 0 -142869233.66139221 143235189.01477623 0 143235189.01477623 -83921742.276676178 0 0 0 0 -213836889.97894287 314719951.69107056 0 314719951.69107056 -205736840.33624649 0 0 0 0 -225979543.42913818 408092979.9380722 0 408092979.9380722 -178816736.34350204 0 0 0 0 -209543708.36206055 443961562.05333328 0 443961562.05333328 -150145179.90279007 0 0 0 0 -391532772.63917542 391904521.79951096 0 391904521.79951096 -82528437.043617249 0 0 0 0 -227946783.45131779 377924787.60155344 0 377924787.60155344 -104553131.58013153 0 0 0 0 -279720952.29637909 217787774.84637833 0 217787774.84637833 -184743733.12649155 0 0 0 0 -185661078.51642609 443854063.15522385 0 443854063.15522385 -669194362.58166575 0 0 0 0 299605.46636199951 335534004.0455265 0 335534004.0455265 -560111377.82539749 0 0 0 0 -43530055.551689148 260949847.76973724 0 260949847.76973724 -665964076.67313266 0 0 0 0 -88386266.747497559 603204671.66246796 0 603204671.66246796 -1140055309.4328918 0 0 0 0 183087607.12276459 -48974777.013977051 0 -48974777.013977051 -626577660.58398438 0 0 0 0 -982498395.83078003 768368159.62416077 0 768368159.62416077 -604381561.79426193 0 0 0 0 140514585.32511902 -182277897.65809631 0 -182277897.65809631 -71642426.94329834 0 0 0 0 -43083.28546333313 281702.66588371992 0 281702.66588371992 -11132981.3720783 0 0 0 0 282184388.73486328 -15673620.457557678 0 -15673620.457557678 -145428367.85596466 0 0 0 0 112107710.21522522 91384812.265235901 0 91384812.265235901 -100596334.00534153 0 0 0 0 241937.29668405652 -2305940.7243761569 0 -2305940.7243761569 -29435642.254456431 0 0 0 0 -24438014.793754578 25951223.133136749 0 25951223.133136749 -48238671.030265808 0 0 0 0 -55129549.087734222 131811076.36392879 0 131811076.36392879 -186278055.0970459 0 0 0 0 354870.61955407262 33746358.928252667 0 33746358.928252667 30122297.507648319 0 0 0 0 11208122.765220642 124626491.4420433 0 124626491.4420433 -156982973.2041893 0 0 0 0 -87874555.127105713 112682172.87302017 0 112682172.87302017 33402426.415130615 0 0 0 0 52568334.834190369 13310417.531490326 0 13310417.531490326 -25106674.690654755 0 0 0 0 -191998602.36811829 80438442.53597641 0 80438442.53597641 -57929151.539161682 0 0 0 0 -274323713.19445801 192889732.86945724 0 192889732.86945724 -211202668.77526093 0 0 0 0 -291464.03813934326 200615713.45474243 0 200615713.45474243 -351301111.68978119 0 0 0 0 28981.831398010254 96026610.267425537 0 96026610.267425537 -129970464.13538361 0 0 0 0 -118993601.90658569 233965938.68907738 0 233965938.68907738 -288624901.2399025 0 0 0 0 -72055043.917747498 86095972.133217335 0 86095972.133217335 -55403808.519134521 0 0 0 0 -79325654.972704887 43798933.196457863 0 43798933.196457863 -62708069.335708618 0 0 0 0 29434038.570831299 136871889.21946716 0 136871889.21946716 -41978934.331861496 0 0 0 0 2141439.7240718529 -504778.27720810473 0 -504778.27720810473 -46128941.70583488 0 0 0 0 -91344217.609771729 66071903.47051239 0 66071903.47051239 -100970988.02039909 0 0 0 0 43240433.621957779 134596908.38026047 0 134596908.38026047 297604308.28570557 0 0 0 0 62542649.749153137 -140969501.44058418 0 -140969501.44058418 153478429.36148071 0 0 0 0 110626180.19602966 -310689859.7439537 0 -310689859.7439537 560267734.06404877 0 0 0 0 175864.45090394467 8746893.1716430336 0 8746893.1716430336 1904942.2864560336 0 0 0 0 -465379932.97531128 323352047.42087555 0 323352047.42087555 1447033896.60466 0 0 0 0 -16208071.866012573 67099474.611059189 0 67099474.611059189 356957170.48773193 0 0 0 0 -279459.6798248291 94370248.484378815 0 94370248.484378815 287470930.69548035 0 0 0 0 -33555520.344116211 72067291.956504822 0 72067291.956504822 -76794510.380987167 0 0 0 0 1018338.9068739712 1080819.8072695732 0 1080819.8072695732 -7080829.5578925759 0 0 0 0 462841821.3109436 -341233708.18171692 0 -341233708.18171692 -446010526.56603241 0 0 0 0 31521697.354354858 1082527908.071785 0 1082527908.071785 1300917669.9116702 0 0 0 0 -148878247.92193604 497003038.21611786 0 497003038.21611786 1374984400.60672 0 0 0 0 4891046.0990906954 2121395.8662440777 0 2121395.8662440777 1610210.869772166 0 0 0 0 -283827658.64955521 111926960.03699684 0 111926960.03699684 441881154.64803314 0 0 0 0 -67910754.26764679 -180288702.07857418 0 -180288702.07857418 -461695132.26173401 0 0 0 0 99834858.365158081 312407280.10168457 0 312407280.10168457 -122900479.21829224 0 0 0 0 104890016.42341614 868825297.80222702 0 868825297.80222702 691375798.09099388 0 0 0 0 -346082504.52598572 401691830.57271194 0 401691830.57271194 770925239.87014008 0 0 0 0 50295257.71333313 1058990997.4150333 0 1058990997.4150333 919349435.74559784 0 0 0 0 -128476593.17673492 647925840.17803192 0 647925840.17803192 531995762.50279236 0 0 0 0 295211687.989151 1067928424.4490585 0 1067928424.4490585 631405244.43260193 0 0 0 0 -2605936.7696781107 1169551189.9916382 0 1169551189.9916382 1158600338.8984451 0 0 0 0 203503211.89337921 1185908628.9744301 0 1185908628.9744301 941260320.3017807 0 0 0 0 108570393.36734009 1248461915.4063873 0 1248461915.4063873 1197421111.8196011 0 0 0 0 -15027322.382125854 915598612.79527092 0 915598612.79527092 1006004130.8704529 0 0 0 0 154603217.099823 143443320.93615723 0 143443320.93615723 -7976666.8753967285 0 0 0 0 392231420.39128113 -21868026.429531097 0 -21868026.429531097 -225565246.10630798 0 0 0 0 760411596.58457184 560080522.45885658 0 560080522.45885658 141521417.59684753 0 0 0 0 122479357.03726196 176411809.93777847 0 176411809.93777847 -41184562.804779053 0 0 0 0 -119513642.42334366 718717669.86904526 0 718717669.86904526 409086460.92570496 0 0 0 0 42815204.132125854 742099532.36981201 0 742099532.36981201 537257288.35836792 0 0 0 0 255843864.50519562 878967292.89992905 0 878967292.89992905 123629154.06413269 0 0 0 0 2544078.6060333252 662792350.08163071 0 662792350.08163071 -230095963.06189728 0 0 0 0 58240747.268920898 480897023.52676773 0 480897023.52676773 -39906760.153940201 0 0 0 0 125891629.41323853 317481639.35649872 0 317481639.35649872 -154658947.67102051 0 0 0 0 220899301.13952637 751261467.07348633 0 751261467.07348633 101452012.30877686 0 0 0 0 310575008.94442749 493321391.31039429 0 493321391.31039429 -698831693.49211884 0 0 0 0 337343963.42010498 199676782.70220947 0 199676782.70220947 -717484818.87888002 0 0 0 0 -4467987.0656420588 4806190.6942590028 0 4806190.6942590028 -7946085.8786755502 0 0 0 0 -847080353.35524368 166505391.76227474 0 166505391.76227474 -3495372.1607093811 0 0 0 0 -114543061.01238251 941048536.08939171 0 941048536.08939171 -890267170.51564026 0 0 0 0 -474707366.69530296 800278119.22298145 0 800278119.22298145 -618568984.67301178 0 0 0 0 336285971.66802979 258945644.06295013 0 258945644.06295013 -1196489695.1760521 0 0 0 0 -835847483.87322617 -36705896.146705627 0 -36705896.146705627 174292495.43981934 0 0 0 0 106010109.1287384 -140164585.13807678 0 -140164585.13807678 57140885.596351624 0 0 0 0 326868932.53837585 208483024.23642731 0 208483024.23642731 -686892528.41266823 0 0 0 0 -84609181.84715271 190519724.96402931 0 190519724.96402931 393003141.74440765 0 0 0 0 4491005.1576829851 2681579.2118619382 0 2681579.2118619382 1186078.0359354541 0 0 0 0 298415464.41433716 54465267.095228195 0 54465267.095228195 106990063.54207611 0 0 0 0 185291659.57418823 64931621.102554321 0 64931621.102554321 409051770.9258728 0 0 0 0 216718939.03192139 -39841946.11031723 0 -39841946.11031723 129754300.7059741 0 0 0 0 2226388.1560037434 30478305.73657915 0 30478305.73657915 25554491.204783216 0 0 0 0 78484580.447599411 78250316.124647141 0 78250316.124647141 -110619346.50634003 0 0 0 0 150483061.45594788 -106304049.48205566 0 -106304049.48205566 74346670.806880951 0 0 0 0 -159142062.14201355 51654601.276470184 0 51654601.276470184 232509754.91506958 0 0 0 0 -273373317.39088917 349966186.22046423 0 349966186.22046423 -175847738.62300873 0 0 0 0 -322519881.18472004 -27084182.705275059 0 -27084182.705275059 145885535.31710815 0 0 0 0 142118485.02357483 -18400053.535850525 0 -18400053.535850525 79463519.825874329 0 0 0 0 -6327151.2758178711 165981560.69203568 0 165981560.69203568 -240651168.58611298 0 0 0 0 144331217.23674011 166145317.01097488 0 166145317.01097488 -358723301.09590149 0 0 0 0 57620100.558517456 17701685.325500488 0 17701685.325500488 -12005702.550422668 0 0 0 0 -711644418.09794617 -605654847.37091064 0 -605654847.37091064 -130996165.16684914 0 0 0 0 74919515.632781982 472039568.71135712 0 472039568.71135712 -1229761390.3167458 0 0 0 0 -620184960.56085396 785965471.29266357 0 785965471.29266357 -450237603.57207489 0 0 0 0 -140031242.97982788 373704160.72120667 0 373704160.72120667 -181498428.0398674 0 0 0 0 -171418791.21216583 454311470.56249619 0 454311470.56249619 -366943437.85793304 0 0 0 0 -366628024.75334167 278657779.20950317 0 278657779.20950317 -131700431.27554321 0 0 0 0 -51896875.500411987 477242964.26792526 0 477242964.26792526 -490429574.42569065 0 0 0 0 -29867267.652763367 374624019.50639725 0 374624019.50639725 -232680993.40039444 0 0 0 0 34462026.495941162 36679434.320423126 0 36679434.320423126 -89521276.421909332 0 0 0 0 143990474.32946777 170285738.53334427 0 170285738.53334427 -854540684.99346161 0 0 0 0 -4389826.5481872559 111273590.9862709 0 111273590.9862709 -21759425.577665329 0 0 0 0 -24804203.808746338 234083022.01380157 0 234083022.01380157 -399986640.4094224 0 0 0 0 -103812449.59465408 60464834.968492508 0 60464834.968492508 -46118980.187438965 0 0 0 0 13957224.283044815 36724276.778832436 0 36724276.778832436 46553100.834159851 0 0 0 0 -67602104.504077911 27616808.898078442 0 27616808.898078442 54909611.235427856 0 0 0 0 21739619.263150513 37254687.832923353 0 37254687.832923353 31211340.135284871 0 0 0 0 160242594.18406677 150853856.50205803 0 150853856.50205803 59809256.5068326 0 0 0 0 -185604959.71383667 41473439.942169189 0 41473439.942169189 18521753.926122665 0 0 0 0 46047899.860113144 121925613.80532742 0 121925613.80532742 22445849.500953674 0 0 0 0 -8593333.4342764616 23991817.383055344 0 23991817.383055344 -10330463.364333659 0 0 0 0 -17762995.467811584 148567862.55278063 0 148567862.55278063 13547479.726661682 0 0 0 0 -167245361.54866028 -24443689.706066132 0 -24443689.706066132 65111267.433357239 0 0 0 0 400760716.60211945 207438028.92119408 0 207438028.92119408 -196246750.27220535 0 0 0 0 342252282.31742096 499238993.70165634 0 499238993.70165634 -776292875.94377136 0 0 0 0 420398349.1978302 262400114.14727783 0 262400114.14727783 -102626071.26544189 0 0 0 0 151581326.78941345 220201550.77820396 0 220201550.77820396 23196867.588912964 0 0 0 0 20866603.567142487 -17897738.210593224 0 -17897738.210593224 -9196819.8454742432 0 0 0 0 786735983.27000618 112007296.84216541 0 112007296.84216541 -1309377822.9743652 0 0 0 0 16840777.231426835 33512229.847055361 0 33512229.847055361 27720136.195160806 0 0 0 0 768006539.10413361 -645737252.15204239 0 -645737252.15204239 -170715754.76178664 0 0 0 0 -13295649.565544128 131463639.01901627 0 131463639.01901627 -312732429.61986542 0 0 0 0 -7492806.9071869254 23968543.84307126 0 23968543.84307126 -9324878.6838806272 0 0 0 0 124933743.97410583 97063678.030879974 0 97063678.030879974 -5475207.8151568174 0 0 0 0 -89710552.368965149 -41784147.421901703 0 -41784147.421901703 35345270.731842041 0 0 0 0 -598092262.72699261 257084292.60416651 0 257084292.60416651 86712165.812423706 0 0 0 0 147681821.51764679 792865144.86179352 0 792865144.86179352 -1003318846.5155487 0 0 0 0 -3177203.3333240747 6040463.4955312423 0 6040463.4955312423 -8900514.8452419937 0 0 0 0 89050763.879882812 -254349160.52143097 0 -254349160.52143097 -1460858298.6945381 0 0 0 0 64358876.546546936 173798869.06022453 0 173798869.06022453 -603703959.44410706 0 0 0 0 134026687.46882439 25953922.476990223 0 25953922.476990223 -453217875.94872284 0 0 0 0 -85443724.361679077 156731096.69929695 0 156731096.69929695 350130311.83714676 0 0 0 0 179515732.62364197 89550535.314426422 0 89550535.314426422 52289936.061222076 0 0 0 0 -78865852.693878174 21716476.592781544 0 21716476.592781544 35054293.328811646 0 0 0 0 65309946.000753403 244886526.65550995 0 244886526.65550995 -101024281.36927795 0 0 0 0 37468077.863538295 40249248.267705455 0 40249248.267705455 29620440.071010038 0 0 0 0 -15054561.860321045 115641233.31108475 0 115641233.31108475 -89844832.171382904 0 0 0 0 -22568383.870711058 11878404.859057918 0 11878404.859057918 -3652026.3472686335 0 0 0 0 38210549.45892334 -49436855.260181427 0 -49436855.260181427 27725279.867347717 0 0 0 0 -123219485.57692719 539497774.99292946 0 539497774.99292946 80310668.248332977 0 0 0 0 -28401330.595657557 14499287.484205954 0 14499287.484205954 12911119.523040554 0 0 0 0 -314463771.16616821 177889840.74975586 0 177889840.74975586 704743367.14498901 0 0 0 0 -43526830.860143661 145621223.76280022 0 145621223.76280022 123147244.48226929 0 0 0 0 28483600.795123577 39409847.698323116 0 39409847.698323116 26856115.789078929 0 0 0 0 329465.29668816924 5478125.6945762783 0 5478125.6945762783 19000068.05688034 0 0 0 0 -33504989.319595337 -295259869.86780167 0 -295259869.86780167 307208604.42506075 0 0 0 0 4633242.1318206787 113790874.49075317 0 113790874.49075317 -289271635.46080399 0 0 0 0 222781489.33766174 -228620820.16910553 0 -228620820.16910553 -228543233.63081443 0 0 0 0 -18456011.337776184 104731125.18133545 0 104731125.18133545 -166282080.04881287 0 0 0 0 -5401152.215057373 101579051.22040749 0 101579051.22040749 -194167250.73478699 0 0 0 0 39104397.682006836 158667793.84100342 0 158667793.84100342 -181835747.06740284 0 0 0 0 6900236.6864318848 127940277.33261871 0 127940277.33261871 -137875291.09775543 0 0 0 0 -24617808.303665161 144340163.14021683 0 144340163.14021683 -144281327.15396881 0 0 0 0 9040742.2869873047 172839598.0424614 0 172839598.0424614 -120150526.67815399 0 0 0 0 -42423525.553085327 168444176.32131577 0 168444176.32131577 -119274711.81240845 0 0 0 0 -25672691.891216278 146397044.74393082 0 146397044.74393082 -118872761.07572937 0 0 0 0 220134938.85116577 85189566.906539917 0 85189566.906539917 -177474669.99799919 0 0 0 0 76403036.401416779 233410166.98347092 0 233410166.98347092 -161376118.44257355 0 0 0 0 -76303635.306274414 249659554.37179947 0 249659554.37179947 -158052520.02712059 0 0 0 0 -122936544.76872253 116142525.36925507 0 116142525.36925507 -169977036.34741592 0 0 0 0 -98260947.309188843 111940434.62561417 0 111940434.62561417 -112638887.3355484 0 0 0 0 -61152707.18989563 169681311.82978058 0 169681311.82978058 -132067081.02518845 0 0 0 0 -1204949.064994812 87528321.242757797 0 87528321.242757797 -173285940.53686523 0 0 0 0 9587477.2814846039 120402991.31661034 0 120402991.31661034 -113116904.91046906 0 0 0 0 -8760105.5070667267 70257919.235013008 0 70257919.235013008 -80697693.938217163 0 0 0 0 -51222702.376022339 141967738.45215607 0 141967738.45215607 -97657907.64676857 0 0 0 0 47242330.043485254 44315987.813576311 0 44315987.813576311 26466696.903045751 0 0 0 0 138858061.0351181 -14636711.259647369 0 -14636711.259647369 -84217908.921572685 0 0 0 0 145468279.68428802 -3659273.0774116516 0 -3659273.0774116516 -66539543.610401154 0 0 0 0 135830158.23583984 -54102358.137447357 0 -54102358.137447357 -82822180.024616241 0 0 0 0 75311061.052070618 -8210989.4582386017 0 -8210989.4582386017 -84260487.615672112 0 0 0 0 42253549.0994789 42676470.675534874 0 42676470.675534874 30955475.420302376 0 0 0 0 8722424.8752212524 115894599.92442322 0 115894599.92442322 -121372271.84733582 0 0 0 0 31016969.593082428 78833354.586961746 0 78833354.586961746 -158110038.50578308 0 0 0 0 20116509.081771851 81153689.71131897 0 81153689.71131897 -154031299.18941879 0 0 0 0 22898720.242050171 71875276.270931244 0 71875276.270931244 -161445528.42895508 0 0 0 0 19013862.417486191 78697247.301013947 0 78697247.301013947 -134694104.93054199 0 0 0 0 -2866011.1348114014 50159986.05607605 0 50159986.05607605 -160349543.95463562 0 0 0 0 -62774456.585693359 61702801.043395996 0 61702801.043395996 -88066416.31048584 0 0 0 0 -3828983.5962524414 77520127.998931885 0 77520127.998931885 -128239771.01029968 0 0 0 0 43404.752471923828 108964020.69558716 0 108964020.69558716 -96091083.935897827 0 0 0 0 -5797929.168920517 101066253.73947811 0 101066253.73947811 -84746401.856414795 0 0 0 0 -14545819.119873047 -14280652.4529953 0 -14280652.4529953 285978949.19408417 0 0 0 0 -19105072.04385376 109438793.5218277 0 109438793.5218277 -71116788.265014648 0 0 0 0 13986515.939880371 137235081.49157715 0 137235081.49157715 -59665581.473655701 0 0 0 0 47392721.286212772 41625670.602617785 0 41625670.602617785 26376533.876987796 0 0 0 0 41940972.071121216 143340167.35263062 0 143340167.35263062 -72623700.603271484 0 0 0 0 88277899.550872803 155521674.89717102 0 155521674.89717102 -69746598.271408081 0 0 0 0 10408559.65979594 743330.17377969623 0 743330.17377969623 -9207287.4898004383 0 0 0 0 -1659754.572845459 -104669627.08920288 0 -104669627.08920288 269283239.85029602 0 0 0 0 -47091223.331726074 66660734.132202148 0 66660734.132202148 -101148531.34571838 0 0 0 0 -4148951.2846984863 98473515.948272705 0 98473515.948272705 -92823723.226715088 0 0 0 0 -21776648.307525635 103784760.36247253 0 103784760.36247253 -72423839.041992188 0 0 0 0 -25157902.897155762 107153027.60308838 0 107153027.60308838 -75280853.081207275 0 0 0 0 5577787.5713500977 128929654.35597229 0 128929654.35597229 -66888658.312416077 0 0 0 0 4189318.2069091797 126705148.91851807 0 126705148.91851807 -70078047.933807373 0 0 0 0 636924.14399719238 136069316.66064072 0 136069316.66064072 -51450055.667785645 0 0 0 0 50488792.246337891 160004921.52346802 0 160004921.52346802 -45994052.230228424 0 0 0 0 33377271.547241211 135453265.08151245 0 135453265.08151245 -54927574.059921265 0 0 0 0 32653541.358337402 143648530.29464722 0 143648530.29464722 -47163166.131700516 0 0 0 0 78317814.291946411 137651793.20186615 0 137651793.20186615 -28226886.544464111 0 0 0 0 36792263.026123047 142259447.71331787 0 142259447.71331787 -60136046.41998291 0 0 0 0 -3494827.9660797119 133373128.9914856 0 133373128.9914856 -58984894.851074219 0 0 0 0 -26903899.536376953 -77538639.489227295 0 -77538639.489227295 246363209.26809263 0 0 0 0 -16007320.225708008 -101488909.74523926 0 -101488909.74523926 214399036.30647659 0 0 0 0 -574963.21508789062 -64797231.226020813 0 -64797231.226020813 156222190.48855591 0 0 0 0 -3958111.2381286621 -56614208.459487915 0 -56614208.459487915 176108116.36367798 0 0 0 0 -6825014.5678710938 -57958795.16758728 0 -57958795.16758728 223411746.82995987 0 0 0 0 331304.48846435547 -7564210.1972351074 0 -7564210.1972351074 247513814.82268453 0 0 0 0 11765272.406433105 -9788066.408416748 0 -9788066.408416748 201423672.81462097 0 0 0 0 45444289.76260376 53202226.868644714 0 53202226.868644714 256115087.47707367 0 0 0 0 82201053.937133789 67228110.458480835 0 67228110.458480835 226851728.39512634 0 0 0 0 -67836835.184402466 77956811.964519501 0 77956811.964519501 -86071087.907470703 0 0 0 0 -40667513.152587891 106287922.3927002 0 106287922.3927002 -75808993.36529541 0 0 0 0 393615900.9203186 -83041061.348327637 0 -83041061.348327637 -481471060.76078796 0 0 0 0 182762517.21232605 95178463.323284149 0 95178463.323284149 163539924.61174011 0 0 0 0 -417851480.42534256 307870798.33461189 0 307870798.33461189 499949868.12387085 0 0 0 0 -499258759.57223511 12848463.976425171 0 12848463.976425171 953538673.15374756 0 0 0 0 214938632.32119751 -97144045.233154297 0 -97144045.233154297 162634367.88623047 0 0 0 0 266305491.84272766 -7717009.3383903503 0 -7717009.3383903503 131717890.93496704 0 0 0 0 130486267.13809204 158457929.08312988 0 158457929.08312988 -71301527.216903687 0 0 0 0 203891482.11682129 155435883.50076294 0 155435883.50076294 -73125423.392074585 0 0 0 0 89973807.759979248 148804370.13056946 0 148804370.13056946 -42991869.949798584 0 0 0 0 123198938.75891113 -131454045.53613281 0 -131454045.53613281 190329436.72729492 0 0 0 0 67867.049501538277 -78260278.12786597 0 -78260278.12786597 160048386.09204102 0 0 0 0 -136645.38006591797 -101530429.49904633 0 -101530429.49904633 199241620.23031616 0 0 0 0 73041379.703231812 -93538394.126152039 0 -93538394.126152039 137902666.9908905 0 0 0 0 -504488.86776733398 -95091064.91242218 0 -95091064.91242218 188017559.56698608 0 0 0 0 69871243.340057373 -134203878.07725525 0 -134203878.07725525 195556656.53403854 0 0 0 0 88364931.539474487 -65161531.113733292 0 -65161531.113733292 154654134.29394531 0 0 0 0 95083149.191329956 417698.854347229 0 417698.854347229 132830606.00115967 0 0 0 0 139284548.1619873 -53383117.139602661 0 -53383117.139602661 136014271.87513733 0 0 0 0 25072119.023101807 -33358114.820495605 0 -33358114.820495605 135635030.23097324 0 0 0 0 68769348.075546265 -6486067.8456115723 0 -6486067.8456115723 101565509.45755005 0 0 0 0 -10100491.137359619 32194490.36945343 0 32194490.36945343 132680085.33287907 0 0 0 0 19945194.385025024 95628832.163284302 0 95628832.163284302 164252625.36735535 0 0 0 0 137604178.01583862 32874349.659973145 0 32874349.659973145 132456998.24788761 0 0 0 0 -65573038.345977783 -26083853.143920898 0 -26083853.143920898 56304473.740447998 0 0 0 0 -22263609.730155945 -1228999.9010009766 0 -1228999.9010009766 -4951733.8079223633 0 0 0 0 -32630829.114624023 12199434.107299805 0 12199434.107299805 98295313.618598938 0 0 0 0 26210660.323524475 -58900402.823604584 0 -58900402.823604584 74781837.591369629 0 0 0 0 -50240754.778610229 -20652630.612556458 0 -20652630.612556458 58286134.949077606 0 0 0 0 1456481.4636764526 -67396687.779529572 0 -67396687.779529572 -16659626.846572876 0 0 0 0 11407121.538360596 -95944026.888549805 0 -95944026.888549805 143988792.49200439 0 0 0 0 -2960878.8558959961 -48719856.640945435 0 -48719856.640945435 113834340.19504547 0 0 0 0 11392159.300567627 -56005025.268249512 0 -56005025.268249512 82511038.818389893 0 0 0 0 3364752.9250831604 -75494909.028640747 0 -75494909.028640747 147129134.59963989 0 0 0 0 6384985.0606803894 -75954961.50646019 0 -75954961.50646019 47029456.43069458 0 0 0 0 -7872538.6338043213 -45854184.902992249 0 -45854184.902992249 84657783.688167572 0 0 0 0 4366910.2792816162 -92071550.712200165 0 -92071550.712200165 -108175638.72062683 0 0 0 0 -38528664.666259766 -29018233.195594788 0 -29018233.195594788 -25266473.115837097 0 0 0 0 -123169589.25985718 -10018874.045627594 0 -10018874.045627594 -5481583.7495346069 0 0 0 0 -24105275.480415344 -45663776.555408478 0 -45663776.555408478 -120056068.2119751 0 0 0 0 154669263.07640076 32082039.159763336 0 32082039.159763336 36713428.351379395 0 0 0 0 86658069.164886475 -20292255.001312256 0 -20292255.001312256 37582698.375823975 0 0 0 0 126068823.97167969 6309906.1494445801 0 6309906.1494445801 -8926604.3308944702 0 0 0 0 139305501.00094604 -24568922.974075317 0 -24568922.974075317 -66690680.308116913 0 0 0 0 124206662.93618774 70445359.702777863 0 70445359.702777863 149389238.99801636 0 0 0 0 112576858.04251099 38235299.439125061 0 38235299.439125061 72105004.476043701 0 0 0 0 61350062.986328125 20513999.449821472 0 20513999.449821472 128018437.01345825 0 0 0 0 53197848.929519653 27820846.588451385 0 27820846.588451385 176019252.55874634 0 0 0 0 31882987.040786743 -5855554.3944473267 0 -5855554.3944473267 158321894.56781006 0 0 0 0 39461052.939819336 -20659249.690811157 0 -20659249.690811157 100263747.20739746 0 0 0 0 21898469.217163086 -34719992.82396698 0 -34719992.82396698 90081919.213653564 0 0 0 0 18606784.624908447 -47829093.18548584 0 -47829093.18548584 114131798.23657227 0 0 0 0 69136859.965591431 -20728350.581382751 0 -20728350.581382751 32007403.023666382 0 0 0 0 42200973.644805908 -48009037.268432617 0 -48009037.268432617 22633523.496623993 0 0 0 0 73391689.58782196 3059101.7075920105 0 3059101.7075920105 95065573.052398682 0 0 0 0 107087069.27967834 -40645776.374950409 0 -40645776.374950409 -67941425.42628479 0 0 0 0 17670538.70413208 -57872376.039230347 0 -57872376.039230347 -31660926.491733551 0 0 0 0 53962843.846176147 -37724798.1483078 0 -37724798.1483078 -24931350.174377441 0 0 0 0 81036504.359146118 -62239293.46395874 0 -62239293.46395874 -118374083.3175354 0 0 0 0 69731478.72265625 -67850481.349445343 0 -67850481.349445343 -77926087.720672607 0 0 0 0 116970186.43148804 -46497371.333602905 0 -46497371.333602905 -131023402.50894928 0 0 0 0 137652834.43804932 -44319478.756252289 0 -44319478.756252289 -111830609.51735687 0 0 0 0 102422711.26620483 -34498784.003372192 0 -34498784.003372192 -29677711.193206787 0 0 0 0 116245932.65609741 -64136674.277984619 0 -64136674.277984619 -76018447.535148621 0 0 0 0 161864503.15203857 -37340203.211292267 0 -37340203.211292267 -184123031.492836 0 0 0 0 123181356.86675262 -76526069.772208214 0 -76526069.772208214 -156060317.04721069 0 0 0 0 89908758.075592041 -84466645.426597595 0 -84466645.426597595 -181940136.82359314 0 0 0 0 34139491.552856445 -61365597.174171448 0 -61365597.174171448 -117955050.69582176 0 0 0 0 91973413.519256592 -49282112.978500366 0 -49282112.978500366 -192910845.04469872 0 0 0 0 76942443.432647705 -81869764.661361694 0 -81869764.661361694 -261263361.30653381 0 0 0 0 -10580475.601150513 -48322324.093589783 0 -48322324.093589783 -242715059.29425812 0 0 0 0 130181140.06246948 -81277511.794723511 0 -81277511.794723511 -245000814.61924744 0 0 0 0 215389052.96032715 -8232478.1807098389 0 -8232478.1807098389 -250838488.68791246 0 0 0 0 -93138985.246433258 36672294.235776901 0 36672294.235776901 -192743183.54761505 0 0 0 0 -149734307.23163223 -48392710.400030136 0 -48392710.400030136 -113116960.7046814 0 0 0 0 -36895565.202987671 -71845871.527030945 0 -71845871.527030945 -160143531.69919586 0 0 0 0 -13920663.176269531 -48064540.949386597 0 -48064540.949386597 -232700214.15633392 0 0 0 0 47414263.869377136 -45717905.746294022 0 -45717905.746294022 -153992585.21826172 0 0 0 0 -141523753.29524231 -51791576.363525391 0 -51791576.363525391 -217706768.1333313 0 0 0 0 4175482.4417495728 -43854710.001300812 0 -43854710.001300812 -328988133.53440857 0 0 0 0 -109163269.88302612 -26560300.227081299 0 -26560300.227081299 -385936047.79830933 0 0 0 0 -444762019.7966156 119082261.50618362 0 119082261.50618362 -303672816.73919678 0 0 0 0 -181074886.51942492 127736847.64637518 0 127736847.64637518 -422977060.16646576 0 0 0 0 -146902513.91921997 61464269.762329102 0 61464269.762329102 -343747277.04364777 0 0 0 0 -161113141.2707243 -36226234.847594976 0 -36226234.847594976 -275242794.72212219 0 0 0 0 -227497956.23453522 30421895.350696564 0 30421895.350696564 -334694184.01914978 0 0 0 0 286373084.80110168 -73939506.28868866 0 -73939506.28868866 -346835268.53588009 0 0 0 0 263462731.28796387 12205380.669651985 0 12205380.669651985 -341961981.83123779 0 0 0 0 108135278.25287628 -112016508.95714188 0 -112016508.95714188 -337186368.38451385 0 0 0 0 293578331.58836365 -194653861.21399689 0 -194653861.21399689 -272870333.75907516 0 0 0 0 -60029662.587368011 -168927682.17421436 0 -168927682.17421436 -262261213.70797729 0 0 0 0 681287554.31788635 -48472634.807682037 0 -48472634.807682037 -410193379.48655319 0 0 0 0 514624724.0181427 418189891.8419342 0 418189891.8419342 -951506386.23701906 0 0 0 0 206257189.75882339 91834780.931354523 0 91834780.931354523 -100182166.14945221 0 0 0 0 183308693.00679779 462353366.47637939 0 462353366.47637939 -163808335.36954498 0 0 0 0 216776229.6891098 13742712.327014923 0 13742712.327014923 -336418839.04510498 0 0 0 0 155673186.6349287 23691797.025099516 0 23691797.025099516 -114684045.83264923 0 0 0 0 235935142.28128815 64932281.370019913 0 64932281.370019913 -208623499.37691498 0 0 0 0 149440339.08254814 -33403614.70591259 0 -33403614.70591259 -151605060.79692078 0 0 0 0 161833792.06484985 -37697178.568183899 0 -37697178.568183899 -177544474.68074608 0 0 0 0 131764412.41831207 193225346.79013252 0 193225346.79013252 -176902304.7177906 0 0 0 0 223500072.02276611 99125464.833301544 0 99125464.833301544 -108960413.62536716 0 0 0 0 44971421.721237183 115269354.38379669 0 115269354.38379669 349192607.75332642 0 0 0 0 42291837.402297974 449724566.57378387 0 449724566.57378387 624897274.72520256 0 0 0 0 -7159745.7474196553 7077382.9013472721 0 7077382.9013472721 -1880643.0570452772 0 0 0 0 323058285.95535278 426490075.66791153 0 426490075.66791153 -1460823331.8311996 0 0 0 0 61548457.589837074 85025113.199784935 0 85025113.199784935 -694203723.11837006 0 0 0 0 -72860073.806251526 148657153.73650742 0 148657153.73650742 -20214717.276509285 0 0 0 0 -83679581.615180969 328462035.3635788 0 328462035.3635788 -419299684.88060379 0 0 0 0 780045907.52936554 -740614837.42059135 0 -740614837.42059135 307581927.6427002 0 0 0 0 1513768099.0269318 -282374922.12612915 0 -282374922.12612915 -891480317.08003664 0 0 0 0 55374714.199691772 1117104471.0450172 0 1117104471.0450172 -213944518.43151093 0 0 0 0 8529820.1588766426 6385977.0024061054 0 6385977.0024061054 6194962.057194531 0 0 0 0 1395882874.9706268 252781517.53715897 0 252781517.53715897 -214749988.19294739 0 0 0 0 429954846.08921814 228187077.9133873 0 228187077.9133873 804407453.03392029 0 0 0 0 793384493.6525116 -63468582.514652252 0 -63468582.514652252 -278749347.56991577 0 0 0 0 1312423813.0113349 -574893635.226614 0 -574893635.226614 42191121.433189392 0 0 0 0 594593284.15950012 -150475959.36854935 0 -150475959.36854935 -60119314.445734024 0 0 0 0 875317942.67290497 41863889.646715164 0 41863889.646715164 -369881835.13732147 0 0 0 0 398763510.07025146 240671535.55881119 0 240671535.55881119 -295297881.95326996 0 0 0 0 276319770.67059326 83267783.600418091 0 83267783.600418091 9135002.7065238953 0 0 0 0 -18274501.799983978 51301014.976453781 0 51301014.976453781 -170355873.22471619 0 0 0 0 17763583.499812126 28054814.004229158 0 28054814.004229158 7220067.5009657145 0 0 0 0 587083980.63278198 217735874.64082527 0 217735874.64082527 -5625512.2295799255 0 0 0 0 -26668933.32688272 36019092.274390273 0 36019092.274390273 -22210922.17949748 0 0 0 0 -2686553633.8647156 1691950838.3871918 0 1691950838.3871918 -297265629.68559265 0 0 0 0 587267002.60962677 138400824.45359421 0 138400824.45359421 -170076845.83356476 0 0 0 0 406226005.19184113 300643622.82530975 0 300643622.82530975 -315466398.34915161 0 0 0 0 -12302157.931211531 12046148.824182678 0 12046148.824182678 -13156127.544052228 0 0 0 0 97113082.927009583 229340621.66776276 0 229340621.66776276 359659018.01099777 0 0 0 0 1761785557.5733299 -313015293.23614788 0 -313015293.23614788 485274124.884758 0 0 0 0 -10491663.647087097 13850426.853054971 0 13850426.853054971 -17185895.163630888 0 0 0 0 -2474197472.5999985 -121583079.94431496 0 -121583079.94431496 982622408.82717896 0 0 0 0 -2482006088.4036179 987523327.05886269 0 987523327.05886269 126231672.98417664 0 0 0 0 -2009556631.1644287 668613037.14936829 0 668613037.14936829 81939096.912345886 0 0 0 0 -1162371275.5363312 1332303894.586525 0 1332303894.586525 -1185590351.3243103 0 0 0 0 -719419345.71173859 353954564.27148819 0 353954564.27148819 -85294764.11803627 0 0 0 0 -908248232.55003357 770750576.20136642 0 770750576.20136642 73878226.400032043 0 0 0 0 -911765610.55879378 374732898.22909427 0 374732898.22909427 227592984.10372162 0 0 0 0 -317384209.83517075 878402093.31308556 0 878402093.31308556 -166862884.19117737 0 0 0 0 -338679599.0694046 923648098.41128922 0 923648098.41128922 406471610.04375839 0 0 0 0 -302010051.03195572 893154070.41267586 0 893154070.41267586 -356849045.33106232 0 0 0 0 -697337234.12979126 723808844.69327927 0 723808844.69327927 29599947.641296387 0 0 0 0 -211397717.18759155 603907478.70394897 0 603907478.70394897 -35074444.326293945 0 0 0 0 265052447.16162109 199417903.66112137 0 199417903.66112137 -195611355.27748489 0 0 0 0 83667153.569236755 520509587.9745369 0 520509587.9745369 -540454069.5269928 0 0 0 0 -230469034.3325882 488806345.22651672 0 488806345.22651672 -410112187.83962631 0 0 0 0 -1369481426.3382187 1338655787.8047218 0 1338655787.8047218 -532539119.71410751 0 0 0 0 -311386585.50776672 813624348.97305298 0 813624348.97305298 -1582756974.3773232 0 0 0 0 -1932087121.070446 675016808.74581146 0 675016808.74581146 333153071.80713654 0 0 0 0 -1883709409.407814 337296727.29838943 0 337296727.29838943 -259414552.97470474 0 0 0 0 -745916797.95207214 -192231275.59348679 0 -192231275.59348679 -1027981464.9004364 0 0 0 0 422226606.44313049 337367135.44930267 0 337367135.44930267 -721952259.45631409 0 0 0 0 -227745444.41855621 322503009.23602295 0 322503009.23602295 -518100328.92147064 0 0 0 0 376163574.8321228 381641903.54761505 0 381641903.54761505 -153342156.28083229 0 0 0 0 -57760076.041355133 52927264.181203842 0 52927264.181203842 -352882346.53053284 0 0 0 0 194723798.96064758 -218755091.83416367 0 -218755091.83416367 11558374.033866882 0 0 0 0 -101541855.04689407 128966681.81554794 0 128966681.81554794 -91268928.293251038 0 0 0 0 -712278804.85796356 -172620618.34830856 0 -172620618.34830856 -164187028.68447495 0 0 0 0 -282167992.89404297 -178820708.73124695 0 -178820708.73124695 -192650.80655670166 0 0 0 0 309099688.66056824 -154555233.39966965 0 -154555233.39966965 -408745233.66546631 0 0 0 0 -740591438.65299225 302488283.4995842 0 302488283.4995842 -162078605.98490143 0 0 0 0 -820998685.70171309 442107072.60119486 0 442107072.60119486 -269918249.4076767 0 0 0 0 -462279091.1339283 284171369.98227024 0 284171369.98227024 -349025487.63027954 0 0 0 0 -944960363.7808609 738009828.26985931 0 738009828.26985931 -457374095.98713684 0 0 0 0 -948245410.74781799 731871052.52541733 0 731871052.52541733 -468343043.15652466 0 0 0 0 -957554523.84053802 724519814.78171921 0 724519814.78171921 -459009537.30109406 0 0 0 0 -348632464.42624283 434716187.54665184 0 434716187.54665184 -584074424.91814137 0 0 0 0 596986641.82439137 302975581.52797318 0 302975581.52797318 23104526.224113464 0 0 0 0 401832.56838526577 7313650.6490949839 0 7313650.6490949839 -29957958.495311037 0 0 0 0 -826699624.15111923 949707596.53503513 0 949707596.53503513 -1109808762.998085 0 0 0 0 -990285447.88494873 -263978427.76521873 0 -263978427.76521873 -101424089.34397888 0 0 0 0 -16719289.802330941 10565783.450605683 0 10565783.450605683 -3707086.1374770775 0 0 0 0 5010069.574551329 37915252.376865804 0 37915252.376865804 9800611.0207484663 0 0 0 0 2116252.4577674866 53742431.892813683 0 53742431.892813683 11981486.846801758 0 0 0 0 41947222.299057007 25052636.362876892 0 25052636.362876892 -20929911.773697853 0 0 0 0 2918350.9895217419 4743054.9044249021 0 4743054.9044249021 9648862.4912087321 0 0 0 0 -706946389.11973381 31946062.161855817 0 31946062.161855817 44678124.487892151 0 0 0 0 -17104009.429311156 54639432.616912484 0 54639432.616912484 24673789.111392975 0 0 0 0 -28486406.37927866 42021438.669283561 0 42021438.669283561 -15838123.777331851 0 0 0 0 -16667894.052963257 45259433.337619781 0 45259433.337619781 17631969.192684174 0 0 0 0 2535187.1841087341 205317158.66244507 0 205317158.66244507 88479821.89169693 0 0 0 0 -6865203.4446182251 57419967.898332596 0 57419967.898332596 28651567.675643921 0 0 0 0 -8908001.6958078295 39910212.850631088 0 39910212.850631088 -21569564.458184294 0 0 0 0 -139500098.2193222 94389994.852455139 0 94389994.852455139 301498607.13294983 0 0 0 0 -8465667.44165802 204951924.78915024 0 204951924.78915024 394442893.34830475 0 0 0 0 -621233442.81488037 283766880.71860886 0 283766880.71860886 385926199.72255135 0 0 0 0 -286737178.41034698 -3066022.9237613678 0 -3066022.9237613678 109672126.23913574 0 0 0 0 29689769.443759918 641924402.11777687 0 641924402.11777687 124978575.45817566 0 0 0 0 -942111936.04621887 595821187.5000515 0 595821187.5000515 145672656.77403688 0 0 0 0 -1223681201.0545321 -404144450.23261929 0 -404144450.23261929 -41166062.579689026 0 0 0 0 -1025913500.9288521 1378333671.4152184 0 1378333671.4152184 -1844796106.9293747 0 0 0 0 -2891710435.156744 113363039.52085018 0 113363039.52085018 -119095100.98052216 0 0 0 0 -6402155.6678022407 10023769.812868977 0 10023769.812868977 -19478027.833388805 0 0 0 0 -2562214926.1577873 1220178148.1355991 0 1220178148.1355991 -532173817.41656494 0 0 0 0 -1327182138.1891174 -148913327.63298035 0 -148913327.63298035 -147174933.5120697 0 0 0 0 -1191008171.0047035 779788542.9485817 0 779788542.9485817 -438529544.91191864 0 0 0 0 -1747769946.4610138 611333022.28865433 0 611333022.28865433 -91278507.36416626 0 0 0 0 1061278388.9811649 292166872.5482235 0 292166872.5482235 -1646749759.565239 0 0 0 0 -303860745.53536606 78488094.19962883 0 78488094.19962883 254028351.54524231 0 0 0 0 117610.97579461336 -1387080.5943083167 0 -1387080.5943083167 -10719009.472269565 0 0 0 0 1942259934.4493484 300225888.17256165 0 300225888.17256165 -1825326572.0387573 0 0 0 0 -23988600.632499695 585373717.62470245 0 585373717.62470245 -1768553152.5195465 0 0 0 0 -1659398919.855032 1517108268.4018612 0 1517108268.4018612 -1022021149.5934677 0 0 0 0 -350825798.95095062 394322201.54048538 0 394322201.54048538 -805007421.22414017 0 0 0 0 -955589175.61329079 729543447.04007339 0 729543447.04007339 -446344663.09679413 0 0 0 0 -200268837.02994537 140686782.72449875 0 140686782.72449875 -503142803.16007614 0 0 0 0 -386499944.61743927 101865466.65191269 0 101865466.65191269 -496559158.25109482 0 0 0 0 -287408924.44692612 -55149167.064194679 0 -55149167.064194679 -161312903.20579529 0 0 0 0 -276286022.32453156 -10904782.555912018 0 -10904782.555912018 -201555496.64216614 0 0 0 0 -38355804.279701233 -73650401.328773499 0 -73650401.328773499 -1109373304.2202797 0 0 0 0 -511443765.69014168 473594362.98053265 0 473594362.98053265 -744041001.30535889 0 0 0 0 -221117299.36352539 32024503.293796539 0 32024503.293796539 -545014153.30007172 0 0 0 0 -341651194.27259064 57350277.447704315 0 57350277.447704315 -44804099.717330933 0 0 0 0 -387303543.43357086 179910111.7347126 0 179910111.7347126 7978914.6221466064 0 0 0 0 -10544828.389915466 233101823.06560898 0 233101823.06560898 -70744393.390167236 0 0 0 0 -38219871.392082214 182483184.06976318 0 182483184.06976318 194928626.95117188 0 0 0 0 -182663745.64682388 78119762.513968468 0 78119762.513968468 50513988.055290222 0 0 0 0 -235430619.04019928 248712498.81421661 0 248712498.81421661 197616138.77933502 0 0 0 0 22171585.89692688 240721754.81266022 0 240721754.81266022 136464066.1884079 0 0 0 0 -86548090.826324463 161676342.59043884 0 161676342.59043884 148527107.26825714 0 0 0 0 -92376447.037139893 255720558.84527588 0 255720558.84527588 208043210.20262909 0 0 0 0 -35296621.914382935 434367124.97408772 0 434367124.97408772 329168600.46647644 0 0 0 0 400379665.7902832 455920235.09909821 0 455920235.09909821 133079050.197052 0 0 0 0 -109393043.9413147 -48331020.07900238 0 -48331020.07900238 -133564498.13521194 0 0 0 0 -230798165.629879 52887371.960407257 0 52887371.960407257 25028511.970275879 0 0 0 0 -237479053.85791016 146811730.38329315 0 146811730.38329315 -13613757.3145504 0 0 0 0 -160980836.16693115 37724723.146392822 0 37724723.146392822 -141893039.36171341 0 0 0 0 -186497860.44338226 83653950.303318024 0 83653950.303318024 137791911.80937195 0 0 0 0 -152508445.60774231 188105449.75106812 0 188105449.75106812 147967150.77581024 0 0 0 0 -96357574.036132812 50818533.42993927 0 50818533.42993927 23588841.265926361 0 0 0 0 -107274795.48732758 76736824.896742821 0 76736824.896742821 107190078.28141785 0 0 0 0 60439551.449122965 50904478.947357729 0 50904478.947357729 10857012.756938443 0 0 0 0 -22428945.139465332 113847778.51837158 0 113847778.51837158 201674748.97203064 0 0 0 0 -93501335.181549072 296535915.58607483 0 296535915.58607483 -57295266.094779968 0 0 0 0 -12151424.030563354 94675829.319221497 0 94675829.319221497 199453895.74957943 0 0 0 0 -46225317.82069397 117891428.74920273 0 117891428.74920273 193413033.48905945 0 0 0 0 1880844.7771759033 77392607.470474243 0 77392607.470474243 150757371.30046082 0 0 0 0 -4296272.1247673035 92086612.011795044 0 92086612.011795044 143408513.74169922 0 0 0 0 -45187589.129516602 56911222.444519043 0 56911222.444519043 113150456.91156006 0 0 0 0 -104662525.5227356 105495518.41346359 0 105495518.41346359 173572572.03746033 0 0 0 0 -51426789.119903564 103206244.30496216 0 103206244.30496216 199492400.1493454 0 0 0 0 -49886607.925460815 107735705.77716827 0 107735705.77716827 173586814.99801636 0 0 0 0 -46807224.501403809 116246004.71458435 0 116246004.71458435 193269618.21027374 0 0 0 0 -66539430.854560852 138339730.29408836 0 138339730.29408836 184132878.59611511 0 0 0 0 -32484545.914520264 129004898.24057007 0 129004898.24057007 185980611.96504211 0 0 0 0 -74235014.632202148 112409825.53292847 0 112409825.53292847 192896282.33958054 0 0 0 0 -75776435.938369751 130625262.78417969 0 130625262.78417969 150418778.71404266 0 0 0 0 -84699332.108840942 125699311.27481461 0 125699311.27481461 175340200.45762634 0 0 0 0 -73416197.843914032 191358068.49360085 0 191358068.49360085 172252330.60386658 0 0 0 0 -20507690.922454834 134769231.6261673 0 134769231.6261673 158373986.22409058 0 0 0 0 -13786942.735832214 158135571.01127243 0 158135571.01127243 147822632.1894989 0 0 0 0 -40435317.271209717 138053370.55316925 0 138053370.55316925 177508219.11169434 0 0 0 0 -16223467.985473633 125984191.98728943 0 125984191.98728943 173348974.10736084 0 0 0 0 -35838108.275794983 108185749.83972549 0 108185749.83972549 199294898.29855347 0 0 0 0 -61267564.802581787 120665811.06143188 0 120665811.06143188 198165416.1842804 0 0 0 0 33156109.393264771 120248208.30971527 0 120248208.30971527 198209453.78911591 0 0 0 0 128902762.65830994 112653681.39382553 0 112653681.39382553 -7221924.7854919434 0 0 0 0 215965933.26806831 104358660.38957596 0 104358660.38957596 -63054525.354064941 0 0 0 0 79265827.109474182 188167351.91438437 0 188167351.91438437 42044998.181564331 0 0 0 0 188907848.29536438 246650760.23486328 0 246650760.23486328 67391284.419120789 0 0 0 0 61258421.652328491 268628144.44175339 0 268628144.44175339 73496820.736984253 0 0 0 0 62002727.339401245 260699203.19519043 0 260699203.19519043 143913884.12289429 0 0 0 0 -10222217.281997681 172761558.13850403 0 172761558.13850403 156687139.5938797 0 0 0 0 -6818924.9924163818 221869810.26035309 0 221869810.26035309 122582013.56613922 0 0 0 0 76029434.997188568 202579339.07472229 0 202579339.07472229 110482213.90841675 0 0 0 0 44910099.530578613 167819779.7170105 0 167819779.7170105 86904810.149360657 0 0 0 0 54035895.20880127 74252180.933067322 0 74252180.933067322 138329404.16425323 0 0 0 0 69582131.268890381 155614345.49609375 0 155614345.49609375 92684800.3358078 0 0 0 0 31202603.999816895 144609064.78356934 0 144609064.78356934 151831717.31062317 0 0 0 0 27085002.685684204 156459882.21125031 0 156459882.21125031 123330981.85928345 0 0 0 0 20202216.370941162 114626672.58073425 0 114626672.58073425 165116306.89437866 0 0 0 0 58323029.240112305 120599573.80310059 0 120599573.80310059 120492502.26291656 0 0 0 0 73953603.351707458 148737197.51843262 0 148737197.51843262 60785739.933776855 0 0 0 0 80543968.86177063 82879251.575523376 0 82879251.575523376 88190328.643268585 0 0 0 0 80469835.505065918 85326050.038749695 0 85326050.038749695 15177893.299690247 0 0 0 0 55060384.084251404 134105211.82530212 0 134105211.82530212 64942259.933166504 0 0 0 0 131371672.27794647 141568442.11972809 0 141568442.11972809 -24595513.871650696 0 0 0 0 77904135.663024902 151485189.76442337 0 151485189.76442337 54869821.491149902 0 0 0 0 7587175.2803166509 24081815.216193814 0 24081815.216193814 -43769596.858059213 0 0 0 0 466100677.81606293 119257994.32116318 0 119257994.32116318 -394541540.14103699 0 0 0 0 15102283.112091985 25878923.953491122 0 25878923.953491122 -26102749.022332579 0 0 0 0 80487810.060577393 105777746.71873093 0 105777746.71873093 -88634342.69039917 0 0 0 0 -1257012777.2490845 550438112.75250626 0 550438112.75250626 -106709458.69503784 0 0 0 0 482377690.9445014 -137717799.21027684 0 -137717799.21027684 -224362604.60983276 0 0 0 0 -1009878457.2452469 635407850.16088104 0 635407850.16088104 -227525562.06610107 0 0 0 0 3077636.1813757159 5279427.7106159404 0 5279427.7106159404 -1574095.1961200237 0 0 0 0 -1009785030.2199478 542944564.91452026 0 542944564.91452026 -317347652.34099579 0 0 0 0 -1106136382.9956398 453772547.12287903 0 453772547.12287903 -53215630.502426147 0 0 0 0 -351936924.27927971 11927076.892118454 0 11927076.892118454 -371051388.25172424 0 0 0 0 -978526551.2858963 415031503.31218719 0 415031503.31218719 -272868330.97087479 0 0 0 0 -8374171.0289355591 27950990.566468589 0 27950990.566468589 -49348291.835578814 0 0 0 0 -321217316.94672394 136023574.36778641 0 136023574.36778641 -80573347.840011597 0 0 0 0 478681067.94878006 725384896.03099823 0 725384896.03099823 80387510.358383179 0 0 0 0 226337974.79029846 802700085.1934166 0 802700085.1934166 178247960.98948336 0 0 0 0 686587985.14542389 145077387.61311722 0 145077387.61311722 -74255178.583659172 0 0 0 0 -3967108.3918978423 11910224.344975501 0 11910224.344975501 -7524194.4368958324 0 0 0 0 32977606.563169479 40162357.363361359 0 40162357.363361359 -32699992.330917358 0 0 0 0 21816710.694843292 51600477.742698669 0 51600477.742698669 -17708639.921264648 0 0 0 0 31605340.826812744 38081465.389846802 0 38081465.389846802 -16749196.437713623 0 0 0 0 34533018.761695862 41846396.774921417 0 41846396.774921417 -51698323.184921265 0 0 0 0 19400064.711853027 80768512.452842712 0 80768512.452842712 -83150975.612068176 0 0 0 0 27760439.687957764 56027107.226787567 0 56027107.226787567 -21495716.953109741 0 0 0 0 30140761.602111816 41888130.897018433 0 41888130.897018433 -50294678.109367371 0 0 0 0 163275271.84583592 100568885.81407046 0 100568885.81407046 6326692.8603820801 0 0 0 0 22999537.769245699 26187304.570608765 0 26187304.570608765 -8078034.3104797304 0 0 0 0 182024171.18518257 94792981.080263138 0 94792981.080263138 -105376387.83863831 0 0 0 0 184071424.23723221 79149424.514762878 0 79149424.514762878 5996562.4149074554 0 0 0 0 6722587.1101267301 10547029.278726727 0 10547029.278726727 -347581.16958415508 0 0 0 0 162019861.07019609 54880499.006699085 0 54880499.006699085 -17279999.642211914 0 0 0 0 -5846424.7115800977 10215972.867256582 0 10215972.867256582 516081.5947117582 0 0 0 0 -937846457.1770401 334460492.45455551 0 334460492.45455551 -225963218.73886108 0 0 0 0 108985036.39516449 -177352671.09235764 0 -177352671.09235764 126790339.32713318 0 0 0 0 6725477.6492233276 34437626.525146484 0 34437626.525146484 -16722717.327049255 0 0 0 0 19450034.777236938 21798190.643817902 0 21798190.643817902 11491137.832748413 0 0 0 0 16767389.307320088 22978995.4579373 0 22978995.4579373 -6928547.2710131779 0 0 0 0 27839772.142044067 17052433.667816162 0 17052433.667816162 -14514573.602111816 0 0 0 0 -32607327.227542877 2511462.5497283936 0 2511462.5497283936 32071056.071224213 0 0 0 0 -18312651.534716941 34265671.412512355 0 34265671.412512355 -6421685.9919039309 0 0 0 0 3429803.39032498 53207442.368016817 0 53207442.368016817 28434737.48157423 0 0 0 0 129729853.99371338 102301092.36503601 0 102301092.36503601 -140970174.11787415 0 0 0 0 -6424382.2756500244 100238105.96774292 0 100238105.96774292 -70377646.888332844 0 0 0 0 -17568172.44519043 68411387.9945755 0 68411387.9945755 -26141688.623180389 0 0 0 0 -24854727.809204102 113648370.36454773 0 113648370.36454773 -5939262.9738464355 0 0 0 0 -22509479.847812653 56174893.183712959 0 56174893.183712959 14562627.83605957 0 0 0 0 24980033.70022583 81689380.383758545 0 81689380.383758545 -2130982.5472335815 0 0 0 0 267101.4031490162 7660200.1080635749 0 7660200.1080635749 3151809.805884093 0 0 0 0 32466812.72122097 32049303.404492378 0 32049303.404492378 -56700765.330810547 0 0 0 0 -70108008.854923248 223263990.63024139 0 223263990.63024139 -6346055.2583770752 0 0 0 0 -197061911.89927673 -121499461.3501358 0 -121499461.3501358 4351846.7346894741 0 0 0 0 -128695476.65345764 164988707.86907959 0 164988707.86907959 -82135780.579805374 0 0 0 0 23918957.181716919 69565707.81463623 0 69565707.81463623 -104309072.00003052 0 0 0 0 -23458959.507507324 75649296.071014404 0 75649296.071014404 -6295950.839050293 0 0 0 0 -30840262.064048767 42390053.479774475 0 42390053.479774475 69494739.203048706 0 0 0 0 22286927.455245972 48765625.940376282 0 48765625.940376282 1274491.6464385986 0 0 0 0 125430906.44786072 22036497.917453766 0 22036497.917453766 -178237.26699447632 0 0 0 0 -145080692.75494385 79717688.682214737 0 79717688.682214737 23725860.194152832 0 0 0 0 -30557830.615529329 38849756.735425822 0 38849756.735425822 -9692116.895851016 0 0 0 0 3338456.9584767967 36197046.103849381 0 36197046.103849381 -16250285.611977383 0 0 0 0 -1277766.6522598267 58180711.420578003 0 58180711.420578003 7950983.0406208038 0 0 0 0 -924281.54679107666 53813481.993652344 0 53813481.993652344 40224947.69960022 0 0 0 0 -8052798.1479072571 49690125.231891632 0 49690125.231891632 37851879.63192749 0 0 0 0 -8374116.4085159302 59868405.758117676 0 59868405.758117676 36428011.219055176 0 0 0 0 603069.47343826294 64554392.401515961 0 64554392.401515961 7917959.9726333618 0 0 0 0 -11195534.244713858 36182379.582229987 0 36182379.582229987 -9321089.721503526 0 0 0 0 4142130.4860992432 80194765.005973816 0 80194765.005973816 -21596516.82824707 0 0 0 0 406707183.76235008 -188704037.87730789 0 -188704037.87730789 -154168096.34024048 0 0 0 0 29092564.053145193 27250075.579733506 0 27250075.579733506 -23663942.177731752 0 0 0 0 -15226630.136886597 40231072.265861511 0 40231072.265861511 -13399280.604053497 0 0 0 0 -107304146.28447342 50865257.836853027 0 50865257.836853027 38564857.129486084 0 0 0 0 -47242795.239025116 94798147.913764954 0 94798147.913764954 63833554.329147339 0 0 0 0 -16886412.762794495 34596963.106231689 0 34596963.106231689 69447122.988815308 0 0 0 0 -740839.90551111847 28970474.802970245 0 28970474.802970245 33786563.7442469 0 0 0 0 15179178.714424133 71001797.410049438 0 71001797.410049438 31189121.067962646 0 0 0 0 -70189.217544555664 72147117.897994995 0 72147117.897994995 53405255.956703186 0 0 0 0 -884959.72446961701 -1424079.766437903 0 -1424079.766437903 1291404.6837407947 0 0 0 0 25929391.679279327 47320971.17411232 0 47320971.17411232 1070497.8823242188 0 0 0 0 10087731.684944153 60971665.043781281 0 60971665.043781281 11430491.481750488 0 0 0 0 -18686193.145706177 50485425.250617981 0 50485425.250617981 9903724.3802394867 0 0 0 0 1665814.3700485229 25519810.703369141 0 25519810.703369141 -18041334.132286072 0 0 0 0 -15221207.224281311 60217810.744571686 0 60217810.744571686 24312018.310119629 0 0 0 0 -8480049.0707419515 67125919.508879811 0 67125919.508879811 26223936.088851929 0 0 0 0 -7291300.3696098328 57854872.659286499 0 57854872.659286499 745188.64161682129 0 0 0 0 -16455482.756649017 56707474.153024673 0 56707474.153024673 11521730.409042358 0 0 0 0 -26661994.504745483 41193475.089736938 0 41193475.089736938 -228048.61306762695 0 0 0 0 -87258200.600660324 34619155.006065369 0 34619155.006065369 3670229.4666824341 0 0 0 0 -61944087.108970642 10971447.311424255 0 10971447.311424255 -5946644.6877250671 0 0 0 0 -29025160.7591362 44337531.757328033 0 44337531.757328033 -4243927.9882965088 0 0 0 0 -55182007.772548676 26691701.09444046 0 26691701.09444046 -3902470.742177844 0 0 0 0 -55989248.092640877 31309308.044043064 0 31309308.044043064 -16621881.38180542 0 0 0 0 -31406598.388076782 44548785.845169067 0 44548785.845169067 -3447831.5939483643 0 0 0 0 -21620640.180919647 36061222.942581177 0 36061222.942581177 371742.68592071533 0 0 0 0 -25014271.508563995 44629229.446533203 0 44629229.446533203 24602.608524564592 0 0 0 0 -52812533.556772232 24086831.472002029 0 24086831.472002029 -7150973.9557418823 0 0 0 0 -67109475.284771919 40377534.225784302 0 40377534.225784302 -30901.148544311523 0 0 0 0 -5475170.4546661377 44832300.610795975 0 44832300.610795975 -104874.76263427734 0 0 0 0 -14077790.650449753 36807658.231056213 0 36807658.231056213 -165990.99022674561 0 0 0 0 -9991407.9405899048 53734900.389087677 0 53734900.389087677 7203989.1871128082 0 0 0 0 5890303.392572403 43967277.45879364 0 43967277.45879364 48417675.201210022 0 0 0 0 5845142.0590286255 47212877.577453613 0 47212877.577453613 8465192.6932525635 0 0 0 0 -10570058.541248798 63115562.715571404 0 63115562.715571404 35007911.361419678 0 0 0 0 -10098693.42263031 56764289.222278595 0 56764289.222278595 9283590.5996932983 0 0 0 0 11528988.242687225 69470613.767711639 0 69470613.767711639 16430058.179943085 0 0 0 0 -257137214.04636574 -16586315.593418121 0 -16586315.593418121 155738748.22416687 0 0 0 0 19681017.712013245 85226519.889738083 0 85226519.889738083 39572927.455093384 0 0 0 0 -5820574.4542571008 9100875.4604901932 0 9100875.4604901932 1584837.5838348269 0 0 0 0 -107067276.94842911 15912193.463245392 0 15912193.463245392 -32498779.941619873 0 0 0 0 1513164.9078312889 -1688055.6780858412 0 -1688055.6780858412 -3919304.0848398805 0 0 0 0 -504549959.83574867 -80000168.42067337 0 -80000168.42067337 33879578.245544434 0 0 0 0 128748916.28210068 106296006.1337986 0 106296006.1337986 -3002939.3653793335 0 0 0 0 -233064992.41531372 48699371.780534744 0 48699371.780534744 87568.139343261719 0 0 0 0 -112112830.88710022 137299741.49717331 0 137299741.49717331 -6218351.6098957062 0 0 0 0 -155557865.54552937 80879893.836229324 0 80879893.836229324 -55011.288223266602 0 0 0 0 -170058301.05478668 33098272.319076538 0 33098272.319076538 -69762770.678497314 0 0 0 0 -182771783.75729752 76789474.517307281 0 76789474.517307281 8637284.3120117188 0 0 0 0 -205534601.4453125 137385689.94630814 0 137385689.94630814 -92122483.767543793 0 0 0 0 -61736884.136688232 92179599.614526749 0 92179599.614526749 -63929849.314548492 0 0 0 0 -30304230.37522018 153549240.82889044 0 153549240.82889044 33130934.774780273 0 0 0 0 -28309286.29958725 72426221.204170227 0 72426221.204170227 -28064949.023902893 0 0 0 0 -181048576.71112442 101804150.27176094 0 101804150.27176094 235176398.25069427 0 0 0 0 24539571.937221527 271259528.25236416 0 271259528.25236416 327309507.16501617 0 0 0 0 1230814.1753091514 2648060.9729870856 0 2648060.9729870856 2221722.7890518606 0 0 0 0 122247907.71834958 266054290.79599959 0 266054290.79599959 -278940798.18329239 0 0 0 0 117685678.4274292 396419489.15097427 0 396419489.15097427 46187595.560237885 0 0 0 0 -106828973.56874084 171492828.56379318 0 171492828.56379318 252163438.80924988 0 0 0 0 117696834.60358047 146550028.33553791 0 146550028.33553791 74333984.730308533 0 0 0 0 -46511377.160829693 43552251.42219317 0 43552251.42219317 -14683159.200772204 0 0 0 0 -46302603.402178258 47863254.038979672 0 47863254.038979672 -16776574.654326685 0 0 0 0 -68545147.039543152 107983978.80665588 0 107983978.80665588 -37775026.036897659 0 0 0 0 -105643985.73001099 106216140.2510376 0 106216140.2510376 19446776.289970398 0 0 0 0 16770206.756486893 224456265.09708309 0 224456265.09708309 -42139753.861244202 0 0 0 0 23728127.767868042 204772598.59667683 0 204772598.59667683 -11304524.735168457 0 0 0 0 64264852.891403198 170810257.45484924 0 170810257.45484924 -22202946.727361679 0 0 0 0 35430769.634506226 186275199.1979847 0 186275199.1979847 -52237308.146514893 0 0 0 0 -41315156.040367126 185164851.19517899 0 185164851.19517899 61559278.72753334 0 0 0 0 -37486413.522247314 75126679.068225861 0 75126679.068225861 550660.59172821045 0 0 0 0 76339828.574951172 73143340.658683777 0 73143340.658683777 -23829680.157485962 0 0 0 0 125263352.05609131 87233291.771774292 0 87233291.771774292 -19941452.876022339 0 0 0 0 49097547.759536743 157947118.04025269 0 157947118.04025269 -20166370.26159668 0 0 0 0 172470151.07896423 146451425.26600075 0 146451425.26600075 -25683186.36946106 0 0 0 0 91843580.03352356 151167239.55607605 0 151167239.55607605 18398330.382469177 0 0 0 0 210859707.53857422 122956151.32878113 0 122956151.32878113 -37478596.70967865 0 0 0 0 260951505.45648193 150669755.96954346 0 150669755.96954346 -74205328.492591858 0 0 0 0 6782491.2571372986 -142633.69942855835 0 -142633.69942855835 124647267.81549072 0 0 0 0 123427681.30510712 70982659.883071899 0 70982659.883071899 31146147.284423828 0 0 0 0 499830575.95741272 -31689834.540016174 0 -31689834.540016174 -7147832.9353485107 0 0 0 0 144845506.91168213 -355129871.45179749 0 -355129871.45179749 543161023.76263428 0 0 0 0 17892779.411407471 -28281776.984405518 0 -28281776.984405518 144949809.21020508 0 0 0 0 35456148.869560242 173001448.59337616 0 173001448.59337616 -65796953.035003662 0 0 0 0 39625453.189369202 194629581.59494019 0 194629581.59494019 -35999789.264328003 0 0 0 0 33943497.970153809 166719266.82373047 0 166719266.82373047 -19607714.573867798 0 0 0 0 85453334.93598175 174387236.07281876 0 174387236.07281876 -39179047.230010986 0 0 0 0 71921455.763137817 159835621.92409515 0 159835621.92409515 -39687127.329620361 0 0 0 0 61457572.850494385 172522963.49702454 0 172522963.49702454 -21338897.580688477 0 0 0 0 42252826.685668945 148439909.60032654 0 148439909.60032654 -34391542.341491699 0 0 0 0 17074822.980743408 137132799.79777527 0 137132799.79777527 -61888270.266998291 0 0 0 0 12224460.128082275 151090227.24885559 0 151090227.24885559 -45614587.857978821 0 0 0 0 29485833.371765137 159170177.94325256 0 159170177.94325256 -40336161.410385132 0 0 0 0 27841788.055145264 130727335.89875793 0 130727335.89875793 -154648614.72322845 0 0 0 0 27048041.641906738 143086733.51435852 0 143086733.51435852 -75280589.839096069 0 0 0 0 14628280.196231842 115306234.8312912 0 115306234.8312912 -115166756.91703796 0 0 0 0 50209709.812683105 166262830.98678589 0 166262830.98678589 -98262520.68365097 0 0 0 0 29632603.643264771 185269212.63117981 0 185269212.63117981 -48797401.113708496 0 0 0 0 18651274.39982605 109871582.82241821 0 109871582.82241821 -109190343.08243942 0 0 0 0 12685050.315231323 127738368.12002563 0 127738368.12002563 -136813520.58985901 0 0 0 0 -11480874.889291763 63086849.09536171 0 63086849.09536171 -211518527.20605469 0 0 0 0 18885478.79133606 105103188.82304382 0 105103188.82304382 -160259927.8346405 0 0 0 0 56066906.438285828 117412567.25374222 0 117412567.25374222 -288158960.66264343 0 0 0 0 133426802.72842026 229935566.47746849 0 229935566.47746849 -137961998.08560944 0 0 0 0 25301450.96875 228299487.95977402 0 228299487.95977402 -55478750.569915771 0 0 0 0 3623436.4746395946 4746941.6795087755 0 4746941.6795087755 3178245.8184056878 0 0 0 0 -89222729.405464172 326207996.98859024 0 326207996.98859024 -293456433.11922073 0 0 0 0 -118236126.41481018 139434892.17482758 0 139434892.17482758 -171158904.45877826 0 0 0 0 -67980235.935497284 197812950.09339905 0 197812950.09339905 -309101236.28002167 0 0 0 0 1646367.2410363257 2560512.1885904968 0 2560512.1885904968 1420137.083768189 0 0 0 0 144541363.73503876 341366696.07397461 0 341366696.07397461 -476398839.37263489 0 0 0 0 17585877.544624329 280627385.93149185 0 280627385.93149185 -41396748.064605713 0 0 0 0 -135848792.51712799 255977687.9797554 0 255977687.9797554 -43598740.894790649 0 0 0 0 -32652064.263931274 134737033.8527565 0 134737033.8527565 -398972764.16541481 0 0 0 0 -197498255.6859169 119680836.16862488 0 119680836.16862488 5414476.384853363 0 0 0 0 -127538556.6463712 227489226.40724227 0 227489226.40724227 110356141.68373108 0 0 0 0 -127203615.75159454 104161705.03556824 0 104161705.03556824 221617426.06983185 0 0 0 0 -236820120.43997955 132710469.29322815 0 132710469.29322815 387971118.04434204 0 0 0 0 -200346061.66756439 78779277.034374237 0 78779277.034374237 394137585.40296936 0 0 0 0 -147352014.85829163 4392071.2253913879 0 4392071.2253913879 496712183.69995117 0 0 0 0 -38296090.763717651 34986379.980903625 0 34986379.980903625 241009683.94309235 0 0 0 0 -77171703.950531006 179399918.15555954 0 179399918.15555954 383227696.46616745 0 0 0 0 -69457547.047912598 27291077.026168823 0 27291077.026168823 624047287.03903198 0 0 0 0 -18866290.962089539 181153500.70493317 0 181153500.70493317 370357389.38389969 0 0 0 0 -70748291.426864624 280118491.14232159 0 280118491.14232159 301262120.70218658 0 0 0 0 43456668.318878174 160444727.04695129 0 160444727.04695129 401384149.07271385 0 0 0 0 -175809216.12838745 140395646.43990326 0 140395646.43990326 399915516.7700901 0 0 0 0 -150716864.13804626 278159473.83458328 0 278159473.83458328 338273287.1824379 0 0 0 0 -194978874.55137634 69656757.727455139 0 69656757.727455139 156789862.04488373 0 0 0 0 -117153931.35631561 264125613.9520092 0 264125613.9520092 423880945.89425659 0 0 0 0 -43746490.348954052 43911943.549529873 0 43911943.549529873 -13849521.606356457 0 0 0 0 -49036456.772270203 118311859.50205994 0 118311859.50205994 145516207.81339836 0 0 0 0 -25622098.598949432 117901325.50025177 0 117901325.50025177 -36663826.300071716 0 0 0 0 -39335260.198057085 42479356.485052511 0 42479356.485052511 -20412536.818958607 0 0 0 0 -70383976.518760681 171406884.84689331 0 171406884.84689331 572839410.40176392 0 0 0 0 -10866430.679912567 96818918.555942535 0 96818918.555942535 -6551303.7404251099 0 0 0 0 -24122276.996360779 132210571.49793243 0 132210571.49793243 -7357435.9837186337 0 0 0 0 601373.5212020874 109598391.39731979 0 109598391.39731979 -41246763.772434235 0 0 0 0 -66795169.659008026 92763312.440868378 0 92763312.440868378 -24448213.485519409 0 0 0 0 -22753964.848777771 123645421.47742653 0 123645421.47742653 -24717489.034797668 0 0 0 0 -29470435.01461792 122152777.64501572 0 122152777.64501572 -25023685.605979919 0 0 0 0 -34908992.62556076 126415677.62462616 0 126415677.62462616 -36808.623764038086 0 0 0 0 103929112.63213348 50026832.609682083 0 50026832.609682083 -32277343.210830688 0 0 0 0 -1962736.4140193164 -702967.82253915071 0 -702967.82253915071 2639835.8315629065 0 0 0 0 -29126336.813179016 119832788.61107254 0 119832788.61107254 -4040947.143119812 0 0 0 0 23834758.630157471 140702304.32438278 0 140702304.32438278 -12866.579254150391 0 0 0 0 -42232623.337471008 54022199.566638947 0 54022199.566638947 -31949474.164703369 0 0 0 0 -52955360.19165802 95869299.459434509 0 95869299.459434509 -34824982.360818863 0 0 0 0 30878495.632041931 100201615.99232483 0 100201615.99232483 -35829976.504875183 0 0 0 0 -27608770.146799892 37658727.04134994 0 37658727.04134994 -29525877.064722493 0 0 0 0 -61764344.633338928 73695641.312000275 0 73695641.312000275 -60604703.21762085 0 0 0 0 -62363108.32824707 389615458.36390686 0 389615458.36390686 -291857022.72975159 0 0 0 0 -42557115.849365234 127680154.38853073 0 127680154.38853073 -17062512.057723999 0 0 0 0 -87966015.007659912 -24278613.909225464 0 -24278613.909225464 467918360.21212769 0 0 0 0 51987363.74503994 332080163.56237483 0 332080163.56237483 752208072.74774933 0 0 0 0 -5868922.8276343644 -1413533.1800181642 0 -1413533.1800181642 12759391.742692143 0 0 0 0 -180212744.09988403 116059144.50650024 0 116059144.50650024 561648086.99094391 0 0 0 0 -454161.76747336984 5453102.7832350284 0 5453102.7832350284 -10336039.260676939 0 0 0 0 -281620084.78938293 233987618.14595795 0 233987618.14595795 424530479.6854248 0 0 0 0 21625476.944763184 64593565.823783398 0 64593565.823783398 468552523.73175049 0 0 0 0 -135888133.23666382 112569804.2625885 0 112569804.2625885 492813663.84695959 0 0 0 0 -222002982.78231812 52321393.685028076 0 52321393.685028076 480791231.57662964 0 0 0 0 -272202563.19503784 154403238.44086838 0 154403238.44086838 314287256.93840027 0 0 0 0 -192425362.0821228 18198178.974655151 0 18198178.974655151 455336263.94064331 0 0 0 0 -175057599.52400208 23329348.859901428 0 23329348.859901428 278795035.61043549 0 0 0 0 -65471963.842147827 84428557.627166748 0 84428557.627166748 51116825.708267212 0 0 0 0 -21855670.30696106 -17387915.250530243 0 -17387915.250530243 248558819.62490845 0 0 0 0 -84510233.614685059 79256996.164199829 0 79256996.164199829 276664104.43320847 0 0 0 0 -197385055.99521637 317951831.41879082 0 317951831.41879082 -147673656.18029785 0 0 0 0 19559109.989074707 26263000.109672546 0 26263000.109672546 88513127.101036072 0 0 0 0 80323399.65663147 -145846659.29356384 0 -145846659.29356384 189939778.24305344 0 0 0 0 -15321026.260964632 4005422.2336527407 0 4005422.2336527407 -840793.37417934835 0 0 0 0 -11364491.265060425 28683286.947235107 0 28683286.947235107 96783884.500217438 0 0 0 0 -36430567.881538391 12994399.474163055 0 12994399.474163055 -14989517.614784241 0 0 0 0 -85965945.140701294 64628127.698665619 0 64628127.698665619 25534576.455192566 0 0 0 0 1436870.5836060941 18508485.104011029 0 18508485.104011029 18769357.384699166 0 0 0 0 -21426535.392496347 37191915.220388696 0 37191915.220388696 -33054565.24828051 0 0 0 0 -48152456.385131836 32387131.670562744 0 32387131.670562744 174648126.22254092 0 0 0 0 -68867513.662337303 26981788.042833328 0 26981788.042833328 -35104903.921676636 0 0 0 0 -11826767.930854797 11229874.372802734 0 11229874.372802734 127257063.96217346 0 0 0 0 -74953267.439865112 -7549943.6000671387 0 -7549943.6000671387 174925983.73170471 0 0 0 0 -106486135.28788376 -155407551.05449152 0 -155407551.05449152 -74005137.723831177 0 0 0 0 -36786702.230224609 -32673783.814117432 0 -32673783.814117432 59992913.763894081 0 0 0 0 -23527911.634552002 41105062.384735107 0 41105062.384735107 -30848210.933589935 0 0 0 0 -45013276.375167847 54052078.599811554 0 54052078.599811554 -13024628.953109741 0 0 0 0 -8583350.3586972952 7993639.1513025761 0 7993639.1513025761 -4767877.4952561259 0 0 0 0 -62085318.558582306 48071666.554246902 0 48071666.554246902 -9671411.5865783691 0 0 0 0 -13680807.769943237 11241736.224639893 0 11241736.224639893 -6499649.3043136597 0 0 0 0 -29806536.671077102 28212183.240893409 0 28212183.240893409 -750727.41871881485 0 0 0 0 -55041745.696136475 39033943.497055054 0 39033943.497055054 -24452111.882751465 0 0 0 0 -27701312.200897217 11596958.864837646 0 11596958.864837646 -13242.762283325195 0 0 0 0 -5321821.6784841716 4770078.9909896851 0 4770078.9909896851 -949914.02328415215 0 0 0 0 -15925819.926888973 11033103.231782489 0 11033103.231782489 -6321029.7124142349 0 0 0 0 -29561602.699615479 26166511.082092285 0 26166511.082092285 -5678906.3663787842 0 0 0 0 -17838730.948471069 34627573.433914185 0 34627573.433914185 -13766887.179695129 0 0 0 0 -25472026.048278809 18843717.808883667 0 18843717.808883667 -4392390.8324451447 0 0 0 0 -56808504.077667236 35880024.06288147 0 35880024.06288147 -5310117.7478027344 0 0 0 0 4246731.3502426147 14137299.618217468 0 14137299.618217468 -19240003.173423767 0 0 0 0 -5472683.8691252768 777048.86343641579 0 777048.86343641579 232082.16134020686 0 0 0 0 -33391890.67414093 40525427.54410553 0 40525427.54410553 -38265.401229858398 0 0 0 0 -62220119.42225647 26397187.565643311 0 26397187.565643311 -6914541.3710403442 0 0 0 0 -33476911.613876343 48729243.649715424 0 48729243.649715424 -17947769.994277954 0 0 0 0 -2265477012.1530151 1187557693.5112 0 1187557693.5112 272441.78299628099 0 0 0 0 185311.21838760376 406275614.64262772 0 406275614.64262772 -248689592.07756805 0 0 0 0 -1783418253.5721817 2269570756.4983253 0 2269570756.4983253 -828218124.14362335 0 0 0 0 -482632416.63890076 -253755112.48674774 0 -253755112.48674774 -53254879.489730835 0 0 0 0 -6251628.7361877859 3463462.8822122067 0 3463462.8822122067 -2144333.1016107798 0 0 0 0 -60687395.054676056 68253025.715436935 0 68253025.715436935 -79748192.799942017 0 0 0 0 20050911.374420166 -12173804.718757629 0 -12173804.718757629 -203865627.28842926 0 0 0 0 -15085652.002952605 11738985.793056898 0 11738985.793056898 -7356077.3131371588 0 0 0 0 -4213979.480057314 9383651.4148880243 0 9383651.4148880243 -8096092.0201308429 0 0 0 0 -189001360.82972717 64087341.032485962 0 64087341.032485962 -11489462.769821167 0 0 0 0 -61045181.091094971 -10255720.9780159 0 -10255720.9780159 -28476502.107196808 0 0 0 0 -153855323.76409912 804409.04498291016 0 804409.04498291016 -5954048.0851135254 0 0 0 0 -93227254.082046509 42344284.146713257 0 42344284.146713257 -22915639.63243103 0 0 0 0 -195260839.90491676 218455851.61739445 0 218455851.61739445 -148328547.2247467 0 0 0 0 -186557001.29862642 76676514.456120014 0 76676514.456120014 -14729689.41796875 0 0 0 0 -351609.77710312605 -119576.1666893661 0 -119576.1666893661 -2617627.1751914918 0 0 0 0 -10289.61606387049 2915070.5078218877 0 2915070.5078218877 -1416453.6674416661 0 0 0 0 -45833312.694339752 -4057414.0538043976 0 -4057414.0538043976 -162189920.80576324 0 0 0 0 81503633.463973999 33836217.325557709 0 33836217.325557709 6394196.2445373535 0 0 0 0 -6284917.830078125 134410736.30261993 0 134410736.30261993 287654423.68224335 0 0 0 0 1217994.5048947036 -768610.31185141206 0 -768610.31185141206 -1728214.3279017061 0 0 0 0 -40230508.934814453 497064798.46744919 0 497064798.46744919 1283398931.6761856 0 0 0 0 22194.531951642326 49870085.794009298 0 49870085.794009298 379085115.83140564 0 0 0 0 358663014.77086639 -220005731.99792099 0 -220005731.99792099 982144056.43087769 0 0 0 0 333107045.2988205 529281216.96879959 0 529281216.96879959 616174909.43544769 0 0 0 0 -121503561.48654175 504758640.15961456 0 504758640.15961456 1206561791.4203568 0 0 0 0 261454082.72216034 -507441824.1186409 0 -507441824.1186409 851426792.76604462 0 0 0 0 -120662696.64579773 197129605.85429382 0 197129605.85429382 184026281.19509888 0 0 0 0 3636210.9908313453 3530276.076584816 0 3530276.076584816 9570926.6639463603 0 0 0 0 -216984532.97497559 -71606333.864639282 0 -71606333.864639282 1359473152.2611771 0 0 0 0 -94504422.307357788 -141146764.48542786 0 -141146764.48542786 540686965.41242981 0 0 0 0 -232667070.29829407 42994238.908943176 0 42994238.908943176 614061701.48871422 0 0 0 0 -123397280.52084351 -28899240.373037338 0 -28899240.373037338 644520964.68363953 0 0 0 0 -227065907.95619202 46680877.779037476 0 46680877.779037476 471642045.42157364 0 0 0 0 -219369780.83750153 36431933.823677063 0 36431933.823677063 484775841.64217377 0 0 0 0 -213851876.56092072 142117901.97180557 0 142117901.97180557 284730003.42692566 0 0 0 0 -242925368.76836395 169422399.70018196 0 169422399.70018196 536312033.95737457 0 0 0 0 -230982871.60238647 275225566.65356064 0 275225566.65356064 332234166.99542236 0 0 0 0 -205555983.65426636 251622889.08422089 0 251622889.08422089 291130954.41914678 0 0 0 0 -98345187.105148315 191137223.29774094 0 191137223.29774094 600628864.15795898 0 0 0 0 -286947566.24578857 264638019.27010345 0 264638019.27010345 764529254.85541534 0 0 0 0 -236412976.74443054 501885523.27270889 0 501885523.27270889 465775718.87033463 0 0 0 0 -107735336.92897797 351139871.66976357 0 351139871.66976357 18891463.550292969 0 0 0 0 -271824015.61752319 481995821.50788116 0 481995821.50788116 125429887.30193329 0 0 0 0 -27435458.323570251 421154158.87841606 0 421154158.87841606 -352167825.51707458 0 0 0 0 -182952150.87287903 228159275.87320328 0 228159275.87320328 279712756.62272263 0 0 0 0 -62636098.515312195 741745605.29031372 0 741745605.29031372 -640455599.96327996 0 0 0 0 193600039.376791 457993463.39956284 0 457993463.39956284 -347607283.65246582 0 0 0 0 -593043866.66068649 531080865.75390816 0 531080865.75390816 -47591939.794136047 0 0 0 0 -182729432.74211884 62171184.301902771 0 62171184.301902771 -683729252.65956497 0 0 0 0 100733819.5452652 -13282834.563446045 0 -13282834.563446045 -227625565.06196594 0 0 0 0 -15294.079050159224 263459155.8811962 0 263459155.8811962 354740858.74345398 0 0 0 0 92504067.054862976 181190833.28657913 0 181190833.28657913 186677165.41125488 0 0 0 0 -67850979.495506287 393328967.02392006 0 393328967.02392006 35563413.090400696 0 0 0 0 -1135690862.6915073 1385287156.090888 0 1385287156.090888 -1414254573.1925049 0 0 0 0 -32281621.262853444 34178557.334621921 0 34178557.334621921 -26786853.456277847 0 0 0 0 -299799612.37129593 60967438.552402496 0 60967438.552402496 -416551734.3792305 0 0 0 0 157608726.8170929 1304922507.6413803 0 1304922507.6413803 -1050666435.1879272 0 0 0 0 815859466.54750824 751482810.79641724 0 751482810.79641724 -1595400967.6618347 0 0 0 0 1729983752.3602791 -190121692.69216156 0 -190121692.69216156 -869941299.25452423 0 0 0 0 413511346.06781197 596851900.92276573 0 596851900.92276573 597914222.75352478 0 0 0 0 51361710.399665833 737501744.15324593 0 737501744.15324593 -502815766.15247726 0 0 0 0 29394670.355300903 541470105.10197449 0 541470105.10197449 -610490646.32901382 0 0 0 0 -8058538.1972432546 8216142.3989425488 0 8216142.3989425488 -5811606.5303350091 0 0 0 0 93111162.166297913 677849133.52855873 0 677849133.52855873 -678236108.5344944 0 0 0 0 -44055686.897163391 575325186.76291656 0 575325186.76291656 -598221143.54084015 0 0 0 0 -45950770.085418701 603955388.23420334 0 603955388.23420334 -873932830.57210159 0 0 0 0 -341369678.13024616 487348590.52669382 0 487348590.52669382 -753675473.59353638 0 0 0 0 -302765412.54355621 673190036.67679214 0 673190036.67679214 -640713093.49509048 0 0 0 0 -160151056.46669769 737264256.81013489 0 737264256.81013489 -150067970.68768883 0 0 0 0 -270841753.28926086 595519266.06248283 0 595519266.06248283 -205036021.14837646 0 0 0 0 -156592677.02122688 402214539.67556286 0 402214539.67556286 -498632025.75005341 0 0 0 0 15880995.750814438 572814535.61121368 0 572814535.61121368 -421228975.48059845 0 0 0 0 21769162.726661682 538242683.88175392 0 538242683.88175392 -588570779.3769722 0 0 0 0 -74274913.053115606 160481207.1963098 0 160481207.1963098 830915005.33917999 0 0 0 0 -41852341.899473362 33890224.983125068 0 33890224.983125068 -20051765.614851564 0 0 0 0 17255654.467978001 681109932.09244204 0 681109932.09244204 303411651.68656921 0 0 0 0 601211578.1629715 808892838.38080215 0 808892838.38080215 -282554104.44216919 0 0 0 0 416366771.45943069 832236616.46504974 0 832236616.46504974 1398667539.4474983 0 0 0 0 354685457.11206818 29615357.884887695 0 29615357.884887695 870604574.86429977 0 0 0 0 530073961.31757832 756571220.83206749 0 756571220.83206749 956292828.13415527 0 0 0 0 -1397644.198551178 1137456580.314621 0 1137456580.314621 1166875162.6618681 0 0 0 0 -206836470.35297775 903206973.76428223 0 903206973.76428223 1674148472.7883835 0 0 0 0 196468109.54653931 1644699200.1584473 0 1644699200.1584473 1138437843.8971405 0 0 0 0 -18585885.254424915 14129357.301315859 0 14129357.301315859 -3730006.0977621078 0 0 0 0 -143106315.4708786 302156491.85531616 0 302156491.85531616 791976889.30413437 0 0 0 0 -402369036.4577713 405938123.12084961 0 405938123.12084961 1608644087.7225113 0 0 0 0 -592066098.14028168 851405874.74400139 0 851405874.74400139 90138710.454360962 0 0 0 0 -275537336.02593994 748747338.95548248 0 748747338.95548248 1117889025.3597565 0 0 0 0 57784918.830947876 402496388.31285095 0 402496388.31285095 228017524.56529236 0 0 0 0 536706201.90307236 510355174.69783783 0 510355174.69783783 -213116414.03642273 0 0 0 0 -358860572.82127476 244120490.41393852 0 244120490.41393852 2547322598.8023567 0 0 0 0 35092658.528064728 93329951.337989807 0 93329951.337989807 1111491024.2530212 0 0 0 0 1159944792.599329 382941218.16040802 0 382941218.16040802 1381515183.2298279 0 0 0 0 383461897.30646133 1331739660.157814 0 1331739660.157814 81477641.018218994 0 0 0 0 -364862866.43732452 1498397147.446106 0 1498397147.446106 565543778.87734985 0 0 0 0 -426576515.31417847 1091603190.7840881 0 1091603190.7840881 452479552.35293961 0 0 0 0 -346025777.87066531 1336423236.2009225 0 1336423236.2009225 56718225.680480957 0 0 0 0 -353524714.0362854 982708013.12289429 0 982708013.12289429 -146539758.76882935 0 0 0 0 -1007441577.4287043 796973960.4724617 0 796973960.4724617 -302932327.12873077 0 0 0 0 -949867427.84111404 -280362915.8634758 0 -280362915.8634758 3450072260.9684105 0 0 0 0 -2502231.7576995566 3802305.460599333 0 3802305.460599333 4409942.0502025485 0 0 0 0 63270661.772947311 832462823.92438126 0 832462823.92438126 845872734.04206848 0 0 0 0 236704267.37954426 840483833.979105 0 840483833.979105 102317489.65784454 0 0 0 0 178714929.18183517 256507960.94730377 0 256507960.94730377 -245609042.55986404 0 0 0 0 -11264776.058552735 7729976.3958685994 0 7729976.3958685994 -1548568.4881847799 0 0 0 0 242315454.58391857 914904777.49593544 0 914904777.49593544 -226296758.78253937 0 0 0 0 89165294.098451614 136721086.80181885 0 136721086.80181885 559052744.89579201 0 0 0 0 72671353.970278263 213400669.90588665 0 213400669.90588665 213958587.02340698 0 0 0 0 76515543.859975815 218095720.21765137 0 218095720.21765137 218491919.36849976 0 0 0 0 -174475311.97668648 245148370.4210968 0 245148370.4210968 1456981369.290123 0 0 0 0 905634.03033363819 16120385.794640005 0 16120385.794640005 7996909.23396568 0 0 0 0 68521143.779737473 497779911.89848328 0 497779911.89848328 82922845.313682556 0 0 0 0 221628869.22019577 415025264.32435608 0 415025264.32435608 124306978.03317261 0 0 0 0 127076122.47546244 577077600.86776924 0 577077600.86776924 316705967.20710754 0 0 0 0 144294114.1436038 447762988.43167305 0 447762988.43167305 62423318.636550903 0 0 0 0 157368798.90648937 421834984.27225494 0 421834984.27225494 42437958.888336182 0 0 0 0 210413765.01620102 336623819.41988373 0 336623819.41988373 -344195286.44316101 0 0 0 0 201966546.48510075 572491210.30303574 0 572491210.30303574 -251964067.63074493 0 0 0 0 202944644.20863724 249201768.98156738 0 249201768.98156738 -713293838.5720253 0 0 0 0 393009763.97333002 47240956.392700195 0 47240956.392700195 -890000477.806427 0 0 0 0 -717586782.4777832 541259728.40111542 0 541259728.40111542 -356467863.23054886 0 0 0 0 -678408622.19067955 696361737.63467216 0 696361737.63467216 -288622490.25399017 0 0 0 0 531483728.19329071 726417786.75571442 0 726417786.75571442 -1130146018.9625397 0 0 0 0 506679840.40975761 1279558793.7524681 0 1279558793.7524681 -417687257.91358185 0 0 0 0 -568232974.47620964 214741758.15428734 0 214741758.15428734 147229785.61943054 0 0 0 0 -4299567.3609862253 6933210.8793347627 0 6933210.8793347627 -9885240.2668251395 0 0 0 0 87043747.821388245 213775725.05033112 0 213775725.05033112 -98839493.962615967 0 0 0 0 12379563.82333374 200878351.18178177 0 200878351.18178177 141951544.51192045 0 0 0 0 -89460532.782833099 435477173.2774086 0 435477173.2774086 -174614708.38432312 0 0 0 0 152004024.5314362 217611525.95014954 0 217611525.95014954 21539110.861167908 0 0 0 0 -14645572.363337819 18136115.693173088 0 18136115.693173088 -27487112.336955696 0 0 0 0 12573327.941673279 188466287.05687332 0 188466287.05687332 17578954.817401886 0 0 0 0 51441749.476595402 200181194.19575691 0 200181194.19575691 -56780623.827720642 0 0 0 0 -8188210.8221761212 36980789.901424229 0 36980789.901424229 -38066635.449464023 0 0 0 0 187307203.72749805 52629026.550086975 0 52629026.550086975 -48934281.137504578 0 0 0 0 66890627.14163208 146825529.34540117 0 146825529.34540117 -130906897.9895401 0 0 0 0 86956347.590686798 184166609.0667572 0 184166609.0667572 -150395210.34838867 0 0 0 0 68371316.51550281 168165172.90728784 0 168165172.90728784 -157666866.76569366 0 0 0 0 -28088185.064403534 254407314.15039062 0 254407314.15039062 -235058209.53157043 0 0 0 0 19999862.88991607 12119070.577596873 0 12119070.577596873 -30072407.108474225 0 0 0 0 208478913.90952396 14647919.209770203 0 14647919.209770203 -79169110.265625 0 0 0 0 129977289.48706818 118247396.93767548 0 118247396.93767548 -178669424.98818117 0 0 0 0 71751127.381183624 183316414.68227768 0 183316414.68227768 -83677346.579025269 0 0 0 0 101983305.34854507 134411338.6171875 0 134411338.6171875 -94737666.041519165 0 0 0 0 61368642.051927567 192838993.1393013 0 192838993.1393013 -100536656.62019348 0 0 0 0 89997250.634544373 193186794.95669174 0 193186794.95669174 -220035867.46749878 0 0 0 0 -44154195.646209717 327705213.97887421 0 327705213.97887421 -255264012.40507317 0 0 0 0 44326422.242954254 173507305.77005005 0 173507305.77005005 -113998035.35244751 0 0 0 0 76527930.619668961 85183481.955692291 0 85183481.955692291 -20348748.413391113 0 0 0 0 56108905.082561493 65524390.649604797 0 65524390.649604797 -31685082.557723999 0 0 0 0 19720880.827178955 90015186.748748779 0 90015186.748748779 -20400878.829086304 0 0 0 0 -85576526.473664284 194534448.66399193 0 194534448.66399193 183550561.36424255 0 0 0 0 -493701339.24147034 813593110.84336853 0 813593110.84336853 -145279906.59881592 0 0 0 0 -275011480.6353035 -189159517.03334808 0 -189159517.03334808 499394984.20069885 0 0 0 0 2061875.1811047047 2050918.0465505421 0 2050918.0465505421 -4261905.2816481143 0 0 0 0 28487140.942136765 53872351.334367752 0 53872351.334367752 24610059.037658691 0 0 0 0 29366977.873095512 8766083.9426817745 0 8766083.9426817745 -24513370.032005258 0 0 0 0 94061421.465105057 -137823987.00141907 0 -137823987.00141907 48445748.150238037 0 0 0 0 5943189.6199455261 15962892.977153778 0 15962892.977153778 -18032838.976558208 0 0 0 0 76347540.582485199 56596052.086582184 0 56596052.086582184 -245726018.65657043 0 0 0 0 15148441.751070969 23958703.075768977 0 23958703.075768977 -29813593.163871869 0 0 0 0 52402860.485790253 50631518.932064056 0 50631518.932064056 -13246200.488296509 0 0 0 0 9265445.766592199 11067282.925482001 0 11067282.925482001 -21548624.187473178 0 0 0 0 56823779.694976807 12099848.810350418 0 12099848.810350418 -104155786.88441086 0 0 0 0 37534035.561634287 5844894.5395345241 0 5844894.5395345241 -13714656.840547733 0 0 0 0 90878194.186309814 3821816.4727287292 0 3821816.4727287292 -245895189.74951935 0 0 0 0 139765199.2784462 -12153054.567222595 0 -12153054.567222595 -367401824.26889038 0 0 0 0 172421807.48301697 58601083.230888367 0 58601083.230888367 -245858958.55143118 0 0 0 0 135025717.26659393 58715177.073352814 0 58715177.073352814 -353640084.44463062 0 0 0 0 110346738.44717407 506856005.4592247 0 506856005.4592247 -452788222.4026413 0 0 0 0 295698151.72220993 68772725.971540451 0 68772725.971540451 -389360905.1454277 0 0 0 0 -9340693.6849076562 7962983.9265149981 0 7962983.9265149981 -8132039.540551126 0 0 0 0 -8481992.3653285466 43427147.014797367 0 43427147.014797367 -47771412.513692528 0 0 0 0 -72837383.744922876 321478159.62003231 0 321478159.62003231 -132367264.97506714 0 0 0 0 235441254.14891434 -16476871.254796982 0 -16476871.254796982 -411295516.73768616 0 0 0 0 120733923.88952446 18898162.593811035 0 18898162.593811035 -463699782.78647614 0 0 0 0 13002171.954517365 336411423.46258736 0 336411423.46258736 -599399778.50537109 0 0 0 0 50948400.364837646 183965904.94869614 0 183965904.94869614 -202409639.61196899 0 0 0 0 -85046780.382194519 451336153.21413803 0 451336153.21413803 -503225480.87858582 0 0 0 0 -20659000.215277031 45249546.033859581 0 45249546.033859581 -46550389.398151875 0 0 0 0 321259293.00672531 -180765628.07290649 0 -180765628.07290649 -707249263.78358459 0 0 0 0 11832190.355683461 -524049.89614771307 0 -524049.89614771307 -7431789.9611495435 0 0 0 0 451852313.82855225 1410762628.9897728 0 1410762628.9897728 95572371.752269745 0 0 0 0 -316850324.74739838 661265505.83041573 0 661265505.83041573 -969432247.35045624 0 0 0 0 -394999300.58102798 528830754.82350731 0 528830754.82350731 -1013307237.4093857 0 0 0 0 -149138121.96325684 446870713.55521202 0 446870713.55521202 -764002129.98970795 0 0 0 0 52775511.808425903 350020323.42003632 0 350020323.42003632 -632053437.00284767 0 0 0 0 24228724.673439026 449426636.96953583 0 449426636.96953583 -933886857.71111298 0 0 0 0 35813232.918697357 547887779.13317776 0 547887779.13317776 -757898379.94193268 0 0 0 0 -35363825.9322052 308100824.00859833 0 308100824.00859833 -706539516.42757416 0 0 0 0 131091334.21303558 61850627.721603394 0 61850627.721603394 -809833903.80683708 0 0 0 0 6761529.3484706879 365002446.78797722 0 365002446.78797722 -1197962551.3085709 0 0 0 0 -41127952.289657593 181834401.98305511 0 181834401.98305511 -915329540.48096466 0 0 0 0 -62121263.589231491 -223417366.17277908 0 -223417366.17277908 -608986006.77529144 0 0 0 0 9889881.486366272 209051164.65067673 0 209051164.65067673 -902543801.92151642 0 0 0 0 120843754.0869751 56054876.589015961 0 56054876.589015961 -377992380.75646973 0 0 0 0 90276159.25504303 -79679231.296348572 0 -79679231.296348572 -461013801.96035981 0 0 0 0 45922621.39232254 88034752.919910431 0 88034752.919910431 -464008853.20629883 0 0 0 0 2785974.8557510376 -128609096.16428757 0 -128609096.16428757 -233776342.53894806 0 0 0 0 50306604.496541291 17840222.8505769 0 17840222.8505769 -4621830.6674401537 0 0 0 0 95662592.605522156 34761114.735416412 0 34761114.735416412 7564268.0595245361 0 0 0 0 36416056.959701538 -62744118.346046448 0 -62744118.346046448 -226961866.23472023 0 0 0 0 36360781.639490291 -12202406.0821277 0 -12202406.0821277 -174337879.36785889 0 0 0 0 7281172.9325758517 5074731.0225629434 0 5074731.0225629434 4561889.6796279401 0 0 0 0 48273154.760531321 27966297.315579861 0 27966297.315579861 -7849422.5824246947 0 0 0 0 -53885924.296588898 42763464.650934219 0 42763464.650934219 25207134.051010132 0 0 0 0 -158951168.67215347 -36070360.866392136 0 -36070360.866392136 -67235075.669364929 0 0 0 0 76472804.332260132 -3056538.1754112244 0 -3056538.1754112244 -63480269.867265701 0 0 0 0 -4908235.9328403473 146410240.22451305 0 146410240.22451305 -192421189.27059937 0 0 0 0 99446424.501758575 46663432.999858856 0 46663432.999858856 -124467940.71765137 0 0 0 0 3247628.6519460678 21771484.974687088 0 21771484.974687088 -32495766.872312799 0 0 0 0 -101685946.45820999 393120410.37454605 0 393120410.37454605 -115569376.5617218 0 0 0 0 1120808740.3085022 51548866.626174927 0 51548866.626174927 -160355563.99090624 0 0 0 0 1536083.7266073823 13422145.189200878 0 13422145.189200878 -5030505.3972195741 0 0 0 0 -3628284.0945750847 6928169.7964177951 0 6928169.7964177951 -12903071.918568701 0 0 0 0 265338776.10839081 219165500.39060593 0 219165500.39060593 -2410645842.8551254 0 0 0 0 -199529565.21182251 80952294.765607834 0 80952294.765607834 -207978439.85475159 0 0 0 0 -117983077.60577393 -235733219.93420792 0 -235733219.93420792 -820351226.27845764 0 0 0 0 -957035989.72849274 653754568.90049744 0 653754568.90049744 -27834104.028465271 0 0 0 0 -2528515848.0256729 1625759422.4465828 0 1625759422.4465828 -593165668.97574615 0 0 0 0 248842931.81466675 744217304.84799576 0 744217304.84799576 -200619498.89892197 0 0 0 0 92815121.199768066 1119874861.0878067 0 1119874861.0878067 359798578.21818972 0 0 0 0 -767849582.6778183 1252681949.553421 0 1252681949.553421 -51168123.085819244 0 0 0 0 -530894191.78391266 639484571.60899067 0 639484571.60899067 83193.674133300781 0 0 0 0 -1038244701.5247841 1567860542.0202312 0 1567860542.0202312 -947821870.62364769 0 0 0 0 -856724681.86993027 1155404945.4152937 0 1155404945.4152937 -150779934.27510834 0 0 0 0 -1730346140.4534645 1940162841.5422344 0 1940162841.5422344 -1010583451.5256634 0 0 0 0 -1394695602.1298599 1450388346.76548 0 1450388346.76548 -295986254.57627106 0 0 0 0 -903768226.63262939 1107131312.8079262 0 1107131312.8079262 -297122623.27812958 0 0 0 0 -1013085585.2818241 1155399880.3993874 0 1155399880.3993874 -297711347.38658142 0 0 0 0 -1229194491.6839714 1736853004.6068268 0 1736853004.6068268 -545501138.38933563 0 0 0 0 -954296339.41204453 1367350113.9772625 0 1367350113.9772625 -1041735226.5067902 0 0 0 0 -961487360.97185516 1094749062.7120857 0 1094749062.7120857 -721611282.13134384 0 0 0 0 -746472436.86891556 847432841.83339882 0 847432841.83339882 -1054369508.9460449 0 0 0 0 -892305825.24988556 472975141.46884918 0 472975141.46884918 -900430771.75324821 0 0 0 0 -367374204.29196167 447557422.27370071 0 447557422.27370071 -329084069.11535454 0 0 0 0 -952100962.73769379 929370682.71427155 0 929370682.71427155 -506890162.61244583 0 0 0 0 -756348721.10939026 867749455.77147579 0 867749455.77147579 -632017202.3057785 0 0 0 0 -401514057.7589798 447657136.41668892 0 447657136.41668892 -283681515.44309235 0 0 0 0 -97128504.528903961 56097481.156480789 0 56097481.156480789 -167220994.74216461 0 0 0 0 -55016130.830154419 492994149.40963268 0 492994149.40963268 -459979770.03098297 0 0 0 0 -237077584.00065422 152431118.80804253 0 152431118.80804253 -103175465.29902649 0 0 0 0 -747988513.47092438 709548114.29408455 0 709548114.29408455 -285704952.7990818 0 0 0 0 -1265242399.2409325 502702771.77485275 0 502702771.77485275 -368417099.69506073 0 0 0 0 -899509042.31748962 599386013.13954926 0 599386013.13954926 -372643333.70458603 0 0 0 0 -1247883207.6116657 487107549.77764034 0 487107549.77764034 -905532636.94841766 0 0 0 0 -1781256710.4476776 612627771.08401108 0 612627771.08401108 -782114516.12014771 0 0 0 0 -2053858298.8220596 828654302.2131691 0 828654302.2131691 -598568819.52038193 0 0 0 0 -980859301.84263611 644621861.74987411 0 644621861.74987411 -836081486.82478333 0 0 0 0 -980552860.00973511 638768239.44787216 0 638768239.44787216 -734487404.2471199 0 0 0 0 -1746990563.3082047 787910202.45526505 0 787910202.45526505 -762777538.26558685 0 0 0 0 -957828736.03652954 772709397.97904587 0 772709397.97904587 -998830603.34220886 0 0 0 0 -958752020.45807362 819839613.37143481 0 819839613.37143481 -1015044662.0347519 0 0 0 0 -77728146.588284969 600526704.56038713 0 600526704.56038713 -1797789954.7352524 0 0 0 0 -2327615915.076828 1537488326.7711182 0 1537488326.7711182 -1270980963.8477631 0 0 0 0 -908673793.92891312 1132820391.958766 0 1132820391.958766 -2349014447.9633179 0 0 0 0 -2110891774.3280258 181843047.97320557 0 181843047.97320557 -1012899413.4635963 0 0 0 0 43756653.761588097 -205198196.63427734 0 -205198196.63427734 378670126.26315308 0 0 0 0 -110932313.11277771 54886220.759685516 0 54886220.759685516 46267754.584056854 0 0 0 0 -3039038.7276571542 22007360.850347899 0 22007360.850347899 35389995.177979857 0 0 0 0 -46072769.575239182 48830397.947748184 0 48830397.947748184 21602222.793941498 0 0 0 0 -75739859.593093872 37289997.461017609 0 37289997.461017609 23208625.662799835 0 0 0 0 -51206847.998045385 20209007.280857615 0 20209007.280857615 6795441.8992963284 0 0 0 0 -34710787.168240756 12623939.507513501 0 12623939.507513501 12772052.084790811 0 0 0 0 -5900317.6340633146 12052631.366228901 0 12052631.366228901 14038654.296797261 0 0 0 0 -27439468.461837769 -759142.88534832001 0 -759142.88534832001 32704765.902957916 0 0 0 0 -108434843.56858826 3114504.848526001 0 3114504.848526001 67579695.372360229 0 0 0 0 -33295643.152952194 83854852.432326317 0 83854852.432326317 93222742.331207275 0 0 0 0 -97983963.657943726 193261513.68938637 0 193261513.68938637 -67111048.674060822 0 0 0 0 -603174414.13365364 -322168482.09905815 0 -322168482.09905815 -204906475.81563187 0 0 0 0 -35082642.510398865 4708238.9569702148 0 4708238.9569702148 6677923.7381744385 0 0 0 0 -4425294.0314011052 8268197.4202437922 0 8268197.4202437922 -2836956.2637112141 0 0 0 0 -2305518205.3606472 864625684.64989519 0 864625684.64989519 298053644.38939667 0 0 0 0 -463466931.96822357 61993062.534591675 0 61993062.534591675 307530173.42023295 0 0 0 0 -416295515.46179581 345264498.89065552 0 345264498.89065552 -19056056.680587769 0 0 0 0 -1444252229.4896107 718908702.40561295 0 718908702.40561295 -18905297.577377319 0 0 0 0 -269659787.10565948 360885357.29434586 0 360885357.29434586 -164699158.10442352 0 0 0 0 -144837967.27818298 125167707.50051117 0 125167707.50051117 -97343317.684668541 0 0 0 0 -169644084.33395386 64645462.309101105 0 64645462.309101105 -14192237.134063721 0 0 0 0 -102782279.8669796 -72866082.51043129 0 -72866082.51043129 238308839.97278595 0 0 0 0 3246814.2429199219 276608673.45151901 0 276608673.45151901 39808462.812927246 0 0 0 0 4003453.4717076719 3807683.4717042744 0 3807683.4717042744 3665327.5922168642 0 0 0 0 -68681319.890274048 -179295411.32681751 0 -179295411.32681751 126112169.16298676 0 0 0 0 -63350912.860168457 22155426.00075531 0 22155426.00075531 -29439522.204928398 0 0 0 0 296330754.83460617 32919142.366065979 0 32919142.366065979 -162119215.39575958 0 0 0 0 3436512.2757087052 7377763.2563579082 0 7377763.2563579082 22831793.819878235 0 0 0 0 -165064377.24740219 114512431.04600477 0 114512431.04600477 10785474.831596375 0 0 0 0 469222881.06402969 -730459401.20297623 0 -730459401.20297623 72995803.519454002 0 0 0 0 -125133569.93243408 -35848575.035476685 0 -35848575.035476685 283568582.5754261 0 0 0 0 -361577494.41531754 -5953809.584941864 0 -5953809.584941864 454545962.74800873 0 0 0 0 -1189564760.430809 763104835.16938782 0 763104835.16938782 -311819058.6018095 0 0 0 0 -495304197.88515377 906519912.69406986 0 906519912.69406986 -802449087.92134857 0 0 0 0 -666788768.02454376 478915758.51120758 0 478915758.51120758 -655763163.05143547 0 0 0 0 -290601539.84050369 -23424657.442195892 0 -23424657.442195892 -1780344777.8906021 0 0 0 0 -260011025.06264639 -466200872.92253423 0 -466200872.92253423 -549154441.5785141 0 0 0 0 -89077635.969120026 624016295.75905609 0 624016295.75905609 -1015779719.4260178 0 0 0 0 33019197.761752129 112890255.6647625 0 112890255.6647625 -278903552.18566895 0 0 0 0 663215679.47437668 208190416.57918167 0 208190416.57918167 -549445005.06741333 0 0 0 0 133358788.15017319 502799967.01334763 0 502799967.01334763 -664220107.28259277 0 0 0 0 -360275581.12552834 497568308.87838554 0 497568308.87838554 -330579102.59552765 0 0 0 0 107670493.83474028 66738353.692705154 0 66738353.692705154 95986163.93157196 0 0 0 0 41248700.189434052 423801686.39790344 0 423801686.39790344 -299229755.31639862 0 0 0 0 189797762.77528381 60886955.039634705 0 60886955.039634705 -19544195.613670349 0 0 0 0 886059062.35292912 -428914057.96837282 0 -428914057.96837282 -275206406.58566284 0 0 0 0 59600967.259132385 -148792900.27296829 0 -148792900.27296829 25966841.722805023 0 0 0 0 79058933.652999878 352227148.08294296 0 352227148.08294296 -114615217.11091995 0 0 0 0 3225689.9212387502 4556958.6650911421 0 4556958.6650911421 7921723.1633487791 0 0 0 0 31851506.626399994 -24187375.801643372 0 -24187375.801643372 -103140088.01108932 0 0 0 0 12735698.632339478 -94392707.665466309 0 -94392707.665466309 -21077223.489173889 0 0 0 0 -31158786.334793091 -92999939.720939636 0 -92999939.720939636 43910808.506807327 0 0 0 0 35516656.568641663 110645912.57381058 0 110645912.57381058 -31730785.557594299 0 0 0 0 2982807.4820773825 2369225.6885317713 0 2369225.6885317713 137012.0831643343 0 0 0 0 23205040.714511871 113856742.96034527 0 113856742.96034527 118597748.2516861 0 0 0 0 -208945221.052948 431111260.0587616 0 431111260.0587616 -16361407.643966675 0 0 0 0 -98893392.245171547 472038910.45925426 0 472038910.45925426 -151205731.98616028 0 0 0 0 1196673.7684311867 -48255200.575835228 0 -48255200.575835228 -15218026.266975403 0 0 0 0 -647180284.80960464 159923395.87040329 0 159923395.87040329 -56599913.706653595 0 0 0 0 -395292101.79957581 510073646.85626221 0 510073646.85626221 -252902280.37453461 0 0 0 0 -133097536.47749329 408332874.4225235 0 408332874.4225235 -213644911.03272247 0 0 0 0 -288943911.26131439 559059228.5381279 0 559059228.5381279 -248534913.78195953 0 0 0 0 -278974218.27503586 535103600.64332962 0 535103600.64332962 -301080004.72998047 0 0 0 0 -63765696.830780029 401540445.44325256 0 401540445.44325256 -202577137.25613403 0 0 0 0 -331780789.84781265 730178667.32196045 0 730178667.32196045 -450613215.12587929 0 0 0 0 -256891859.86302567 605359952.62096405 0 605359952.62096405 -306254218.74404144 0 0 0 0 -145508653.87241364 370491662.2144928 0 370491662.2144928 -188430929.4323349 0 0 0 0 -433188420.2587204 612470047.55119324 0 612470047.55119324 -239020243.18757629 0 0 0 0 -436143126.43926334 592536359.68300009 0 592536359.68300009 -328143712.6270752 0 0 0 0 -671876226.37908936 570706033.77327728 0 570706033.77327728 -261016592.20088196 0 0 0 0 -653346398.28215027 531875201.72344208 0 531875201.72344208 -270814125.52274323 0 0 0 0 -993764401.32402039 548291501.96356201 0 548291501.96356201 -205266022.17971802 0 0 0 0 -786103478.2024765 552845772.8964386 0 552845772.8964386 -227181913.81121445 0 0 0 0 -959166660.85403252 635158095.78608513 0 635158095.78608513 -161486135.76312256 0 0 0 0 -691198481.42470932 691211007.79099655 0 691211007.79099655 -228063467.68740845 0 0 0 0 -632526445.68455124 566778468.23519516 0 566778468.23519516 -259645081.76038361 0 0 0 0 -795475090.61209106 779353747.78488922 0 779353747.78488922 -321283822.7833786 0 0 0 0 -1190294278.3159237 585769421.87120438 0 585769421.87120438 -171394940.40947723 0 0 0 0 -1886206092.9625702 -223896231.14613628 0 -223896231.14613628 -163373643.21565247 0 0 0 0 -1453072529.3139648 19198861.663497925 0 19198861.663497925 -158603804.68760943 0 0 0 0 -1437485831.2348156 -29742352.129205704 0 -29742352.129205704 -5188433.5804443359 0 0 0 0 -876396564.52269745 333013472.23618317 0 333013472.23618317 -301721559.92705917 0 0 0 0 -636718638.25463104 12137438.440723419 0 12137438.440723419 -68635340.11138916 0 0 0 0 -993117317.66157532 120371459.46187973 0 120371459.46187973 -320727405.54747438 0 0 0 0 -836388507.24871826 647447545.30967712 0 647447545.30967712 -564780125.8894043 0 0 0 0 -1756223071.8477859 375735554.75111771 0 375735554.75111771 -451064082.2650528 0 0 0 0 -2772720884.2290211 278531589.95865822 0 278531589.95865822 -69538364.55872345 0 0 0 0 -1531327115.7170753 540140905.83740997 0 540140905.83740997 -464271945.13419342 0 0 0 0 -3452490.8629207537 7181694.0095504299 0 7181694.0095504299 -681278.47755435109 0 0 0 0 230097950.74764633 -1308098.7239112854 0 -1308098.7239112854 -134969499.25440979 0 0 0 0 -1961712.8715206981 3460810.1766256355 0 3460810.1766256355 1036558.152949214 0 0 0 0 258149532.30073166 240708330.43539429 0 240708330.43539429 -261451713.14657593 0 0 0 0 162273815.96232605 -46842421.739339828 0 -46842421.739339828 -17555218.09438324 0 0 0 0 26503953.45772171 -22940134.968854904 0 -22940134.968854904 155886968.35231781 0 0 0 0 59694656.205238342 66947535.780014038 0 66947535.780014038 -119897660.32552528 0 0 0 0 -62427962.756000519 -57678425.667350769 0 -57678425.667350769 41402759.798110962 0 0 0 0 35124696.018180847 -1426855.4953451157 0 -1426855.4953451157 42805844.644515991 0 0 0 0 -118251477.97184372 122157170.63649368 0 122157170.63649368 75026092.799819946 0 0 0 0 22950843.91450882 105355154.02491379 0 105355154.02491379 74773274.064805984 0 0 0 0 -2995924.4385407791 5374423.9108893313 0 5374423.9108893313 967893.40298339725 0 0 0 0 -86929872.09967041 177711280.47481918 0 177711280.47481918 27720644.727085114 0 0 0 0 -19600688.453887939 136643650.51362228 0 136643650.51362228 38451076.020080566 0 0 0 0 -64227253.156158447 93798220.023550034 0 93798220.023550034 79296223.210567474 0 0 0 0 -5042324.9789429121 15238046.673971936 0 15238046.673971936 -4045626.1881734431 0 0 0 0 234050354.36915779 180547958.08173752 0 180547958.08173752 -161965789.48621368 0 0 0 0 -2297363.0060836077 3764433.5322612189 0 3764433.5322612189 1032900.7755006552 0 0 0 0 45770528.60700798 -47704687.511960983 0 -47704687.511960983 -22026391.298454285 0 0 0 0 -1040866699.5284348 302375673.63504028 0 302375673.63504028 77021365.676708221 0 0 0 0 -1271829515.000946 -306472908.14872932 0 -306472908.14872932 -54213268.279205322 0 0 0 0 -728642296.17531967 140721415.98447037 0 140721415.98447037 -77729327.377955437 0 0 0 0 -1771442572.7741661 -104388667.25422573 0 -104388667.25422573 175223865.48620605 0 0 0 0 -766062437.50051498 354796068.09494019 0 354796068.09494019 140850701.98114967 0 0 0 0 -188307319.13361168 -124163164.04275513 0 -124163164.04275513 497267880.47779083 0 0 0 0 -328316915.80371857 658290855.64028931 0 658290855.64028931 330433277.5281105 0 0 0 0 -36252715.956066102 29865020.236688577 0 29865020.236688577 -15553391.474992305 0 0 0 0 191800678.00738907 1561652890.8061523 0 1561652890.8061523 435160468.93731689 0 0 0 0 -72911117.104999542 272836134.74420547 0 272836134.74420547 1233796996.650856 0 0 0 0 1052457396.0673275 185948102.37827301 0 185948102.37827301 406260988.23841858 0 0 0 0 269747702.46478271 658786248.2372818 0 658786248.2372818 173234163.48348236 0 0 0 0 -16425069.108241521 12503787.23237206 0 12503787.23237206 -6021496.8625788987 0 0 0 0 1077810389.0728018 1154701603.3712869 0 1154701603.3712869 -54908615.623947144 0 0 0 0 -1983783251.7100334 -650305109.81319427 0 -650305109.81319427 678971513.71130753 0 0 0 0 -370152697.19399953 2847429.5567188263 0 2847429.5567188263 84456956.105514526 0 0 0 0 -1166653400.6745625 -46629555.094787598 0 -46629555.094787598 300567874.99977112 0 0 0 0 -5842806.6566098323 21169079.023172393 0 21169079.023172393 -14306722.680274308 0 0 0 0 -1509888439.1671791 97905759.768659592 0 97905759.768659592 428293242.3167038 0 0 0 0 -317709775.53145218 68282519.317977905 0 68282519.317977905 30632159.344696045 0 0 0 0 -66883393.169206619 258602719.56061172 0 258602719.56061172 -95915435.343040466 0 0 0 0 -735765115.98568153 240199898.65948868 0 240199898.65948868 -46480611.291641235 0 0 0 0 425490602.2119751 872084964.27147961 0 872084964.27147961 -1875932215.7441559 0 0 0 0 -878078087.05477524 317923042.57574081 0 317923042.57574081 -72939614.140159607 0 0 0 0 -1412441933.9623871 1150837343.3290596 0 1150837343.3290596 678867569.97558594 0 0 0 0 -4456987.8132688217 20235088.42592508 0 20235088.42592508 -21999723.135612547 0 0 0 0 -1124214015.0933266 161623019.22600937 0 161623019.22600937 -100838976.64221954 0 0 0 0 -1130029956.4827058 776060629.26818311 0 776060629.26818311 -228077140.94155884 0 0 0 0 -3022328651.4293919 398877634.83701324 0 398877634.83701324 144681174.80397797 0 0 0 0 -727032096.4608345 687293788.8901062 0 687293788.8901062 -478278546.57683563 0 0 0 0 -2585118.5158550795 8335484.0803365856 0 8335484.0803365856 -10780637.120699674 0 0 0 0 967256958.1224556 277956576.84012985 0 277956576.84012985 441533562.34439087 0 0 0 0 1487492513.5256462 504154637.13053322 0 504154637.13053322 -262798331.50572205 0 0 0 0 -153931319.36119461 919260492.81189728 0 919260492.81189728 84216949.402626038 0 0 0 0 31883819.445541382 1011869144.3584671 0 1011869144.3584671 202599410.07341766 0 0 0 0 -225362601.83359146 753366950.44803619 0 753366950.44803619 99049983.76184845 0 0 0 0 -199098088.02919579 790309542.57165146 0 790309542.57165146 153140847.80653381 0 0 0 0 163356626.57485199 796487936.38527679 0 796487936.38527679 153245524.62798834 0 0 0 0 292341453.91534233 706528470.79933357 0 706528470.79933357 189567010.72331238 0 0 0 0 506502444.692729 1146344801.8270569 0 1146344801.8270569 8189712.3996734619 0 0 0 0 -336502884.01058578 689630239.10686493 0 689630239.10686493 861219895.62355804 0 0 0 0 69150632.694213867 1440554874.4901505 0 1440554874.4901505 -113364256.0360508 0 0 0 0 -194812470.81483459 1186911274.710701 0 1186911274.710701 69096603.643112183 0 0 0 0 -585005331.07355881 397258666.62068176 0 397258666.62068176 -168961504.85585785 0 0 0 0 -599138645.00201797 432140811.28886032 0 432140811.28886032 -185776596.10753632 0 0 0 0 -654361939.30883026 383484929.17443848 0 383484929.17443848 -228282960.65055847 0 0 0 0 -749293330.39697647 530161576.21200562 0 530161576.21200562 -254897549.63554382 0 0 0 0 -561191016.02576447 594890816.50807953 0 594890816.50807953 -276333132.43477631 0 0 0 0 -600517311.50982666 470234565.28183746 0 470234565.28183746 -285999038.73641968 0 0 0 0 -581856849.06281281 517002665.99430847 0 517002665.99430847 -241406492.19143677 0 0 0 0 -581869896.38830948 524784946.52384949 0 524784946.52384949 -272242699.61743164 0 0 0 0 -390525399.28799438 523931575.37293625 0 523931575.37293625 -299795810.30995178 0 0 0 0 -405840917.16213608 591222740.24605799 0 591222740.24605799 -306156418.04588318 0 0 0 0 -313617065.99375534 580293788.09249115 0 580293788.09249115 -308106476.14673615 0 0 0 0 -360173209.509758 565514092.18934631 0 565514092.18934631 -296118756.77391815 0 0 0 0 -336925129.15684891 464928415.67737198 0 464928415.67737198 -257632428.33511734 0 0 0 0 -293314759.05821991 529676178.84182739 0 529676178.84182739 -277160259.11437988 0 0 0 0 -353982298.65780258 642420745.75217056 0 642420745.75217056 -288217066.53542328 0 0 0 0 -263761275.34592438 586121150.98879242 0 586121150.98879242 -322202158.73878956 0 0 0 0 -335873446.29336548 607087224.59244537 0 607087224.59244537 -324534557.82192707 0 0 0 0 -344036193.57709885 602382662.22506714 0 602382662.22506714 -326593867.86098289 0 0 0 0 -306584432.98960209 523216485.7436161 0 523216485.7436161 -280580102.67790222 0 0 0 0 -400851596.12737846 560339312.58622932 0 560339312.58622932 -277605097.89575195 0 0 0 0 -549172827.19284439 586060417.95008087 0 586060417.95008087 -252099733.58276367 0 0 0 0 -507732816.72871399 510404986.79933548 0 510404986.79933548 -169719316.71404266 0 0 0 0 -580455051.42497063 850452582.35888386 0 850452582.35888386 -377169894.13153076 0 0 0 0 -726164633.89480209 507804547.51948929 0 507804547.51948929 -169406426.1448698 0 0 0 0 -723022577.12805557 715388474.55860901 0 715388474.55860901 -295862670.97179031 0 0 0 0 -93108993.594419599 784682494.49096632 0 784682494.49096632 -583722939.60601044 0 0 0 0 -60709382.935752869 398808438.87620926 0 398808438.87620926 -231655448.36751938 0 0 0 0 -130037202.93131447 662651320.21334076 0 662651320.21334076 -441407798.34713745 0 0 0 0 -301709249.86209488 591536830.22116089 0 591536830.22116089 -265153163.74860382 0 0 0 0 -4141252.9967498779 367528688.73685074 0 367528688.73685074 -213114828.78921509 0 0 0 0 -180568607.48772812 517182019.98203278 0 517182019.98203278 -320534431.83491516 0 0 0 0 250558221.07105637 -15062513.662719727 0 -15062513.662719727 67178137.186378479 0 0 0 0 -30872512.885835648 363228579.38508987 0 363228579.38508987 -175859138.07693481 0 0 0 0 -37501555.384086609 223632230.84309387 0 223632230.84309387 202507004.40194702 0 0 0 0 7852239.8259151652 11599996.990063459 0 11599996.990063459 1346181.4406954348 0 0 0 0 73716805.179672241 218514224.5811348 0 218514224.5811348 -201297843.48326874 0 0 0 0 55326256.848730087 -153826223.92381287 0 -153826223.92381287 109426177.27978516 0 0 0 0 -197048187.28592706 231288027.21726525 0 231288027.21726525 -100909907.44897461 0 0 0 0 -62963472.351585388 66793668.243488312 0 66793668.243488312 15560293.354480743 0 0 0 0 -943853.46050130203 -1350068.9504207224 0 -1350068.9504207224 1604396.3304302692 0 0 0 0 4099044.8842282221 6643326.1483972222 0 6643326.1483972222 10582341.226018846 0 0 0 0 -91692921.054148674 -14553307.032467842 0 -14553307.032467842 -14384921.037261963 0 0 0 0 193173445.50276947 -328847726.54899979 0 -328847726.54899979 -306012385.6376915 0 0 0 0 6662926.5085030161 13533671.605667889 0 13533671.605667889 24103971.26006037 0 0 0 0 6880500.0644285493 8718680.3793104738 0 8718680.3793104738 1164012.3199000061 0 0 0 0 821485904.40789413 -85647370.371711731 0 -85647370.371711731 -237744161.97612 0 0 0 0 -36119668.93483448 208145586.62357616 0 208145586.62357616 390797638.91090393 0 0 0 0 565550587.9036808 252467693.0505867 0 252467693.0505867 -77007827.185287476 0 0 0 0 308676885.65706635 -310265837.64229965 0 -310265837.64229965 -543477486.97747803 0 0 0 0 743476428.42473984 -242279234.72006226 0 -242279234.72006226 257607671.0126915 0 0 0 0 684265763.15739059 507922941.25458527 0 507922941.25458527 -85382480.513504028 0 0 0 0 402029897.04061127 107859124.79586792 0 107859124.79586792 -195993789.27933502 0 0 0 0 268811775.821491 452571858.98059499 0 452571858.98059499 -400469223.08662415 0 0 0 0 266551492.50667191 586904665.75014973 0 586904665.75014973 -475960472.37789917 0 0 0 0 -245778698.19659424 431714111.80908203 0 431714111.80908203 -423802258.54022217 0 0 0 0 41849895.228004456 196683288.236866 0 196683288.236866 -111137549.00582504 0 0 0 0 -145950002.10284805 820445722.17528915 0 820445722.17528915 -645997994.99684143 0 0 0 0 185561641.97322083 734892722.80270863 0 734892722.80270863 -27970477.647705078 0 0 0 0 353699832.3497982 189339327.86417294 0 189339327.86417294 181408971.21881104 0 0 0 0 293115976.70018291 362674683.03817272 0 362674683.03817272 130698943.66234589 0 0 0 0 420105955.95464706 566751072.03546906 0 566751072.03546906 290464591.92848206 0 0 0 0 1345861756.6075058 409075947.17483521 0 409075947.17483521 265489.15906524658 0 0 0 0 1320878600.5073051 635644500.33907318 0 635644500.33907318 68924603.456989288 0 0 0 0 1963358181.4426537 -245869070.71704483 0 -245869070.71704483 -204616363.99333191 0 0 0 0 3446295.4016036279 2773518.4611639827 0 2773518.4611639827 669443.31094396114 0 0 0 0 -55321496.99917984 126184563.10042191 0 126184563.10042191 547001673.62783813 0 0 0 0 -54900421.069982529 85687962.562267303 0 85687962.562267303 -7027.5142059326172 0 0 0 0 1517184084.8818359 378221824.87628174 0 378221824.87628174 -515869220.42628479 0 0 0 0 1315261.0278912187 1118101.4205964804 0 1118101.4205964804 3362660.4215651751 0 0 0 0 -986348.39453585073 -1603210.5144702047 0 -1603210.5144702047 1191661.8014033437 0 0 0 0 -109371440.34424591 25515178.978122711 0 25515178.978122711 3130237.2447128296 0 0 0 0 6670014.1755523682 7878326.8255214691 0 7878326.8255214691 -23309503.88482666 0 0 0 0 -43953735.659582138 33258132.746957779 0 33258132.746957779 -19231183.448165894 0 0 0 0 -475054921.59494209 1118206623.5286102 0 1118206623.5286102 -346052903.92095184 0 0 0 0 -350996135.6421833 699139653.71385574 0 699139653.71385574 -307910249.59619904 0 0 0 0 2485206.3839268684 596783809.68165064 0 596783809.68165064 -295273117.68656158 0 0 0 0 -261678829.92197037 874081204.56680679 0 874081204.56680679 -37615254.929771423 0 0 0 0 79644348.851382494 1101223204.6274843 0 1101223204.6274843 -429137989.01249695 0 0 0 0 1118031420.7771111 732588512.23843765 0 732588512.23843765 -308430780.32418823 0 0 0 0 -2143897206.4089336 1309288582.6954689 0 1309288582.6954689 -233396122.7202301 0 0 0 0 -901106666.9249897 1316865483.0273037 0 1316865483.0273037 -686365880.65818787 0 0 0 0 -513822187.9234066 508718914.73681259 0 508718914.73681259 -73419668.322467804 0 0 0 0 -786354067.89998674 971054571.62357903 0 971054571.62357903 20305203.3802948 0 0 0 0 -274535134.12929535 781589556.85793495 0 781589556.85793495 396587.49561309814 0 0 0 0 -352106297.02833176 717949085.65443802 0 717949085.65443802 45918120.685401917 0 0 0 0 -445957650.62105656 807635968.1079731 0 807635968.1079731 -87940.259582519531 0 0 0 0 -142859078.09421921 843425554.78251266 0 843425554.78251266 -216257616.22779083 0 0 0 0 -508410827.19710541 678754974.7598114 0 678754974.7598114 -132695.89782714844 0 0 0 0 -474559738.48267365 723993801.46862602 0 723993801.46862602 -202198445.2440567 0 0 0 0 -519132015.82970524 639279901.34930801 0 639279901.34930801 -124693777.22188568 0 0 0 0 -539364271.49757195 600157369.78019524 0 600157369.78019524 -56792.018035888672 0 0 0 0 -553806722.57629967 782232469.92568207 0 782232469.92568207 -211040952.6608963 0 0 0 0 -741754840.33635139 523641246.57130814 0 523641246.57130814 -163894183.32601547 0 0 0 0 -436659883.53596497 452114394.68000984 0 452114394.68000984 -141912.55368041992 0 0 0 0 -495668202.99747801 571456719.24547195 0 571456719.24547195 -197891454.33398438 0 0 0 0 -189848628.08856392 587596854.90180969 0 587596854.90180969 -197045230.75855589 0 0 0 0 -373935787.87096405 411092280.99339294 0 411092280.99339294 -343203707.92467499 0 0 0 0 -923889.75244648755 1769490.1374611855 0 1769490.1374611855 3775802.7590846419 0 0 0 0 173541513.8388176 462958002.69347 0 462958002.69347 -371520161.09565353 0 0 0 0 -37336773.455031395 864682955.30010414 0 864682955.30010414 -205337240.85459137 0 0 0 0 404726815.9909668 397515717.64618683 0 397515717.64618683 184841087.47042847 0 0 0 0 62461691.427113533 259021554.43406296 0 259021554.43406296 241007103.70066071 0 0 0 0 -90829869.665545464 241663807.07316971 0 241663807.07316971 668782620.59411621 0 0 0 0 -385966725.77648067 306025083.08929062 0 306025083.08929062 661681772.73314667 0 0 0 0 -341900659.56596756 636160845.95742416 0 636160845.95742416 -613813786.68683624 0 0 0 0 -4667552.6178679504 4309908.240435034 0 4309908.240435034 -4810845.5404883921 0 0 0 0 -1072900719.8739166 373148897.94217873 0 373148897.94217873 123544024.05233765 0 0 0 0 -836005344.30622482 -158640104.51311493 0 -158640104.51311493 -33061109.449707031 0 0 0 0 -383384749.09903669 561709619.50341415 0 561709619.50341415 -21811828.03678894 0 0 0 0 -841024718.2617588 870364774.22789764 0 870364774.22789764 -169920250.71472549 0 0 0 0 -378119839.19713593 695258807.98347473 0 695258807.98347473 76531767.288852692 0 0 0 0 -52030904.776954651 598688455.63479614 0 598688455.63479614 92980990.730133057 0 0 0 0 -74437332.678039551 646183423.37213898 0 646183423.37213898 164908192.26674652 0 0 0 0 41688619.987808228 555495980.94012451 0 555495980.94012451 233623380.10596466 0 0 0 0 291272317.11766052 494117094.09748077 0 494117094.09748077 156471020.62669373 0 0 0 0 278551159.44563293 108280204.24469757 0 108280204.24469757 -20092010.501342773 0 0 0 0 -51522214.216234088 331136996.14675426 0 331136996.14675426 80810080.344772339 0 0 0 0 -106637672.04489923 57265491.94742012 0 57265491.94742012 41146861.279159546 0 0 0 0 -144401712.67501831 332502551.40974426 0 332502551.40974426 112877578.03816986 0 0 0 0 -389452162.39547241 232248860.54403877 0 232248860.54403877 94572688.451309204 0 0 0 0 11283545.055227637 27222854.169273138 0 27222854.169273138 4810702.231803894 0 0 0 0 -9897728.0520731099 15056819.735899538 0 15056819.735899538 -10650443.058044136 0 0 0 0 10761313.621742249 20216698.807975769 0 20216698.807975769 -2857203.2684288025 0 0 0 0 18082564.378709346 110931056.29448485 0 110931056.29448485 311977761.96629333 0 0 0 0 17393224.540578842 131485613.93648529 0 131485613.93648529 295634406.87052917 0 0 0 0 54275136.114547729 20532668.370765686 0 20532668.370765686 -380685.31732177734 0 0 0 0 70681776.346214294 71282181.086112976 0 71282181.086112976 4964089.0548725128 0 0 0 0 46138758.917778015 114657065.10090637 0 114657065.10090637 62447845.648223877 0 0 0 0 114833270.19543552 29486562.758029938 0 29486562.758029938 -31448742.841766357 0 0 0 0 1110382809.9292164 71377773.658561707 0 71377773.658561707 -57264097.528396606 0 0 0 0 3693430.9960825518 3214863.9498592317 0 3214863.9498592317 2728323.4242836833 0 0 0 0 135373.78321003914 143031739.6709404 0 143031739.6709404 -701460445.0075531 0 0 0 0 -850384.81320049986 6271543.6318474784 0 6271543.6318474784 -2231574.9567197561 0 0 0 0 5723462.4851981923 12768094.576713383 0 12768094.576713383 4610120.8380190134 0 0 0 0 -39036351.283363342 -175325829.72650146 0 -175325829.72650146 -274699425.37638855 0 0 0 0 -143124690.39133835 513934534.57670593 0 513934534.57670593 -604574235.33362579 0 0 0 0 -1567939521.3418159 956611514.99728394 0 956611514.99728394 -733251957.25909424 0 0 0 0 -472381512.23634434 116035542.20758247 0 116035542.20758247 -493801699.47660828 0 0 0 0 -230971685.16814423 702676238.36553574 0 702676238.36553574 179386096.37820435 0 0 0 0 -1254774751.3236237 1029255828.0255737 0 1029255828.0255737 -79739037.714042664 0 0 0 0 -160222468.13836575 918305378.50210571 0 918305378.50210571 -834882266.33538818 0 0 0 0 95493973.280952454 775001365.76664734 0 775001365.76664734 338512469.93551636 0 0 0 0 -83540778.97731781 332622018.81771851 0 332622018.81771851 -126831777.64326477 0 0 0 0 794054267.04718971 806636817.23764801 0 806636817.23764801 209981836.4858551 0 0 0 0 243668102.93160629 1025713593.4861908 0 1025713593.4861908 81987144.367073059 0 0 0 0 336362004.93790054 725079312.47394562 0 725079312.47394562 769531138.66117859 0 0 0 0 -7732261.8892533481 5986274.2233006358 0 5986274.2233006358 -1598304.3656584322 0 0 0 0 667568251.47050261 119436332.57530403 0 119436332.57530403 372419834.20254517 0 0 0 0 546040994.53476143 539065156.9174614 0 539065156.9174614 -655255507.64289856 0 0 0 0 -456247108.99177933 1028492889.1835709 0 1028492889.1835709 474459441.86312103 0 0 0 0 55819703.210266113 694245897.17377472 0 694245897.17377472 627351007.68787384 0 0 0 0 206139852.87806225 502269279.88710022 0 502269279.88710022 430288096.6504364 0 0 0 0 137045186.66720963 637673630.36138153 0 637673630.36138153 282028394.51161957 0 0 0 0 75116314.365157127 522993402.25245094 0 522993402.25245094 261558333.17843628 0 0 0 0 680692220.75483704 1029699637.6811142 0 1029699637.6811142 190062115.74214745 0 0 0 0 102940894.80250168 707242040.24950027 0 707242040.24950027 321149818.32104492 0 0 0 0 -79233350.309570312 118786247.38397503 0 118786247.38397503 -252871011.86952209 0 0 0 0 -41902618.522229433 245924319.8823967 0 245924319.8823967 -555081000.78598022 0 0 0 0 -223504230.44388008 339088042.63430786 0 339088042.63430786 -370691919.92682648 0 0 0 0 -70199794.005841255 171319650.67302704 0 171319650.67302704 -336323727.45649719 0 0 0 0 -70904920.196020126 105206103.14743042 0 105206103.14743042 -181848686.18738556 0 0 0 0 -56274652.503960252 85443741.697936058 0 85443741.697936058 -112539439.9881134 0 0 0 0 -53386625.536188841 110325232.15163612 0 110325232.15163612 -197481416.68426514 0 0 0 0 -1039448.9879471064 30421245.052131176 0 30421245.052131176 -167005478.88809204 0 0 0 0 -4508505.177280426 61611266.601898193 0 61611266.601898193 -249731886.5435791 0 0 0 0 -9774333.0799971987 23358422.396196499 0 23358422.396196499 9953545.4179494753 0 0 0 0 -14352462.451253414 186430.39277267456 0 186430.39277267456 -131483385.33825684 0 0 0 0 13721835.243753552 -3241837.5090060234 0 -3241837.5090060234 -189099468.67881775 0 0 0 0 -83441747.438303947 -30855435.323623657 0 -30855435.323623657 -17662602.247261047 0 0 0 0 -22316194.228940483 5053366.2728065997 0 5053366.2728065997 7925672.0333870798 0 0 0 0 21937641.581409454 104267543.28313446 0 104267543.28313446 34861123.810916901 0 0 0 0 3905657.7667617798 70873179.816726685 0 70873179.816726685 -295179759.91986847 0 0 0 0 -170453914.96664667 -110396892.24409485 0 -110396892.24409485 75529913.313110352 0 0 0 0 208646447.45447731 -143472446.97874451 0 -143472446.97874451 -528939190.67228699 0 0 0 0 249045136.15397644 197224525.30666351 0 197224525.30666351 -1006191513.6832123 0 0 0 0 -1191519306.8893738 625123701.78443909 0 625123701.78443909 -898279359.63021851 0 0 0 0 -1310024523.6612854 504401867.54130554 0 504401867.54130554 -255276890.68588066 0 0 0 0 -474191659.84912872 538899097.08380508 0 538899097.08380508 -1025891264.4855118 0 0 0 0 -8963973.9322150461 2742824.9344398975 0 2742824.9344398975 -1914787.2342731953 0 0 0 0 -1671313724.5482469 529906864.77312565 0 529906864.77312565 -710537850.32040405 0 0 0 0 -1594783274.9146175 506235123.04621506 0 506235123.04621506 -134405527.14654541 0 0 0 0 -1018532061.0734596 389577813.76626587 0 389577813.76626587 -896361998.27734375 0 0 0 0 -804430956.06614685 857075369.04647064 0 857075369.04647064 -901594955.72590458 0 0 0 0 -19580534.744226456 341458253.90473557 0 341458253.90473557 -749025378.17166138 0 0 0 0 -139212784.90923691 264353110.09954834 0 264353110.09954834 -496573247.70855808 0 0 0 0 -340161752.36644363 468457806.91788483 0 468457806.91788483 -750215881.24629211 0 0 0 0 -309531875.28959274 579833392.92264557 0 579833392.92264557 -1023293022.6108246 0 0 0 0 -624570187.70069599 557098414.86930084 0 557098414.86930084 -404481222.01669312 0 0 0 0 -366599699.63280678 606672941.74983978 0 606672941.74983978 -679283281.15498734 0 0 0 0 -466957858.76766443 441245278.51337814 0 441245278.51337814 -249272849.07989502 0 0 0 0 -562177402.43532848 615602328.62153244 0 615602328.62153244 -280797040.73836517 0 0 0 0 -609553651.67340183 630152925.3510437 0 630152925.3510437 -433662546.48504639 0 0 0 0 -772899974.70178699 231968146.49860382 0 231968146.49860382 -72850845.205963135 0 0 0 0 -937040646.32481003 619924169.91926193 0 619924169.91926193 -246416958.53973389 0 0 0 0 -3504865.2139242403 10084957.476960987 0 10084957.476960987 11414268.613857359 0 0 0 0 -253652998.4540596 30477196.772087097 0 30477196.772087097 403117359.50706863 0 0 0 0 -690331421.63835716 539030953.23272705 0 539030953.23272705 -263903841.20599365 0 0 0 0 -883810174.96115589 976135116.62236786 0 976135116.62236786 -257461789.25821507 0 0 0 0 -1296644.5029555783 2607133.5691234469 0 2607133.5691234469 6269553.8243911266 0 0 0 0 -754396161.61247349 680545989.7545433 0 680545989.7545433 416154043.78555298 0 0 0 0 -395155486.46264505 410409974.97145462 0 410409974.97145462 -31858861.80544281 0 0 0 0 -493475898.68589878 426550876.75804901 0 426550876.75804901 225394670.42734528 0 0 0 0 -489813674.86970043 565922519.7571373 0 565922519.7571373 -48608856.814857483 0 0 0 0 -329416582.93871307 397682306.3275528 0 397682306.3275528 -152548198.40843201 0 0 0 0 -175944028.24614143 244382882.45370483 0 244382882.45370483 -176940995.87625122 0 0 0 0 -243183274.33725497 297425724.41550207 0 297425724.41550207 -218750188.22477722 0 0 0 0 -236702299.45666695 422649413.0850296 0 422649413.0850296 -418725432.7204895 0 0 0 0 -193856584.24510765 214285764.51631165 0 214285764.51631165 -104173915.31422424 0 0 0 0 -266111202.95153904 261048583.70013428 0 261048583.70013428 72118161.26335144 0 0 0 0 -122643361.24484158 174320927.85429382 0 174320927.85429382 -83726190.3543396 0 0 0 0 -227480647.80414772 279646250.960495 0 279646250.960495 56719034.213798523 0 0 0 0 -464059535.65816963 269690985.1241827 0 269690985.1241827 167536659.31221771 0 0 0 0 -449226821.85636902 222502422.32929993 0 222502422.32929993 203207890.36598587 0 0 0 0 -656419736.92017841 170599155.9228363 0 170599155.9228363 200115250.96838379 0 0 0 0 -698931201.59033346 335382829.44537926 0 335382829.44537926 315344824.42095947 0 0 0 0 -690786333.4973166 259428682.47968102 0 259428682.47968102 783626587.10752869 0 0 0 0 -687650733.33109474 230445200.91635132 0 230445200.91635132 417874212.56084442 0 0 0 0 -551623801.26966763 117577345.30981445 0 117577345.30981445 189221575.13460541 0 0 0 0 -704080008.41655064 266537095.7979126 0 266537095.7979126 45174252.699882507 0 0 0 0 -767953440.6557188 68278640.120887756 0 68278640.120887756 148665803.30317688 0 0 0 0 -747212806.10816276 -77281701.87029314 0 -77281701.87029314 89560258.21900177 0 0 0 0 -730782279.03691888 94104827.165450096 0 94104827.165450096 54535802.02897644 0 0 0 0 -517431520.5228579 -60791970.43491745 0 -60791970.43491745 36981673.785202026 0 0 0 0 -680814143.6689167 166689973.50880432 0 166689973.50880432 210010714.74473572 0 0 0 0 -33100566.13441515 -429017303.17429161 0 -429017303.17429161 1074360424.7402802 0 0 0 0 -448990754.78804588 388626100.42620468 0 388626100.42620468 935580060.30113792 0 0 0 0 -278155759.17407703 99642262.291213989 0 99642262.291213989 246562467.63715363 0 0 0 0 -529519959.87413514 301787838.75900531 0 301787838.75900531 91248625.766235352 0 0 0 0 -496690815.40746212 205507110.90368652 0 205507110.90368652 33941173.824260712 0 0 0 0 -275507178.41442549 13028172.636744499 0 13028172.636744499 -4633067.2704849243 0 0 0 0 -431353267.38515329 452157259.27045822 0 452157259.27045822 -235597113.63637543 0 0 0 0 -425432670.93344021 490790178.5043335 0 490790178.5043335 -133148918.63375568 0 0 0 0 -453651.77080089226 3447541.6250896603 0 3447541.6250896603 5181550.1813080609 0 0 0 0 -336824719.00181866 276369807.59005928 0 276369807.59005928 -284220779.47550964 0 0 0 0 -1545949.0023302585 1734490.4807510227 0 1734490.4807510227 2786204.7053637505 0 0 0 0 -470711257.64953232 297265361.18185234 0 297265361.18185234 -433822.87873840332 0 0 0 0 -471076183.28632879 414311365.34836578 0 414311365.34836578 -380346885.47905731 0 0 0 0 -454769427.97621822 356955099.97720718 0 356955099.97720718 -226592094.70883465 0 0 0 0 -577429990.54365349 -103879058.14776802 0 -103879058.14776802 -47681447.601074219 0 0 0 0 -988960603.58936596 74714316.698356628 0 74714316.698356628 -211701222.82564306 0 0 0 0 -1573258660.3228683 -69249299.747299194 0 -69249299.747299194 -156299258.34642792 0 0 0 0 -1389760609.2613239 -138608470.96785736 0 -138608470.96785736 -220137376.85656404 0 0 0 0 -1166591096.4264545 -643835069.76477051 0 -643835069.76477051 -49086467.494430542 0 0 0 0 -2218759.2605968397 3616970.0776824504 0 3616970.0776824504 376227.15603326261 0 0 0 0 -1074097650.8424187 29280264.917984009 0 29280264.917984009 44207816.074645996 0 0 0 0 -727464694.76603699 206722531.0790329 0 206722531.0790329 -10877386.372886658 0 0 0 0 -618717328.90904808 391933148.65745544 0 391933148.65745544 -248245157.79878235 0 0 0 0 -895626841.59367728 373084145.05606842 0 373084145.05606842 -131553667.85697937 0 0 0 0 -1399782359.4061623 291907157.33592224 0 291907157.33592224 -126470758.85087156 0 0 0 0 -1482474389.9320793 598141505.31789398 0 598141505.31789398 -977580.89411385753 0 0 0 0 -492940199.81058967 344770461.94549656 0 344770461.94549656 -302637090.8397522 0 0 0 0 -695213858.0275836 561808721.66708755 0 561808721.66708755 -249441784.08508301 0 0 0 0 -2161857031.7681437 -94685358.012699127 0 -94685358.012699127 113514861.73313904 0 0 0 0 -2002728.0651258319 1565229.9503757581 0 1565229.9503757581 -3096548.1910382807 0 0 0 0 -3336371.1845114827 5778524.4807319641 0 5778524.4807319641 -501.37747955322266 0 0 0 0 -3168415.6819152832 4328336.4198379517 0 4328336.4198379517 -3119506.7040557861 0 0 0 0 -845094.86973156314 3184226.8506641835 0 3184226.8506641835 -168868.33491306752 0 0 0 0 21764412.930404067 23462318.300224304 0 23462318.300224304 -38766423.612060547 0 0 0 0 32028062.163684368 -21281916.840167999 0 -21281916.840167999 3815643.1848182678 0 0 0 0 43781416.106752157 7807803.5849142075 0 7807803.5849142075 -93862980.521736145 0 0 0 0 -3079108.8164391518 3147197.3584194183 0 3147197.3584194183 -13348.09253692627 0 0 0 0 -49859081.727087021 -38783194.830543518 0 -38783194.830543518 29683855.418525696 0 0 0 0 -1742280.5234295689 1961366.1474157274 0 1961366.1474157274 1078215.5626494661 0 0 0 0 1713345.179608345 3140267.2241821289 0 3140267.2241821289 -3099348.7239990234 0 0 0 0 7775980.6818618774 -1247931.5782241821 0 -1247931.5782241821 40593.325645446777 0 0 0 0 -9137599.3758363724 98341071.02532959 0 98341071.02532959 -106032759.49490356 0 0 0 0 36507226.973320007 37608445.442134857 0 37608445.442134857 -181734746.6016922 0 0 0 0 -1538949.8245484717 -547126.45775616169 0 -547126.45775616169 2242629.0881848782 0 0 0 0 -55331114.960075378 54144733.463317871 0 54144733.463317871 -127885280.53048706 0 0 0 0 -182545774.29699135 73503899.637893677 0 73503899.637893677 -21404859.156352997 0 0 0 0 -68386440.138829231 87572237.24016571 0 87572237.24016571 -56806065.266336441 0 0 0 0 -74081613.419922352 -18635609.66374588 0 -18635609.66374588 13422246.638673782 0 0 0 0 -21347838.477572549 828716.14484734833 0 828716.14484734833 15717090.295476407 0 0 0 0 -57110813.261488616 15950316.859417915 0 15950316.859417915 8242392.0525360107 0 0 0 0 -49981519.067756176 39828886.039840698 0 39828886.039840698 -24724840.501060486 0 0 0 0 -4573597.405995965 27921608.410354614 0 27921608.410354614 -3481000.5937957764 0 0 0 0 -18967857.632081494 994561.92770127952 0 994561.92770127952 17639317.153210819 0 0 0 0 -22083621.516630173 38996755.233745575 0 38996755.233745575 -6913900.0268421173 0 0 0 0 -7964964.4971693559 13717536.366070591 0 13717536.366070591 -16552850.051487476 0 0 0 0 -215260790.71336937 13950997.016387939 0 13950997.016387939 52204519.477310181 0 0 0 0 -125004380.65147734 128396024.38879013 0 128396024.38879013 24402175.821853638 0 0 0 0 -6337501.0049332706 8114904.3320791721 0 8114904.3320791721 -8846830.3700075746 0 0 0 0 -25454397.286182404 29920846.389427185 0 29920846.389427185 14254692.221979141 0 0 0 0 133423639.60018349 133133815.06978607 0 133133815.06978607 -5296498.171585083 0 0 0 0 46490161.454589844 62383480.585601807 0 62383480.585601807 -26328700.95980072 0 0 0 0 29045161.481060505 96059405.563956261 0 96059405.563956261 -25927.196556091309 0 0 0 0 -24263029.304460526 87042398.50469017 0 87042398.50469017 6438529.075920105 0 0 0 0 35672636.100188255 78708670.640586853 0 78708670.640586853 -11217819.437973022 0 0 0 0 98575216.623363495 106369227.56838989 0 106369227.56838989 -8156265.4785909653 0 0 0 0 80508981.952157974 103768035.72995377 0 103768035.72995377 -82139.297737121582 0 0 0 0 50657143.453948021 68620437.578014374 0 68620437.578014374 39076167.006851196 0 0 0 0 91754278.056371689 94578676.58335495 0 94578676.58335495 26480293.162231445 0 0 0 0 58148493.62903595 84731120.985702515 0 84731120.985702515 128457418.17931366 0 0 0 0 58492422.247650146 73281387.943977356 0 73281387.943977356 21722151.378293991 0 0 0 0 54175473.539809227 43692180.306249619 0 43692180.306249619 -30703357.729553223 0 0 0 0 -24743998.891557693 15994637.410362244 0 15994637.410362244 22752354.995910645 0 0 0 0 -5069532.0649639107 3732648.1787057072 0 3732648.1787057072 -2403603.0844704509 0 0 0 0 -145665729.06777954 112867941.45654297 0 112867941.45654297 59945.890068054199 0 0 0 0 130723697.09996271 68027560.779426575 0 68027560.779426575 -25377810.78364563 0 0 0 0 -1451919.9141678996 218012.14125675708 0 218012.14125675708 2223595.2470677197 0 0 0 0 -121053410.75171089 20023637.536460876 0 20023637.536460876 -28250611.855503082 0 0 0 0 -1485270.5063658953 2118916.826436758 0 2118916.826436758 810479.41708344221 0 0 0 0 -71382800.513484955 111155892.19574738 0 111155892.19574738 -69849954.951385498 0 0 0 0 -50605856.267166138 107569830.09571838 0 107569830.09571838 -91028624.748905182 0 0 0 0 -23393161.187271118 13784597.353378296 0 13784597.353378296 24302430.036682129 0 0 0 0 -5128045.45932246 3723379.7909238189 0 3723379.7909238189 803188.62208011746 0 0 0 0 -26333841.596764565 24000873.512237549 0 24000873.512237549 285192.65785980225 0 0 0 0 -51156986.383378267 74081963.853116989 0 74081963.853116989 -77345266.948471069 0 0 0 0 -31372873.850167319 16016698.441431567 0 16016698.441431567 -1540710.2251065001 0 0 0 0 -59946742.051478624 39695208.642263412 0 39695208.642263412 -8696930.4448623657 0 0 0 0 -49882233.843582466 34185101.0051651 0 34185101.0051651 -28913601.954399109 0 0 0 0 -43568231.712770462 93149108.834541321 0 93149108.834541321 -8713141.0928192139 0 0 0 0 -27444825.904401779 51050984.705974579 0 51050984.705974579 -38013746.902709961 0 0 0 0 17204147.831534281 14906227.252490073 0 14906227.252490073 -17029627.272030503 0 0 0 0 1111341.1500587463 75251249.716629028 0 75251249.716629028 -176682510.24825287 0 0 0 0 8271204.2021446899 6165467.7614076138 0 6165467.7614076138 -6248714.8088650405 0 0 0 0 31016886.107063293 155990278.79092026 0 155990278.79092026 8033899.9369735718 0 0 0 0 -15608214.421573639 9410137.337097168 0 9410137.337097168 105378586.89538574 0 0 0 0 -89965915.240421295 58836066.557281494 0 58836066.557281494 57792578.910064697 0 0 0 0 -16640175.71487999 163201982.6829834 0 163201982.6829834 101201254.30718994 0 0 0 0 -84280091.800930023 100943904.34896851 0 100943904.34896851 104233754.05551147 0 0 0 0 274377556.5295105 162702301.83592987 0 162702301.83592987 -131669556.91183472 0 0 0 0 2498027.9683733955 579011.49882259965 0 579011.49882259965 -218137.22271751612 0 0 0 0 170451818.3580265 10039796.668491364 0 10039796.668491364 -339028082.83564758 0 0 0 0 -29314.388963706791 1138691.8485265151 0 1138691.8485265151 2558854.5835745931 0 0 0 0 104002413.59937668 249446361.6697998 0 249446361.6697998 311271399.31309509 0 0 0 0 90040925.666114807 -313853077.94009399 0 -313853077.94009399 -185627307.56530762 0 0 0 0 294481668.13210297 180571487.88008118 0 180571487.88008118 6276217.7578754425 0 0 0 0 158803970.57564068 79234893.082176208 0 79234893.082176208 -30881717.968849182 0 0 0 0 -14165854.523781061 42291368.046701431 0 42291368.046701431 -33486614.143432617 0 0 0 0 -16117832.349674828 34540394.450493678 0 34540394.450493678 17696368.645629846 0 0 0 0 8950079.0979804993 69053190.887935638 0 69053190.887935638 -94773153.37146759 0 0 0 0 -9353829.9646091461 11749499.21206665 0 11749499.21206665 -40861853.080547333 0 0 0 0 -33671768.62647438 39998314.833353043 0 39998314.833353043 -71605628.883399963 0 0 0 0 -58646546.277305603 32320468.406200409 0 32320468.406200409 -7174144.2987480164 0 0 0 0 19069302.586840954 13671371.778103448 0 13671371.778103448 -14674852.539965749 0 0 0 0 -102712108.4030236 68232550.647541046 0 68232550.647541046 -17257471.000919342 0 0 0 0 -67670629.679368496 52416530.740362167 0 52416530.740362167 -34589630.810340881 0 0 0 0 -39084933.601742744 41490841.625930786 0 41490841.625930786 -35424745.693511963 0 0 0 0 -130720011.96093464 148693556.09053421 0 148693556.09053421 -102623111.95405579 0 0 0 0 -106519216.45456362 220286331.77603912 0 220286331.77603912 -254949319.03887939 0 0 0 0 -98900201.031983376 229990976.51244354 0 229990976.51244354 -292496733.25811386 0 0 0 0 -24501198.386797082 32425225.113110572 0 32425225.113110572 17189840.178376615 0 0 0 0 63616299.251310349 296372519.10007095 0 296372519.10007095 -647113814.09630585 0 0 0 0 -46856922.47081852 316895777.19495392 0 316895777.19495392 -496922593.41229248 0 0 0 0 -209254636.48207664 508168529.34796143 0 508168529.34796143 -183740988.2249527 0 0 0 0 -202270740.0993979 557452124.68192673 0 557452124.68192673 162452454.1103363 0 0 0 0 -184981142.76052856 1397794804.1650887 0 1397794804.1650887 -1180175041.0794449 0 0 0 0 155675578.96183205 54555605.972888947 0 54555605.972888947 -1132922559.9515381 0 0 0 0 26854811.231395721 248708640.62958145 0 248708640.62958145 -560875457.97509003 0 0 0 0 -37112374.753364563 10016127.05695343 0 10016127.05695343 -443421766.90174103 0 0 0 0 160201217.3523674 123182661.56926727 0 123182661.56926727 10977108.25617981 0 0 0 0 101778246.74214458 119171221.92365265 0 119171221.92365265 230304977.36505127 0 0 0 0 199928244.03610992 288666542.51593018 0 288666542.51593018 273827987.28662491 0 0 0 0 -33943600.398026466 95317412.672363281 0 95317412.672363281 219996847.33809662 0 0 0 0 16963616.621393681 80728547.910377502 0 80728547.910377502 -70404291.985107422 0 0 0 0 76506518.02322197 152652945.08113861 0 152652945.08113861 14638529.805425644 0 0 0 0 115640590.99858379 59228492.457641602 0 59228492.457641602 -84321134.732879639 0 0 0 0 73417839.386508942 30497585.15045166 0 30497585.15045166 -19583302.819564819 0 0 0 0 63065253.796560287 89574412.709243774 0 89574412.709243774 16029448.942230225 0 0 0 0 1023802.2142887115 46664405.73274231 0 46664405.73274231 -86327288.932563782 0 0 0 0 4347832.0873622894 86257310.665328979 0 86257310.665328979 -64497299.681976318 0 0 0 0 -127990109.95037007 166363004.89984703 0 166363004.89984703 -4323010.8201751709 0 0 0 0 -53733922.510473251 76103976.859565735 0 76103976.859565735 105197840.72335815 0 0 0 0 186117837.80913925 87893105.380371094 0 87893105.380371094 9698564.8952560425 0 0 0 0 -1539786.9070072174 132335364.92294312 0 132335364.92294312 29943254.134910583 0 0 0 0 39450808.95773983 59810475.654632568 0 59810475.654632568 158090036.112854 0 0 0 0 411792033.28322601 242839124.67163086 0 242839124.67163086 56331660.804244995 0 0 0 0 -34783953.28123951 94202085.911716461 0 94202085.911716461 34760328.813751221 0 0 0 0 272302312.22571564 88985012.16986084 0 88985012.16986084 126074773.08352661 0 0 0 0 -252335728.24039507 226291320.66358185 0 226291320.66358185 170638095.95506287 0 0 0 0 -60000732.992172241 79936922.014465332 0 79936922.014465332 271032586.16381836 0 0 0 0 -79199625.792606354 200131919.77896118 0 200131919.77896118 73470080.618457794 0 0 0 0 -32507936.684783936 21065590.951255798 0 21065590.951255798 11594395.095062256 0 0 0 0 -46677122.987717628 -22479722.002185822 0 -22479722.002185822 23997100.494293213 0 0 0 0 163498760.77373123 260584486.41871643 0 260584486.41871643 334436965.68334961 0 0 0 0 -6664214.9144574869 2658937.4900722578 0 2658937.4900722578 3957460.0442023277 0 0 0 0 -3937164.9447233547 2982906.8421968073 0 2982906.8421968073 -773805.18293550611 0 0 0 0 -43652426.924642086 11719496.207149506 0 11719496.207149506 30922039.41078186 0 0 0 0 -38901149.475805342 61803913.604646683 0 61803913.604646683 4916836.2395782471 0 0 0 0 -81006763.871436834 28293811.21251297 0 28293811.21251297 -6830207.0879135132 0 0 0 0 -82392385.655861616 108601288.90159225 0 108601288.90159225 -32026184.130744934 0 0 0 0 -64770411.57361412 94405021.087997437 0 94405021.087997437 -51203745.729125977 0 0 0 0 -60584233.407240868 94264266.49130249 0 94264266.49130249 62617564.161659241 0 0 0 0 -58569432.1514709 82464536.099884033 0 82464536.099884033 -31501970.210021973 0 0 0 0 10335697.580099106 149707466.75730133 0 149707466.75730133 -38222628.726112366 0 0 0 0 -81422266.348008156 101108248.51827621 0 101108248.51827621 -18733516.727272034 0 0 0 0 -22490236.555080414 97599626.247009277 0 97599626.247009277 -105919287.65036011 0 0 0 0 1293224.4774097325 29558270.113402516 0 29558270.113402516 6114563.7512172908 0 0 0 0 -8060456.5534477234 129003421.43457031 0 129003421.43457031 -128785774.20527267 0 0 0 0 -120539800.04290009 150293925.12782288 0 150293925.12782288 -107478782.93917847 0 0 0 0 17256261.245106231 19273445.076205485 0 19273445.076205485 -19622391.34195587 0 0 0 0 -34236314.975144491 33214256.072820425 0 33214256.072820425 19168197.144207284 0 0 0 0 -50288657.629498959 56282136.559379578 0 56282136.559379578 -53397518.359313965 0 0 0 0 4230687.194125507 14329844.143312238 0 14329844.143312238 -15692763.527013391 0 0 0 0 -99678335.520527363 159064956.49085999 0 159064956.49085999 -181864637.57689667 0 0 0 0 -107006275.61234689 209101761.12220383 0 209101761.12220383 -46552070.823638916 0 0 0 0 -32258338.356262207 36268969.533050537 0 36268969.533050537 21219680.1796875 0 0 0 0 -10346467.085785866 60691630.890533447 0 60691630.890533447 50495975.630836487 0 0 0 0 -128636308.2476387 60331974.252883911 0 60331974.252883911 50513748.042442322 0 0 0 0 17358440.735846877 51055839.71698761 0 51055839.71698761 -16726402.101036072 0 0 0 0 -159071258.69735146 214462585.34127045 0 214462585.34127045 -116115283.31629181 0 0 0 0 -2035817.7058282979 22228620.031558156 0 22228620.031558156 11727640.929373369 0 0 0 0 -64047085.367129803 39380984.200798035 0 39380984.200798035 97704403.856399536 0 0 0 0 27148126.490510941 2895576.1295471191 0 2895576.1295471191 65021911.575328827 0 0 0 0 18628685.338043213 4829605.9871444702 0 4829605.9871444702 75216481.073501587 0 0 0 0 47323484.057544708 86578140.531978607 0 86578140.531978607 -225381750.38731384 0 0 0 0 -19073049.849720955 44238363.155053616 0 44238363.155053616 -155525253.64735413 0 0 0 0 85167522.841740608 115512193.20144653 0 115512193.20144653 -125136334.40279388 0 0 0 0 35758806.521081924 86549802.635101318 0 86549802.635101318 -93520118.496246338 0 0 0 0 19362485.500930786 30340737.859039307 0 30340737.859039307 -174770398.82769775 0 0 0 0 56405861.767724037 27781410.896278381 0 27781410.896278381 -128697477.05636597 0 0 0 0 24289336.827279091 59309223.719985962 0 59309223.719985962 -159173302.97447205 0 0 0 0 -9763484.7865161896 46397701.224662781 0 46397701.224662781 -161849518.23204613 0 0 0 0 1826410.7295265198 28765606.083358765 0 28765606.083358765 -170310023.74486542 0 0 0 0 -3183811.2363227047 3721641.1649572849 0 3721641.1649572849 7474554.0682314783 0 0 0 0 -10453231.991859436 9750438.2007904053 0 9750438.2007904053 106039814.19762802 0 0 0 0 30693486.795097351 112623417.99944305 0 112623417.99944305 177782889.10011292 0 0 0 0 9246374.0180950165 185264363.59391022 0 185264363.59391022 301677420.48171997 0 0 0 0 71611364.931384087 253161187.46556282 0 253161187.46556282 -30661118.685302734 0 0 0 0 -882427.40890570916 2990056.8160083294 0 2990056.8160083294 -1595023.0421963632 0 0 0 0 30892078.135620117 124493660.00996399 0 124493660.00996399 -155651379.44034576 0 0 0 0 -17955588.978612423 172483148.72255325 0 172483148.72255325 -202738207.01158142 0 0 0 0 82054062.704329491 299834569.35999298 0 299834569.35999298 -210850235.83265686 0 0 0 0 -40434721.93240869 244635069.41850734 0 244635069.41850734 -37729646.235656738 0 0 0 0 -38679330.348514825 226143992.18508554 0 226143992.18508554 -185715931.56651306 0 0 0 0 143906151.98467207 400716901.4057045 0 400716901.4057045 -173257776.712677 0 0 0 0 95766336.836695671 361949237.48162079 0 361949237.48162079 32615156.550964355 0 0 0 0 143787699.40113115 375978481.38382339 0 375978481.38382339 -194998017.55802155 0 0 0 0 210401712.32756975 365524076.20475209 0 365524076.20475209 -202106548.15479279 0 0 0 0 144568875.31266832 371893464.59781265 0 371893464.59781265 -179985766.29504585 0 0 0 0 64813195.902632236 237115802.21966934 0 237115802.21966934 -288563316.50955963 0 0 0 0 -673269027.91739941 288741099.79669571 0 288741099.79669571 95944149.776641846 0 0 0 0 9189195.6452355403 15762702.407557428 0 15762702.407557428 17482959.715031013 0 0 0 0 -198674181.79150218 416313504.23072284 0 416313504.23072284 -395207640.95986176 0 0 0 0 -201535170.51377177 262035116.90633392 0 262035116.90633392 -224766163.84707642 0 0 0 0 -152757857.37257034 279043765.84366608 0 279043765.84366608 -306230831.43075562 0 0 0 0 -247726712.23491597 256674353.20555115 0 256674353.20555115 -305017774.74101257 0 0 0 0 -143413142.69032693 232334305.50547028 0 232334305.50547028 -268367829.60807037 0 0 0 0 -249615527.10950184 251251824.78346252 0 251251824.78346252 -243180003.84378815 0 0 0 0 -174845493.242351 199843811.68777084 0 199843811.68777084 -177516815.00760651 0 0 0 0 -175261274.2236551 260004326.61038971 0 260004326.61038971 -178673800.29016113 0 0 0 0 -114754687.16033745 178822125.24341583 0 178822125.24341583 -201164695.61559105 0 0 0 0 -146599736.26847506 173282984.77000809 0 173282984.77000809 -142813301.26796722 0 0 0 0 -150709533.83921632 149325010.33912992 0 149325010.33912992 -217195787.18482971 0 0 0 0 -112681907.14078712 229836035.48821449 0 229836035.48821449 -228198263.99223328 0 0 0 0 -66627512.212410569 127192693.9102211 0 127192693.9102211 -224005245.46354675 0 0 0 0 -184238356.35654116 215673828.4642334 0 215673828.4642334 -225078166.3446312 0 0 0 0 -165003231.21169901 289830138.70324707 0 289830138.70324707 -286394327.40731049 0 0 0 0 -232401607.54279613 268319285.45762634 0 268319285.45762634 -221890440.54378128 0 0 0 0 -197180144.4434247 284132875.14004135 0 284132875.14004135 -313017257.60292816 0 0 0 0 13432064.656654827 14496274.670282975 0 14496274.670282975 12028644.667154238 0 0 0 0 -252827141.15036833 346776866.0080359 0 346776866.0080359 -320941189.96570587 0 0 0 0 -188653258.63289213 305914314.48982239 0 305914314.48982239 -363866735.87635899 0 0 0 0 -241094983.86094692 267523477.46144676 0 267523477.46144676 -292106206.71578979 0 0 0 0 -653665223.06012988 42277256.825126648 0 42277256.825126648 -434244030.46409607 0 0 0 0 -247545858.49895096 292565897.92648315 0 292565897.92648315 139145991.05088472 0 0 0 0 3695058.9643025808 5264609.8277975321 0 5264609.8277975321 4856750.764597863 0 0 0 0 -255348253.22393227 245897072.77085876 0 245897072.77085876 -139994259.44526291 0 0 0 0 -8989246.8605041504 422641343.39675522 0 422641343.39675522 -805477335.08579254 0 0 0 0 -87737473.510709763 118060257.13794708 0 118060257.13794708 -271303258.93571472 0 0 0 0 1334127.2446084423 6924740.5758888908 0 6924740.5758888908 -8794512.177541852 0 0 0 0 -100456643.00257683 196481074.42051697 0 196481074.42051697 -282701551.42802429 0 0 0 0 -53408912.806739807 157504276.12536621 0 157504276.12536621 -422484484.13776016 0 0 0 0 -137371474.09806347 173465618.65081787 0 173465618.65081787 -143902320.42503357 0 0 0 0 -82692527.902519226 -134114902.01583481 0 -134114902.01583481 -47321236.364691734 0 0 0 0 -108453219.99423254 224750459.29230702 0 224750459.29230702 657681006.45779419 0 0 0 0 -48301228.387386322 63351315.36240387 0 63351315.36240387 241406192.16450882 0 0 0 0 831497.87340357527 7090191.043995684 0 7090191.043995684 -1573264.8717639446 0 0 0 0 360419334.3871212 1525956937.8874283 0 1525956937.8874283 -504792002.54245758 0 0 0 0 15769121.390613252 19659202.065122962 0 19659202.065122962 17865303.64875263 0 0 0 0 -290964115.65865517 384926001.1387558 0 384926001.1387558 -348020937.41918087 0 0 0 0 -95637205.221857071 -380646092.29729843 0 -380646092.29729843 -245000955.40433884 0 0 0 0 524443471.73321915 592516191.77980042 0 592516191.77980042 422814123.15343094 0 0 0 0 531110.76003843546 2210782.1915072985 0 2210782.1915072985 15077363.609020114 0 0 0 0 916013468.89100838 326673856.00394058 0 326673856.00394058 68335179.863922119 0 0 0 0 -813473782.72970486 -150616605.65011597 0 -150616605.65011597 440612237.62304497 0 0 0 0 -319433860.95655847 -138891163.58174706 0 -138891163.58174706 201323197.19724274 0 0 0 0 -516859530.00105095 68037492.966781616 0 68037492.966781616 36486410.429077148 0 0 0 0 370741397.13435221 445025803.38584805 0 445025803.38584805 153133166.59539795 0 0 0 0 429777737.82478905 100622952.94262695 0 100622952.94262695 -726896.54494476318 0 0 0 0 49525274.3691082 55423969.154495239 0 55423969.154495239 61038482.836410522 0 0 0 0 17389946.233043671 93376932.840026855 0 93376932.840026855 131177928.22846222 0 0 0 0 -534422923.45523 171527872.81228828 0 171527872.81228828 179533644.51921082 0 0 0 0 2430265.758937899 11847791.664371401 0 11847791.664371401 40559252.920156538 0 0 0 0 41504080.999567032 43010458.271306992 0 43010458.271306992 79623500.140258789 0 0 0 0 -2093313.3229141235 -5239033.4665145874 0 -5239033.4665145874 68900850.471405029 0 0 0 0 -7378078.36776831 -1813069.0950000286 0 -1813069.0950000286 12911954.582180336 0 0 0 0 -422224984.31876945 224645549.75875092 0 224645549.75875092 -152702372.70715904 0 0 0 0 138846004.24163818 178074257.25328827 0 178074257.25328827 56724569.438007355 0 0 0 0 300777711.4432354 311736253.71638107 0 311736253.71638107 126797509.21258926 0 0 0 0 148703028.65321159 389121448.51061249 0 389121448.51061249 315889256.68330383 0 0 0 0 -158553941.61495972 571267021.34841156 0 571267021.34841156 308024452.32686615 0 0 0 0 50239750.717693329 287727299.52548599 0 287727299.52548599 231337971.69809341 0 0 0 0 271236891.81140518 384694023.01505661 0 384694023.01505661 119157262.95815277 0 0 0 0 26112.776734317653 3617979.8355434816 0 3617979.8355434816 826276.62777549028 0 0 0 0 740574806.65145493 584147348.45072556 0 584147348.45072556 100702637.42848206 0 0 0 0 -1312308070.70631 945223704.25503206 0 945223704.25503206 529655213.66233826 0 0 0 0 -753078015.30440712 648351123.15602303 0 648351123.15602303 246865992.55739594 0 0 0 0 -408850852.0896368 199887215.1525116 0 199887215.1525116 -124897595.24041748 0 0 0 0 -535577052.60326767 691569024.52455902 0 691569024.52455902 -392527438.9115715 0 0 0 0 -105907390.2175703 138790246.8198154 0 138790246.8198154 92653636.900382996 0 0 0 0 -9344252.3563365936 361702332.87244034 0 361702332.87244034 -53697367.235469818 0 0 0 0 -843087880.51229095 451282387.70555496 0 451282387.70555496 -192872891.33576012 0 0 0 0 -262819492.04914284 228910131.37493896 0 228910131.37493896 -99838791.600799561 0 0 0 0 -473254764.13640213 371960352.76457596 0 371960352.76457596 -122807156.31218338 0 0 0 0 -82028554.037391663 308078125.67818451 0 308078125.67818451 -298310059.31665039 0 0 0 0 -182071276.07530689 307416447.12461472 0 307416447.12461472 -303545195.05096436 0 0 0 0 65553825.697087288 14279845.253334045 0 14279845.253334045 -232086197.46828079 0 0 0 0 3560251.8815206736 3021329.8630881868 0 3021329.8630881868 -10497805.430970848 0 0 0 0 -1037682237.0238495 726671988.34434509 0 726671988.34434509 -144022217.20497513 0 0 0 0 28134324.697717667 34202932.155417442 0 34202932.155417442 -3236506.5513153076 0 0 0 0 5116364.9905571081 10177773.865387959 0 10177773.865387959 12372191.250997186 0 0 0 0 -33396227.001718521 16960834.693023682 0 16960834.693023682 -40950669.907669067 0 0 0 0 -173825998.02634048 111093553.47059631 0 111093553.47059631 39340644.631393433 0 0 0 0 -106196259.26996899 243218223.0375061 0 243218223.0375061 -78978413.433883667 0 0 0 0 -420511488.00841713 241380743.00388718 0 241380743.00388718 60034375.977336884 0 0 0 0 -2940347.5676801801 149285333.8135882 0 149285333.8135882 -66085000.050582886 0 0 0 0 130746096.44682217 22173400.137561798 0 22173400.137561798 -178466011.40247345 0 0 0 0 1111482.9539135657 1563248.0747964829 0 1563248.0747964829 -1060904.9408959746 0 0 0 0 -207900970.85353136 31559155.032132149 0 31559155.032132149 19885292.814544678 0 0 0 0 -401750033.57424927 251704453.31040192 0 251704453.31040192 57812547.382295609 0 0 0 0 -369136809.07061625 -82673304.599159718 0 -82673304.599159718 86407634.970169067 0 0 0 0 27083839.245178223 9711178.9760169983 0 9711178.9760169983 16910495.452793121 0 0 0 0 35203156.956093788 122211159.13900614 0 122211159.13900614 -20051950.541000366 0 0 0 0 -365187248.86448574 483593924.94374847 0 483593924.94374847 -132247178.00559998 0 0 0 0 16393731.03620898 24272447.035433769 0 24272447.035433769 36693188.31639117 0 0 0 0 -408482914.63743085 354763492.80018234 0 354763492.80018234 -64189654.927429199 0 0 0 0 -194493354.2711134 357498186.1999054 0 357498186.1999054 -104792330.56078339 0 0 0 0 -12655715.177109122 310417540.72799301 0 310417540.72799301 -426851375.78318787 0 0 0 0 270129920.70767927 381841788.2970047 0 381841788.2970047 -196004267.06668091 0 0 0 0 -23879196.232385874 385787989.53232193 0 385787989.53232193 -193810045.72225952 0 0 0 0 -178314215.00912702 467656654.19573593 0 467656654.19573593 262273838.99563599 0 0 0 0 -27279741.723149776 330278367.76148224 0 330278367.76148224 -398281469.54594803 0 0 0 0 40930737.92357479 43364195.323543668 0 43364195.323543668 44569896.441472784 0 0 0 0 -15420284.073881626 454054905.33040619 0 454054905.33040619 -423719825.9127841 0 0 0 0 86013108.420806885 213432103.52696228 0 213432103.52696228 -280165735.47232056 0 0 0 0 93369157.3642416 272609438.36248779 0 272609438.36248779 -689071360.20757294 0 0 0 0 157521930.908216 385056736.47595978 0 385056736.47595978 -382337206.08187866 0 0 0 0 271598195.65301991 1114019896.8546829 0 1114019896.8546829 -823727871.86772728 0 0 0 0 1032415519.0932961 -7950088.8881378174 0 -7950088.8881378174 -1165219785.9314537 0 0 0 0 1261980192.8768501 -585531851.65911865 0 -585531851.65911865 -123698285.53713799 0 0 0 0 -454282967.02111244 521652161.47807312 0 521652161.47807312 -443353402.32150269 0 0 0 0 108761405.21841621 248541615.84877777 0 248541615.84877777 -311933887.93070984 0 0 0 0 -478615551.386922 -234883613.98890376 0 -234883613.98890376 -196509611.85635376 0 0 0 0 177322530.17593193 -97044295.359588623 0 -97044295.359588623 -229284626.48758698 0 0 0 0 -138979248.94277382 107575561.30819702 0 107575561.30819702 -72704122.58442688 0 0 0 0 182547132.31217289 -30059588.5284729 0 -30059588.5284729 -14130555.129882812 0 0 0 0 85540970.600226641 277290833.99001694 0 277290833.99001694 76780589.162826538 0 0 0 0 20109072.154824495 272257984.24676514 0 272257984.24676514 -176672185.88110352 0 0 0 0 246143251.7615099 320177050.16912842 0 320177050.16912842 -173402127.14172745 0 0 0 0 787394508.71574843 406344628.39020157 0 406344628.39020157 80064957.933570862 0 0 0 0 106287642.8049078 26244425.195285797 0 26244425.195285797 453072836.15258026 0 0 0 0 54696465.21936202 156133643.60919189 0 156133643.60919189 249356523.73960876 0 0 0 0 192348182.05929661 580393495.12192154 0 580393495.12192154 200181253.27184677 0 0 0 0 274681499.41449881 373174370.19647217 0 373174370.19647217 -435957695.14027405 0 0 0 0 -94055207.359937191 -227089654.46028137 0 -227089654.46028137 902575580.67364502 0 0 0 0 1190767.0329263485 5816025.8746812642 0 5816025.8746812642 8623312.995681867 0 0 0 0 -167904685.41701102 107093131.81506729 0 107093131.81506729 145668796.36785126 0 0 0 0 -517765957.45267391 97439094.341804504 0 97439094.341804504 407254145.49015808 0 0 0 0 -270047275.31577206 361730163.02097321 0 361730163.02097321 219872365.71131516 0 0 0 0 -398402228.39359617 328293736.68387604 0 328293736.68387604 230032653.00927734 0 0 0 0 -165708726.05324453 213479126.45278168 0 213479126.45278168 252148279.18585205 0 0 0 0 -68175900.130276203 560354133.26072693 0 560354133.26072693 875418893.78569651 0 0 0 0 -48969059.716226578 -16221672.028039932 0 -16221672.028039932 137001715.52240372 0 0 0 0 5406135.4362621307 57081700.596214294 0 57081700.596214294 -10368974.511253357 0 0 0 0 44867422.276480198 -122212708.96530056 0 -122212708.96530056 -36219347.414375305 0 0 0 0 -48843568.461447716 96236818.773525238 0 96236818.773525238 -185052411.6725235 0 0 0 0 11872913.194877625 6582173.6229132414 0 6582173.6229132414 2713353.9970989451 0 0 0 0 -38754467.521144867 88573247.675727844 0 88573247.675727844 -177580058.31334686 0 0 0 0 -51807912.578665733 95087959.067792892 0 95087959.067792892 -179883030.06367493 0 0 0 0 13388663.940864563 82676962.764400482 0 82676962.764400482 -158221394.10313416 0 0 0 0 -54160551.286700249 34608161.932003021 0 34608161.932003021 92904895.085544586 0 0 0 0 5856930.4233959839 9053984.7180577964 0 9053984.7180577964 7795515.6056402624 0 0 0 0 19671185.357393764 24881600.34326867 0 24881600.34326867 23069574.355313316 0 0 0 0 -51471438.239013672 209956423.72241592 0 209956423.72241592 -98624462.000083923 0 0 0 0 -115575816.94075966 161527216.76095009 0 161527216.76095009 -20220873.229316711 0 0 0 0 -5375789.2266349792 92796926.257390976 0 92796926.257390976 -27496632.112537384 0 0 0 0 -121215899.46280432 178057072.04031134 0 178057072.04031134 -25919647.178943634 0 0 0 0 14438803.164693013 19148620.108995017 0 19148620.108995017 25028402.178877681 0 0 0 0 -138241630.11466217 140388828.39507103 0 140388828.39507103 -28331921.258960724 0 0 0 0 -165942611.52702904 117113430.3884182 0 117113430.3884182 18937776.700893402 0 0 0 0 -61496611.621574402 181971836.46027756 0 181971836.46027756 -12524615.534902573 0 0 0 0 -127122080.76786613 171711159.76733112 0 171711159.76733112 49609521.728683472 0 0 0 0 -161273071.24419785 136552124.76074028 0 136552124.76074028 47829042.717399597 0 0 0 0 -214463633.46688843 165072131.20172501 0 165072131.20172501 22055667.155513763 0 0 0 0 -155039149.91183281 132770442.38348198 0 132770442.38348198 36655918.951820374 0 0 0 0 -136921272.66129208 44537108.103674889 0 44537108.103674889 78185155.091575623 0 0 0 0 -234564198.08725357 97819189.162525177 0 97819189.162525177 69376644.782484055 0 0 0 0 11618514.171576001 15419705.05512698 0 15419705.05512698 19293945.909698531 0 0 0 0 -216103339.92673492 82402604.251411438 0 82402604.251411438 -6605940.4749779701 0 0 0 0 -171535252.35791874 -29681356.343338013 0 -29681356.343338013 183412607.22789764 0 0 0 0 -145529208.66926193 299356566.52576447 0 299356566.52576447 -46917854.395763397 0 0 0 0 -119541184.21769333 183530602.78635597 0 183530602.78635597 187142994.40500832 0 0 0 0 396925421.73454666 453670753.53516006 0 453670753.53516006 323966907.72761536 0 0 0 0 414798385.02824569 580957978.37878799 0 580957978.37878799 171762613.67031097 0 0 0 0 -894687406.92602921 -553401131.20217133 0 -553401131.20217133 221618935.22774506 0 0 0 0 -516630497.56690216 1236813762.521389 0 1236813762.521389 1849717837.1740112 0 0 0 0 -312413408.84592438 12311469.904922485 0 12311469.904922485 656604477.49766159 0 0 0 0 -317332676.11108398 -204795168.85985565 0 -204795168.85985565 7769267.3235244751 0 0 0 0 106924863.24588013 114370080.33382797 0 114370080.33382797 10642906.306427002 0 0 0 0 21714255.23981481 26622286.020228516 0 26622286.020228516 17976522.549408764 0 0 0 0 1532098790.6818085 392838133.75144958 0 392838133.75144958 -176497987.24986267 0 0 0 0 738157591.58320618 -276685081.63954544 0 -276685081.63954544 13090714.30987072 0 0 0 0 2313624597.6861534 1281932407.9536819 0 1281932407.9536819 369921395.11841965 0 0 0 0 9809685.1011271253 4993876.240871802 0 4993876.240871802 2515326.3577154055 0 0 0 0 -9264814.118019104 336612217.91649628 0 336612217.91649628 747213422.8621521 0 0 0 0 2898311985.8832397 857464527.31808472 0 857464527.31808472 819748047.23771667 0 0 0 0 2245830001.9076805 -303371243.41184998 0 -303371243.41184998 -9740666.667509079 0 0 0 0 11998503.926810697 7651395.8091919385 0 7651395.8091919385 6755927.4808400273 0 0 0 0 -361091843.16557121 1285685192.2640877 0 1285685192.2640877 1042241122.1982193 0 0 0 0 -78740105.956050873 72829328.591304779 0 72829328.591304779 -253866639.18021774 0 0 0 0 1175591257.8916569 530833669.85597038 0 530833669.85597038 -304566661.50623322 0 0 0 0 -41599642.692657471 399968461.13899994 0 399968461.13899994 -318636232.28817558 0 0 0 0 480379322.44706726 44352603.158542633 0 44352603.158542633 -308428019.70526123 0 0 0 0 478014848.58526897 -19920399.747825623 0 -19920399.747825623 -302308265.91928101 0 0 0 0 114967259.7035923 195008407.64031601 0 195008407.64031601 -326509437.36405945 0 0 0 0 192613690.4257679 142872413.12089539 0 142872413.12089539 -311727781.09761047 0 0 0 0 -35853547.630138397 154942774.23627472 0 154942774.23627472 -241726759.25619507 0 0 0 0 -405817022.41304016 174225033.93904495 0 174225033.93904495 -206705599.61769104 0 0 0 0 -64367945.662635803 233412702.91334152 0 233412702.91334152 -366590493.54180145 0 0 0 0 -81457799.593919754 -257684786.35784912 0 -257684786.35784912 -177329117.07862091 0 0 0 0 17098213.007031336 8063799.8540537059 0 8063799.8540537059 3284303.504781276 0 0 0 0 -84308150.147190094 216868243.86190033 0 216868243.86190033 -280296551.6908493 0 0 0 0 174115241.23933792 -49163938.557296753 0 -49163938.557296753 -284887686.34075737 0 0 0 0 -157017898.38202667 184051381.93084717 0 184051381.93084717 -143347317.06095123 0 0 0 0 176640060.0052948 96113792.018852234 0 96113792.018852234 -290289214.59114838 0 0 0 0 -102792448.76482391 99853574.177902222 0 99853574.177902222 -142694169.39455414 0 0 0 0 1752552.2195346057 576793.55819454789 0 576793.55819454789 -544994.18335734308 0 0 0 0 -48585395.843917847 142282749.25889587 0 142282749.25889587 -266633941.84896088 0 0 0 0 -77610999.776764393 137351351.95025063 0 137351351.95025063 6526004.5277557373 0 0 0 0 2872225.0185793117 1779406.2227559462 0 1779406.2227559462 247594.2425352037 0 0 0 0 104909880.58826256 111261157.82528687 0 111261157.82528687 -161680614.0531311 0 0 0 0 81589289.538988113 56703877.500427246 0 56703877.500427246 -273164043.26713753 0 0 0 0 -20230040.207403183 92026275.839168549 0 92026275.839168549 263767746.79316711 0 0 0 0 60297917.045717239 154200413.61050987 0 154200413.61050987 -424369.88775634766 0 0 0 0 -398995975.49737763 282011522.6175127 0 282011522.6175127 -109566229.84890747 0 0 0 0 86933806.332244873 109289549.39389801 0 109289549.39389801 -236687258.26032257 0 0 0 0 119596386.58859253 168154147.22541046 0 168154147.22541046 -291280093.57102585 0 0 0 0 88647824.756538391 253606965.85054779 0 253606965.85054779 -1158724.2780609131 0 0 0 0 107717763.45904541 201372679.74634171 0 201372679.74634171 -204688471.08610725 0 0 0 0 -142524231.38449574 69324226.09044838 0 69324226.09044838 -8023529.9938087463 0 0 0 0 182375271.2202127 524396102.29966879 0 524396102.29966879 648798961.01109314 0 0 0 0 123820902.50562477 289153654.70678711 0 289153654.70678711 91815514.983940125 0 0 0 0 -67827936.185053825 29190578.380905151 0 29190578.380905151 761840276.31179047 0 0 0 0 -249314081.77907562 49034496.560270309 0 49034496.560270309 853598180.9991188 0 0 0 0 -14014992.725314699 3264379.1953225732 0 3264379.1953225732 165744.34907965735 0 0 0 0 406021015.17161942 622014693.02526093 0 622014693.02526093 -1394800233.5852194 0 0 0 0 675546824.88519716 870093428.96687603 0 870093428.96687603 -1166548802.8966064 0 0 0 0 132548162.84550476 -1281382622.5396118 0 -1281382622.5396118 -1412023012.2710419 0 0 0 0 -518122599.89572144 92778659.738510132 0 92778659.738510132 1464905289.8591156 0 0 0 0 30297034.131123543 43929536.886787415 0 43929536.886787415 276162987.82571411 0 0 0 0 -135182050.06509209 53246080.948898315 0 53246080.948898315 285100163.80067635 0 0 0 0 51298975.002817154 133722396.46120071 0 133722396.46120071 283536086.76057625 0 0 0 0 -36127958.93385075 5604199.4622424543 0 5604199.4622424543 1375059.3818110619 0 0 0 0 -100685814.67307472 32438377.1108284 0 32438377.1108284 641021245.48988724 0 0 0 0 -610821362.11390305 497279502.2370224 0 497279502.2370224 -64041543.888750076 0 0 0 0 -62224715.745544434 21419808.375099182 0 21419808.375099182 -163374468.93490696 0 0 0 0 -44589880.589091808 6040986.5998962522 0 6040986.5998962522 1465497.5099799857 0 0 0 0 -132371489.04792404 59627968.80437088 0 59627968.80437088 450309239.74879265 0 0 0 0 -27589144.293419361 28599453.088507652 0 28599453.088507652 245324440.15886688 0 0 0 0 -137943311.41035652 40718408.441242218 0 40718408.441242218 245545484.78275353 0 0 0 0 -24540990.541783333 76503226.875320435 0 76503226.875320435 6909051.6958351135 0 0 0 0 -131176046.70614624 238364308.18146896 0 238364308.18146896 -36737979.982191086 0 0 0 0 2712550.0647842586 1977326.4629786611 0 1977326.4629786611 723267.22667229176 0 0 0 0 -58199990.596320868 108558123.93896675 0 108558123.93896675 -158948325.26435852 0 0 0 0 -57167679.084672928 93948890.88262558 0 93948890.88262558 -153822116.84324646 0 0 0 0 -14261741.249658585 159206244.17945671 0 159206244.17945671 -279218869.84723663 0 0 0 0 -69048324.144851685 113815347.93339539 0 113815347.93339539 -185208288.16974455 0 0 0 0 -7831472.382818222 86260552.853809357 0 86260552.853809357 -130853812.64425278 0 0 0 0 3382121.7607221603 84377596.462110519 0 84377596.462110519 -131729990.44889069 0 0 0 0 -15931255.850331306 60171867.51067543 0 60171867.51067543 -145354566.77150726 0 0 0 0 -61677468.333293438 93263153.634851933 0 93263153.634851933 -121719399.31460571 0 0 0 0 39462258.854768753 84831804.194293976 0 84831804.194293976 -152535259.00222397 0 0 0 0 1256616.3863949031 881972.7866377458 0 881972.7866377458 354807.13501517475 0 0 0 0 58066887.672180176 173809733.69423294 0 173809733.69423294 -48606560.516029358 0 0 0 0 -51592198.817340851 132000623.17482758 0 132000623.17482758 147275220.91682434 0 0 0 0 -15250302.587574005 33326869.767139435 0 33326869.767139435 114429759.60050201 0 0 0 0 63820731.443352699 95648641.648929596 0 95648641.648929596 130474254.22897339 0 0 0 0 22148951.939002991 137790191.91040039 0 137790191.91040039 222052049.84980392 0 0 0 0 -120066032.61440992 149506638.53283501 0 149506638.53283501 238534738.16871643 0 0 0 0 -53607922.82451725 90892932.008081436 0 90892932.008081436 193209092.40145874 0 0 0 0 -65389376.778198242 43884147.902282715 0 43884147.902282715 -39269646.466094971 0 0 0 0 -43681006.85162317 6761815.5069601238 0 6761815.5069601238 1187849.9496991411 0 0 0 0 -11707933.413953781 69518766.399459839 0 69518766.399459839 203656613.78720093 0 0 0 0 -34468149.426146984 -2436941.6293668747 0 -2436941.6293668747 79495303.262756348 0 0 0 0 -42959443.165409088 29171758.562919617 0 29171758.562919617 154312555.92507553 0 0 0 0 -39351348.068007469 20290892.801145554 0 20290892.801145554 -4195991.1417541504 0 0 0 0 -344661557.13445282 366804319.87784195 0 366804319.87784195 -212505293.3316803 0 0 0 0 -638808.3432726562 147170.38435733691 0 147170.38435733691 1210866.8878366053 0 0 0 0 -33952063.477745056 24333194.638435364 0 24333194.638435364 -8052959.7895965576 0 0 0 0 -38798115.803379059 26076466.689846039 0 26076466.689846039 -7119507.4164886475 0 0 0 0 -165931392.60395956 387972496.53817081 0 387972496.53817081 -357154759.40930176 0 0 0 0 -171870916.90771818 356141367.24612713 0 356141367.24612713 -298694029.1525116 0 0 0 0 -324780187.94080353 285243208.11740112 0 285243208.11740112 -258501877.98894787 0 0 0 0 -28404599.100021362 3230079.7461080551 0 3230079.7461080551 -35843663.594604492 0 0 0 0 -154436245.50805068 172775707.69858229 0 172775707.69858229 -287759801.78681946 0 0 0 0 -77407.062315568328 343568.81350278854 0 343568.81350278854 -49339.640570670366 0 0 0 0 -153557802.334198 207791583.3866539 0 207791583.3866539 -247412340.20888615 0 0 0 0 -48614074.389022827 6204118.0846176147 0 6204118.0846176147 -62566722.294612885 0 0 0 0 2447600.9882125854 91936266.400405884 0 91936266.400405884 -378805429.98394775 0 0 0 0 95256917.661445618 71956768.556354523 0 71956768.556354523 -736106657.42185974 0 0 0 0 -6468009.8427658081 165336686.1526947 0 165336686.1526947 -356304249.06692123 0 0 0 0 -23849148.823356628 208246940.6990509 0 208246940.6990509 -455288328.04476929 0 0 0 0 77366056.363994598 -89941314.334518433 0 -89941314.334518433 -328778448.87516785 0 0 0 0 80898008.022201538 678607389.07643127 0 678607389.07643127 -1156960452.8506927 0 0 0 0 66497124.021923065 474513017.73117065 0 474513017.73117065 -639040500.63623047 0 0 0 0 113256363.60880661 541073026.23385811 0 541073026.23385811 -676481037.39932251 0 0 0 0 74819115.592529297 419911262.53437805 0 419911262.53437805 -721143536.62833786 0 0 0 0 -17312897.761413574 394959964.37828064 0 394959964.37828064 -572313097.9309845 0 0 0 0 -46000526.429145813 325125680.73425293 0 325125680.73425293 -383666223.39334869 0 0 0 0 -14844698.955688477 459673917.90517426 0 459673917.90517426 -472043455.49411011 0 0 0 0 -133694995.86404419 541925346.55931854 0 541925346.55931854 -253442396.86453247 0 0 0 0 -97652409.158584595 552517709.38594818 0 552517709.38594818 -470988977.55377907 0 0 0 0 -241660320.51280212 535367388.01026154 0 535367388.01026154 -252057538.40795898 0 0 0 0 -126989702.09553528 752282081.45340729 0 752282081.45340729 -319054272.61755371 0 0 0 0 -47478143.787765503 645882035.2230072 0 645882035.2230072 -300088721.48153687 0 0 0 0 -39216983.729133606 682187848.32411957 0 682187848.32411957 -689803990.5506134 0 0 0 0 -112255815.97659302 687442563.24938965 0 687442563.24938965 -279831278.6416893 0 0 0 0 -106438830.92671204 636718195.20227814 0 636718195.20227814 -172870001.77513123 0 0 0 0 -114343574.11695862 733011152.87378693 0 733011152.87378693 -167438572.82014465 0 0 0 0 -59792112.504425049 691863643.52468872 0 691863643.52468872 -321450118.27064514 0 0 0 0 -125664625.59500122 603455968.63528442 0 603455968.63528442 44362589.412734985 0 0 0 0 -158095751.98675537 667152011.87702942 0 667152011.87702942 -14746975.527389526 0 0 0 0 75816243.716552734 540060470.81399536 0 540060470.81399536 -52448859.626873016 0 0 0 0 -122825436.42985535 571609923.5227356 0 571609923.5227356 -108371415.33323479 0 0 0 0 -209939586.83876801 583590031.43378448 0 583590031.43378448 -198337438.0753479 0 0 0 0 -300360339.20674133 589551425.77144623 0 589551425.77144623 -78903237.67036438 0 0 0 0 -202053231.97584152 613787243.10732269 0 613787243.10732269 -86801024.847267151 0 0 0 0 -352543365.77076721 540620223.07480621 0 540620223.07480621 -77504169.421281099 0 0 0 0 -334369685.59933472 538245976.21001434 0 538245976.21001434 -142514965.76818848 0 0 0 0 -489680426.71430206 441592220.51389313 0 441592220.51389313 -41733197.64497757 0 0 0 0 -347997196.89593887 455694684.60014343 0 455694684.60014343 -136326002.60377502 0 0 0 0 -545310319.05794525 439123079.36981964 0 439123079.36981964 -37651826.421894073 0 0 0 0 -537588194.28788376 291670095.01142883 0 291670095.01142883 10597103.032409668 0 0 0 0 -542585892.42505646 334477813.94155121 0 334477813.94155121 -64825013.858100891 0 0 0 0 -458012037.82981491 306740960.61249542 0 306740960.61249542 -102733107.26768112 0 0 0 0 -380034335.45051193 346431055.65457153 0 346431055.65457153 -220034960.72261047 0 0 0 0 -216174955.09017181 418185105.11753082 0 418185105.11753082 -274865514.43154526 0 0 0 0 -217829840.82022095 453952598.73612213 0 453952598.73612213 -339266522.93664551 0 0 0 0 -362860335.81298161 413756889.04080582 0 413756889.04080582 -169966638.38830566 0 0 0 0 -248075394.48193741 -4957962.434463501 0 -4957962.434463501 -676279906.00294876 0 0 0 0 66036133.248163223 305208703.27099609 0 305208703.27099609 -717817273.16972351 0 0 0 0 768351288.4133358 913060018.32383919 0 913060018.32383919 -623881951.80555725 0 0 0 0 -873713207.29021072 859699776.23095512 0 859699776.23095512 1185748878.9253235 0 0 0 0 1310526119.3395662 206669945.14553452 0 206669945.14553452 -1526622934.5977173 0 0 0 0 512320.2929834798 1579362.2088605259 0 1579362.2088605259 -6040060.9892783761 0 0 0 0 437512045.05437088 470327553.77592468 0 470327553.77592468 -1214943632.9801025 0 0 0 0 40729050.682403564 606309162.1892395 0 606309162.1892395 -1198739419.2391129 0 0 0 0 376791889.69908619 602274743.35594749 0 602274743.35594749 -1342797850.0037537 0 0 0 0 86065038.920341492 -7904221.1029548645 0 -7904221.1029548645 -684966990.16507721 0 0 0 0 180986917.23498726 196743270.21222115 0 196743270.21222115 -802167766.3459549 0 0 0 0 313421727.10937119 125949352.19139099 0 125949352.19139099 -986826882.57038879 0 0 0 0 -70979568.083068848 -681273470.68384552 0 -681273470.68384552 -1072482210.2026176 0 0 0 0 -637746.89417205192 -445000.15121205896 0 -445000.15121205896 -14996596.74315697 0 0 0 0 264095340.55235386 341755056.05055809 0 341755056.05055809 -1918372423.4039612 0 0 0 0 -1884088220.6142349 945791647.98889542 0 945791647.98889542 -367800430.64204407 0 0 0 0 -58461312.654070854 831752218.96704674 0 831752218.96704674 -1520566446.4517136 0 0 0 0 -1327991252.7536697 -254055255.50720406 0 -254055255.50720406 -749245445.29602814 0 0 0 0 216844885.46421432 318556706.56106567 0 318556706.56106567 -2268713028.9765396 0 0 0 0 -2193538.9155197144 292338316.76979828 0 292338316.76979828 -886742056.9156723 0 0 0 0 273421598.34736252 -216657677.41200256 0 -216657677.41200256 -1369269250.8944855 0 0 0 0 -501728329.86342621 1319907557.2833481 0 1319907557.2833481 -1697276887.6767387 0 0 0 0 -133314106.5019989 704158200.26102066 0 704158200.26102066 -691641164.94284058 0 0 0 0 -87628775.285987854 781453484.2423172 0 781453484.2423172 -689767691.30869675 0 0 0 0 -491217681.05673599 711922613.52499199 0 711922613.52499199 -218621257.73216248 0 0 0 0 -237779554.27382469 240190739.04078293 0 240190739.04078293 -137875941.52546692 0 0 0 0 187917446.28833008 59277729.656385422 0 59277729.656385422 -110793379.20982361 0 0 0 0 16182621.440513611 634327097.30977631 0 634327097.30977631 -18753154.459091187 0 0 0 0 57085672.016109467 588477298.2804184 0 588477298.2804184 -213110081.90759277 0 0 0 0 -105354483.90725708 531820443.03057098 0 531820443.03057098 66949677.557022095 0 0 0 0 550480895.88334084 374397210.41790962 0 374397210.41790962 -22928075.051177979 0 0 0 0 75917997.919502258 515658904.23656464 0 515658904.23656464 -66668793.191772461 0 0 0 0 71270366.625907898 380664954.46730804 0 380664954.46730804 198055597.72175598 0 0 0 0 93578361.830216885 298354985.02225208 0 298354985.02225208 420251296.55822754 0 0 0 0 606632336.09122276 278623166.43333435 0 278623166.43333435 116390876.1910305 0 0 0 0 -17603382.349391937 41837504.225479126 0 41837504.225479126 25236749.416473389 0 0 0 0 -1268704.1139484504 12645130.835979566 0 12645130.835979566 18566146.033618212 0 0 0 0 -1931522.9560911208 6518682.9029325694 0 6518682.9029325694 -412167.27345789224 0 0 0 0 22209336.020198703 24880927.786720037 0 24880927.786720037 -170187225.69034576 0 0 0 0 -208814975.81423569 248192698.8600235 0 248192698.8600235 -146568482.31243134 0 0 0 0 4858785.2720976295 12311364.111236647 0 12311364.111236647 -38910818.900653064 0 0 0 0 5196476.0613657534 40497891.113717049 0 40497891.113717049 14843319.961592644 0 0 0 0 -81432898.940069199 127537532.56097794 0 127537532.56097794 -237451535.92889786 0 0 0 0 -25954967.990573883 54689560.093105316 0 54689560.093105316 34573624.426330566 0 0 0 0 -40639819.505905151 41319863.776176453 0 41319863.776176453 36422631.755962372 0 0 0 0 -43825317.063037872 84040644.534294128 0 84040644.534294128 14265641.519447327 0 0 0 0 -50873758.414140701 101594522.64513969 0 101594522.64513969 35852957.824539185 0 0 0 0 -4258623.3908133507 115564434.78991318 0 115564434.78991318 -30358621.483665466 0 0 0 0 -79296553.001382828 -3331029.7573432922 0 -3331029.7573432922 -216174342.62018967 0 0 0 0 -6566475.4402081147 36514717.845676228 0 36514717.845676228 18830332.561777554 0 0 0 0 -64483868.614753723 50542639.131378174 0 50542639.131378174 -84377245.68894577 0 0 0 0 -83546914.049167633 61496224.805877686 0 61496224.805877686 -46272342.445144653 0 0 0 0 -90288483.304473877 41584861.982011795 0 41584861.982011795 -27932111.557571411 0 0 0 0 -89155096.243499756 27423650.165740967 0 27423650.165740967 -37986360.944946289 0 0 0 0 -99339258.640163422 50000528.618179321 0 50000528.618179321 26820120.212905884 0 0 0 0 -84451681.527283743 61684560.810121834 0 61684560.810121834 27696738.812667847 0 0 0 0 -87947748.615402222 81224664.663032532 0 81224664.663032532 70483012.599327087 0 0 0 0 -82546799.876182079 50336931.204632282 0 50336931.204632282 21413461.402603149 0 0 0 0 -41867069.590811729 23660556.384832382 0 23660556.384832382 15702426.423370361 0 0 0 0 -89572588.897975177 25575684.074394524 0 25575684.074394524 16730919.708175659 0 0 0 0 -71106330.70513916 62458851.426856995 0 62458851.426856995 33729994.449108124 0 0 0 0 -88476570.864513397 66754702.039283752 0 66754702.039283752 6634751.4146347046 0 0 0 0 -114209843.80184746 58251110.938156128 0 58251110.938156128 -17127317.632892609 0 0 0 0 1186916072.836195 454119550.19852448 0 454119550.19852448 -34397313.785667419 0 0 0 0 336932.54729489144 5982195.8921257406 0 5982195.8921257406 7451903.1472255588 0 0 0 0 375674017.72837448 447276375.81095123 0 447276375.81095123 26171628.212921143 0 0 0 0 233121905.72175217 396349914.15649796 0 396349914.15649796 104701002.65019989 0 0 0 0 869378414.23041153 253208310.09690094 0 253208310.09690094 2320381.5903244019 0 0 0 0 868465076.49401259 239785224.34496045 0 239785224.34496045 170733388.14401245 0 0 0 0 842939680.71383166 524565078.27581024 0 524565078.27581024 -50042136.531608582 0 0 0 0 1078852971.4450645 635972467.18057251 0 635972467.18057251 276670.4997253418 0 0 0 0 -410529459.54993916 405861949.51816177 0 405861949.51816177 973691.06784057617 0 0 0 0 1983721849.82094 316803026.55680466 0 316803026.55680466 -180377387.83067322 0 0 0 0 1323022.8262770791 2214156.1741007566 0 2214156.1741007566 1524876.293862462 0 0 0 0 -95599144.035581589 47940957.432834625 0 47940957.432834625 -45892996.547813416 0 0 0 0 -114244810.29872513 74416950.249076843 0 74416950.249076843 -41840422.08477211 0 0 0 0 -1435630.7616262883 536077.8109094426 0 536077.8109094426 2708812.0413443446 0 0 0 0 -128068407.35974884 73277084.558944702 0 73277084.558944702 -45383.52748708336 0 0 0 0 -189649690.42662334 69868643.024959564 0 69868643.024959564 -50585049.576805115 0 0 0 0 -83941137.708892822 19720181.042770386 0 19720181.042770386 -55143034.184677124 0 0 0 0 -259066.27377522737 1907048.5205884501 0 1907048.5205884501 4150482.1742914021 0 0 0 0 -103498596.86361313 96535921.894966125 0 96535921.894966125 -73539703.116674423 0 0 0 0 -38361633.540801525 126779115.21932983 0 126779115.21932983 -50332546.384109497 0 0 0 0 -256420278.99543381 156625782.53162956 0 156625782.53162956 52936481.718460083 0 0 0 0 -471163652.03258133 627156093.08962631 0 627156093.08962631 112868053.78775787 0 0 0 0 -896009079.46030807 462507031.06639481 0 462507031.06639481 129443817.41838312 0 0 0 0 -1042925093.0783005 410871206.01633835 0 410871206.01633835 92485210.942092896 0 0 0 0 -744331996.84709549 335297694.42544174 0 335297694.42544174 -26261907.043022156 0 0 0 0 -770336525.31621361 271474744.25781631 0 271474744.25781631 12915827.055145264 0 0 0 0 -661796047.68292809 455272345.19007111 0 455272345.19007111 40589783.045974731 0 0 0 0 -708445338.88895988 533154460.41621971 0 533154460.41621971 114596120.49650574 0 0 0 0 -405490180.55437469 534850444.1338501 0 534850444.1338501 -12519004.654708862 0 0 0 0 -457292551.46461678 578277318.31764603 0 578277318.31764603 22304427.370834351 0 0 0 0 -262471683.51852798 540799563.53495789 0 540799563.53495789 11724501.761695862 0 0 0 0 -245021871.33617401 661412250.42444611 0 661412250.42444611 19184722.377700806 0 0 0 0 -394734260.35914898 574069233.66598701 0 574069233.66598701 78622947.153671265 0 0 0 0 312129689.33982849 522673003.35990143 0 522673003.35990143 -35608988.994068146 0 0 0 0 169966536.44518089 556178580.19623947 0 556178580.19623947 165744483.6944046 0 0 0 0 -197867535.58981705 653984340.70155716 0 653984340.70155716 105391451.93115234 0 0 0 0 147857674.10790634 489135966.07016373 0 489135966.07016373 -33707847.421852112 0 0 0 0 -335854702.02749062 771384925.17769623 0 771384925.17769623 67027984.535705566 0 0 0 0 421013054.54998779 264705950.94035721 0 264705950.94035721 145876127.06399918 0 0 0 0 124298994.47175694 718656869.17005825 0 718656869.17005825 107414.87113189697 0 0 0 0 -660878367.0354805 342592639.77789307 0 342592639.77789307 32765366.222709656 0 0 0 0 -894517258.49488831 737488986.40958118 0 737488986.40958118 -586040.67561340332 0 0 0 0 -841204138.25456333 382089540.76411724 0 382089540.76411724 -7059750.1458587646 0 0 0 0 -2395998282.6300659 145941605.63602066 0 145941605.63602066 138928379.91003418 0 0 0 0 203401120.26329041 129916536.46921921 0 129916536.46921921 164935.36552429199 0 0 0 0 87318664.585338593 225127556.65098953 0 225127556.65098953 -59981057.137512207 0 0 0 0 -3326622.6472144984 2880558.0289579034 0 2880558.0289579034 -3902485.2798559666 0 0 0 0 385156281.25769043 154174874.83071899 0 154174874.83071899 -57641011.081130981 0 0 0 0 222750342.06523132 143447483.86222839 0 143447483.86222839 9149675.8949050903 0 0 0 0 219989851.34917402 85757213.883666039 0 85757213.883666039 -29528214.388824463 0 0 0 0 57373685.032279968 55323757.839241028 0 55323757.839241028 -18813892.916023254 0 0 0 0 289891223.63526154 153384129.1726532 0 153384129.1726532 -43512352.438018799 0 0 0 0 238781401.37585449 123591178.42459869 0 123591178.42459869 -31332.495269775391 0 0 0 0 225124760.47026062 169523615.06764984 0 169523615.06764984 -37499767.484268188 0 0 0 0 262144828.60258293 94128777.915334702 0 94128777.915334702 -120513493.27503967 0 0 0 0 970813.88656411506 -1618309.9510367662 0 -1618309.9510367662 -325607.73062226176 0 0 0 0 44702175.53817749 -92643305.671798706 0 -92643305.671798706 151550715.69219971 0 0 0 0 433314974.80552292 118514673.21672821 0 118514673.21672821 -80591780.666793823 0 0 0 0 381874736.32132339 72306820.322601318 0 72306820.322601318 -37942177.128326416 0 0 0 0 256250595.22463989 86821072.486930847 0 86821072.486930847 22569445.639762878 0 0 0 0 51414614.869861603 104798470.55983734 0 104798470.55983734 86531860.963256836 0 0 0 0 -1370374653.3364429 30535524.450124741 0 30535524.450124741 66310221.06855011 0 0 0 0 -3510148.0627849922 9562031.6072035581 0 9562031.6072035581 -12902657.567842573 0 0 0 0 -4186761.9476666749 850487.77125525475 0 850487.77125525475 98951.839280635118 0 0 0 0 -31619115.336616516 51619326.740192413 0 51619326.740192413 -86174214.756134033 0 0 0 0 325581840.89551926 185598317.44259262 0 185598317.44259262 -62884471.100708008 0 0 0 0 269154033.35357285 226481062.01343918 0 226481062.01343918 35767944.782653809 0 0 0 0 132625739.53097725 199855053.61148643 0 199855053.61148643 136442081.35041046 0 0 0 0 -3152445.230669409 5124874.6392887272 0 5124874.6392887272 1406497.25301072 0 0 0 0 299704439.70604706 10528240.675178528 0 10528240.675178528 -10367061.747177124 0 0 0 0 -19715969.135154724 20903119.65643692 0 20903119.65643692 45277851.005981445 0 0 0 0 -5688384.1239562016 9938332.4846627265 0 9938332.4846627265 -10367288.5604195 0 0 0 0 -652819262.18143463 172529704.70220947 0 172529704.70220947 50945906.107271194 0 0 0 0 -593362037.72575378 171333064.72480488 0 171333064.72480488 -31755382.844665527 0 0 0 0 -908495.44900810719 7969784.8997455239 0 7969784.8997455239 -11354517.215900719 0 0 0 0 -36898472.960212708 55006734.214790344 0 55006734.214790344 79115240.3383255 0 0 0 0 -61361889.739810944 122519823.69269562 0 122519823.69269562 111692910.02637482 0 0 0 0 297553270.40435028 162215695.1120491 0 162215695.1120491 30654752.800476074 0 0 0 0 116428074.26103592 235890408.84273148 0 235890408.84273148 163547405.5567627 0 0 0 0 262816898.35697937 18609026.140419006 0 18609026.140419006 -203050036.72937012 0 0 0 0 -197357755.61607361 149167146.72157288 0 149167146.72157288 235265476.28071594 0 0 0 0 -1821640.8461634368 2211695.5919025391 0 2211695.5919025391 -1394195.8543170691 0 0 0 0 -114668987.88383865 -60106164.64975071 0 -60106164.64975071 31615594.982650757 0 0 0 0 -84322817.117967606 123675773.3938942 0 123675773.3938942 -144869689.74788666 0 0 0 0 -234544318.52528381 -3228517.5591640472 0 -3228517.5591640472 10484465.048370361 0 0 0 0 53488071.921432495 70677463.968391418 0 70677463.968391418 20986236.939308167 0 0 0 0 -28018371.348335266 67485876.976238251 0 67485876.976238251 27875398.629425049 0 0 0 0 91918828.656890869 119895213.13127136 0 119895213.13127136 -170543.08353788004 0 0 0 0 -132325163.28832245 143475422.92090225 0 143475422.92090225 409411.85108184814 0 0 0 0 -156969531.9236412 140811452.024189 0 140811452.024189 63989938.804550171 0 0 0 0 1135305.5485668927 1885941.0775913 0 1885941.0775913 -1534068.182951346 0 0 0 0 -92769264.619205475 61373591.486480713 0 61373591.486480713 159167913.146698 0 0 0 0 7564404.0275878906 7198357.7584533691 0 7198357.7584533691 -1236.0474039648252 0 0 0 0 10926092.397140503 -7110310.7806167603 0 -7110310.7806167603 96762682.451332092 0 0 0 0 -50289800.044380188 29976000.595245361 0 29976000.595245361 74387896.594039917 0 0 0 0 29661590.611629486 5551155.141368866 0 5551155.141368866 37191143.010269165 0 0 0 0 -51537542.742706299 47240260.468444824 0 47240260.468444824 33108430.195695877 0 0 0 0 -41447301.837120056 33674042.165161133 0 33674042.165161133 42584472.922836304 0 0 0 0 85113800.101955414 81461645.383655548 0 81461645.383655548 115037275.69572449 0 0 0 0 33091390.289146423 41727104.610200882 0 41727104.610200882 42686143.448570251 0 0 0 0 55206804.830186844 89986928.990972519 0 89986928.990972519 104306001.54407501 0 0 0 0 74524619.346046448 39349682.614273071 0 39349682.614273071 105397.24214935303 0 0 0 0 1026190.3193561137 2429158.5417642295 0 2429158.5417642295 -1868893.101551801 0 0 0 0 -9799895.6014766693 50931873.382604599 0 50931873.382604599 98235255.943878174 0 0 0 0 14811350.348472595 16100222.892360687 0 16100222.892360687 41882399.552436829 0 0 0 0 1250172.5982319117 1966031.2683907449 0 1966031.2683907449 -1479488.253301248 0 0 0 0 30928575.727813721 95063235.545654297 0 95063235.545654297 15018374.23046875 0 0 0 0 142107844.50441742 238356097.48566437 0 238356097.48566437 170525196.55998802 0 0 0 0 24838285.406066895 67776960.302268982 0 67776960.302268982 85902614.155441284 0 0 0 0 767167.21671295166 36868396.15196228 0 36868396.15196228 -8933982.4469909668 0 0 0 0 -16484727.38128233 -16284903.721963406 0 -16284903.721963406 30691737.031524658 0 0 0 0 -3364755.884437561 39501072.49911499 0 39501072.49911499 26253651.049491882 0 0 0 0 -8351243.4310073853 51243811.133201599 0 51243811.133201599 17625947.043075562 0 0 0 0 -10150062.934328526 10135089.472381294 0 10135089.472381294 -303711.25599202514 0 0 0 0 13076259.105010986 7263254.6450166702 0 7263254.6450166702 -17787477.586341858 0 0 0 0 -20977076.282302856 20378333.328304291 0 20378333.328304291 -88831065.470611572 0 0 0 0 188537028.3169632 -17064422.163841248 0 -17064422.163841248 -46233975.778396606 0 0 0 0 4693721.580851078 3470561.1310623437 0 3470561.1310623437 2308028.1645256281 0 0 0 0 271812153.99511719 125708501.90238953 0 125708501.90238953 11599431.201118469 0 0 0 0 5001291.1046012193 8937771.4523858875 0 8937771.4523858875 7866628.5585568547 0 0 0 0 1979495.6243057251 -3748560.5596733093 0 -3748560.5596733093 -45908959.44977951 0 0 0 0 -7555823.0356230736 3892427.9371317327 0 3892427.9371317327 -2248889.833104521 0 0 0 0 -28056292.081100464 46059191.606063843 0 46059191.606063843 10691831.38873291 0 0 0 0 4393738.4683418274 39577910.555580139 0 39577910.555580139 18454243.774917603 0 0 0 0 -13233207.800765991 22261767.264129639 0 22261767.264129639 58609956.49961853 0 0 0 0 -25556612.266365051 25111202.567970276 0 25111202.567970276 63481579.454704285 0 0 0 0 -26249547.528862 26279619.358531952 0 26279619.358531952 61867146.777404785 0 0 0 0 -18225087.967025757 46975294.195251465 0 46975294.195251465 69982726.457260132 0 0 0 0 -31429137.647621155 24420615.652275085 0 24420615.652275085 104909534.90474701 0 0 0 0 -20409747.890010834 53936507.793209076 0 53936507.793209076 50482060.900375366 0 0 0 0 -6943360.5501174927 64737486.58795929 0 64737486.58795929 13397161.42086792 0 0 0 0 609065.87442779541 81943773.580329895 0 81943773.580329895 48839089.017562866 0 0 0 0 -7562925.8292694092 69549777.406196594 0 69549777.406196594 -3871540.4737243652 0 0 0 0 -16392238.956005096 41486887.174087524 0 41486887.174087524 23045311.465988159 0 0 0 0 -5637415.0268249512 54938704.491043091 0 54938704.491043091 -26601892.312271118 0 0 0 0 -21782153.53993988 40164566.960899353 0 40164566.960899353 21581412.891052246 0 0 0 0 -12876417.532196045 56539046.815513611 0 56539046.815513611 33538517.902011871 0 0 0 0 -145181942.77122498 169986824.74530029 0 169986824.74530029 73757908.882232666 0 0 0 0 -9502667.4080922604 80061926.680954456 0 80061926.680954456 -11866508.97567749 0 0 0 0 31169389.682655066 26041738.28337989 0 26041738.28337989 15676619.90540427 0 0 0 0 -9510509.235373497 79154561.648014545 0 79154561.648014545 -60901143.85446167 0 0 0 0 8098038.7119810134 10911606.457401246 0 10911606.457401246 801557.6879658699 0 0 0 0 -58872029.69342041 119791145.21600342 0 119791145.21600342 8249673.0180511475 0 0 0 0 -13494634.637695312 65428782.508773804 0 65428782.508773804 -13317005.332717896 0 0 0 0 12214711.175872803 78690215.897277832 0 78690215.897277832 -38893526.277633667 0 0 0 0 17807773.422065735 77078754.644462585 0 77078754.644462585 -14705911.122741699 0 0 0 0 10414881.872079849 82543930.355760574 0 82543930.355760574 -9071423.2831420898 0 0 0 0 3191906.2815246582 83656591.599777222 0 83656591.599777222 4525362.0968322754 0 0 0 0 -21464038.852073669 77373413.690742493 0 77373413.690742493 4992039.8218383789 0 0 0 0 20198836.067375183 -13762499.30072403 0 -13762499.30072403 -105199372.82781982 0 0 0 0 -82329819.128875732 23573830.930080414 0 23573830.930080414 -75630171.313796997 0 0 0 0 -40465878.072654724 -27001471.535270691 0 -27001471.535270691 -82765633.001480103 0 0 0 0 26260961.496306583 19914750.62509454 0 19914750.62509454 8412311.8192692101 0 0 0 0 -17636567.840240479 54361720.800422668 0 54361720.800422668 20315117.183692932 0 0 0 0 55669545.752218246 123455499.99378014 0 123455499.99378014 -142296245.77720642 0 0 0 0 307046275.09328461 101901498.22304153 0 101901498.22304153 -155089196.27627373 0 0 0 0 -138324238.16340733 217585197.9867239 0 217585197.9867239 330655534.79391479 0 0 0 0 -134819785.80444336 -73080676.437782288 0 -73080676.437782288 324121417.14933014 0 0 0 0 219246850.90723419 -101941542.48595047 0 -101941542.48595047 -62517568.672304153 0 0 0 0 -50730487.307739258 34479350.517482758 0 34479350.517482758 284561700.28337097 0 0 0 0 3551452.0553876162 2447445.8077620491 0 2447445.8077620491 1555530.9720349908 0 0 0 0 83311634.384765625 25656295.077346802 0 25656295.077346802 -43002796.384683609 0 0 0 0 43309243.796989441 219541893.6582489 0 219541893.6582489 189075093.99951172 0 0 0 0 64185317.46420002 121919884.1423912 0 121919884.1423912 -110808275.75219727 0 0 0 0 2364915.3565167189 -5823048.6128126383 0 -5823048.6128126383 -11702391.554502934 0 0 0 0 15117525.836502075 22657620.596939087 0 22657620.596939087 8288311.6868095398 0 0 0 0 22556725.558362275 23269921.116073094 0 23269921.116073094 -147443.85673116893 0 0 0 0 8661814.9908391535 8197799.6042317301 0 8197799.6042317301 671650.96232156456 0 0 0 0 302890939.17430115 -136279590.119627 0 -136279590.119627 -203707748.81564331 0 0 0 0 9294873.4428939819 56163384.720794678 0 56163384.720794678 -13236646.525147438 0 0 0 0 33707455.308318257 22315044.269537657 0 22315044.269537657 -15740957.381395236 0 0 0 0 29783734.055969238 72397417.562664032 0 72397417.562664032 -106988638.82874298 0 0 0 0 42034972.410892487 57073676.687488556 0 57073676.687488556 -98550336.0366745 0 0 0 0 -6583252.0401153564 83748325.938110352 0 83748325.938110352 3967213.2120513916 0 0 0 0 21455331.214664459 35257192.809339523 0 35257192.809339523 -870634.17526245117 0 0 0 0 26603723.005679056 31775372.441392999 0 31775372.441392999 24519385.012939721 0 0 0 0 19205624.739379883 80190502.645690918 0 80190502.645690918 -5149446.8323516846 0 0 0 0 24552029.846000671 89569251.697814941 0 89569251.697814941 -18185267.435333252 0 0 0 0 20314346.345092773 31663768.497528076 0 31663768.497528076 22149791.073932648 0 0 0 0 2563632.2622486651 18248428.232212067 0 18248428.232212067 4465562.5678379834 0 0 0 0 -126987846.24150085 -81597339.391853333 0 -81597339.391853333 -72051215.924499512 0 0 0 0 29643105.472873688 53360446.04004097 0 53360446.04004097 -38380767.683189392 0 0 0 0 12094156.246780396 50082972.903476715 0 50082972.903476715 39452579.335082054 0 0 0 0 25356024.929635316 31821267.431608289 0 31821267.431608289 16272015.964011289 0 0 0 0 -18072929.095909119 52788915.053916931 0 52788915.053916931 -26658699.588165283 0 0 0 0 12637973.639933914 37728025.166937485 0 37728025.166937485 18746308.119986132 0 0 0 0 38153440.740616634 30596359.817176733 0 30596359.817176733 9978808.0135013908 0 0 0 0 19207908.767234802 72538637.690757751 0 72538637.690757751 -5208446.3840713501 0 0 0 0 36852093.38520813 82136445.34677887 0 82136445.34677887 -14478819.304664612 0 0 0 0 19321080.070772648 80719080.565077782 0 80719080.565077782 -14547195.41897583 0 0 0 0 24908033.397064209 85496433.212081909 0 85496433.212081909 -13119839.753463745 0 0 0 0 54505242.235519409 41634568.421638489 0 41634568.421638489 -28009571.043800354 0 0 0 0 35143302.311763763 81278155.404987335 0 81278155.404987335 -14139912.126693726 0 0 0 0 8878925.6250308901 34256507.250721127 0 34256507.250721127 8901502.6726123504 0 0 0 0 21243850.989370823 40371793.76245594 0 40371793.76245594 -37668615.456466675 0 0 0 0 74446416.172286987 59266675.651428223 0 59266675.651428223 25118332.778610229 0 0 0 0 -16077184.175151825 40282947.055820465 0 40282947.055820465 19784896.227371216 0 0 0 0 125290.81142425537 66110647.63716507 0 66110647.63716507 48137377.603302002 0 0 0 0 -43024530.546569824 2830454.4147949219 0 2830454.4147949219 50289900.628463745 0 0 0 0 -2345769.9714508057 44563365.328475952 0 44563365.328475952 16729015.349391937 0 0 0 0 33746436.272247314 29112356.464019775 0 29112356.464019775 14376764.614433289 0 0 0 0 43239676.330337524 35039134.304298401 0 35039134.304298401 -13819605.641479492 0 0 0 0 4296453.0226111412 16245989.316037744 0 16245989.316037744 -9717142.3919060528 0 0 0 0 -1940007.0353479683 14062951.639692217 0 14062951.639692217 7900444.7882160954 0 0 0 0 -10883393.477367483 27980245.277080297 0 27980245.277080297 7264183.0584652424 0 0 0 0 38098128.662536621 44116435.744445801 0 44116435.744445801 5292240.1768341064 0 0 0 0 -33450900.525920764 53423026.908569992 0 53423026.908569992 34978008.517969787 0 0 0 0 -44567005.103637695 43703400.797531128 0 43703400.797531128 9623992.6635475159 0 0 0 0 -2115325.4346618652 40716115.012878418 0 40716115.012878418 8273082.3481750488 0 0 0 0 9196152.5862984061 38200894.958940148 0 38200894.958940148 -5912523.0724336766 0 0 0 0 -7377554.927124992 1059633.6448051929 0 1059633.6448051929 7087996.2088336051 0 0 0 0 -1969740.6599884033 44799399.545257568 0 44799399.545257568 4868399.8981933594 0 0 0 0 -28492497.626159668 19122564.617904663 0 19122564.617904663 -6638074.6747894287 0 0 0 0 -42104010.095799237 9151136.2130029798 0 9151136.2130029798 3137179.4846492261 0 0 0 0 -35174541.897941589 23169073.294502258 0 23169073.294502258 -3079772.8838043213 0 0 0 0 -9336237.7211303711 15912786.929046631 0 15912786.929046631 -2125558.9816589355 0 0 0 0 -62613061.769378662 14051334.576004028 0 14051334.576004028 4725983.9022827148 0 0 0 0 -28619639.015731812 19576468.289428711 0 19576468.289428711 2080062.1807861328 0 0 0 0 -23040893.15574646 14305181.850982666 0 14305181.850982666 6777413.143157959 0 0 0 0 -32342507.617950439 25897082.861190796 0 25897082.861190796 6707328.1394348145 0 0 0 0 -31555585.103546143 20816464.518676758 0 20816464.518676758 11573949.374237061 0 0 0 0 -29226161.193031311 23074371.432929993 0 23074371.432929993 2386073.5978088379 0 0 0 0 -30622250.027130127 25548574.056442261 0 25548574.056442261 -1960361.2657928467 0 0 0 0 -28462936.568603516 19007044.571090698 0 19007044.571090698 -778180.66680908203 0 0 0 0 1577924.448059082 21489870.35018158 0 21489870.35018158 -23248385.839981079 0 0 0 0 -4122854.2374568991 1845088.2349247783 0 1845088.2349247783 15413.246085345745 0 0 0 0 -33940901.764260054 24074141.729384899 0 24074141.729384899 -2575528.0884399414 0 0 0 0 -28302942.421661377 27235409.384963989 0 27235409.384963989 -9800989.7458972931 0 0 0 0 -27447879.650819778 30351591.747402191 0 30351591.747402191 131637.67227172852 0 0 0 0 -29353306.773345947 27723543.329925537 0 27723543.329925537 -1358024.7532348633 0 0 0 0 -37228989.03805542 45733776.618743896 0 45733776.618743896 -20186769.321166992 0 0 0 0 -12925732.772792816 31183317.355350494 0 31183317.355350494 -20458443.023071289 0 0 0 0 -20922764.169090271 21583278.732894897 0 21583278.732894897 -14592475.694009781 0 0 0 0 -20024408.320827484 20273146.532562256 0 20273146.532562256 -14904396.417572021 0 0 0 0 -25621563.743789673 23988466.707687378 0 23988466.707687378 -10276967.027454376 0 0 0 0 -36608265.21714592 18474653.17376709 0 18474653.17376709 -8800376.1360473633 0 0 0 0 90851036.034955978 14923277.794963837 0 14923277.794963837 -35322752.980163574 0 0 0 0 94027151.445625305 52885245.064430237 0 52885245.064430237 5153590.2821655273 0 0 0 0 -47259857.31546402 63669251.781433105 0 63669251.781433105 -5541950.2607860565 0 0 0 0 -3814797.4521062635 16169066.87859109 0 16169066.87859109 -19964843.886807978 0 0 0 0 -5152187.0980101489 14153045.39222765 0 14153045.39222765 -10982561.695007831 0 0 0 0 18914465.562625885 45790789.088180542 0 45790789.088180542 -25343919.259750366 0 0 0 0 3236984.393157959 -15759207.793071747 0 -15759207.793071747 3616125.2962646484 0 0 0 0 -107369216.18981171 -30016969.722724915 0 -30016969.722724915 30524637.722229004 0 0 0 0 48472081.067653656 34122840.351932526 0 34122840.351932526 -3713871.3043823242 0 0 0 0 -1237938.4520326778 9790413.2584269047 0 9790413.2584269047 -14327083.638294965 0 0 0 0 92272291.206272125 49877772.688411713 0 49877772.688411713 -26750939.041809082 0 0 0 0 32526843.462558746 5729803.691619873 0 5729803.691619873 -2199698.1280670166 0 0 0 0 -35784744.641700745 27760982.665870667 0 27760982.665870667 -23515906.341079712 0 0 0 0 -7392550.856000267 3337322.0948934592 0 3337322.0948934592 -88104.54217299819 0 0 0 0 -25009677.321044922 14240268.376945496 0 14240268.376945496 -13516628.540786743 0 0 0 0 -35819987.248252869 32528651.87297821 0 32528651.87297821 -16851763.459756851 0 0 0 0 -6692840.3181762695 4875449.9408340454 0 4875449.9408340454 -13870529.081604004 0 0 0 0 -35297084.418151855 32397838.834594727 0 32397838.834594727 -27125619.009460449 0 0 0 0 -52101140.387062073 13870976.264129639 0 13870976.264129639 16985444.151107788 0 0 0 0 -8568032.1604140345 15262064.95402357 0 15262064.95402357 -12553523.113703638 0 0 0 0 4294176.5670586377 -1801362.3326478451 0 -1801362.3326478451 -1619062.5402397513 0 0 0 0 -444556787.21051264 216353768.68415689 0 216353768.68415689 -75376670.713806152 0 0 0 0 -10027329.431034088 4326388.209941864 0 4326388.209941864 -5351748.3416748047 0 0 0 0 48183888.626495361 14549619.400043488 0 14549619.400043488 -10503731.122314453 0 0 0 0 -29821259.844910562 25577777.806550227 0 25577777.806550227 -17927901.93312937 0 0 0 0 -587809853.33101654 198551273.82873535 0 198551273.82873535 -77568590.067754745 0 0 0 0 135552054.23618317 -16380052.088317871 0 -16380052.088317871 -12618048.94354248 0 0 0 0 169395516.54066753 91098506.017337799 0 91098506.017337799 -13132172.870056152 0 0 0 0 89575421.563934326 112937793.22242737 0 112937793.22242737 19278620.923019409 0 0 0 0 89651862.673894927 130666848.93409522 0 130666848.93409522 43657933.581695557 0 0 0 0 20761547.598724365 81296892.587089539 0 81296892.587089539 8657391.6874542236 0 0 0 0 27044109.77936554 96840236.571914673 0 96840236.571914673 25745206.871032715 0 0 0 0 20100275.548675537 84814652.658378601 0 84814652.658378601 10091606.003856659 0 0 0 0 43249497.565883636 88286093.381480217 0 88286093.381480217 -13470736.847625732 0 0 0 0 41556620.143921852 78169215.204851627 0 78169215.204851627 -12632894.164276123 0 0 0 0 68643002.81023407 60303859.960128784 0 60303859.960128784 -22292185.884841919 0 0 0 0 85127820.394180298 91803370.783889771 0 91803370.783889771 -8733878.3723297119 0 0 0 0 386209930.16445923 1691978246.3456535 0 1691978246.3456535 355999980.72199249 0 0 0 0 1814308.4215314637 1016718588.9649303 0 1016718588.9649303 944362191.2401886 0 0 0 0 725370924.43426132 953035036.47460079 0 953035036.47460079 588485403.02542877 0 0 0 0 -1385618.1454597712 5321243.8669720292 0 5321243.8669720292 -3145424.7390052229 0 0 0 0 1344574399.7268295 1924941442.0913506 0 1924941442.0913506 -459107.33169937134 0 0 0 0 1750135801.4269714 1608234927.4256363 0 1608234927.4256363 -361152464.3656311 0 0 0 0 3009515204.9114151 1293655690.9347839 0 1293655690.9347839 -291031609.1516037 0 0 0 0 11524003.92101191 8154671.5866523758 0 8154671.5866523758 6878011.960033685 0 0 0 0 3537858227.231945 -451440102.86519623 0 -451440102.86519623 -113074763.5958786 0 0 0 0 1440395175.078826 -258762550.45392513 0 -258762550.45392513 -94925406.716094971 0 0 0 0 865575105.48722076 434234190.3362875 0 434234190.3362875 -322566678.94254303 0 0 0 0 -710729.48337781429 3322497.4923304319 0 3322497.4923304319 -1203838.8356909901 0 0 0 0 844566950.51642609 1015918324.221386 0 1015918324.221386 -729586387.68803024 0 0 0 0 723302862.65749359 379531947.70515823 0 379531947.70515823 404828226.68619919 0 0 0 0 1064105406.188736 1260680371.3439522 0 1260680371.3439522 696498040.32743835 0 0 0 0 518643777.13841248 490500967.04093933 0 490500967.04093933 -98751655.353910923 0 0 0 0 242051275.88309479 -134177489.20295715 0 -134177489.20295715 -158922579.45184612 0 0 0 0 -13644486.597202301 138105630.02344894 0 138105630.02344894 -155221538.82750702 0 0 0 0 25745448.310123742 35566943.378131025 0 35566943.378131025 32448581.513461918 0 0 0 0 -166045478.27756119 281389065.38974476 0 281389065.38974476 37826562.806480408 0 0 0 0 -286275654.59054184 221912023.62713051 0 221912023.62713051 259339946.3055191 0 0 0 0 377230932.18540192 -176053027.45182419 0 -176053027.45182419 -223400297.41333008 0 0 0 0 687902239.27560425 264046129.91675949 0 264046129.91675949 -424414626.80044556 0 0 0 0 706943729.64000702 132978653.06122971 0 132978653.06122971 -155583884.91743946 0 0 0 0 24447880.133373216 23776048.289586499 0 23776048.289586499 20847592.786602616 0 0 0 0 -135923663.52603149 109143274.87682533 0 109143274.87682533 -55771.137542724609 0 0 0 0 128893135.020298 123570563.50575829 0 123570563.50575829 43237.982353210449 0 0 0 0 -26355917.47977066 -11407056.090862274 0 -11407056.090862274 -28121728.860717773 0 0 0 0 118534555.18387604 100711433.85920334 0 100711433.85920334 -103982271.14215088 0 0 0 0 117742498.19540548 93290622.826998234 0 93290622.826998234 15227830.236404419 0 0 0 0 81489780.519668579 75266776.407615662 0 75266776.407615662 -255052371.05475998 0 0 0 0 -482445005.81906939 -146414755.21880102 0 -146414755.21880102 94195869.994934082 0 0 0 0 317803987.04653931 57927903.518230438 0 57927903.518230438 -81104735.078212738 0 0 0 0 -254057.07191176899 -1032592.1326372921 0 -1032592.1326372921 95510.691507041454 0 0 0 0 -103215046.24232483 54679699.75554657 0 54679699.75554657 -257236.53664952391 0 0 0 0 127399376.23619461 8819096.2657375336 0 8819096.2657375336 -52027573.982116699 0 0 0 0 377542325.25569153 171017885.90710449 0 171017885.90710449 -117402627.15802002 0 0 0 0 73415617.688690186 104435734.62478638 0 104435734.62478638 -5280757.0149688721 0 0 0 0 -104391730.55221558 -249687955.00824738 0 -249687955.00824738 -89101898.538238525 0 0 0 0 70991292.404319763 1950610.6165428162 0 1950610.6165428162 309209734.60697937 0 0 0 0 855309025.307724 -493900636.87122345 0 -493900636.87122345 618234366.61633301 0 0 0 0 128044328.10192871 400640417.54086304 0 400640417.54086304 397970727.15287018 0 0 0 0 -13876252.341206551 13744999.058744431 0 13744999.058744431 249756859.45228577 0 0 0 0 1819208.9978740066 2340670.0467835367 0 2340670.0467835367 3561632.1616651714 0 0 0 0 52747666.135009766 48328487.955314636 0 48328487.955314636 -13149823.831990242 0 0 0 0 444398284.02827454 -215633007.28059387 0 -215633007.28059387 4584922.6527862549 0 0 0 0 187251067.42655945 479910363.6742363 0 479910363.6742363 267098198.85131836 0 0 0 0 80446565.429176331 83404440.563426971 0 83404440.563426971 67144526.012512207 0 0 0 0 1242861.6210514773 2369436.419373855 0 2369436.419373855 -2649942.7674892247 0 0 0 0 -570355864.48968506 146731829.843647 0 146731829.843647 424054764.29355621 0 0 0 0 20027.453228116035 2288327.1230465025 0 2288327.1230465025 12219.659504801035 0 0 0 0 -54967792.26017189 -33419766.827825546 0 -33419766.827825546 -95096128.243057251 0 0 0 0 28264288.555709839 129998186.80477905 0 129998186.80477905 -68575361.705219269 0 0 0 0 9753747.0621863678 6619772.6812819541 0 6619772.6812819541 -17551622.683410943 0 0 0 0 16975157.143920898 37494871.464420319 0 37494871.464420319 -16563615.642616272 0 0 0 0 7837497.5103112906 10785498.625878647 0 10785498.625878647 5931501.3324272931 0 0 0 0 -154313402.81769276 -89581120.137074471 0 -89581120.137074471 4190451.4819030762 0 0 0 0 -114561958.44612122 300741809.0106163 0 300741809.0106163 -228316764.13050079 0 0 0 0 110453353.08966064 -222131091.83934021 0 -222131091.83934021 -328679855.98791122 0 0 0 0 52709888.854598999 -12260509.339065552 0 -12260509.339065552 -6733369.5637054443 0 0 0 0 -9158721.6845855713 65685791.707221985 0 65685791.707221985 -9624118.4928894043 0 0 0 0 278158769.35224915 344380712.51353455 0 344380712.51353455 -181318447.68780518 0 0 0 0 7519077.6199182123 6885250.9914102778 0 6885250.9914102778 6017776.4288130105 0 0 0 0 -10378682.194635391 -11901844.19778949 0 -11901844.19778949 8704003.4841003418 0 0 0 0 -4447573.9666548073 1257560.2470720112 0 1257560.2470720112 2736422.0081218481 0 0 0 0 2610070.3345493078 27672965.715735361 0 27672965.715735361 33018351.528986216 0 0 0 0 -50420693.595720768 -7381012.9771137238 0 -7381012.9771137238 96747400.560531616 0 0 0 0 63124244.380104065 56960309.67616272 0 56960309.67616272 -16148448.231687546 0 0 0 0 -49983635.328151226 19638545.914993644 0 19638545.914993644 167189076.52146912 0 0 0 0 64004326.997318268 116964966.60523081 0 116964966.60523081 32835343.647109985 0 0 0 0 53495253.995773315 79525164.923294067 0 79525164.923294067 38683777.065849304 0 0 0 0 60808433.023178101 19461913.151016235 0 19461913.151016235 151395044.95054245 0 0 0 0 37116999.813354492 28651762.857589722 0 28651762.857589722 -7585307.7811050415 0 0 0 0 45926893.167165756 56406822.018060207 0 56406822.018060207 23537628.686882019 0 0 0 0 38617537.539631397 18813573.828552932 0 18813573.828552932 -18890813.998853117 0 0 0 0 36931885.939620972 121296094.50482559 0 121296094.50482559 -460985214.64892197 0 0 0 0 4639878.5302339196 10000305.929902226 0 10000305.929902226 4213506.0834981874 0 0 0 0 -131649875.17505264 586582502.43072033 0 586582502.43072033 -1698532117.5834961 0 0 0 0 4745176.5778418183 10299507.627750874 0 10299507.627750874 750051.95353502035 0 0 0 0 2558039.1102638245 71997505.496677399 0 71997505.496677399 42279442.056686401 0 0 0 0 -3729218.9354187325 24276295.253970191 0 24276295.253970191 43634109.522599995 0 0 0 0 -355478215.62496948 -9232421.2291812897 0 -9232421.2291812897 34161673.05266571 0 0 0 0 -574456200.26697731 155088931.3715775 0 155088931.3715775 -24619047.917373657 0 0 0 0 -155039947.7819519 259457063.56360626 0 259457063.56360626 -364814493.3687439 0 0 0 0 -171180557.45651245 142713568.45330048 0 142713568.45330048 -754539048.48918915 0 0 0 0 -1305391062.2574463 207568116.2585907 0 207568116.2585907 216415837.34588623 0 0 0 0 85667537.121803284 31776959.093654633 0 31776959.093654633 -231982612.5849514 0 0 0 0 -22533816.371257782 305054941.75730515 0 305054941.75730515 -162566817.66564178 0 0 0 0 -27962133.779006958 107119805.90704918 0 107119805.90704918 313036574.73222351 0 0 0 0 -419269061.11122751 90391584.221836329 0 90391584.221836329 205010817.37562561 0 0 0 0 -35512265.481933594 187521918.2199707 0 187521918.2199707 18016171.846380472 0 0 0 0 80951335.108863831 156534972.96701813 0 156534972.96701813 -90073754.475257874 0 0 0 0 -478989.85243177414 662691.85099172592 0 662691.85099172592 294201.67981526256 0 0 0 0 175446355.07307434 548412232.40002823 0 548412232.40002823 421606607.54373169 0 0 0 0 471676065.57929611 575214555.17311001 0 575214555.17311001 254001801.03184509 0 0 0 0 635391219.31040955 321604190.05106354 0 321604190.05106354 140828511.09370041 0 0 0 0 956086.82234635949 2400290.4320950806 0 2400290.4320950806 -2102383.4328899384 0 0 0 0 273870228.85424042 435651852.57400131 0 435651852.57400131 325587088.97132874 0 0 0 0 340940441.50195312 264101495.59325027 0 264101495.59325027 40710750.876014709 0 0 0 0 112179330.95518494 124012082.55659866 0 124012082.55659866 73459568.471758842 0 0 0 0 270585400.9768486 238289542.54628944 0 238289542.54628944 -98981633.294113159 0 0 0 0 148734972.38256836 134556468.31452942 0 134556468.31452942 -71272989.034042358 0 0 0 0 174995321.96913147 128233082.53743744 0 128233082.53743744 -98949188.959782273 0 0 0 0 186994275.67900085 198160645.78402901 0 198160645.78402901 82484748.553352356 0 0 0 0 237095213.71150208 158300193.7510643 0 158300193.7510643 132312165.998312 0 0 0 0 319150.56331413984 1691953.5173957348 0 1691953.5173957348 -706545.12692911923 0 0 0 0 274532795.52801228 243776227.29647303 0 243776227.29647303 -60449252.834197998 0 0 0 0 67647687.166007996 323970403.58692932 0 323970403.58692932 -20093418.556128502 0 0 0 0 -65323505.678958893 407292232.12268257 0 407292232.12268257 1206173536.0279083 0 0 0 0 -154660.64307200356 754392882.9978317 0 754392882.9978317 311348125.47652435 0 0 0 0 1229041.9618759155 755753300.04736328 0 755753300.04736328 311938577.14029694 0 0 0 0 601753718.67469025 407005526.55301285 0 407005526.55301285 57767922.20009613 0 0 0 0 360109740.41868591 1064695303.9265385 0 1064695303.9265385 349281651.34034729 0 0 0 0 597045335.36340427 518484669.25139785 0 518484669.25139785 336775450.76286316 0 0 0 0 858338890.89101219 719815028.19376183 0 719815028.19376183 374517587.64565277 0 0 0 0 -602171.26308375597 2770873.3032530546 0 2770873.3032530546 -308160.10658793151 0 0 0 0 -5798492.1698379517 67486824.973457336 0 67486824.973457336 -210042155.2215271 0 0 0 0 -27291562.320098877 105675356.42357063 0 105675356.42357063 -171364141.29174423 0 0 0 0 15215.748870849609 121238698.50535202 0 121238698.50535202 -276450760.86168861 0 0 0 0 -58925.108090134789 112605262.04416394 0 112605262.04416394 -347120776.91262054 0 0 0 0 4154260.0375876725 1919813.9174824059 0 1919813.9174824059 1249183.4152172357 0 0 0 0 -15853049.764625549 85658050.001882553 0 85658050.001882553 -304977026.76190186 0 0 0 0 -15204278.844410092 149328763.39622962 0 149328763.39622962 -390711032.01813889 0 0 0 0 10639595.134638876 7035926.7671963386 0 7035926.7671963386 3671948.7481906489 0 0 0 0 127747155.10824585 3978274.3108253479 0 3978274.3108253479 208337882.25631332 0 0 0 0 127151375.85954094 -14649269.357287645 0 -14649269.357287645 -131938156.28388214 0 0 0 0 -33454765.121649504 183839494.58682775 0 183839494.58682775 -496937619.56240082 0 0 0 0 -29962320.009750366 94556579.692020416 0 94556579.692020416 -304963648.20903397 0 0 0 0 3867586.6933822632 80511970.310562134 0 80511970.310562134 -307684570.07390404 0 0 0 0 -75357920.910499573 91928707.865413666 0 91928707.865413666 -192533143.07988739 0 0 0 0 -7920184.0656433105 69814717.070514679 0 69814717.070514679 -189222002.20904875 0 0 0 0 -10643773.281105042 46126524.709259033 0 46126524.709259033 -202448528.16123152 0 0 0 0 101687798.95603943 97451725.698030472 0 97451725.698030472 -830682032.08036041 0 0 0 0 23418999.953514338 17979142.023485407 0 17979142.023485407 10015912.715788357 0 0 0 0 -15745466.927032471 25640008.915311813 0 25640008.915311813 -374374638.46634674 0 0 0 0 -93726243.14680481 69121771.119506836 0 69121771.119506836 -198344622.25970459 0 0 0 0 36203613.332946777 -215238755.74421692 0 -215238755.74421692 182158397.7458744 0 0 0 0 16609604.147774875 11690824.725792851 0 11690824.725792851 6323398.9378046393 0 0 0 0 -342748522.86360168 -115890452.86987305 0 -115890452.86987305 -135914400.91498566 0 0 0 0 -201716936.070755 -123794992.13825989 0 -123794992.13825989 -504415261.50187683 0 0 0 0 -871719590.44189453 -95286303.844574451 0 -95286303.844574451 -437076998.74705505 0 0 0 0 -1012191693.3103943 926301158.02902985 0 926301158.02902985 -1399889279.6424713 0 0 0 0 -547693078.48490906 445121466.94404984 0 445121466.94404984 -396873456.46722412 0 0 0 0 -380160596.11735535 163706234.03959274 0 163706234.03959274 218802127.62698364 0 0 0 0 150837695.92900848 -44659768.054714203 0 -44659768.054714203 -153871644.63307953 0 0 0 0 -97295619.573074341 -126533332.8422966 0 -126533332.8422966 358889464.42738914 0 0 0 0 13527330.071998596 158280674.85722733 0 158280674.85722733 -28148610.917113304 0 0 0 0 -142018402.46677399 246146849.55078125 0 246146849.55078125 -46405525.262161255 0 0 0 0 -543326415.5758667 389666600.88101196 0 389666600.88101196 -279037725.27674866 0 0 0 0 -60890714.643798828 121485245.25120163 0 121485245.25120163 -140448653.02610016 0 0 0 0 -472475188.5458374 210231074.50537872 0 210231074.50537872 -303230522.55325317 0 0 0 0 321860486.55460453 -43174529.420140743 0 -43174529.420140743 -1283273226.3917084 0 0 0 0 -475402978.24453735 236270635.50717163 0 236270635.50717163 -528808976.59988403 0 0 0 0 54357534.991897583 44741322.799329758 0 44741322.799329758 -283651292.31219482 0 0 0 0 -27942589.066078186 291629636.87026978 0 291629636.87026978 -299907495.74165344 0 0 0 0 -66259016.426940918 233785501.60668182 0 233785501.60668182 -25766012.859931946 0 0 0 0 12911274.768600464 179787639.21992111 0 179787639.21992111 -114077485.02986908 0 0 0 0 30143456.866756767 24669845.67383172 0 24669845.67383172 13568141.466081291 0 0 0 0 -30987216.11366272 116718771.65493011 0 116718771.65493011 55011598.794492722 0 0 0 0 65810535.235412598 -159697133.8820467 0 -159697133.8820467 -73369489.123908997 0 0 0 0 443603641.58440018 447680447.33086538 0 447680447.33086538 -905957541.66829681 0 0 0 0 -326683411.65059662 317779277.73453522 0 317779277.73453522 392703998.9118042 0 0 0 0 -15040876.296195984 -212269921.31832123 0 -212269921.31832123 387003765.80721283 0 0 0 0 -135088067.60121155 68441069.138202667 0 68441069.138202667 340569888.15431976 0 0 0 0 233912948.58287048 360974778.5697813 0 360974778.5697813 203677235.64791107 0 0 0 0 218237766.67907524 271879866.23889446 0 271879866.23889446 78747113.817733765 0 0 0 0 145542119.95626831 25117054.762825012 0 25117054.762825012 -19281997.075746536 0 0 0 0 538520593.25966263 61637265.458913803 0 61637265.458913803 -16108576.955898285 0 0 0 0 3603408.6898436546 3585738.6017955616 0 3585738.6017955616 6294999.1490805447 0 0 0 0 60983055.766838074 38024601.598249435 0 38024601.598249435 13091456.14855957 0 0 0 0 117804418.46850586 35533978.479324341 0 35533978.479324341 -5161554.0886077881 0 0 0 0 66719943.72227478 44340910.488548279 0 44340910.488548279 -514366.14748001099 0 0 0 0 81453727.794708252 40673968.253379822 0 40673968.253379822 -10754059.65272522 0 0 0 0 55387636.906890869 46937008.676643372 0 46937008.676643372 -6114013.5036392212 0 0 0 0 12925536.814193726 134662239.55583239 0 134662239.55583239 48883611.976318359 0 0 0 0 61746803.436889648 47017158.089824677 0 47017158.089824677 -531122.30876159668 0 0 0 0 22081819.346572876 54872243.844646454 0 54872243.844646454 2216981.3504104614 0 0 0 0 73064628.577718735 75813726.787891388 0 75813726.787891388 7002454.4070587158 0 0 0 0 91166689.673046112 172660590.0762682 0 172660590.0762682 41542673.259429932 0 0 0 0 113703340.47149658 79571677.438499451 0 79571677.438499451 -6262508.2289619446 0 0 0 0 262508885.57473755 83997319.970874786 0 83997319.970874786 -31329573.175674438 0 0 0 0 115520339.55460119 80166047.532652855 0 80166047.532652855 -6140351.7018814087 0 0 0 0 36627607.544967651 182957035.94896317 0 182957035.94896317 40990369.460121155 0 0 0 0 -11853827.428333282 190581596.29591656 0 190581596.29591656 69938321.560272217 0 0 0 0 36728254.815689087 205538555.93373489 0 205538555.93373489 74203680.207017899 0 0 0 0 17997189.078369141 145264311.50121689 0 145264311.50121689 36701886.055812836 0 0 0 0 -72606217.883514404 114360750.94703674 0 114360750.94703674 45145297.886074066 0 0 0 0 -19779129.846832275 158850716.03412247 0 158850716.03412247 79565205.787862778 0 0 0 0 -15967598.988632202 189103874.82089233 0 189103874.82089233 76263411.364778996 0 0 0 0 -2802728.9326553345 168457442.5796814 0 168457442.5796814 94818279.419883728 0 0 0 0 -31818860.243778229 148681898.05891514 0 148681898.05891514 44010435.396286011 0 0 0 0 -42043728.677307129 160420963.3623333 0 160420963.3623333 33919850.050052643 0 0 0 0 -887685.5841217041 243658029.85705376 0 243658029.85705376 145329452.68136787 0 0 0 0 -59063943.210693359 182193195.83288956 0 182193195.83288956 133020822.15128326 0 0 0 0 -96889895.777313232 61342166.274679184 0 61342166.274679184 -2169536.8679924011 0 0 0 0 -31532576.448875427 125026742.74455643 0 125026742.74455643 -61731512.981891632 0 0 0 0 -67444211.922203064 95828676.797325134 0 95828676.797325134 10643346.025623322 0 0 0 0 -37206636.738487244 181848672.09597969 0 181848672.09597969 89853609.326957703 0 0 0 0 -5149744.5930252075 139066548.58586311 0 139066548.58586311 21731980.477975845 0 0 0 0 2615369.3718185425 177662151.06973648 0 177662151.06973648 106339754.83815384 0 0 0 0 18185803.015823364 116044554.59666252 0 116044554.59666252 119647316.63023376 0 0 0 0 -11727088.014640808 161624387.57218552 0 161624387.57218552 84406502.958621979 0 0 0 0 -6072279.6428966522 88431898.627419591 0 88431898.627419591 65145107.898246765 0 0 0 0 6254006.1123809814 128259763.00210381 0 128259763.00210381 131185588.31967163 0 0 0 0 57190988.547019958 98906181.779945374 0 98906181.779945374 145453266.98550415 0 0 0 0 35920.269309997559 112766784.41186714 0 112766784.41186714 158765811.80105591 0 0 0 0 25812335.772922516 83920217.836202621 0 83920217.836202621 74157221.861099243 0 0 0 0 -54330.959259033203 128479890.30274391 0 128479890.30274391 56712769.195764542 0 0 0 0 32863520.409374237 110791905.48322868 0 110791905.48322868 -32288669.116537094 0 0 0 0 -41572935.052429199 78932535.763553619 0 78932535.763553619 -41619815.132660866 0 0 0 0 -11154916.417589188 65462333.141541004 0 65462333.141541004 -138639300.47520447 0 0 0 0 30149.611977090972 124844548.13348529 0 124844548.13348529 -139129542.21380615 0 0 0 0 36606598.819992065 98780036.12346077 0 98780036.12346077 84161145.025549889 0 0 0 0 137177115.68801498 186645834.47523499 0 186645834.47523499 94804412.31199646 0 0 0 0 -7898751.7461498752 38719414.170972601 0 38719414.170972601 9610794.7307024598 0 0 0 0 -16443329.886966616 23815944.153924003 0 23815944.153924003 4061361.4538399577 0 0 0 0 57514948.58719635 89718821.361946106 0 89718821.361946106 72337524.915893555 0 0 0 0 243816914.69566345 -73373053.427749634 0 -73373053.427749634 48922445.375835419 0 0 0 0 98678673.06353569 32330310.893409729 0 32330310.893409729 -16265239.536430359 0 0 0 0 -53522226.513580322 90236002.552764893 0 90236002.552764893 154347440.89378738 0 0 0 0 316633276.51416016 36399330.581726074 0 36399330.581726074 82199583.699056625 0 0 0 0 112346843.76843262 118437342.47882843 0 118437342.47882843 -215200731.90184402 0 0 0 0 132260651.96652317 68372597.042044163 0 68372597.042044163 -675558176.79072571 0 0 0 0 -32508592.859263897 -90480597.947033882 0 -90480597.947033882 -411278525.5657959 0 0 0 0 244189451.73140031 110920537.80243 0 110920537.80243 -221628504.34945679 0 0 0 0 94164030.023193359 216581163.25300598 0 216581163.25300598 -290475461.28517151 0 0 0 0 222730769.4438858 170514064.47336578 0 170514064.47336578 -335943922.0515976 0 0 0 0 -36165861.57151413 46662901.002691269 0 46662901.002691269 -146213579.68734741 0 0 0 0 110040207.67114258 129955143.0042572 0 129955143.0042572 -143543925.88529968 0 0 0 0 -17322886.531069472 49368767.708279893 0 49368767.708279893 -34617362.216287702 0 0 0 0 -15991572.563500062 30619921.188141912 0 30619921.188141912 13669760.106133044 0 0 0 0 -85969855.183786392 45156732.823698044 0 45156732.823698044 13909034.109725952 0 0 0 0 -46103998.527713776 144554795.66357803 0 144554795.66357803 -112570910.42220688 0 0 0 0 10336141.152914047 51516489.788574219 0 51516489.788574219 -145822428.12004852 0 0 0 0 538170.22721508145 26191182.585729651 0 26191182.585729651 22424301.921739638 0 0 0 0 -70573524.962661743 21851031.466487885 0 21851031.466487885 48412670.232978821 0 0 0 0 -18772919.090438843 54148954.575279236 0 54148954.575279236 -26889045.561359406 0 0 0 0 23445351.749016494 17793535.663557202 0 17793535.663557202 5221116.2457056046 0 0 0 0 -51485567.323301315 92842231.039539337 0 92842231.039539337 -44025183.090116024 0 0 0 0 -34164199.500238657 154290984.08914089 0 154290984.08914089 -51929589.282577515 0 0 0 0 -14360687.068126678 40497563.682312012 0 40497563.682312012 6463046.268196106 0 0 0 0 13327528.31362791 32193263.328493912 0 32193263.328493912 25429974.885822758 0 0 0 0 -11712020.471069336 53576232.488368988 0 53576232.488368988 -41151.715398788452 0 0 0 0 -90623754.965488911 122436684.93415737 0 122436684.93415737 15078343.725662231 0 0 0 0 -39396977.663394928 78158595.109680176 0 78158595.109680176 12552858.501251221 0 0 0 0 -9990811.8445527442 37856080.400213629 0 37856080.400213629 18422229.823964417 0 0 0 0 -99765117.485898495 94519389.965597153 0 94519389.965597153 56131895.057975769 0 0 0 0 -66328893.2989254 54599683.33605957 0 54599683.33605957 57526816.87616539 0 0 0 0 -47395909.295055389 21088058.281639099 0 21088058.281639099 53833594.978303909 0 0 0 0 -71920925.015411377 47284907.994522095 0 47284907.994522095 126070017.29006195 0 0 0 0 -71510451.570807874 54779475.323513508 0 54779475.323513508 63309477.210510254 0 0 0 0 -58444239.694660187 26513194.513908386 0 26513194.513908386 69272761.938034058 0 0 0 0 26827773.453285217 26608860.72277832 0 26608860.72277832 6022283.9374237061 0 0 0 0 81681395.996948242 36976350.63911438 0 36976350.63911438 6264405.5757751465 0 0 0 0 70007142.914348826 22714373.906128079 0 22714373.906128079 -7482423.6546185017 0 0 0 0 -70964513.720989227 68284522.695487976 0 68284522.695487976 38680698.673965454 0 0 0 0 -52761680.28717804 38949569.60313797 0 38949569.60313797 37565377.506561279 0 0 0 0 -18838157.069409154 13858956.347125381 0 13858956.347125381 8078458.2115501761 0 0 0 0 22162023.684646606 44633041.12159729 0 44633041.12159729 11062778.399200439 0 0 0 0 -20464023.311407357 31468138.115799829 0 31468138.115799829 4393422.9431916177 0 0 0 0 -2723008.7193465382 18004682.987782121 0 18004682.987782121 -3801797.5111725628 0 0 0 0 86152149.710830688 39586369.812332153 0 39586369.812332153 -2242006.8195800781 0 0 0 0 41368865.296806335 47309268.399013519 0 47309268.399013519 11147469.429107666 0 0 0 0 39294367.854125977 53877899.609539032 0 53877899.609539032 -6337666.8965606689 0 0 0 0 55748655.213623047 93497812.21295166 0 93497812.21295166 15541371.170387268 0 0 0 0 26732620.267066956 62430879.403251648 0 62430879.403251648 -15282231.491317749 0 0 0 0 17746559.227298498 83650940.020991683 0 83650940.020991683 -9417821.074432373 0 0 0 0 26976444.147319138 33671236.380133808 0 33671236.380133808 19132099.575692683 0 0 0 0 16116700.791603088 44112139.561172485 0 44112139.561172485 -263819.71145629883 0 0 0 0 26801521.0639029 30022918.022269547 0 30022918.022269547 -6327882.6230412722 0 0 0 0 11082068.286512457 24060021.750049561 0 24060021.750049561 6321530.6250522733 0 0 0 0 19016383.829002574 5026470.6334114671 0 5026470.6334114671 1001523.2783407569 0 0 0 0 247075243.88505554 80060276.299247742 0 80060276.299247742 6216669.2479248047 0 0 0 0 26309911.964874268 28014820.049232483 0 28014820.049232483 13108825.134033203 0 0 0 0 538150.07305669785 19475739.250911698 0 19475739.250911698 -15675395.681515962 0 0 0 0 36325825.818641663 34201156.226745605 0 34201156.226745605 8051300.8172912598 0 0 0 0 58782736.884933472 35043081.155548096 0 35043081.155548096 27183498.826721191 0 0 0 0 -8298173.2974411547 50342025.16366744 0 50342025.16366744 6461469.5058007836 0 0 0 0 -57249551.221360743 56965763.613702148 0 56965763.613702148 39640812.774905384 0 0 0 0 5862157.0085983276 33829819.331066132 0 33829819.331066132 5139089.7592353821 0 0 0 0 62120864.13760376 70168469.333145142 0 70168469.333145142 10187347.098335266 0 0 0 0 86067955.195281982 75862882.400184631 0 75862882.400184631 -1638411.3814697266 0 0 0 0 48749783.195672989 23457046.077609062 0 23457046.077609062 -10103466.39995575 0 0 0 0 54076166.537612915 22328019.692897797 0 22328019.692897797 7037741.8179626465 0 0 0 0 48483285.889339447 40710807.972988129 0 40710807.972988129 -9224397.500869751 0 0 0 0 46037836.410758018 56512299.067725658 0 56512299.067725658 -5672738.4646530151 0 0 0 0 -6296846.0279998779 58244530.59406662 0 58244530.59406662 4629882.9643592834 0 0 0 0 4058393.4009170532 90195095.690032959 0 90195095.690032959 -25501645.142448425 0 0 0 0 -14339157.128395081 96357899.850355148 0 96357899.850355148 -19837714.026535034 0 0 0 0 -24355628.008705139 160890032.71586609 0 160890032.71586609 -79344648.248840332 0 0 0 0 -79155553.469345093 130978603.39927292 0 130978603.39927292 -20821871.172648907 0 0 0 0 -34582121.539070129 71941524.305503845 0 71941524.305503845 20196514.712684631 0 0 0 0 -3379525.9724025726 71732175.995521545 0 71732175.995521545 -16608562.192352295 0 0 0 0 11305471.666213989 145042982.75255585 0 145042982.75255585 -132504499.28264046 0 0 0 0 20894873.452217102 121255875.79195786 0 121255875.79195786 -77177585.735443115 0 0 0 0 -25254264.942878723 159579897.48462296 0 159579897.48462296 -71491104.094762325 0 0 0 0 -10138188.807983398 175905334.81589699 0 175905334.81589699 -96188232.171089172 0 0 0 0 12585666.490142822 167654156.8372612 0 167654156.8372612 -98774076.108325958 0 0 0 0 -28694628.246452332 136498884.36981201 0 136498884.36981201 -118273814.4278183 0 0 0 0 34178990.436843872 507446074.79167175 0 507446074.79167175 -874621277.89844894 0 0 0 0 30485994.878426105 28692333.03297063 0 28692333.03297063 16228376.904286608 0 0 0 0 25559990.492153168 155975064.39657116 0 155975064.39657116 -161341156.56781006 0 0 0 0 -327481885.60758162 558830134.02614546 0 558830134.02614546 -154667099.81480408 0 0 0 0 -160306909.36263275 146554458.58261299 0 146554458.58261299 -13013401.065971375 0 0 0 0 -51034288.992088318 2303884.9620056152 0 2303884.9620056152 52340288.625694275 0 0 0 0 -98917607.421173096 222746595.03730392 0 222746595.03730392 -94620079.909082413 0 0 0 0 -80630483.812530518 171154789.48248291 0 171154789.48248291 -36957167.580955505 0 0 0 0 -68565577.144203186 330568603.26028442 0 330568603.26028442 -318617316.29375458 0 0 0 0 48314621.553791046 206935388.38540936 0 206935388.38540936 -188178375.91684723 0 0 0 0 -276451036.40654755 300948036.48570251 0 300948036.48570251 -103928037.88425446 0 0 0 0 -3014757.0096916854 3340507.5281342268 0 3340507.5281342268 -8814659.5897749513 0 0 0 0 322300637.644104 385444445.27709961 0 385444445.27709961 -836085255.15363312 0 0 0 0 -256766304.99944305 116426493.95181274 0 116426493.95181274 14342644.913572311 0 0 0 0 315671765.40348816 710151730.92845154 0 710151730.92845154 -686156708.86949158 0 0 0 0 102598153.30307007 560955753.84162903 0 560955753.84162903 -286198166.87608337 0 0 0 0 -145179484.44268799 478725359.99161911 0 478725359.99161911 24690100.761276245 0 0 0 0 -24728411.861105919 -304363156.14102936 0 -304363156.14102936 155230703.77774429 0 0 0 0 -387440500.21356201 -307174178.40480042 0 -307174178.40480042 -442270809.82893944 0 0 0 0 6415687.4515603483 1162501.3184390888 0 1162501.3184390888 1177042.200874649 0 0 0 0 24885014.790544391 26850580.391750008 0 26850580.391750008 18002588.505464561 0 0 0 0 -87159447.733413696 154287863.05887604 0 154287863.05887604 -300679771.43939209 0 0 0 0 -213751545.17819214 151596492.94522858 0 151596492.94522858 -242426439.01467705 0 0 0 0 -242662544.48986816 234628899.55062103 0 234628899.55062103 -216624433.92257881 0 0 0 0 -246113985.35660553 250818692.25148773 0 250818692.25148773 -254811262.27044678 0 0 0 0 -128754699.6060791 144468347.09851837 0 144468347.09851837 -147393520.36401367 0 0 0 0 -140098926.1368866 168148112.54447174 0 168148112.54447174 -106951674.30162048 0 0 0 0 22823262.60218811 78971680.180614471 0 78971680.180614471 -108679749.64687347 0 0 0 0 19839203.325164795 21274342.734951019 0 21274342.734951019 -159968078.47465515 0 0 0 0 -34910251.99508667 124663585.85930634 0 124663585.85930634 -233598545.2568512 0 0 0 0 1654934.0340576172 64571705.691360474 0 64571705.691360474 -256501961.25891113 0 0 0 0 -27765177.323669434 93950756.727783203 0 93950756.727783203 -113081014.63432312 0 0 0 0 -205194099.68946838 62870709.316261292 0 62870709.316261292 121666508.66213989 0 0 0 0 -90857230.54006958 67387206.928710938 0 67387206.928710938 101940324.35526276 0 0 0 0 -256304497.95327759 368102185.09065628 0 368102185.09065628 324697193.15711975 0 0 0 0 -46486601.114898682 385389923.91663361 0 385389923.91663361 -140735038.79336929 0 0 0 0 -305950030.34570312 264726705.57318878 0 264726705.57318878 116969979.82226086 0 0 0 0 8790068.3511657715 264323588.58002472 0 264323588.58002472 115483707.57882309 0 0 0 0 -96793007.055618286 -133809158.21313477 0 -133809158.21313477 -192852280.58850861 0 0 0 0 -197571083.69567871 697863365.14338684 0 697863365.14338684 110530875.13800812 0 0 0 0 -176416070.61236572 132790841.48990631 0 132790841.48990631 -411974682.44076538 0 0 0 0 80570734.03793335 187432390.16254044 0 187432390.16254044 14236078.814323425 0 0 0 0 -361766953.22472763 140588915.63567448 0 140588915.63567448 -37140608.951309204 0 0 0 0 -293427983.40371704 80420367.665798187 0 80420367.665798187 5890464.8491706848 0 0 0 0 -922660.0089353919 2595543.0533057153 0 2595543.0533057153 -794175.8533141315 0 0 0 0 85284947.359375 62364249.438842773 0 62364249.438842773 280984896.68870544 0 0 0 0 -640106.33200269938 2507082.7619140893 0 2507082.7619140893 -2843576.7751131803 0 0 0 0 -126928190.25444794 26899792.265726089 0 26899792.265726089 125079808.55848694 0 0 0 0 -13126996.700897217 75802777.746360779 0 75802777.746360779 131822773.97337389 0 0 0 0 58754498.04425621 51025313.258122921 0 51025313.258122921 66943937.846252441 0 0 0 0 -58159979.846443176 67793049.94547081 0 67793049.94547081 79054193.031524658 0 0 0 0 -77844581.165771484 175444581.945755 0 175444581.945755 56847248.645507812 0 0 0 0 71101406.537353516 146898135.370224 0 146898135.370224 55353056.881849766 0 0 0 0 -55897317.06854248 1373357.6117095947 0 1373357.6117095947 121661482.65274429 0 0 0 0 4123305.2197873592 17553090.004022181 0 17553090.004022181 10980690.669500649 0 0 0 0 57538397.285068512 52154369.905714035 0 52154369.905714035 -3929042.0472259521 0 0 0 0 9285410.5034561157 15653625.447809219 0 15653625.447809219 -20723271.710113525 0 0 0 0 68564600.674120903 31266356.257874012 0 31266356.257874012 -16629585.311698914 0 0 0 0 -6162397.5813820958 21671640.98757264 0 21671640.98757264 -18902471.827831298 0 0 0 0 2705686.5953805447 13976641.694854207 0 13976641.694854207 22525734.504523277 0 0 0 0 -28171775.542133331 57676305.01318264 0 57676305.01318264 -22244134.151550293 0 0 0 0 -112122132.94769287 42331290.252174377 0 42331290.252174377 -1617894.1050691605 0 0 0 0 3911364.6047162414 10120962.379100233 0 10120962.379100233 -2555287.7062912583 0 0 0 0 51699958.652168274 42002354.452608109 0 42002354.452608109 -50887044.467327118 0 0 0 0 -13466577.611999512 19297044.345654488 0 19297044.345654488 -42727947.414539337 0 0 0 0 46425209.295928955 23595659.600200653 0 23595659.600200653 -7027351.8852043152 0 0 0 0 -15406338.111950397 -299217.72881603241 0 -299217.72881603241 141272900.79282761 0 0 0 0 -17373815.096874505 24998016.816446379 0 24998016.816446379 -18465830.456725508 0 0 0 0 -72257365.94726944 114759604.82706738 0 114759604.82706738 -65990719.247787476 0 0 0 0 -67981170.420295715 129510089.7813015 0 129510089.7813015 -38399998.459915161 0 0 0 0 -154644423.45523071 120956335.9402256 0 120956335.9402256 6924333.5005264282 0 0 0 0 20003475.8878178 26151131.488250203 0 26151131.488250203 42194083.036152959 0 0 0 0 -108735625.96973419 141476098.42997551 0 141476098.42997551 -6247450.7543554306 0 0 0 0 -119168264.48448944 138990607.31239986 0 138990607.31239986 -20590549.202236176 0 0 0 0 -83613325.573776245 80192287.328290939 0 80192287.328290939 10068978.363456726 0 0 0 0 -31135567.513471365 70284462.05547148 0 70284462.05547148 -7679028.2059559524 0 0 0 0 109042185.34503937 185413892.74546051 0 185413892.74546051 -20034318.196578979 0 0 0 0 7726027.2490615845 138201382.71043587 0 138201382.71043587 -11510947.18924284 0 0 0 0 33624354.324872971 152293961.86284447 0 152293961.86284447 30937124.063690186 0 0 0 0 4645964.9830169678 193078152.98749161 0 193078152.98749161 -15393113.598693848 0 0 0 0 -27730318.950879097 126574754.65485191 0 126574754.65485191 23063274.950233459 0 0 0 0 -74529461.175174713 103183312.03042221 0 103183312.03042221 73665822.984012604 0 0 0 0 -18480031.340519905 159072524.92840099 0 159072524.92840099 112395231.25405121 0 0 0 0 -7405968.3343048096 68324707.628036499 0 68324707.628036499 5586136.4341373444 0 0 0 0 95325955.266540527 93268888.342241287 0 93268888.342241287 -72858386.949104309 0 0 0 0 -35393614.913167521 71729985.7101482 0 71729985.7101482 -6776870.1997377723 0 0 0 0 15993857.574841321 20125379.053705025 0 20125379.053705025 -536711.72390351444 0 0 0 0 35129635.668231964 104184048.69448662 0 104184048.69448662 -57254597.533164978 0 0 0 0 17106618.887687683 53015476.759922028 0 53015476.759922028 -44847333.021076202 0 0 0 0 -40829882.63104248 22652100.081893921 0 22652100.081893921 -5948898.6489486694 0 0 0 0 -49544018.800700188 104934547.45507145 0 104934547.45507145 17048910.251464844 0 0 0 0 -63711005.818073273 119316924.19430065 0 119316924.19430065 185264131.10774231 0 0 0 0 16531886.949148163 36623247.307624474 0 36623247.307624474 -4956501.6097866297 0 0 0 0 -34962957.199466705 216942728.22441101 0 216942728.22441101 -452972926.99119949 0 0 0 0 -22191049.348327637 53871768.042709351 0 53871768.042709351 -31597958.828277588 0 0 0 0 -58385706.359750107 33413235.921316348 0 33413235.921316348 11086374.290015426 0 0 0 0 8075976.6610376015 51955075.318068624 0 51955075.318068624 -380766.03546981514 0 0 0 0 -2201350.8049004972 53266952.221553944 0 53266952.221553944 -42379380.17723015 0 0 0 0 -3310660.1654777527 133279540.49739838 0 133279540.49739838 -351784389.22938156 0 0 0 0 -47989523.329616547 238473048.8312273 0 238473048.8312273 -292117030.39213562 0 0 0 0 -55911749.082710266 157474501.86376286 0 157474501.86376286 -226267843.76184082 0 0 0 0 9941722.5476989746 316971249.61486816 0 316971249.61486816 -186360330.79164124 0 0 0 0 -112931763.59262228 325587716.72698259 0 325587716.72698259 56908997.283561707 0 0 0 0 12495607.018763244 33113633.88784695 0 33113633.88784695 12159199.369759955 0 0 0 0 103168195.59754944 253377721.78585052 0 253377721.78585052 -478929278.3568573 0 0 0 0 -27878615.504692078 73343386.946224213 0 73343386.946224213 -244243957.11206818 0 0 0 0 -14554521.644104004 151620655.29101944 0 151620655.29101944 -103919025.14586639 0 0 0 0 -82251808.220779419 180795873.79846764 0 180795873.79846764 -205130649.85983276 0 0 0 0 -31831896.561021805 108040400.62253189 0 108040400.62253189 -237821677.9720459 0 0 0 0 -34267034.911295712 150037869.94461334 0 150037869.94461334 -401803272.46855164 0 0 0 0 -75968729.145599365 196657375.38838196 0 196657375.38838196 -301120710.29014206 0 0 0 0 -33218777.586105347 129917111.93008804 0 129917111.93008804 -378269711.93998718 0 0 0 0 -104493649.35455322 132438868.8245163 0 132438868.8245163 -378335570.84856653 0 0 0 0 -1910393.627384901 7547819.3624143228 0 7547819.3624143228 -7358957.5157606974 0 0 0 0 -81911129.718582153 240988617.91863251 0 240988617.91863251 -537352928.06819153 0 0 0 0 -412139.00696741045 2173597.7275403142 0 2173597.7275403142 -975845.94527143985 0 0 0 0 35993234.628610611 237816396.26909256 0 237816396.26909256 -712901353.03203964 0 0 0 0 -66601246.308525085 301984122.1489296 0 301984122.1489296 -358600036.46771431 0 0 0 0 -83161944.612220764 166394788.53829575 0 166394788.53829575 503055564.91052437 0 0 0 0 -42065275.15747261 248405283.3292923 0 248405283.3292923 120981413.66664886 0 0 0 0 41539745.884086609 175510348.28030777 0 175510348.28030777 14681099.489570618 0 0 0 0 3413689.0703163147 181725959.92983627 0 181725959.92983627 44183014.37361145 0 0 0 0 10924067.811923981 94403685.432357788 0 94403685.432357788 152424062.56932831 0 0 0 0 11791195.219612122 132838774.59488678 0 132838774.59488678 84542642.596618652 0 0 0 0 -30187660.539916992 205371018.82131195 0 205371018.82131195 174163204.58415508 0 0 0 0 -16474301.185878754 182168162.88546753 0 182168162.88546753 44641064.411652565 0 0 0 0 4993909.9423103333 208337052.62769127 0 208337052.62769127 -55918728.876811981 0 0 0 0 -65937115.906877518 183406821.49366379 0 183406821.49366379 -34663800.691959381 0 0 0 0 -55926299.606399536 158604279.96108246 0 158604279.96108246 26727021.994200706 0 0 0 0 -103097527.75085068 181236953.11810303 0 181236953.11810303 -32259578.758930206 0 0 0 0 -35253438.414185524 153277935.88807201 0 153277935.88807201 -191403994.63162231 0 0 0 0 -46453175.515457153 175852984.66759109 0 175852984.66759109 -39889922.563220978 0 0 0 0 14152576.773777008 177428332.21928024 0 177428332.21928024 -71405662.646068573 0 0 0 0 23716401.752825737 203118842.84604788 0 203118842.84604788 -179256602.15279388 0 0 0 0 146238982.72566605 80238795.510921478 0 80238795.510921478 -310792496.58530807 0 0 0 0 104145192.90502739 149171070.17281246 0 149171070.17281246 -172236755.66226196 0 0 0 0 -91547405.733184814 93261996.669734955 0 93261996.669734955 -145426129.87083817 0 0 0 0 -27605230.549446106 149107027.70816422 0 149107027.70816422 -189155424.42513275 0 0 0 0 -57743936.624450684 -13825712.063922882 0 -13825712.063922882 -305384337.9594841 0 0 0 0 7133950.8062744141 26430620.956104279 0 26430620.956104279 527393015.16708755 0 0 0 0 5564052.5320180804 3992029.2668215185 0 3992029.2668215185 561049.94489945192 0 0 0 0 97267536.932971954 87727682.74917984 0 87727682.74917984 -499625611.17842865 0 0 0 0 -36001746.327987671 162762236.67979431 0 162762236.67979431 747617714.64849854 0 0 0 0 -94044120.054046631 407145086.33853149 0 407145086.33853149 807882449.09215546 0 0 0 0 162800063.11191177 57693813.377422333 0 57693813.377422333 226149938.06893158 0 0 0 0 22039600.861216396 36136763.791331269 0 36136763.791331269 -29128144.694546677 0 0 0 0 16694572.013652384 4600469.2974670976 0 4600469.2974670976 -471073.33598230593 0 0 0 0 51698048.57183075 71010425.041824341 0 71010425.041824341 252344391.02736282 0 0 0 0 51914370.020233154 115389719.28547668 0 115389719.28547668 213794625.91743469 0 0 0 0 27329747.705120087 139831513.63056183 0 139831513.63056183 189941169.45922089 0 0 0 0 14834078.005099118 46255371.930443756 0 46255371.930443756 -30906433.118560813 0 0 0 0 41912564.544059753 50666439.974498749 0 50666439.974498749 -40311113.416246414 0 0 0 0 54574167.812583923 80833343.452049255 0 80833343.452049255 165126635.12490845 0 0 0 0 19671737.819084167 86014236.608903885 0 86014236.608903885 13887047.390771866 0 0 0 0 37727738.20526123 58852886.51471138 0 58852886.51471138 -22363081.685157776 0 0 0 0 39605050.638763428 64661644.001368523 0 64661644.001368523 -7156634.0468788147 0 0 0 0 39295656.087562561 76076663.438102722 0 76076663.438102722 -22747597.018356323 0 0 0 0 -23209947.081970215 73194521.930988312 0 73194521.930988312 36007098.099155426 0 0 0 0 -9049993.7883300781 58606494.925870895 0 58606494.925870895 30333119.018814087 0 0 0 0 -20101630.88458252 79589780.398338318 0 79589780.398338318 28944679.09859848 0 0 0 0 -20403012.775631428 72654683.081467152 0 72654683.081467152 40981582.031921387 0 0 0 0 2260723.9279117584 104745617.40228891 0 104745617.40228891 -4364147.4371299744 0 0 0 0 -14807341.372566223 66034397.97147274 0 66034397.97147274 27226272.694442749 0 0 0 0 -31214313.003768921 87932448.441158295 0 87932448.441158295 451804.75695800781 0 0 0 0 -28679599.398956299 68190329.029296875 0 68190329.029296875 32894546.363899231 0 0 0 0 -25635385.272064209 67457993.252819061 0 67457993.252819061 1735558.3980941772 0 0 0 0 -45235115.046310425 58577455.949095726 0 58577455.949095726 27419452.270256042 0 0 0 0 35447054.531843327 52682250.587215006 0 52682250.587215006 55987903.965299428 0 0 0 0 -15704707.421287537 48477809.702381134 0 48477809.702381134 43748124.792831421 0 0 0 0 -23300638.853588104 52534407.757308483 0 52534407.757308483 53727278.571834564 0 0 0 0 -26307762.731964111 77538078.508354187 0 77538078.508354187 73491939.197719574 0 0 0 0 21585498.124729119 14931755.447248824 0 14931755.447248824 -32797906.44872959 0 0 0 0 18433028.166230679 109006621.82797468 0 109006621.82797468 324928915.41001892 0 0 0 0 -126148876.32691956 40649736.320831299 0 40649736.320831299 -138127690.24154663 0 0 0 0 72899583.726316109 63795305.469918929 0 63795305.469918929 3417050.3091391884 0 0 0 0 17725974.230506897 88430736.107307434 0 88430736.107307434 257887569.19747925 0 0 0 0 181428425.37876892 262737727.94718933 0 262737727.94718933 208029609.19937897 0 0 0 0 59745586.526018143 189004072.23651505 0 189004072.23651505 337601287.64472961 0 0 0 0 54171812.577224731 150632170.47605896 0 150632170.47605896 180781833.52827454 0 0 0 0 70510939.807220459 339373425.41255188 0 339373425.41255188 233211012.11994934 0 0 0 0 277397172.9150238 104849541.3221283 0 104849541.3221283 -212864191.26003265 0 0 0 0 -47386217.198806763 -71008428.39465332 0 -71008428.39465332 -2845403.283744812 0 0 0 0 110770015.57213593 -8039142.0559310913 0 -8039142.0559310913 7439430.6692810059 0 0 0 0 -126004686.45310974 -29180418.784984589 0 -29180418.784984589 66137080.21836853 0 0 0 0 78290714.4140625 39514743.824882507 0 39514743.824882507 127858780.41870499 0 0 0 0 127066111.3229599 156608965.97956848 0 156608965.97956848 56755972.344863892 0 0 0 0 88139038.799556732 149533757.32496643 0 149533757.32496643 180409939.09379578 0 0 0 0 2688084.5902252197 22480207.567695618 0 22480207.567695618 67558731.628860474 0 0 0 0 24258595.579201043 17567170.270214751 0 17567170.270214751 12477310.755138561 0 0 0 0 -69869096.708145142 25106568.740921021 0 25106568.740921021 75765213.092716217 0 0 0 0 -124491424.42673016 22570027.239696562 0 22570027.239696562 85274174.990005493 0 0 0 0 15260945.11131081 32586578.429570731 0 32586578.429570731 45600397.528857648 0 0 0 0 -13341353.402877808 78007289.614659309 0 78007289.614659309 29458754.066741943 0 0 0 0 -27860909.273849487 82929118.613258362 0 82929118.613258362 34672660.155818939 0 0 0 0 -37608986.947731018 40542308.716188431 0 40542308.716188431 5463376.5847167969 0 0 0 0 -37660927.323597014 68037605.434640989 0 68037605.434640989 81184647.487455696 0 0 0 0 -49145549.371520996 50873684.349121094 0 50873684.349121094 28277542.29804039 0 0 0 0 -25322952.424741596 80400836.521497607 0 80400836.521497607 -1639508.7296327651 0 0 0 0 -40088454.74562645 101139508.75645447 0 101139508.75645447 166186508.58546448 0 0 0 0 24367551.245384336 26544963.909841076 0 26544963.909841076 12650988.868167058 0 0 0 0 180196153.20850754 114252585.22426414 0 114252585.22426414 -23687480.569940567 0 0 0 0 1933158.9726459458 34955503.434288666 0 34955503.434288666 22849504.771068871 0 0 0 0 -31415922.641122311 70270689.646203041 0 70270689.646203041 43436987.876108184 0 0 0 0 -1771467.6724821031 -2304635.5919261724 0 -2304635.5919261724 819644.02265935391 0 0 0 0 -132928177.40523529 -83440959.599998474 0 -83440959.599998474 118115261.00391006 0 0 0 0 34553135.120784283 352731587.72213125 0 352731587.72213125 291323814.92960358 0 0 0 0 188933450.91409302 187301266.49166107 0 187301266.49166107 -44300438.776586056 0 0 0 0 91080999.158126831 38934803.598884583 0 38934803.598884583 -298673030.63305283 0 0 0 0 29019985.415106773 182567861.82165527 0 182567861.82165527 5238387.3559494019 0 0 0 0 55068629.001661301 20298693.074433327 0 20298693.074433327 -61736304.465373993 0 0 0 0 15468184.783569336 136748403.03448868 0 136748403.03448868 -37024913.606149673 0 0 0 0 -107397817.39085197 138482355.69073296 0 138482355.69073296 -10767741.603530884 0 0 0 0 5580335.6721572578 2335635.3980363756 0 2335635.3980363756 -1607312.3793488294 0 0 0 0 293678107.08842468 50766511.205970764 0 50766511.205970764 -189900385.84546852 0 0 0 0 -316074637.91586304 74987942.691410065 0 74987942.691410065 375158975.15779114 0 0 0 0 209786311.94075012 183201600.11479568 0 183201600.11479568 74667507.758010864 0 0 0 0 155028940.9624176 193651982.9090519 0 193651982.9090519 129241684.65398788 0 0 0 0 227890608.96710205 245366887.79729462 0 245366887.79729462 147646153.8137598 0 0 0 0 -153558654.12490845 102770017.96807861 0 102770017.96807861 173767502.57708549 0 0 0 0 168840223.30987167 71068291.962411404 0 71068291.962411404 149839631.19950867 0 0 0 0 -279192056.43228149 254413071.75374985 0 254413071.75374985 139021707.39838409 0 0 0 0 -5313926.4856368899 48843322.343172863 0 48843322.343172863 64002519.333295286 0 0 0 0 -153678914.89849854 68704154.767131805 0 68704154.767131805 60028772.577198029 0 0 0 0 -57759275.717834473 47221426.948921204 0 47221426.948921204 -32311363.131942749 0 0 0 0 -33721024.105728209 58995203.936420694 0 58995203.936420694 56484204.361743346 0 0 0 0 70373899.803405762 -187694613.07937813 0 -187694613.07937813 6837521.6439628601 0 0 0 0 77299175.46534729 -83902918.981189728 0 -83902918.981189728 -201109848.60955048 0 0 0 0 -22229769.690185547 82822216.187728882 0 82822216.187728882 67318019.827800751 0 0 0 0 92685375.755050659 -25453519.799736023 0 -25453519.799736023 10390181.895675659 0 0 0 0 8707664.4142608643 -50975881.849552155 0 -50975881.849552155 13516551.613750458 0 0 0 0 129386129.60357666 148683105.93851089 0 148683105.93851089 95438597.609563828 0 0 0 0 291121979.59768677 131877341.16826248 0 131877341.16826248 116114155.3523922 0 0 0 0 116359525.42611694 133932622.26507759 0 133932622.26507759 118826247.99578476 0 0 0 0 85459187.375976562 212476631.80643845 0 212476631.80643845 101291238.35246277 0 0 0 0 89828704.839874268 74265821.804256439 0 74265821.804256439 32730912.661769867 0 0 0 0 157705709.53624725 126720987.29752827 0 126720987.29752827 32611645.581512451 0 0 0 0 46722109.250701904 8876359.9090032578 0 8876359.9090032578 -15231958.406822205 0 0 0 0 107955021.02327728 96565190.401494026 0 96565190.401494026 -134530835.48255539 0 0 0 0 -41669166.188949585 204477298.76753998 0 204477298.76753998 -809032.77729797363 0 0 0 0 -30588131.215184212 87132144.589386582 0 87132144.589386582 -26500394.202865601 0 0 0 0 78794860.328145027 73020625.704653382 0 73020625.704653382 -331342433.39024353 0 0 0 0 76410938.353988647 39417279.065242767 0 39417279.065242767 -87052709.99713707 0 0 0 0 -20074637.791572571 174039843.88161659 0 174039843.88161659 265667621.41719437 0 0 0 0 29117323.307235718 126406677.42259598 0 126406677.42259598 80084879.49621582 0 0 0 0 53804555.884559631 242169232.08617592 0 242169232.08617592 244827944.41268539 0 0 0 0 108837791.23352051 227484414.00017738 0 227484414.00017738 90298776.641672373 0 0 0 0 -29042285.330216557 18056428.322609469 0 18056428.322609469 -3185313.2986595491 0 0 0 0 145879440.78818893 221775015.12652159 0 221775015.12652159 184785696.77303123 0 0 0 0 141742329.20623779 217721823.28212738 0 217721823.28212738 251395102.69397259 0 0 0 0 110376391.84757996 178490578.79439545 0 178490578.79439545 131970086.4428196 0 0 0 0 264605912.95040894 277070353.45121002 0 277070353.45121002 202723525.92365265 0 0 0 0 109610801.19651031 179771708.4540062 0 179771708.4540062 320035243.21491623 0 0 0 0 -47998112.64944458 96488131.349104881 0 96488131.349104881 -21703168.509536505 0 0 0 0 -3153336.6021194458 71053367.107165337 0 71053367.107165337 -171907995.82543182 0 0 0 0 -2314463.5916213989 25585283.321934938 0 25585283.321934938 -50013996.298666 0 0 0 0 210149390.47010803 318305421.40887165 0 318305421.40887165 233268968.12142038 0 0 0 0 20128646.764480591 1261733.6794900894 0 1261733.6794900894 -275463385.53894854 0 0 0 0 -19233500.968991965 10757155.21552249 0 10757155.21552249 -5602939.8774980223 0 0 0 0 57428958.917007446 346518176.36974049 0 346518176.36974049 532951549.64149761 0 0 0 0 -44278022.393153369 12950756.378911242 0 12950756.378911242 17663135.191128444 0 0 0 0 -8182638.7318267822 61031976.791959763 0 61031976.791959763 34064508.335656166 0 0 0 0 -94667953.569000244 70168214.181282043 0 70168214.181282043 146192631.20589757 0 0 0 0 -15045534.222407684 45192210.685769647 0 45192210.685769647 25929487.075279742 0 0 0 0 -8364909.0390472412 60635481.280237198 0 60635481.280237198 65400315.029204249 0 0 0 0 18027760.680686563 79767653.249596968 0 79767653.249596968 25290770.992365941 0 0 0 0 20362413.105499268 77483609.543569565 0 77483609.543569565 57790745.975784302 0 0 0 0 -2285255.6939157248 23366388.061229728 0 23366388.061229728 16698306.614160946 0 0 0 0 31986866.701705933 29213956.973602295 0 29213956.973602295 133253571.52290344 0 0 0 0 -18055487.400344849 129306255.30219841 0 129306255.30219841 400710971.36760139 0 0 0 0 -7000851.8146724105 5291314.2484768778 0 5291314.2484768778 -1601128.9680443853 0 0 0 0 -33328581.844268799 100279044.07083511 0 100279044.07083511 -71219705.078368187 0 0 0 0 -964618.43146264553 24590549.502990246 0 24590549.502990246 27079946.132850565 0 0 0 0 -43081711.053059578 18132880.921498284 0 18132880.921498284 3950892.461168766 0 0 0 0 -22142598.317062378 47542518.664756775 0 47542518.664756775 28954398.55380106 0 0 0 0 -1090847.3968219087 50014626.378947929 0 50014626.378947929 12117853.333009191 0 0 0 0 54742229.410255432 75382253.651255608 0 75382253.651255608 4943048.9553089142 0 0 0 0 -264124632.31865692 256913077.00761658 0 256913077.00761658 -125730171.33765829 0 0 0 0 97002417.745662689 65558068.591793269 0 65558068.591793269 -378077442.37727618 0 0 0 0 11263179.564765051 11042215.705810457 0 11042215.705810457 852105.52953416295 0 0 0 0 -203974178.05841064 144216635.16934252 0 144216635.16934252 12346452.341175258 0 0 0 0 -85854593.970962524 312843824.97023857 0 312843824.97023857 -400542294.07380557 0 0 0 0 21959737.845985413 131450609.02088714 0 131450609.02088714 -178352916.58128464 0 0 0 0 6820801.3724060059 173886902.62789899 0 173886902.62789899 -261089221.73694229 0 0 0 0 89511405.668624878 129084489.46119133 0 129084489.46119133 -376670942.77968138 0 0 0 0 58570164.754669189 49288338.309013039 0 49288338.309013039 -526674423.53955805 0 0 0 0 -212622534.12828827 337059661.44955391 0 337059661.44955391 -351280665.63954079 0 0 0 0 37634745.246932983 291261743.64665854 0 291261743.64665854 -540299412.11432886 0 0 0 0 32890791.852283478 90038321.088886619 0 90038321.088886619 -251908862.92830753 0 0 0 0 -2269240.5075912476 58616838.282395363 0 58616838.282395363 -279814872.40519214 0 0 0 0 -43357561.076282501 -15401877.93717885 0 -15401877.93717885 -345210042.03554726 0 0 0 0 44011868.634155273 98963800.55739069 0 98963800.55739069 -321621867.98294973 0 0 0 0 88001326.174057007 81370611.588628888 0 81370611.588628888 -334429156.30338848 0 0 0 0 116835020.95593262 36858073.561069429 0 36858073.561069429 -288346675.95542794 0 0 0 0 75333594.899372101 52066794.101660728 0 52066794.101660728 -298313651.06316853 0 0 0 0 43217412.690002441 70356118.908552885 0 70356118.908552885 -267069467.10006762 0 0 0 0 40395883.53026247 29885895.335927792 0 29885895.335927792 -185215322.6332593 0 0 0 0 40729148.629684448 -11579830.517611861 0 -11579830.517611861 -140213079.33407566 0 0 0 0 88244948.636878967 -4207681.3440604806 0 -4207681.3440604806 -210566718.65436754 0 0 0 0 47516778.121101379 -19385329.538080543 0 -19385329.538080543 -136449475.27420568 0 0 0 0 34239246.612350464 -14991312.386603884 0 -14991312.386603884 -131917108.86581695 0 0 0 0 34527460.277583122 -6624101.2357753115 0 -6624101.2357753115 -137569359.41367912 0 0 0 0 122477601.65401459 -34212483.191115677 0 -34212483.191115677 -198143607.76127818 0 0 0 0 84349833.362709045 28993972.975313399 0 28993972.975313399 -283434362.04337651 0 0 0 0 41089113.74458313 -43154513.252345085 0 -43154513.252345085 -93014046.417400122 0 0 0 0 154010809.96014404 -62069706.035901129 0 -62069706.035901129 -198823770.70095947 0 0 0 0 43038170.521652222 -49991005.216016531 0 -49991005.216016531 -87555165.850260377 0 0 0 0 82670189.828735352 -105973628.88293314 0 -105973628.88293314 -59968540.239671111 0 0 0 0 38189833.019294739 -38245300.363363445 0 -38245300.363363445 -115878235.35133827 0 0 0 0 30784751.104995728 -24028865.691476703 0 -24028865.691476703 -90846322.768885732 0 0 0 0 49617798.807723999 260466008.28463373 0 260466008.28463373 -328942536.51543975 0 0 0 0 97348440.500564575 262129232.81884575 0 262129232.81884575 -290525444.66972256 0 0 0 0 176090915.56912231 290901335.84906065 0 290901335.84906065 -332601718.87665319 0 0 0 0 231225406.95361328 34128943.188837171 0 34128943.188837171 -364082256.96898323 0 0 0 0 35972992.690696716 128783732.92187649 0 128783732.92187649 -264517561.86822379 0 0 0 0 331283272.71131897 58497595.456600904 0 58497595.456600904 -250413183.75509053 0 0 0 0 346740749.79223061 125141216.07667358 0 125141216.07667358 -153455759.16485071 0 0 0 0 308397955.1026001 -163504430.34457588 0 -163504430.34457588 -136289743.66480589 0 0 0 0 757754503.38278198 -125687707.86092925 0 -125687707.86092925 -91201177.550857484 0 0 0 0 262680130.77082825 322450586.29518527 0 322450586.29518527 -275861320.32877731 0 0 0 0 420075443.06259155 194915621.0791719 0 194915621.0791719 -217317320.90715504 0 0 0 0 156070126.45701599 226195749.14050221 0 226195749.14050221 -135078790.8823911 0 0 0 0 21948140.25239563 265170657.7381773 0 265170657.7381773 -199411065.10147977 0 0 0 0 12001455.073577881 385343362.61683393 0 385343362.61683393 -426972039.90865564 0 0 0 0 173541982.50872707 338726654.63932347 0 338726654.63932347 -328025545.5803802 0 0 0 0 -26113698.882156372 378046630.60896587 0 378046630.60896587 -259958413.42466992 0 0 0 0 116511324.32521629 346676419.05936456 0 346676419.05936456 -330737598.68784225 0 0 0 0 -127804501.66825867 426367501.43612891 0 426367501.43612891 -292033061.10674191 0 0 0 0 -31223609.026687622 354204233.7794171 0 354204233.7794171 -363128217.74065042 0 0 0 0 -22307395.66255188 375068893.79697073 0 375068893.79697073 -319311792.18963361 0 0 0 0 -6184679.148223877 389605747.42631382 0 389605747.42631382 -317389841.83665836 0 0 0 0 -201119960.32066345 329281106.96538246 0 329281106.96538246 -296713850.16648793 0 0 0 0 -457019020.81040955 382549238.3334167 0 382549238.3334167 -252510584.7532053 0 0 0 0 -143359730.45484924 442331512.79937518 0 442331512.79937518 -348288256.19389439 0 0 0 0 -204948142.02589417 339488752.79513359 0 339488752.79513359 -301035072.64877439 0 0 0 0 -362877819.23470306 538904354.5245471 0 538904354.5245471 -444720909.71567822 0 0 0 0 -503879401.28355408 481846008.10139841 0 481846008.10139841 -296442671.68262339 0 0 0 0 344878019.60212708 82445014.607215405 0 82445014.607215405 -255736083.35331154 0 0 0 0 -498265264.06524658 348341612.33178425 0 348341612.33178425 -398955506.04062295 0 0 0 0 -285187776.16761017 229199153.48615646 0 229199153.48615646 104511310.05887413 0 0 0 0 4222591.9519348145 12820892.313214242 0 12820892.313214242 -30263314.829134822 0 0 0 0 22162409.62433821 18251433.412939891 0 18251433.412939891 14048979.315551374 0 0 0 0 -13239363.036270142 75245197.531344414 0 75245197.531344414 18671335.25039053 0 0 0 0 24370098.908836365 99694916.739039421 0 99694916.739039421 -54436885.871411324 0 0 0 0 50328156.607432023 44102732.616561532 0 44102732.616561532 29729997.621978369 0 0 0 0 -104350514.46969604 91152324.046704292 0 91152324.046704292 -73155573.307666779 0 0 0 0 105003310.94733429 16149924.458860397 0 16149924.458860397 1760650.4953804016 0 0 0 0 -12805541.950836182 134309766.04720688 0 134309766.04720688 -55954120.122845113 0 0 0 0 -37442034.00189209 110222166.02199173 0 110222166.02199173 -25520033.334440231 0 0 0 0 -5913232.3065719604 48971945.638035774 0 48971945.638035774 -118839209.45772934 0 0 0 0 -58671637.193145752 -4752186.9765014648 0 -4752186.9765014648 -121546555.24280858 0 0 0 0 14106357.292798117 838350.57771660388 0 838350.57771660388 -17122378.936748292 0 0 0 0 33021069.97309801 30164250.646028757 0 30164250.646028757 23137920.055130631 0 0 0 0 -111553498.1443634 107041646.93502617 0 107041646.93502617 -29325022.005363464 0 0 0 0 115116152.55491638 -14339612.454618454 0 -14339612.454618454 -155020873.87600327 0 0 0 0 -141910066.45355225 -126701291.30345917 0 -126701291.30345917 -155600106.68157196 0 0 0 0 -190026840.19137573 -45974492.353391647 0 -45974492.353391647 -76806767.78670311 0 0 0 0 444912576.98568726 -90051273.729745865 0 -90051273.729745865 -349846169.08995056 0 0 0 0 265452769.44963455 382380506.22323656 0 382380506.22323656 144887665.70415878 0 0 0 0 -75530321.721313477 258241285.72025299 0 258241285.72025299 269196246.58041191 0 0 0 0 51159881.448577881 39213595.497074127 0 39213595.497074127 25006178.640012741 0 0 0 0 40165624.422195435 65946416.112442017 0 65946416.112442017 1582733.9601173401 0 0 0 0 79538752.806274414 42667438.311609268 0 42667438.311609268 -14094676.124328613 0 0 0 0 44507061.032424927 77196607.97039032 0 77196607.97039032 -29668979.213406801 0 0 0 0 65982140.424339294 65633333.166727066 0 65633333.166727066 -30838972.212104797 0 0 0 0 53936436.571578979 66870103.30676651 0 66870103.30676651 -13486943.776211381 0 0 0 0 57974688.529865265 59346555.923838139 0 59346555.923838139 -20861382.598339081 0 0 0 0 45042569.603736877 65588348.348373413 0 65588348.348373413 -21433692.120159149 0 0 0 0 52753834.728764534 65431013.531588495 0 65431013.531588495 -27352615.146682739 0 0 0 0 53099082.838506937 72175331.910568595 0 72175331.910568595 -28002392.378692627 0 0 0 0 45482536.052093506 61742775.680709839 0 61742775.680709839 -35646302.880744934 0 0 0 0 44653971.550042212 35195752.059204467 0 35195752.059204467 2951011.7646896541 0 0 0 0 39994748.72807312 68152966.189893723 0 68152966.189893723 -24262989.251747131 0 0 0 0 -49114350.257858276 107708897.11063957 0 107708897.11063957 101076679.92029572 0 0 0 0 238734283.11212158 275421399.68143082 0 275421399.68143082 156506559.10678864 0 0 0 0 16020976.238663509 4394138.3675125837 0 4394138.3675125837 -9574540.9407639429 0 0 0 0 -66051347.517883301 206288239.02669907 0 206288239.02669907 244926813.64361191 0 0 0 0 -66072655.361351013 49547633.335250854 0 49547633.335250854 -96251039.637786865 0 0 0 0 -22149697.557037354 -2834319.7821311951 0 -2834319.7821311951 -36028628.159759521 0 0 0 0 -27849706.257545471 -20322670.263248444 0 -20322670.263248444 -314415671.99238586 0 0 0 0 -78769351.047058105 220417509.65069389 0 220417509.65069389 85592742.913787842 0 0 0 0 -73638138.219482422 127498264.93912888 0 127498264.93912888 51744082.34249115 0 0 0 0 -64122727.482788086 185118292.97727203 0 185118292.97727203 67099594.340577126 0 0 0 0 -77418871.673309326 169181528.807724 0 169181528.807724 129463822.90680695 0 0 0 0 -59020384.542678833 170229720.58464432 0 170229720.58464432 16165344.554420471 0 0 0 0 -20326482.026062012 165511383.14393997 0 165511383.14393997 10069152.953285217 0 0 0 0 -73023448.699923515 113126391.09340203 0 113126391.09340203 -41924042.947006226 0 0 0 0 79817775.044189453 251487459.91162109 0 251487459.91162109 -9737428.3310222626 0 0 0 0 -30114134.381530762 110104641.84038925 0 110104641.84038925 72487910.560256481 0 0 0 0 180981800.51799011 -34810368.094764709 0 -34810368.094764709 -516583824.48204041 0 0 0 0 278175152.44451904 77900575.408823013 0 77900575.408823013 -526584847.72782898 0 0 0 0 463624144.59866333 292783273.78082657 0 292783273.78082657 -405349596.53813171 0 0 0 0 4739903.6685656309 10893126.778115965 0 10893126.778115965 12210837.014514394 0 0 0 0 92919908.579223633 131426610.69641876 0 131426610.69641876 -146253294.08892441 0 0 0 0 17195556.23626709 161590545.10042572 0 161590545.10042572 -138186499.4858017 0 0 0 0 -95291561.326675415 130142123.51509285 0 130142123.51509285 32399729.08728981 0 0 0 0 -30712725.75012207 122674107.12885284 0 122674107.12885284 17334002.844737053 0 0 0 0 -45793593.091369629 62318718.888324738 0 62318718.888324738 -14795106.372608185 0 0 0 0 58668040.415225983 22706502.490698129 0 22706502.490698129 -251526683.57305431 0 0 0 0 -12502460.272781372 89897047.791204453 0 89897047.791204453 -148281820.36096191 0 0 0 0 54698977.045377433 47906070.260909557 0 47906070.260909557 24970112.308414128 0 0 0 0 -261718098.9508667 -143774724.53782654 0 -143774724.53782654 534411059.12541199 0 0 0 0 -127542302.35769653 -136666903.68734741 0 -136666903.68734741 -114719504.92296553 0 0 0 0 -27577868.449493408 102850905.19740677 0 102850905.19740677 -2802675.7333288193 0 0 0 0 -127288797.9065094 130290927.0285244 0 130290927.0285244 262464398.10459518 0 0 0 0 -154592499.06204224 260138609.44392014 0 260138609.44392014 481867249.33105683 0 0 0 0 19522298.148880005 235689724.02012599 0 235689724.02012599 -198761802.01348695 0 0 0 0 -102899382.36800003 358872294.12582797 0 358872294.12582797 -317976151.72523069 0 0 0 0 308621594.24987793 27381352.603003502 0 27381352.603003502 -108881033.3772316 0 0 0 0 47108680.372912019 30773765.995487474 0 30773765.995487474 12215746.683453433 0 0 0 0 -104532628.94186401 351800283.33089173 0 351800283.33089173 -292087673.19451118 0 0 0 0 15846480.748269856 6843601.0332595631 0 6843601.0332595631 -1564587.7973817587 0 0 0 0 -92283773.088439941 226994792.0970583 0 226994792.0970583 114274512.299366 0 0 0 0 -68297283.006103516 257108943.35846519 0 257108943.35846519 203267683.15083885 0 0 0 0 102095.59090423584 66512167.620573997 0 66512167.620573997 -33934819.183065414 0 0 0 0 26041389.381749988 53297361.830649659 0 53297361.830649659 -37548470.517063141 0 0 0 0 -894564.95127868652 96781695.65791893 0 96781695.65791893 -110916497.54288864 0 0 0 0 26156014.377319336 67263812.404378891 0 67263812.404378891 -79690813.750427246 0 0 0 0 16378398.06955719 132256460.95570183 0 132256460.95570183 -124023109.02866364 0 0 0 0 -16709400.737866402 120575977.99148607 0 120575977.99148607 -69960916.2722435 0 0 0 0 14517231.026855469 151658776.90432167 0 151658776.90432167 66479731.673221588 0 0 0 0 -43475.471580505371 102615830.54420471 0 102615830.54420471 205403806.75185394 0 0 0 0 47166013.083351135 85093750.929777145 0 85093750.929777145 127966637.24628448 0 0 0 0 18334576.127382278 85372236.77154398 0 85372236.77154398 189265365.12355042 0 0 0 0 9066356.1270256042 110479261.65390491 0 110479261.65390491 253724736.05500793 0 0 0 0 -141022.63623046875 151639883.15051746 0 151639883.15051746 485194500.47811508 0 0 0 0 147165596.12837219 65981652.166133881 0 65981652.166133881 -202624830.80713272 0 0 0 0 77559376.484069824 161736913.80351257 0 161736913.80351257 224371536.51348019 0 0 0 0 144542.45359238982 -935753.40867427737 0 -935753.40867427737 450765.69425370172 0 0 0 0 -95453273.508621216 -830603.92446327209 0 -830603.92446327209 4969943.3500862122 0 0 0 0 20540182.734199524 130572286.35357094 0 130572286.35357094 236920439.61068726 0 0 0 0 48562291.197595596 80696363.588393211 0 80696363.588393211 208753487.58087158 0 0 0 0 34123800.867549896 149513797.4819622 0 149513797.4819622 165639624.945961 0 0 0 0 40548129.969421387 57573933.559185028 0 57573933.559185028 255125739.97926331 0 0 0 0 38352650.977157593 64003841.148635864 0 64003841.148635864 134013725.12120056 0 0 0 0 2253621.4038238525 133017147.39386368 0 133017147.39386368 158005030.68802643 0 0 0 0 1092618.2307001352 97968.098905339837 0 97968.098905339837 232344.92796616443 0 0 0 0 -1722700.3595733643 3429477.5732727051 0 3429477.5732727051 -15093152.475910187 0 0 0 0 15898510.600784302 1334158.6521606445 0 1334158.6521606445 -24306853.562194824 0 0 0 0 7968258.7571105957 105832571.46287155 0 105832571.46287155 275054824.45716095 0 0 0 0 2316128.6137199402 18308236.086015224 0 18308236.086015224 -4072011.6712112427 0 0 0 0 2166246.9914518893 -782657.10565991513 0 -782657.10565991513 -966749.48431686312 0 0 0 0 -10051911.357879639 -20601594.847473145 0 -20601594.847473145 6473913.0015411377 0 0 0 0 -17693517.886373043 109592081.42190665 0 109592081.42190665 -118727638.68854141 0 0 0 0 -37214028.136657715 71137323.507980347 0 71137323.507980347 -116400111.05144644 0 0 0 0 -49002275.354400635 57986317.286680222 0 57986317.286680222 -45203194.736068726 0 0 0 0 -44094394.561569214 65991018.633728981 0 65991018.633728981 -70567642.621650696 0 0 0 0 -35266217.221038818 59126193.630683899 0 59126193.630683899 -102962997.29275894 0 0 0 0 -4389925.5859069824 9853041.470489502 0 9853041.470489502 5121723.0426063538 0 0 0 0 2292305.0427532196 1699965.9880300611 0 1699965.9880300611 -2345721.1771351695 0 0 0 0 -54742835.450057983 52684232.465810776 0 52684232.465810776 -49265481.867204666 0 0 0 0 -4173715.3949356079 9212430.9307932854 0 9212430.9307932854 2675033.8050231934 0 0 0 0 -17406788.119208366 27280913.795980737 0 27280913.795980737 -25580568.42691122 0 0 0 0 -1797419.7670434341 7399519.3648663759 0 7399519.3648663759 -443610.72415688634 0 0 0 0 -35095193.809082031 10937979.507780075 0 10937979.507780075 4717966.4357013702 0 0 0 0 -25775919.55926609 61051214.465786695 0 61051214.465786695 38062250.603019714 0 0 0 0 -4552026.8408052027 17878783.184561964 0 17878783.184561964 -18760741.293963231 0 0 0 0 -56389161.425827026 -31835499.482574463 0 -31835499.482574463 14357478.788841248 0 0 0 0 -3364938.6388092041 11138502.02331543 0 11138502.02331543 497319.70956420898 0 0 0 0 1100479.9016113281 7223725.5986671448 0 7223725.5986671448 -335601.333984375 0 0 0 0 -3334124.6379394531 12244409.833827972 0 12244409.833827972 5034296.4358458519 0 0 0 0 205257.30593109131 8548597.94830513 0 8548597.94830513 -2034336.0905380249 0 0 0 0 -5414178.0177307129 82411252.938480377 0 82411252.938480377 107831890.86972809 0 0 0 0 2260387.3230910301 895863.3494714424 0 895863.3494714424 -36070.189603513107 0 0 0 0 2235642.6220474243 7884252.7449493408 0 7884252.7449493408 -3856175.0696144104 0 0 0 0 26676498.244598389 95804510.329674721 0 95804510.329674721 75518397.213478088 0 0 0 0 9893629.6720275879 105021765.98478317 0 105021765.98478317 94497759.899139404 0 0 0 0 733365.47395420074 158460416.98011804 0 158460416.98011804 62713392.531166077 0 0 0 0 -20035861.8099823 173548839.21938324 0 173548839.21938324 37655042.941329956 0 0 0 0 -94251918.527481079 140204335.46858597 0 140204335.46858597 43288104.681781769 0 0 0 0 59905282.54208374 -5732379.184715271 0 -5732379.184715271 8428794.0225906372 0 0 0 0 -8175302.2804031372 151431907.43203831 0 151431907.43203831 -3126957.2889480591 0 0 0 0 -78971227.76631546 100811693.599473 0 100811693.599473 -6535586.7727127075 0 0 0 0 -1951536.5830051601 5022557.9813787639 0 5022557.9813787639 3103858.4730927646 0 0 0 0 -90913527.166667938 147356026.8152647 0 147356026.8152647 -225537777.10452271 0 0 0 0 -126330468.15739441 -73768480.676448822 0 -73768480.676448822 -49408917.918006897 0 0 0 0 -1303956.9144712687 -98415.262987591326 0 -98415.262987591326 1263502.0345792845 0 0 0 0 -86530232.292884827 -20338166.511244774 0 -20338166.511244774 21452534.130073547 0 0 0 0 2717835.1436233521 7024106.0819644928 0 7024106.0819644928 -2633329.2408905029 0 0 0 0 -134405.51403144002 2206316.7502845079 0 2206316.7502845079 536850.68024525046 0 0 0 0 88053407.68132019 188036564.87518692 0 188036564.87518692 -22406884.332355499 0 0 0 0 -209685417.10320854 227406873.64233971 0 227406873.64233971 7156656.2948722839 0 0 0 0 -23045687.483483136 27500482.849103838 0 27500482.849103838 -28391205.457073018 0 0 0 0 -190109955.32247925 20899520.892715454 0 20899520.892715454 4066700.4187164307 0 0 0 0 -230850023.2440033 212854794.30934143 0 212854794.30934143 -86966280.628932953 0 0 0 0 67731881.913925171 -69742560.69311142 0 -69742560.69311142 -82131961.175632477 0 0 0 0 -115435623.66534424 132013431.18251038 0 132013431.18251038 38012537.045886993 0 0 0 0 -30486522.436004639 -118584.15127182007 0 -118584.15127182007 6477658.5478668213 0 0 0 0 -22241941.304568201 26294962.04328382 0 26294962.04328382 -26951487.238367476 0 0 0 0 160528051.31544495 92399343.642995834 0 92399343.642995834 -55563505.772562027 0 0 0 0 -329315067.77062988 601872180.97167015 0 601872180.97167015 -583123387.0675354 0 0 0 0 60385913.363769531 50057996.537280083 0 50057996.537280083 -4198581.9415512085 0 0 0 0 155724953.29246521 -138076973.78302002 0 -138076973.78302002 -358214084.92790222 0 0 0 0 -401613337.93136597 293631279.89916229 0 293631279.89916229 -156030743.43949127 0 0 0 0 -450311841.61207008 -77414224.442983866 0 -77414224.442983866 55029123.789800644 0 0 0 0 237930237.28555298 -261921041.08143234 0 -261921041.08143234 371908302.350811 0 0 0 0 -70742385.577362061 239663401.92213821 0 239663401.92213821 -503560359.29038239 0 0 0 0 -6172684.6443290561 5314180.5639339685 0 5314180.5639339685 -1767346.9739569798 0 0 0 0 -312487053.17108154 182201306.29247856 0 182201306.29247856 -47395069.025465012 0 0 0 0 -210900037.87767029 136726999.65912819 0 136726999.65912819 92328693.037776947 0 0 0 0 72118943.379486084 106416224.48400688 0 106416224.48400688 42209576.486679077 0 0 0 0 -85228588.164459229 129189785.17169571 0 129189785.17169571 233164662.24546814 0 0 0 0 91667250.08821106 44595645.748575211 0 44595645.748575211 -103009057.62571526 0 0 0 0 -151575869.13987064 -164772989.55073714 0 -164772989.55073714 -44023616.346405029 0 0 0 0 -19084973.511062622 309352552.44656563 0 309352552.44656563 -66950454.479202271 0 0 0 0 -1551531.3448931128 13247197.293160498 0 13247197.293160498 -17090779.794314995 0 0 0 0 -146432419.43463135 71119550.920431614 0 71119550.920431614 178171807.60568237 0 0 0 0 29147878.010391235 13847560.452413559 0 13847560.452413559 -8773118.8612174988 0 0 0 0 40013912.618637085 13723602.284360886 0 13723602.284360886 166630319.92004931 0 0 0 0 -95374793.586090088 43410514.655108452 0 43410514.655108452 -45168241.549854279 0 0 0 0 163830105.97373962 -58031774.952638626 0 -58031774.952638626 -5570021.9710083008 0 0 0 0 191647411.01629639 500268241.30472565 0 500268241.30472565 123279578.70060539 0 0 0 0 58497756.521697998 354323593.33153439 0 354323593.33153439 14642185.445690155 0 0 0 0 308799470.32333374 541602423.07504845 0 541602423.07504845 34021170.911935806 0 0 0 0 21366033.203857422 552799849.23521757 0 552799849.23521757 759017992.028337 0 0 0 0 195530376.05069113 93366900.813464344 0 93366900.813464344 225199957.44652176 0 0 0 0 -20638783.564971924 169920368.22481346 0 169920368.22481346 625892106.71343422 0 0 0 0 1522441.1091766357 -74110702.090171814 0 -74110702.090171814 -545919381.97891617 0 0 0 0 -8289852.3793456554 2645263.2339312062 0 2645263.2339312062 -449828.47250896879 0 0 0 0 166467954.68595886 82886165.59893322 0 82886165.59893322 -1114311324.6362972 0 0 0 0 68062871.413986206 -151934877.73033476 0 -151934877.73033476 -39528390.534971207 0 0 0 0 -12759002.425140381 108112374.15189672 0 108112374.15189672 -294346873.08200312 0 0 0 0 -404110982.04840088 986243044.22643471 0 986243044.22643471 201052946.88281727 0 0 0 0 197578549.24842834 103576847.82859194 0 103576847.82859194 -4251941.6581860185 0 0 0 0 324528521.22080803 430055168.01505959 0 430055168.01505959 -373886824.7992382 0 0 0 0 838761678.71533203 -887011955.91601658 0 -887011955.91601658 -210176387.91400087 0 0 0 0 2001876.2446161509 3756700.3536845371 0 3756700.3536845371 -7377675.1416961234 0 0 0 0 6647677.4222262204 -2056490.7224950194 0 -2056490.7224950194 -1448953.1530418918 0 0 0 0 -4340572.79296875 -33734841.207252502 0 -33734841.207252502 -3913756.8125934601 0 0 0 0 28863071.506465226 11480185.86960917 0 11480185.86960917 -36152657.722299218 0 0 0 0 272621825.40053558 60420283.270637631 0 60420283.270637631 -178745293.24449921 0 0 0 0 872150.84032218903 19927496.444577992 0 19927496.444577992 -45065146.557574823 0 0 0 0 88235975.117492676 -12021663.805159032 0 -12021663.805159032 -85713278.378136933 0 0 0 0 -39863067.209518433 38200241.621666193 0 38200241.621666193 -126336983.97448874 0 0 0 0 790462.22485351562 102373763.08896494 0 102373763.08896494 -279044763.58826494 0 0 0 0 23181152.325759888 29045094.121677458 0 29045094.121677458 -178593342.49691325 0 0 0 0 51993750.662719727 -29660290.663458586 0 -29660290.663458586 -145986065.11751378 0 0 0 0 83812250.40234375 2683411.4469532967 0 2683411.4469532967 -134466727.33133644 0 0 0 0 57123938.267467499 -29934579.279980764 0 -29934579.279980764 -120678840.38495719 0 0 0 0 44683078.621162415 -13448691.768012658 0 -13448691.768012658 -104905259.28207755 0 0 0 0 47572152.933776855 -20875941.918328166 0 -20875941.918328166 -107941736.79801887 0 0 0 0 49031325.31446743 -11703627.085147321 0 -11703627.085147321 -108848176.16106582 0 0 0 0 59722048.671819687 52576821.50076551 0 52576821.50076551 -52770509.309990525 0 0 0 0 -4580450.4767303467 19119868.928101897 0 19119868.928101897 -68470357.077559233 0 0 0 0 72533089.588653564 10568931.523616612 0 10568931.523616612 -88196504.436257675 0 0 0 0 105603098.78262329 -2640650.3538484573 0 -2640650.3538484573 -113635213.26905751 0 0 0 0 103263054.51952934 10859817.291297127 0 10859817.291297127 -166325621.72561699 0 0 0 0 2653627.8554829359 7484232.5165437553 0 7484232.5165437553 -17064919.94176456 0 0 0 0 137829164.56188202 -14474490.084144503 0 -14474490.084144503 -149808559.66557065 0 0 0 0 -5610674.0573097281 24400340.438533038 0 24400340.438533038 -57300021.729950123 0 0 0 0 229850053.73762512 165810197.22052002 0 165810197.22052002 -169441830.07338333 0 0 0 0 307968992.17502594 175327740.97022629 0 175327740.97022629 -347792858.7982254 0 0 0 0 214179735.4680481 -51659194.454036713 0 -51659194.454036713 -389108823.92480469 0 0 0 0 -212733593.02398682 -175811183.26389694 0 -175811183.26389694 -161491763.56483459 0 0 0 0 -222925885.87072754 -117247026.46584702 0 -117247026.46584702 -185241827.72893524 0 0 0 0 -28317078.346084595 -250469540.19902992 0 -250469540.19902992 -545788098.78647995 0 0 0 0 213294428.83685303 252131457.88002872 0 252131457.88002872 263374888.79550171 0 0 0 0 419252765.58904266 258378658.11833763 0 258378658.11833763 -670378872.82411194 0 0 0 0 -12332782.159224778 20798454.418689549 0 20798454.418689549 -22569795.839805752 0 0 0 0 -11455250.765289307 -21998943.424359322 0 -21998943.424359322 42620300.365766525 0 0 0 0 -5292866.2296493351 6653528.8637623563 0 6653528.8637623563 -19717696.700125657 0 0 0 0 -678771.08778381348 13881348.238426208 0 13881348.238426208 -29780157.306670666 0 0 0 0 -1282119.3017775193 15312090.299351007 0 15312090.299351007 -35823206.896510214 0 0 0 0 -538140831.95467377 -489539901.97266579 0 -489539901.97266579 -286213527.32629776 0 0 0 0 -18646775.356559664 7270122.4588370547 0 7270122.4588370547 -2880681.3410721235 0 0 0 0 -92480370.70149231 77985884.522079468 0 77985884.522079468 -122901634.13410711 0 0 0 0 816859.65681803226 4256568.1145768464 0 4256568.1145768464 -4927737.2663384154 0 0 0 0 -55625661.956878662 28759557.119797707 0 28759557.119797707 -13870086.665704727 0 0 0 0 -259297832.72233582 -249562231.9573822 0 -249562231.9573822 -258219543.03278732 0 0 0 0 -777612.32903578877 1243439.5592464805 0 1243439.5592464805 -5369200.8908963576 0 0 0 0 -371153436.53495026 386454183.97355747 0 386454183.97355747 2345073.843421936 0 0 0 0 -757549210.58359528 127523733.20162773 0 127523733.20162773 81522477.76845932 0 0 0 0 -174029172.84328842 108550795.86902714 0 108550795.86902714 -62840391.715950012 0 0 0 0 -217901059.12446213 18013255.239785433 0 18013255.239785433 -25778461.510940552 0 0 0 0 -166084732.51846313 96154701.26223278 0 96154701.26223278 -73320123.266609192 0 0 0 0 -540731.08266658336 4825964.3381385356 0 4825964.3381385356 -15601799.087200426 0 0 0 0 -109524050.4432106 120016965.7600975 0 120016965.7600975 -60707283.039836884 0 0 0 0 -164932509.85475159 113970470.55017424 0 113970470.55017424 -59732748.469322205 0 0 0 0 -149002473.04348755 57208961.821720123 0 57208961.821720123 -30767430.802707672 0 0 0 0 -214483245.95295715 89294419.828632355 0 89294419.828632355 -40222103.276924133 0 0 0 0 -158051474.84150696 99859848.375868797 0 99859848.375868797 -72444342.123809814 0 0 0 0 -64025262.252929688 -204556748.52773094 0 -204556748.52773094 -53185718.158279419 0 0 0 0 167663009.93339157 -11551772.510809898 0 -11551772.510809898 -105945656.70986176 0 0 0 0 -19335862.678665161 33104290.5042696 0 33104290.5042696 45332883.727718353 0 0 0 0 47355.561958611012 362655.19675225019 0 362655.19675225019 -726118.51870215684 0 0 0 0 36818405.882507324 29737937.155893326 0 29737937.155893326 2101217.3749313354 0 0 0 0 20898430.670959473 -121097142.00322723 0 -121097142.00322723 -240387677.96281433 0 0 0 0 -15761526.585449219 -63829465.24911499 0 -63829465.24911499 66954235.744701385 0 0 0 0 -64921355.802856445 -160972769.74456978 0 -160972769.74456978 -11789946.015367508 0 0 0 0 33521645.414535522 9463225.5500507355 0 9463225.5500507355 -22508743.089984894 0 0 0 0 12622073.65460445 -1074046.984943375 0 -1074046.984943375 -7708313.8773190007 0 0 0 0 43791553.62713623 -3603698.0441703796 0 -3603698.0441703796 10563534.806048393 0 0 0 0 35174728.629348755 19935319.438001633 0 19935319.438001633 -22278253.448181152 0 0 0 0 21233103.637114555 19773714.254681077 0 19773714.254681077 -25103617.838720217 0 0 0 0 22233049.869934082 20826948.185762405 0 20826948.185762405 -18572647.95700264 0 0 0 0 5240754.0672209263 4939905.1266120076 0 4939905.1266120076 -15344277.441529185 0 0 0 0 -222590.32454010099 7565147.6934366673 0 7565147.6934366673 -8727078.6794188172 0 0 0 0 21318996.717163086 9327445.8793907166 0 9327445.8793907166 -19582799.802185059 0 0 0 0 10045523.563644409 10479372.614336014 0 10479372.614336014 -9457338.7343711853 0 0 0 0 -20020404.982673645 36640343.223887444 0 36640343.223887444 -42209255.467727661 0 0 0 0 -90315668.06685257 74247818.509676933 0 74247818.509676933 -41628167.159332275 0 0 0 0 -77618887.00177002 49874598.07582283 0 49874598.07582283 -16172710.131484985 0 0 0 0 -108318709.52783203 72238621.3306427 0 72238621.3306427 -25283255.339920044 0 0 0 0 -98007428.073394775 24578864.910491943 0 24578864.910491943 11213954.932037354 0 0 0 0 -152623572.93165588 48849873.32692337 0 48849873.32692337 15618473.955375671 0 0 0 0 3578792.7627209127 -2237284.3642357439 0 -2237284.3642357439 -4098263.1027282998 0 0 0 0 -60282430.388748169 100244814.14146423 0 100244814.14146423 -52480011.174154282 0 0 0 0 -63762874.723709106 90586809.738376617 0 90586809.738376617 -47357764.360424042 0 0 0 0 -67089978.176315308 90017809.377382278 0 90017809.377382278 -47442942.3797369 0 0 0 0 -55515010.117172241 85331672.058654785 0 85331672.058654785 -55610462.306175232 0 0 0 0 -41384265.694683075 101172659.70141506 0 101172659.70141506 -54389795.348079681 0 0 0 0 -12705681.709625244 88896768.204368591 0 88896768.204368591 -84181206.966080666 0 0 0 0 -15285688.895576477 84053587.184438467 0 84053587.184438467 25309.978614807129 0 0 0 0 12295731.969337463 33827318.616672516 0 33827318.616672516 -78608423.550647736 0 0 0 0 54189921.435409546 70194068.927576065 0 70194068.927576065 -99481882.281877518 0 0 0 0 -69779950.664451599 155563091.7220192 0 155563091.7220192 -144444832.24699783 0 0 0 0 293952353.24990845 108693458.22967529 0 108693458.22967529 -153038232.72231531 0 0 0 0 30842285.168380737 9900582.4495563507 0 9900582.4495563507 -103828677.21607018 0 0 0 0 -14507771.700958252 -32628099.131742954 0 -32628099.131742954 -73911592.427337646 0 0 0 0 -12859852.877549291 5585215.3886021152 0 5585215.3886021152 -1799738.6104274094 0 0 0 0 -1183616.3510093689 1885212.0296125412 0 1885212.0296125412 -4347159.1295871735 0 0 0 0 22589456.201343536 16089643.527910233 0 16089643.527910233 -58037685.335700989 0 0 0 0 26570485.630554199 10646932.343700409 0 10646932.343700409 -74257562.012620449 0 0 0 0 19549801.928909302 25634024.749893188 0 25634024.749893188 -70157219.962774038 0 0 0 0 9557803.1311912537 25405927.270727634 0 25405927.270727634 -18882629.944479942 0 0 0 0 -35803.589368737034 56715471.709252521 0 56715471.709252521 22664307.98843956 0 0 0 0 47540.311859130859 62621113.136075974 0 62621113.136075974 -63932165.389650345 0 0 0 0 -2219692.7553639114 58471.966582670808 0 58471.966582670808 1805645.2370430827 0 0 0 0 41846208.712211609 26840926.602500916 0 26840926.602500916 -129509190.81446648 0 0 0 0 23076046.563495636 9409612.4346699715 0 9409612.4346699715 -25416312.957595825 0 0 0 0 43758546.724777222 15095737.695331573 0 15095737.695331573 -66860521.112914562 0 0 0 0 -2059157.4874484837 75841.873309344053 0 75841.873309344053 1651437.8488023877 0 0 0 0 36726479.073013306 22653973.143060684 0 22653973.143060684 -93188498.33261013 0 0 0 0 14075.189796447754 44155231.102913857 0 44155231.102913857 34962028.767456055 0 0 0 0 26455393.655382156 7098907.688287735 0 7098907.688287735 -14761025.904476166 0 0 0 0 -15678982.472473145 74313625.558099747 0 74313625.558099747 -24026534.572013855 0 0 0 0 1645996.6945343018 102890739.12096786 0 102890739.12096786 -48576637.223213196 0 0 0 0 4008264.6227264404 66833072.766331673 0 66833072.766331673 1025303.2354927063 0 0 0 0 13229258.930282593 56303317.578450203 0 56303317.578450203 -17739835.054789066 0 0 0 0 -20983588.054779053 189485183.82989597 0 189485183.82989597 -18956235.518564224 0 0 0 0 -24276376.664428711 -64503441.38961792 0 -64503441.38961792 -215799515.01251221 0 0 0 0 37356389.312942505 69433092.341306686 0 69433092.341306686 -67386580.584781647 0 0 0 0 18342494.828735352 12872911.92864418 0 12872911.92864418 -31006088.012469292 0 0 0 0 27948855.593933105 78358925.653432846 0 78358925.653432846 -70226413.490779877 0 0 0 0 25969935.499298096 20677909.095514297 0 20677909.095514297 -116507429.95975876 0 0 0 0 38708532.739471436 81775468.9792099 0 81775468.9792099 -153639700.61895943 0 0 0 0 40284914.308151245 137585840.51712608 0 137585840.51712608 -105374573.91040802 0 0 0 0 2798690.2528686523 139315701.11451149 0 139315701.11451149 -103153472.09439182 0 0 0 0 -83939.439865112305 106508211.9574337 0 106508211.9574337 -54005405.265555382 0 0 0 0 8833869.3613169491 2060624.3578504473 0 2060624.3578504473 -4264888.1435874701 0 0 0 0 -209733766.83796692 453548631.24822712 0 453548631.24822712 -686422051.8355453 0 0 0 0 -62414647.503105164 77938289.476108551 0 77938289.476108551 -57764684.980344296 0 0 0 0 -52858138.252281189 118852607.59281945 0 118852607.59281945 -3400307.2719287872 0 0 0 0 -16728021.924369812 52388255.368161201 0 52388255.368161201 -101121190.06046867 0 0 0 0 3629.9850427524962 81532063.194640785 0 81532063.194640785 -67070677.376096725 0 0 0 0 -316501607.87184143 608815800.18609715 0 608815800.18609715 -1320098495.2113149 0 0 0 0 -97735.352906707325 72707892.713828072 0 72707892.713828072 -115781674.67071533 0 0 0 0 4054484.3490839303 1028263.7356444672 0 1028263.7356444672 -3626499.6344548501 0 0 0 0 -3795095.0232851808 905956577.35522747 0 905956577.35522747 -1324395743.7470016 0 0 0 0 -48037872.770904541 399020667.98648262 0 399020667.98648262 -1819403512.4830837 0 0 0 0 -4750525.1348827183 1712428.6494188532 0 1712428.6494188532 -1980688.955006076 0 0 0 0 36800679.592803955 28693630.384051323 0 28693630.384051323 -1100295122.1069908 0 0 0 0 -145594702.55670166 359109087.32066536 0 359109087.32066536 -704160899.24677801 0 0 0 0 -358132613.12191963 556533153.86378002 0 556533153.86378002 -870016256.66093254 0 0 0 0 -133159902.7250452 268181571.62252432 0 268181571.62252432 -580064478.67321777 0 0 0 0 -75235025.720169067 127766456.53051758 0 127766456.53051758 -516832877.67869473 0 0 0 0 952840.9592628479 42863894.296809435 0 42863894.296809435 -289465610.26176071 0 0 0 0 33364948.916175842 102931093.51386738 0 102931093.51386738 -619606927.31645775 0 0 0 0 -63225406.962905884 298951571.25417805 0 298951571.25417805 -594163726.90212059 0 0 0 0 -9140138.9272460938 225639183.65602541 0 225639183.65602541 -558240621.26964951 0 0 0 0 6258059.9485321045 246318218.27982283 0 246318218.27982283 -600361627.46298027 0 0 0 0 -77771190.195129395 286109844.85278511 0 286109844.85278511 -574329830.43495131 0 0 0 0 -118659390.12313461 260617685.47530532 0 260617685.47530532 -466547170.80209923 0 0 0 0 -39168746.846366882 226552928.29101467 0 226552928.29101467 -483318647.81951332 0 0 0 0 -239580709.5410614 378181995.17795277 0 378181995.17795277 -572601091.23120749 0 0 0 0 -359773831.63343811 222077814.51825523 0 222077814.51825523 -8499766.6921604872 0 0 0 0 -4629061.4889001548 448212.21331385523 0 448212.21331385523 892463.39484440908 0 0 0 0 71501720.377288818 49089529.120498657 0 49089529.120498657 -294062129.51689076 0 0 0 0 -272732259.29307938 -242273742.57579207 0 -242273742.57579207 -105920660.65643692 0 0 0 0 43773934.123397827 241642754.74923801 0 241642754.74923801 -191844301.79627228 0 0 0 0 63048112.25169754 139337645.06792665 0 139337645.06792665 -289569137.46582413 0 0 0 0 14489173.505694926 3415663.4974884167 0 3415663.4974884167 -4210608.3980015554 0 0 0 0 -94173198.233566284 246202785.91870403 0 246202785.91870403 -464801043.04271775 0 0 0 0 -89469281.992767334 260425337.541888 0 260425337.541888 -452076582.26222992 0 0 0 0 -44854180.471626282 202272575.22128057 0 202272575.22128057 -470691890.07335472 0 0 0 0 -105177147.31877136 198758257.34832764 0 198758257.34832764 -250975930.52211031 0 0 0 0 -20894721.359832764 222652982.02863026 0 222652982.02863026 -523227780.80590248 0 0 0 0 -67467247.140182495 148435473.34913445 0 148435473.34913445 -324331819.86445808 0 0 0 0 -175574307.29029846 292766004.37740707 0 292766004.37740707 -474872251.56069374 0 0 0 0 -78714047.500106812 236182693.50773335 0 236182693.50773335 -507751325.38082314 0 0 0 0 -281403591.86170959 136867303.29485416 0 136867303.29485416 -551189289.19360352 0 0 0 0 -235611317.52514648 175087629.52305603 0 175087629.52305603 -523193412.98761559 0 0 0 0 -30642840.259632111 221753119.19302058 0 221753119.19302058 -680075432.85704422 0 0 0 0 -100356736.57473755 215191826.54810429 0 215191826.54810429 -457456843.55379105 0 0 0 0 -32481513.658462524 218236926.66595459 0 218236926.66595459 -576890453.1500473 0 0 0 0 -10427634.398529053 232580334.59158325 0 232580334.59158325 -571369263.07462502 0 0 0 0 -12601065.168701172 249517439.94896126 0 249517439.94896126 -579292649.90625811 0 0 0 0 -30009738.546386719 213678444.03810978 0 213678444.03810978 -586040270.17879868 0 0 0 0 -74135747.950164795 258708149.59465504 0 258708149.59465504 -489084783.16423988 0 0 0 0 -71028890.357284546 232723001.32789898 0 232723001.32789898 -497980404.66294098 0 0 0 0 -17705190.226730347 248867194.4781189 0 248867194.4781189 -515606237.92233849 0 0 0 0 -61371148.133804321 154693920.43730545 0 154693920.43730545 -267500422.69263458 0 0 0 0 -29702791.959640503 72184441.528747559 0 72184441.528747559 -187653742.06444168 0 0 0 0 -3408597.7205505371 153229120.93836403 0 153229120.93836403 -526635045.12244248 0 0 0 0 -121486244.02432251 180526021.97705269 0 180526021.97705269 -229046258.1127224 0 0 0 0 -78127742.165786743 115751309.5795269 0 115751309.5795269 -190265058.54075623 0 0 0 0 74433510.088012695 11138477.45715332 0 11138477.45715332 -135923746.90914154 0 0 0 0 3366810.2049573585 647303.64758071303 0 647303.64758071303 -14114139.926590644 0 0 0 0 2856026.4319610596 -22883953.916714191 0 -22883953.916714191 -112414504.29727936 0 0 0 0 6818025.2993469238 -34579643.086522102 0 -34579643.086522102 -63684907.957653046 0 0 0 0 -136795646.49307251 100986328.56074333 0 100986328.56074333 -88122360.882633209 0 0 0 0 -176408847.77087402 276817320.44252968 0 276817320.44252968 -229847814.04067135 0 0 0 0 -360619360.72113037 121724521.60473633 0 121724521.60473633 102961718.07648468 0 0 0 0 -510920088.80879211 377078106.59524155 0 377078106.59524155 -170075855.79829788 0 0 0 0 -344653.13998847827 719427.51717075706 0 719427.51717075706 -2284610.7799603716 0 0 0 0 104840581.66316223 -203767329.66632748 0 -203767329.66632748 -399857369.94627571 0 0 0 0 -159934629.37864685 241843953.49487591 0 241843953.49487591 -275212389.11384964 0 0 0 0 -324755298.37661743 502348883.27057648 0 502348883.27057648 -475948504.82936764 0 0 0 0 -117868118.83811951 201319086.67547846 0 201319086.67547846 -946519335.29818344 0 0 0 0 -99689408.276733398 282987819.16584301 0 282987819.16584301 -586053895.24536514 0 0 0 0 -231414438.8483181 333485245.49448252 0 333485245.49448252 -534615819.50383949 0 0 0 0 -36124090.243419647 119589859.54376626 0 119589859.54376626 -212733498.94845581 0 0 0 0 67879924.033508301 119524909.12595367 0 119524909.12595367 -684065625.60388565 0 0 0 0 -133523256.15643311 -11319452.626294136 0 -11319452.626294136 -51033158.117135048 0 0 0 0 16488789.944418967 -7099907.423337318 0 -7099907.423337318 -18013848.053631581 0 0 0 0 5586471.4016279578 -1963185.9433811978 0 -1963185.9433811978 -5009371.1291970853 0 0 0 0 4896347.2105770111 -760863.19918447733 0 -760863.19918447733 -12005630.736764908 0 0 0 0 46040993.713218689 15502927.639922857 0 15502927.639922857 -68321226.22197926 0 0 0 0 29212744.851236343 -21222712.34843865 0 -21222712.34843865 -85267153.212561131 0 0 0 0 22692338.844858944 -20611191.362223804 0 -20611191.362223804 -202803.5911922683 0 0 0 0 22880941.48500061 -10772536.01344943 0 -10772536.01344943 -89323984.968375221 0 0 0 0 3061657.1503999829 -3534595.6741304025 0 -3534595.6741304025 2662963.3152842075 0 0 0 0 -18668797.805570602 19954631.248602867 0 19954631.248602867 -213341879.51781368 0 0 0 0 34565940.630439758 121949959.29068375 0 121949959.29068375 -385941805.94748402 0 0 0 0 -127411577.39022827 260792485.51745272 0 260792485.51745272 -410876977.49741936 0 0 0 0 -83516528.70492363 137474517.43726778 0 137474517.43726778 -287417129.12995815 0 0 0 0 -91579617.183029175 172559927.62467098 0 172559927.62467098 -328137613.12117052 0 0 0 0 -163950938.09312439 311499095.90697813 0 311499095.90697813 -451941900.24048042 0 0 0 0 -66467485.109817505 242931293.35685539 0 242931293.35685539 -492424436.9954958 0 0 0 0 -273292492.96514893 470315464.1491971 0 470315464.1491971 -513080295.69612384 0 0 0 0 -108210473.3807373 256550889.95030642 0 256550889.95030642 -439154808.91038036 0 0 0 0 -196984308.20814514 249781727.01470137 0 249781727.01470137 -300586549.82172871 0 0 0 0 -95565288.96812439 296184369.41813135 0 296184369.41813135 -349081045.3311615 0 0 0 0 -167741164.32230377 393701038.70105207 0 393701038.70105207 74427020.80900383 0 0 0 0 -125495690.9815979 472653479.59296227 0 472653479.59296227 -335082102.34529591 0 0 0 0 -151101287.60939789 291054380.10402298 0 291054380.10402298 805869098.0085392 0 0 0 0 -5697007.1899642944 240854532.39429379 0 240854532.39429379 -1058196939.8567724 0 0 0 0 -2174013.3404408693 632326.40992879868 0 632326.40992879868 -118032.29201944731 0 0 0 0 85685457.609619141 112315129.60653114 0 112315129.60653114 366813104.29859066 0 0 0 0 -191425796.84815216 456212222.0896492 0 456212222.0896492 367624039.85315228 0 0 0 0 40806598.582205296 139352158.78466573 0 139352158.78466573 155608017.01080132 0 0 0 0 39973004.39206481 175443941.59964988 0 175443941.59964988 318064480.01523209 0 0 0 0 -62774008.857269287 201111998.10854483 0 201111998.10854483 130643706.13756108 0 0 0 0 -43441288.432170868 281301743.32940441 0 281301743.32940441 2178855.8939180374 0 0 0 0 -33019238.973232269 321285053.09456623 0 321285053.09456623 233399335.48033404 0 0 0 0 -19347054.591178894 157546764.7603938 0 157546764.7603938 322332523.68386793 0 0 0 0 108893712.29622269 212975150.36880159 0 212975150.36880159 7245989.2045714855 0 0 0 0 111650305.34968567 230146337.35877886 0 230146337.35877886 112251302.37491156 0 0 0 0 134347260.40761566 15197084.610840857 0 15197084.610840857 -369075733.70954716 0 0 0 0 6615759.8492546082 340685646.54002249 0 340685646.54002249 699083517.48660374 0 0 0 0 2337060.1237223148 952507.63710375689 0 952507.63710375689 332268.00678446854 0 0 0 0 4314782.5980851948 2834814.5143455639 0 2834814.5143455639 435408.16364528332 0 0 0 0 -58964363.54499054 202385587.5157856 0 202385587.5157856 139388622.68258238 0 0 0 0 73048679.003684998 181926515.62985122 0 181926515.62985122 -49475675.705830097 0 0 0 0 61985470.563827515 153477666.90866613 0 153477666.90866613 145662589.87801507 0 0 0 0 -31606124.505664825 135337700.56358004 0 135337700.56358004 298889582.5007658 0 0 0 0 -24348772.732574463 34470802.470198631 0 34470802.470198631 644532043.23543358 0 0 0 0 138521939.81736755 83234289.456045151 0 83234289.456045151 43109736.231247902 0 0 0 0 116052274.44239807 273139129.18497753 0 273139129.18497753 292917134.58276224 0 0 0 0 37764117.114624023 42215417.211618662 0 42215417.211618662 349874060.89235783 0 0 0 0 -2707891.7213239372 6224912.6453907378 0 6224912.6453907378 -1315382.3016795227 0 0 0 0 167372788.88800049 286590299.78087521 0 286590299.78087521 409280643.37363338 0 0 0 0 -54148226.66255188 159878206.60183096 0 159878206.60183096 -290962762.17412281 0 0 0 0 -3739059.7403932512 3185464.6305419207 0 3185464.6305419207 -550419.55382475816 0 0 0 0 79953949.190216064 247593760.18428612 0 247593760.18428612 501203011.74908614 0 0 0 0 18738207.261623383 109439525.69123161 0 109439525.69123161 -382114871.58097076 0 0 0 0 -23349757.327285022 5704641.2502346784 0 5704641.2502346784 585462.15380426403 0 0 0 0 18003022.888648033 9235648.1075668037 0 9235648.1075668037 -2901383.3218904268 0 0 0 0 -47542558.233718872 60105099.984247684 0 60105099.984247684 -250837120.63011655 0 0 0 0 -67311.378723144531 134667676.43850231 0 134667676.43850231 -354258101.53857136 0 0 0 0 39354638.652641296 88332154.041929483 0 88332154.041929483 31413793.491413832 0 0 0 0 40652296.04094696 87430359.733550787 0 87430359.733550787 26269434.922478437 0 0 0 0 -217906176.40448761 -29358798.440996647 0 -29358798.440996647 165937901.5084343 0 0 0 0 -151091816.42776871 -145070963.24881148 0 -145070963.24881148 24754019.466403961 0 0 0 0 -112749170.98551941 -62638088.293268204 0 -62638088.293268204 60713893.933263779 0 0 0 0 -9034234.7828165293 198994.17584523931 0 198994.17584523931 336209.68311254261 0 0 0 0 -142760522.44187927 32958867.468299627 0 32958867.468299627 191876577.54119468 0 0 0 0 77880942.549861908 140842279.71161395 0 140842279.71161395 -125553218.38146329 0 0 0 0 -40560983.29983902 162423202.8776418 0 162423202.8776418 309650868.95401073 0 0 0 0 6462913.4502105713 126514415.13426495 0 126514415.13426495 155601665.80732965 0 0 0 0 24510388.066520691 108421600.99902451 0 108421600.99902451 152223845.62768435 0 0 0 0 11922867.432876587 258794012.06123343 0 258794012.06123343 41684909.124562025 0 0 0 0 291787822.52185059 219515740.803123 0 219515740.803123 -483643484.96828425 0 0 0 0 195471147.23626709 67679232.473870218 0 67679232.473870218 -383508768.34658718 0 0 0 0 -62090027.061599731 47064625.805659533 0 47064625.805659533 -5166725.4406039119 0 0 0 0 2154451.2009750903 882364.28707202524 0 882364.28707202524 157648.19109010336 0 0 0 0 -62023946.618598938 60381410.24494952 0 60381410.24494952 357636674.27935314 0 0 0 0 -88112479.681671143 301993769.72496694 0 301993769.72496694 620503755.9150126 0 0 0 0 263429005.89491272 -66218202.407884479 0 -66218202.407884479 287759807.15325761 0 0 0 0 -1801695.3302007467 6288701.526552543 0 6288701.526552543 -7076818.9034553105 0 0 0 0 287897660.53105164 126936077.16897154 0 126936077.16897154 230228364.6337142 0 0 0 0 119292424.43255615 257621069.3117992 0 257621069.3117992 -156929059.05853194 0 0 0 0 302946733.13066101 154749905.8417438 0 154749905.8417438 -244747770.36029461 0 0 0 0 186647809.60359192 159249911.94830227 0 159249911.94830227 -48046669.250267327 0 0 0 0 301682850.33847809 193437848.42245841 0 193437848.42245841 -75754246.44671002 0 0 0 0 -1443995.4149014652 5219071.9443839937 0 5219071.9443839937 -4406546.8548272289 0 0 0 0 -15463.793243408203 8917094.0905106068 0 8917094.0905106068 -4665090.2930397987 0 0 0 0 2088.484733581543 11141090.352581978 0 11141090.352581978 -5006139.8310370445 0 0 0 0 6029445.0036048889 11411027.526116371 0 11411027.526116371 -6946417.8527545929 0 0 0 0 4622116.9097442627 9484018.330321312 0 9484018.330321312 -4845891.1040451527 0 0 0 0 2739112.6824188232 13439733.959511995 0 13439733.959511995 -6897581.8256416321 0 0 0 0 -75663450.293045044 502368225.23455787 0 502368225.23455787 164309067.78802288 0 0 0 0 -688865246.31286621 -330447438.96190429 0 -330447438.96190429 563062600.69826031 0 0 0 0 -43756886.12411499 39668260.010233879 0 39668260.010233879 79484140.403121948 0 0 0 0 17398036.305206299 194146593.92791748 0 194146593.92791748 -119661851.77275467 0 0 0 0 -356372349.46496582 675043381.97622108 0 675043381.97622108 -659721040.6476078 0 0 0 0 -37025007.154312134 -53702488.763666153 0 -53702488.763666153 39897183.325462341 0 0 0 0 61032001.369567871 127125903.18413258 0 127125903.18413258 -81065087.509246826 0 0 0 0 -3248288.834135592 7253236.2667904496 0 7253236.2667904496 -5212382.8446142245 0 0 0 0 -56087566.122070312 -11618837.355621338 0 -11618837.355621338 102853052.19821978 0 0 0 0 34197882.818344116 -17484814.673419952 0 -17484814.673419952 39100731.855854988 0 0 0 0 -85289962.60874176 39578454.328855038 0 39578454.328855038 13609004.07925415 0 0 0 0 -856014.48823463917 1347737.1604927033 0 1347737.1604927033 606856.60296953842 0 0 0 0 24854311.490783691 11299232.230639458 0 11299232.230639458 30586497.52252388 0 0 0 0 137773838.29638672 65134337.470760345 0 65134337.470760345 -9419990.0861740112 0 0 0 0 76251.565803527832 84263490.375377655 0 84263490.375377655 21486847.104106903 0 0 0 0 -998714.0307174325 -1115956.0174117908 0 -1115956.0174117908 1055289.0970113818 0 0 0 0 8680511.1732177734 3319263.8852133751 0 3319263.8852133751 -21712236.359397888 0 0 0 0 -12257364.605522156 74471575.139195442 0 74471575.139195442 74922312.091559887 0 0 0 0 232024663.68684006 16557246.40559905 0 16557246.40559905 -107445125.23731929 0 0 0 0 -70938550.664337158 128248880.51168752 0 128248880.51168752 -211969427.75432646 0 0 0 0 276527883.70585632 19846836.710697651 0 19846836.710697651 -227131919.62122941 0 0 0 0 376972066.74160004 -145379218.80309477 0 -145379218.80309477 -138298482.75174472 0 0 0 0 356734384.63249207 -1748396.9139434099 0 -1748396.9139434099 -202495196.25062233 0 0 0 0 378411373.02677917 -122660865.05448198 0 -122660865.05448198 -31813173.719877303 0 0 0 0 331555419.41976929 143986688.32702816 0 143986688.32702816 -30213174.407190919 0 0 0 0 250917913.19379044 204347245.27498984 0 204347245.27498984 -209871945.56716871 0 0 0 0 160613572.27922058 44512705.521626949 0 44512705.521626949 -86530702.352540493 0 0 0 0 81340963.11932373 350420586.83068097 0 350420586.83068097 -98169589.286178172 0 0 0 0 102409362.89575958 357474252.87770736 0 357474252.87770736 -129702641.49470845 0 0 0 0 203787684.37219238 235505196.73082566 0 235505196.73082566 -26105734.721479535 0 0 0 0 82180051.319244385 387768116.78185701 0 387768116.78185701 29460223.47094512 0 0 0 0 133035565.60720062 349747108.74277097 0 349747108.74277097 -296440462.57550097 0 0 0 0 -22610462.787597656 393740415.53708696 0 393740415.53708696 -130133765.57101858 0 0 0 0 -26555056.939910889 415499322.08077264 0 415499322.08077264 -289411418.45868456 0 0 0 0 -92767125.391677856 527382914.1490531 0 527382914.1490531 -430175895.31874132 0 0 0 0 10348031.752716064 127074343.61549497 0 127074343.61549497 -107611354.30162323 0 0 0 0 68208838.917922974 308285536.06965983 0 308285536.06965983 -256186330.34801912 0 0 0 0 -24092732.882217407 268634169.52431512 0 268634169.52431512 -270238878.95519972 0 0 0 0 2618778.3860588074 131831367.91596341 0 131831367.91596341 -436924896.34045172 0 0 0 0 -224701994.52252197 432095188.45415539 0 432095188.45415539 -375900149.10316133 0 0 0 0 -202722018.60293579 489758345.7618866 0 489758345.7618866 -967884485.32699108 0 0 0 0 -382826909.51963806 345498345.46706414 0 345498345.46706414 -430266732.58915615 0 0 0 0 -45811133.192979813 542773766.49919438 0 542773766.49919438 -425694346.72788715 0 0 0 0 -310031261.97384644 269722159.95324373 0 269722159.95324373 -554622790.56978011 0 0 0 0 -358974556.1647644 577016014.35738802 0 577016014.35738802 -391194278.55952668 0 0 0 0 -186671101.65510559 675349710.21895766 0 675349710.21895766 -419963146.15663528 0 0 0 0 447458186.0858345 -93723545.278179169 0 -93723545.278179169 -372856462.72664928 0 0 0 0 -274918999.05923462 360565802.29791594 0 360565802.29791594 -545700364.01882792 0 0 0 0 -2144456.1346256435 -831719.53540635109 0 -831719.53540635109 -3434762.8958663568 0 0 0 0 -1153198227.014328 965639884.22639334 0 965639884.22639334 -512399220.1307354 0 0 0 0 -778915291.77978516 902785310.03470421 0 902785310.03470421 -843624903.92864144 0 0 0 0 -354065776.59039307 463449645.08728671 0 463449645.08728671 -611440736.85376263 0 0 0 0 -1081457558.2849827 563864017.44098735 0 563864017.44098735 -360977689.31185961 0 0 0 0 -129665882.17637634 293261638.53859782 0 293261638.53859782 -491105563.06969953 0 0 0 0 -145197331.47136307 285665566.35525393 0 285665566.35525393 -303382242.118752 0 0 0 0 110757207.1071167 202388989.27820277 0 202388989.27820277 -439892929.30816674 0 0 0 0 -392318518.65291595 445534354.78660452 0 445534354.78660452 -486633920.58057451 0 0 0 0 -82818798.185211182 199113728.19643402 0 199113728.19643402 -554123890.59820628 0 0 0 0 197296998.98875427 73801294.431776881 0 73801294.431776881 -382409426.14360595 0 0 0 0 -119963615.60035324 190932220.66079837 0 190932220.66079837 -282542143.19924641 0 0 0 0 157911182.40402222 -38742619.524433851 0 -38742619.524433851 -146265239.21276879 0 0 0 0 305348028.22950745 81384667.898222327 0 81384667.898222327 -296488030.19215584 0 0 0 0 83668535.741363525 126861661.20536923 0 126861661.20536923 -160062828.79057312 0 0 0 0 245188768.25864601 211141979.77020496 0 211141979.77020496 -335838715.3674221 0 0 0 0 222185533.61940193 133242186.83712268 0 133242186.83712268 -30225609.519864559 0 0 0 0 470361868.57225037 29378764.333627462 0 29378764.333627462 -195442712.70099854 0 0 0 0 475594817.70492554 60573002.836473703 0 60573002.836473703 -40318263.43284893 0 0 0 0 659272452.09750366 -91867396.715592861 0 -91867396.715592861 36762522.273861885 0 0 0 0 748900513.07681274 82157031.902686596 0 82157031.902686596 -94511193.995046854 0 0 0 0 394181374.7265358 145912687.71447438 0 145912687.71447438 16650577.095658302 0 0 0 0 1044468633.4923553 38128381.899066329 0 38128381.899066329 -137123365.68028212 0 0 0 0 1267583218.1230469 -139526191.07785225 0 -139526191.07785225 -949443.20634078979 0 0 0 0 766070503.73592377 152006682.56088954 0 152006682.56088954 154397529.43473721 0 0 0 0 3306646.7863011211 -4980380.5404529274 0 -4980380.5404529274 546949.05413684156 0 0 0 0 -51099322.177520752 -73409044.803226173 0 -73409044.803226173 -61820651.269349575 0 0 0 0 533673.22695586085 1060383.5358447004 0 1060383.5358447004 -2566662.8554542572 0 0 0 0 656229857.62341309 -56590050.00394702 0 -56590050.00394702 209027776.07572675 0 0 0 0 1219444896.8880615 212531696.79005599 0 212531696.79005599 7157350.4863963723 0 0 0 0 3040037.1468691248 6582046.7073868066 0 6582046.7073868066 -32945835.522254191 0 0 0 0 850119047.43675232 -15935002.328068316 0 -15935002.328068316 -115859702.73306239 0 0 0 0 755062783.42453766 67741609.202644765 0 67741609.202644765 -94869121.576103687 0 0 0 0 92409957.354705811 -27492145.950366974 0 -27492145.950366974 -78544254.265480042 0 0 0 0 374048931.9611187 -118547013.77580819 0 -118547013.77580819 -70176793.114267111 0 0 0 0 304679320.07524359 -21693025.206704184 0 -21693025.206704184 -73155602.911135674 0 0 0 0 492300012.57894897 12712490.357927561 0 12712490.357927561 -161363869.82669401 0 0 0 0 590280436.32186127 -122142806.14615571 0 -122142806.14615571 -81619662.378912926 0 0 0 0 25874980.555679321 -26529030.369837046 0 -26529030.369837046 -90394701.444486588 0 0 0 0 27082029.52192688 -47030389.696762085 0 -47030389.696762085 -58141223.755975068 0 0 0 0 21161848.194592029 -20414643.029467829 0 -20414643.029467829 927815.35721321125 0 0 0 0 38955356.253601074 -27553977.120585442 0 -27553977.120585442 -20356626.195106387 0 0 0 0 25986120.347833037 -31566451.974355616 0 -31566451.974355616 -83810168.921882391 0 0 0 0 10926822.660614014 -34926781.814294815 0 -34926781.814294815 23396634.388256192 0 0 0 0 17847004.055686951 -57354435.602209568 0 -57354435.602209568 -57948329.895982742 0 0 0 0 -62722034.351768494 146441927.41946363 0 146441927.41946363 -296919486.0581274 0 0 0 0 -18988715.313827515 50068202.229275942 0 50068202.229275942 -104411424.73512554 0 0 0 0 8463380.749206543 53144733.244877815 0 53144733.244877815 -144487096.78285933 0 0 0 0 76980477.447853088 80883160.00165844 0 80883160.00165844 -137505134.58073092 0 0 0 0 25623551.025163651 -6985928.4026774168 0 -6985928.4026774168 -428971.20364189148 0 0 0 0 -61018837.391914368 83874741.271630287 0 83874741.271630287 -11943783.391123295 0 0 0 0 -111204703.94294739 230697913.75665021 0 230697913.75665021 -219960408.33541918 0 0 0 0 -86725305.527004242 258624845.27834249 0 258624845.27834249 -190163872.28127193 0 0 0 0 523189699.69856262 -95119575.765030652 0 -95119575.765030652 -130561796.97527131 0 0 0 0 591137163.65752316 -71700536.490864769 0 -71700536.490864769 -75838583.700722188 0 0 0 0 -296526.59745714627 6917438.8564089537 0 6917438.8564089537 -23987895.122179274 0 0 0 0 523367489.77838898 -67450285.616945446 0 -67450285.616945446 -3398822.9264477491 0 0 0 0 450604329.17362976 -70403548.800063848 0 -70403548.800063848 -29970354.884237707 0 0 0 0 447238588.65982819 -108638789.60477465 0 -108638789.60477465 -31019924.92331928 0 0 0 0 376581648.15336609 -122687347.3334398 0 -122687347.3334398 -30484987.453849852 0 0 0 0 -393990.70704291947 4734030.5870054066 0 4734030.5870054066 -13138608.231350755 0 0 0 0 301581536.68234253 -73285963.641388237 0 -73285963.641388237 78527748.064527154 0 0 0 0 356154455.16159821 37546488.57772547 0 37546488.57772547 -38961636.917947054 0 0 0 0 355686194.07000732 180022590.38378084 0 180022590.38378084 221874052.47646809 0 0 0 0 -595344.45671182871 2238807.9091805816 0 2238807.9091805816 -3683785.9006698355 0 0 0 0 361715123.66691208 -36672615.129147172 0 -36672615.129147172 321638139.50521302 0 0 0 0 402942628.07492447 -7604544.7787175179 0 -7604544.7787175179 180520133.40879202 0 0 0 0 -162588680.36621094 366813039.97552705 0 366813039.97552705 -162971314.10488719 0 0 0 0 -230406250.66813993 199158229.70680025 0 199158229.70680025 -89176785.660549641 0 0 0 0 -974496370.18494415 238234332.68948841 0 238234332.68948841 199620689.78110695 0 0 0 0 -382717135.15769958 159565975.56119084 0 159565975.56119084 -73419156.415302992 0 0 0 0 -277868764.49147797 405182540.64375287 0 405182540.64375287 23175711.209387302 0 0 0 0 -149543571.09757996 245962719.3598187 0 245962719.3598187 186456997.20304024 0 0 0 0 -133016558.56762695 278741615.32919133 0 278741615.32919133 -60020249.087714702 0 0 0 0 -496067220.87545013 469579227.7218256 0 469579227.7218256 121286425.04448342 0 0 0 0 -100948006.91288757 270028906.76978636 0 270028906.76978636 184727851.34435582 0 0 0 0 -301167917.52197266 370041076.73196089 0 370041076.73196089 535233939.09764409 0 0 0 0 -192496786.17844391 257822772.23400867 0 257822772.23400867 492718486.06153202 0 0 0 0 261250670.5760994 82487838.497892141 0 82487838.497892141 622848151.69831729 0 0 0 0 237279402.1370697 189952915.01175213 0 189952915.01175213 276801837.99519885 0 0 0 0 214576166.99724579 296991617.76144278 0 296991617.76144278 444601870.69031382 0 0 0 0 272986582.97058105 223508193.88637024 0 223508193.88637024 222037773.70376778 0 0 0 0 -13638452.998538971 669388660.66433799 0 669388660.66433799 297325401.55766821 0 0 0 0 58400956.776649475 476158977.67284673 0 476158977.67284673 809173251.1011982 0 0 0 0 19278950.257249355 466719292.55200416 0 466719292.55200416 1043327673.476501 0 0 0 0 311710319.65111542 400627550.37990773 0 400627550.37990773 800912465.67487192 0 0 0 0 427446579.89230347 122615165.41454077 0 122615165.41454077 1468692012.313107 0 0 0 0 548206392.0393219 747362199.60824907 0 747362199.60824907 1003701819.2180696 0 0 0 0 746932972.44921875 267710049.54874754 0 267710049.54874754 1170603682.2174821 0 0 0 0 601505995.2649231 56544597.930633307 0 56544597.930633307 612147581.17877007 0 0 0 0 688511148.39195251 -205929939.17598128 0 -205929939.17598128 1295152743.8386364 0 0 0 0 281492918.92062378 86805595.259708166 0 86805595.259708166 1096992745.4437823 0 0 0 0 449758774.25524902 -117316874.00561678 0 -117316874.00561678 355883181.27900445 0 0 0 0 461167534.14244843 2300829.3515956402 0 2300829.3515956402 353700912.10497642 0 0 0 0 602556802.98033142 -200928262.35031319 0 -200928262.35031319 619418668.4182415 0 0 0 0 737429437.07056427 104170947.83612865 0 104170947.83612865 360880549.68945503 0 0 0 0 633781369.84144592 -26161434.004909515 0 -26161434.004909515 261802927.87837315 0 0 0 0 515623256.67388868 105714952.19431658 0 105714952.19431658 128622821.03866339 0 0 0 0 520110251.51116896 -164904342.7467922 0 -164904342.7467922 214451378.14280891 0 0 0 0 429619498.33718109 -31297054.752083421 0 -31297054.752083421 69153697.941837668 0 0 0 0 422794125.18269348 -168068978.59935027 0 -168068978.59935027 92325017.503305912 0 0 0 0 221134673.66172791 430251737.03565264 0 430251737.03565264 304231434.48748589 0 0 0 0 366473179.46876526 299154720.15112448 0 299154720.15112448 165038989.81552613 0 0 0 0 217230357.45591736 393490171.71102715 0 393490171.71102715 187954417.83419752 0 0 0 0 66714491.126914978 410634358.00239789 0 410634358.00239789 191186719.89156151 0 0 0 0 203711432.17737579 335512585.96622705 0 335512585.96622705 163356783.38349771 0 0 0 0 224105056.5572052 323822229.05229008 0 323822229.05229008 41056907.104313612 0 0 0 0 354228010.4821167 291881595.86576009 0 291881595.86576009 -5219578.4403496981 0 0 0 0 482605652.33039856 22482372.591161728 0 22482372.591161728 29500347.534839272 0 0 0 0 274760871.70823669 215916578.26329732 0 215916578.26329732 133122093.19799471 0 0 0 0 350668149.0042572 329147495.19502449 0 329147495.19502449 320353747.02074766 0 0 0 0 557955532.70858765 163221525.66790247 0 163221525.66790247 142114894.73478067 0 0 0 0 576566435.43649292 273616527.14139581 0 273616527.14139581 320950177.89863968 0 0 0 0 582766361.85038757 222985719.83831954 0 222985719.83831954 250345186.17026186 0 0 0 0 798721588.20240784 76235597.325180054 0 76235597.325180054 348366698.51457119 0 0 0 0 680021195.28694153 43236463.477334738 0 43236463.477334738 604986793.1828537 0 0 0 0 668172382.09169769 412336708.24788451 0 412336708.24788451 529334843.97757149 0 0 0 0 487608158.52159119 541570089.4635582 0 541570089.4635582 507422517.59121704 0 0 0 0 254762534.78292847 538399039.77468109 0 538399039.77468109 691097861.19076443 0 0 0 0 348468642.93714905 369703390.60994935 0 369703390.60994935 317462743.12753963 0 0 0 0 163235577.39468765 443648995.35962778 0 443648995.35962778 409501750.5149765 0 0 0 0 162146575.12359619 456869033.34822559 0 456869033.34822559 620309497.60898018 0 0 0 0 582775437.67798615 713206992.60096359 0 713206992.60096359 1112862022.2800446 0 0 0 0 468893667.33001709 469641514.05430174 0 469641514.05430174 676634621.80641794 0 0 0 0 71651351.297119141 447368797.28637075 0 447368797.28637075 1128653410.9366837 0 0 0 0 1221031417.2606354 30348989.329931736 0 30348989.329931736 605293373.96922731 0 0 0 0 1110683915.9649811 313947328.90056038 0 313947328.90056038 551188340.81491876 0 0 0 0 2037450935.102356 -73519268.390909195 0 -73519268.390909195 889067414.83099091 0 0 0 0 955673995.53362274 202680687.69971275 0 202680687.69971275 851254300.46150684 0 0 0 0 -198178462.6180191 321151660.67332172 0 321151660.67332172 1622877982.7462521 0 0 0 0 848638214.42251587 -161613165.89600253 0 -161613165.89600253 2611735571.0497837 0 0 0 0 914815802.33527374 881873332.13267994 0 881873332.13267994 1905264465.5098763 0 0 0 0 1818287289.8889771 1077851282.1356335 0 1077851282.1356335 1451434275.8870163 0 0 0 0 -11442740.770812988 405676944.82443714 0 405676944.82443714 1416618091.3465996 0 0 0 0 479203334.68078613 282191080.04964876 0 282191080.04964876 1232601044.1459939 0 0 0 0 442568965.88799286 426568192.48256016 0 426568192.48256016 989317826.64621735 0 0 0 0 -143727025.9357605 -168880701.82420731 0 -168880701.82420731 1395006660.6084709 0 0 0 0 -71886764.168945312 -30186760.82072258 0 -30186760.82072258 821536510.57062244 0 0 0 0 -218464833.50708008 131667801.54327393 0 131667801.54327393 993798137.89291668 0 0 0 0 -115996844.60219574 -122586715.56295061 0 -122586715.56295061 787738253.21465683 0 0 0 0 -69147973.728820801 158977028.74469268 0 158977028.74469268 894563679.51198959 0 0 0 0 -259162050.51179504 278705831.66217327 0 278705831.66217327 761048851.34995246 0 0 0 0 -202101843.15221405 122214811.55115223 0 122214811.55115223 675989346.18736649 0 0 0 0 -291333527.272686 166317945.14081192 0 166317945.14081192 573738828.17348003 0 0 0 0 -279020888.02485657 164209345.04922199 0 164209345.04922199 536963376.46256876 0 0 0 0 -334533038.34601974 270706021.27730989 0 270706021.27730989 579601038.73382282 0 0 0 0 -281539127.67661285 93145354.121832848 0 93145354.121832848 736704915.42625809 0 0 0 0 -312431194.7820816 219153503.53492069 0 219153503.53492069 695587077.53585148 0 0 0 0 -327560241.92355347 347693390.93853617 0 347693390.93853617 661866223.14935017 0 0 0 0 -283849839.55625916 371233031.21209145 0 371233031.21209145 670201720.89619541 0 0 0 0 -204819356.78859711 331174157.45342803 0 331174157.45342803 617872447.26044846 0 0 0 0 -153897524.04644775 433595613.98202181 0 433595613.98202181 823251526.9446137 0 0 0 0 -67795183.032806396 341267772.04417658 0 341267772.04417658 736012363.66563988 0 0 0 0 72038563.403417587 443303548.04448122 0 443303548.04448122 784636331.44845581 0 0 0 0 -160596158.95503235 351964616.83215332 0 351964616.83215332 1073134181.0876036 0 0 0 0 -200618151.02196503 237555565.0128274 0 237555565.0128274 756338983.22464752 0 0 0 0 -88606975.961463928 332554464.05724639 0 332554464.05724639 431852006.25588036 0 0 0 0 -249674504.44084167 347256371.59211349 0 347256371.59211349 431307337.9366622 0 0 0 0 -371498395.4017868 265129734.78840065 0 265129734.78840065 602187021.88392353 0 0 0 0 -384069652.97303772 347623722.77249718 0 347623722.77249718 554923572.17762756 0 0 0 0 -324685349.17442322 350348717.32561374 0 350348717.32561374 508501237.83695936 0 0 0 0 -315329144.54673004 410978759.3760705 0 410978759.3760705 602392511.73442841 0 0 0 0 -160224306.71430206 418412823.72040558 0 418412823.72040558 483346555.90393925 0 0 0 0 -161815880.32161689 459876535.85513318 0 459876535.85513318 385169803.28823662 0 0 0 0 -377419344.26382065 595167036.84798026 0 595167036.84798026 679040771.63873672 0 0 0 0 -519653262.9919281 279794592.34537077 0 279794592.34537077 560573812.87413061 0 0 0 0 -336556368.35249329 431251124.79821575 0 431251124.79821575 283576277.55608112 0 0 0 0 -338418124.86616516 308164766.43708062 0 308164766.43708062 271676471.44275141 0 0 0 0 -362535640.08885193 331390387.49338579 0 331390387.49338579 499029551.44671059 0 0 0 0 -293734890.24669647 401976540.85769916 0 401976540.85769916 174940620.75642633 0 0 0 0 -291424175.45791626 515294618.35267663 0 515294618.35267663 123479859.18857574 0 0 0 0 -252985247.31065369 458629737.76396269 0 458629737.76396269 19490064.38572149 0 0 0 0 -266361728.01574707 473493112.00101483 0 473493112.00101483 76614685.08950825 0 0 0 0 -357016081.33346832 310072447.04293352 0 310072447.04293352 -5781272.3580622673 0 0 0 0 -358040712.02650452 334448788.58241689 0 334448788.58241689 93414839.780813217 0 0 0 0 -136108062.64300537 467667420.40555727 0 467667420.40555727 456786426.12415504 0 0 0 0 -120752740.2223053 475863643.67812467 0 475863643.67812467 314073333.67936373 0 0 0 0 -22976330.509132385 523364773.93913841 0 523364773.93913841 690612181.15999031 0 0 0 0 -71844197.374252319 409849533.71453094 0 409849533.71453094 427439462.3901875 0 0 0 0 -209362584.3451004 448827697.77615333 0 448827697.77615333 691547739.70084858 0 0 0 0 -229184792.28540802 370987468.14297175 0 370987468.14297175 461234297.62792873 0 0 0 0 -244134501.97927856 411197142.04979444 0 411197142.04979444 346554758.33285713 0 0 0 0 -284137731.39283752 427704338.9972043 0 427704338.9972043 504890938.83273411 0 0 0 0 -221019975.85433006 417695390.08259583 0 417695390.08259583 280960099.25359678 0 0 0 0 -215712853.74395752 501142338.94634128 0 501142338.94634128 189231864.33060837 0 0 0 0 -318086874.20075989 429440562.55575466 0 429440562.55575466 359344339.85127664 0 0 0 0 -300601624.37115479 533099068.30772543 0 533099068.30772543 77192458.902856767 0 0 0 0 -260884090.49291229 439442617.74604398 0 439442617.74604398 131321972.0470531 0 0 0 0 -134239197.76939392 497967735.88266945 0 497967735.88266945 129014592.29444647 0 0 0 0 -92485285.114345551 397491264.51251245 0 397491264.51251245 84240922.183189631 0 0 0 0 14496001.151824951 455923357.49050403 0 455923357.49050403 430561124.42877567 0 0 0 0 12426154.465660095 414827155.67137229 0 414827155.67137229 242096264.11499262 0 0 0 0 76860709.236465454 381210893.8642602 0 381210893.8642602 49609978.819317579 0 0 0 0 -68198559.774246216 468230403.68606699 0 468230403.68606699 246201694.93848902 0 0 0 0 -47366260.136352539 413371187.44218552 0 413371187.44218552 51515640.877595425 0 0 0 0 -29647654.390861511 401926143.21572554 0 401926143.21572554 -104508173.20141661 0 0 0 0 -160136449.55067444 450692215.57360202 0 450692215.57360202 72327357.339448795 0 0 0 0 -142452897.30935669 462958444.23656654 0 462958444.23656654 -49889266.886972219 0 0 0 0 -126556604.93006134 418509240.62694454 0 418509240.62694454 -262259729.71559906 0 0 0 0 2008454.3866882324 400930591.858392 0 400930591.858392 -323315675.60243082 0 0 0 0 -154178136.69091797 407838193.94332409 0 407838193.94332409 -104163813.66889015 0 0 0 0 -5211986.8092632294 518104487.6505897 0 518104487.6505897 -528695867.28954315 0 0 0 0 -70682170.223052979 405274147.40248752 0 405274147.40248752 -317024112.79562819 0 0 0 0 -61743383.921718597 401861002.08289707 0 401861002.08289707 -511337537.05790329 0 0 0 0 -306010897.76495361 387561911.81152987 0 387561911.81152987 -266684368.05038619 0 0 0 0 49482237.45489502 472639089.3361845 0 472639089.3361845 -735923890.50084782 0 0 0 0 -152052093.87042236 353962646.33235121 0 353962646.33235121 -533636343.01955366 0 0 0 0 -184610798.59926224 242653463.53571141 0 242653463.53571141 -756345055.07393551 0 0 0 0 -32629444.655639648 350025313.38254547 0 350025313.38254547 -759811867.02067494 0 0 0 0 -33398592.395019531 360493265.47558212 0 360493265.47558212 -845167527.51675415 0 0 0 0 52626016.279602051 521148858.64006519 0 521148858.64006519 -543301818.45342684 0 0 0 0 -460921903.16370773 434680944.19903088 0 434680944.19903088 -635371057.17544842 0 0 0 0 -516689708.68221664 591886231.43723917 0 591886231.43723917 -509144659.75823212 0 0 0 0 -218062144.24191284 553854434.97373676 0 553854434.97373676 -831605155.92329407 0 0 0 0 -283152469.36987305 545285469.82123375 0 545285469.82123375 -832702060.87311244 0 0 0 0 -1078767928.3105469 739264608.98396683 0 739264608.98396683 -736506424.4738214 0 0 0 0 -416670247.60998535 544834373.81392002 0 544834373.81392002 -534169661.84057951 0 0 0 0 -264425759.27832031 374419094.71811914 0 374419094.71811914 -401250509.16027194 0 0 0 0 -604572644.31286621 342424665.90677238 0 342424665.90677238 -402802633.61487436 0 0 0 0 -457885926.85856628 469219794.70483482 0 469219794.70483482 -217600965.75151634 0 0 0 0 -331312722.39364624 553688138.03988028 0 553688138.03988028 -344612504.92730951 0 0 0 0 -480720713.73802185 484595997.93235159 0 484595997.93235159 -368618654.10804987 0 0 0 0 -307595410.62843323 554476031.78653669 0 554476031.78653669 -504835811.18481636 0 0 0 0 -330018601.95143127 472231255.44732296 0 472231255.44732296 -229636355.48593044 0 0 0 0 -283227398.35571098 526201789.06688231 0 526201789.06688231 -123153514.7267766 0 0 0 0 -344164817.54281235 552609931.31911957 0 552609931.31911957 -130963551.34842181 0 0 0 0 -279857564.14700317 395684409.14300179 0 395684409.14300179 -80164771.494923145 0 0 0 0 -268989771.0549469 503638646.03493726 0 503638646.03493726 -127941740.08931141 0 0 0 0 -319926471.65771675 430492841.01375228 0 430492841.01375228 -208293746.21560431 0 0 0 0 -243127435.29792786 431206097.65971905 0 431206097.65971905 90682670.655906394 0 0 0 0 -213045701.25556946 488075484.59278643 0 488075484.59278643 12087500.747716308 0 0 0 0 -305287783.89500427 449299236.51841718 0 449299236.51841718 -474497.25696635246 0 0 0 0 -278216647.92555237 466577956.70898473 0 466577956.70898473 7487060.0700364113 0 0 0 0 -277629000.99835205 549358844.68423522 0 549358844.68423522 -53751590.864811122 0 0 0 0 -185894945.68380737 465309096.20618033 0 465309096.20618033 -148458460.31851721 0 0 0 0 -171577885.97423553 471183731.77403009 0 471183731.77403009 -223623218.0366416 0 0 0 0 -313299900.4793396 384289106.64800388 0 384289106.64800388 -73313312.749603868 0 0 0 0 -114269836.48654938 378848830.85986686 0 378848830.85986686 -77397505.254695296 0 0 0 0 27329807.030812263 76956634.333133206 0 76956634.333133206 5124901.5452489853 0 0 0 0 4923675.1035995483 284848703.78861189 0 284848703.78861189 -346670602.73852634 0 0 0 0 -41747711.463989258 231838015.91257763 0 231838015.91257763 -289625548.2609334 0 0 0 0 -258044922.46918488 562522074.87346494 0 562522074.87346494 -344244858.84527016 0 0 0 0 -103795501.02268982 459060954.23974037 0 459060954.23974037 -406031782.41119146 0 0 0 0 -261075719.31506348 546639258.18046236 0 546639258.18046236 -219729523.38304424 0 0 0 0 -318390451.53457642 539428017.158885 0 539428017.158885 -325067014.29688168 0 0 0 0 -119822733.28645325 412299142.02740955 0 412299142.02740955 -204826724.97520614 0 0 0 0 -163489180.82598877 537516310.45721579 0 537516310.45721579 -508110929.3304491 0 0 0 0 -218520975.7383728 513917968.05308437 0 513917968.05308437 -497776268.67005491 0 0 0 0 16438146.965942383 268251438.83426857 0 268251438.83426857 -664426437.80478859 0 0 0 0 128063371.94967651 210393362.43310452 0 210393362.43310452 -824290253.11076736 0 0 0 0 -126568676.61585999 560721510.50831413 0 560721510.50831413 -1203979524.4642162 0 0 0 0 -6390412.0821533203 314753679.55282593 0 314753679.55282593 -700846651.48908424 0 0 0 0 136451054.30674744 280033047.60533094 0 280033047.60533094 -1208027997.3508129 0 0 0 0 144255275.72171021 266535540.65102196 0 266535540.65102196 -1198582718.8174095 0 0 0 0 84786590.968426868 52053454.652256273 0 52053454.652256273 11201186.892472921 0 0 0 0 63734102.389709473 65705327.174245834 0 65705327.174245834 131363186.44826126 0 0 0 0 130899975.27987289 34789883.357671738 0 34789883.357671738 74065864.640205383 0 0 0 0 111486254.11486816 70844281.024078369 0 70844281.024078369 97293669.286376953 0 0 0 0 70701257.369195938 99164196.178215742 0 99164196.178215742 12057769.023757935 0 0 0 0 81280334.687461853 54953814.484391212 0 54953814.484391212 87933784.524024963 0 0 0 0 -18615687.041284561 113456868.70813036 0 113456868.70813036 66162144.929088593 0 0 0 0 68402464.771659851 95374497.978351593 0 95374497.978351593 46572314.721977234 0 0 0 0 47625429.368303299 202702075.44335651 0 202702075.44335651 43090107.132125854 0 0 0 0 85538633.379253387 20342005.372268677 0 20342005.372268677 81440957.006141663 0 0 0 0 38701490.522712708 61239487.545217514 0 61239487.545217514 99168300.292030334 0 0 0 0 61482924.163505554 66525032.775924683 0 66525032.775924683 57242489.122406006 0 0 0 0 50520663.272148132 28756548.155641556 0 28756548.155641556 137419889.2528286 0 0 0 0 109809424.22342491 -8660611.1328177452 0 -8660611.1328177452 95516067.400745392 0 0 0 0 162744738.03292847 -383787378.75675964 0 -383787378.75675964 -231023789.3014963 0 0 0 0 175374822.91131592 231132175.60288626 0 231132175.60288626 -159976446.05109489 0 0 0 0 -224807908.39744568 537363448.93381476 0 537363448.93381476 -128219411.19803715 0 0 0 0 7638286.0531114042 6269473.2259822488 0 6269473.2259822488 4378621.071064217 0 0 0 0 -205309818.86215973 688810256.90743184 0 688810256.90743184 -402825167.2586422 0 0 0 0 -3718584.267364502 972851616.02844286 0 972851616.02844286 -6345435.703240633 0 0 0 0 147081639.60153198 845148996.47151756 0 845148996.47151756 -459341389.23587728 0 0 0 0 -41522889.157958031 651466445.53975463 0 651466445.53975463 -631851492.64983177 0 0 0 0 579124580.16191101 1188840578.7478194 0 1188840578.7478194 -514913294.65507603 0 0 0 0 207584523.17518616 708319029.27309084 0 708319029.27309084 -1060592513.2877378 0 0 0 0 883190307.60877991 430052544.73652399 0 430052544.73652399 -1697650971.4615498 0 0 0 0 -871705680.3184967 -192255133.48668671 0 -192255133.48668671 -1013929507.1377935 0 0 0 0 64205689.028549351 66257253.995345846 0 66257253.995345846 58495956.54768832 0 0 0 0 -181911501.67472076 671352108.56376553 0 671352108.56376553 425592296.52809191 0 0 0 0 -944994003.62316895 -175037033.09092236 0 -175037033.09092236 -170302106.73325729 0 0 0 0 -469886627.70111084 850227288.55371571 0 850227288.55371571 -1306939232.2362499 0 0 0 0 -116433723.62237549 661005612.76489258 0 661005612.76489258 -1561638277.1235013 0 0 0 0 -11712588.691506058 20297050.051233873 0 20297050.051233873 21994591.115778286 0 0 0 0 470446586.00715637 -11963429.867185593 0 -11963429.867185593 437303403.70324135 0 0 0 0 427290342.23168945 364791968.976017 0 364791968.976017 116843510.40508652 0 0 0 0 93657486.552490234 -1100467981.9030571 0 -1100467981.9030571 -331738327.6067276 0 0 0 0 1261871110.3510437 450775.65949630737 0 450775.65949630737 -762375760.95022511 0 0 0 0 1414575802.2631683 353043073.70013046 0 353043073.70013046 -580697763.6146239 0 0 0 0 802489017.40991974 106347255.31031799 0 106347255.31031799 -292819879.98982239 0 0 0 0 857403056.82900238 30870926.874099731 0 30870926.874099731 -568511642.9439615 0 0 0 0 773812396.36542511 -294914539.49926949 0 -294914539.49926949 -709589982.14470243 0 0 0 0 443449088.52602386 -179462547.1452961 0 -179462547.1452961 -110576452.1529541 0 0 0 0 744343641.63882446 58384592.912769318 0 58384592.912769318 -240080241.1600647 0 0 0 0 708308568.09735489 -67316292.640771866 0 -67316292.640771866 -357198671.5654068 0 0 0 0 431340343.80045319 126059921.78483963 0 126059921.78483963 -286157622.86319733 0 0 0 0 1021404853.7579346 -58926097.885532379 0 -58926097.885532379 -355348190.00637817 0 0 0 0 1690742764.1731186 540581748.61419296 0 540581748.61419296 -386177055.77874756 0 0 0 0 826392051.78434706 332539336.28810722 0 332539336.28810722 -273279748.89047241 0 0 0 0 825467310.07221222 69052421.241897583 0 69052421.241897583 -252801515.07674599 0 0 0 0 181923405.68022537 770377282.75774956 0 770377282.75774956 -40938102.372047424 0 0 0 0 829605922.62661743 408192030.38638687 0 408192030.38638687 -367655826.67273712 0 0 0 0 1026171856.5400238 962062881.32243347 0 962062881.32243347 -299870764.12252808 0 0 0 0 1209372163.0094147 929487597.55031586 0 929487597.55031586 -294292533.14114571 0 0 0 0 1154464232.7986755 861022081.09468079 0 861022081.09468079 -372057233.00483704 0 0 0 0 2241223573.4739075 1211599364.8183365 0 1211599364.8183365 -266208270.97484589 0 0 0 0 9248939.5032571256 9094141.0893044528 0 9094141.0893044528 6113501.1131820232 0 0 0 0 325109774.6504364 617478750.61431122 0 617478750.61431122 41014185.347320557 0 0 0 0 -22923245.105377197 -259123116.91345215 0 -259123116.91345215 -823901751.67939758 0 0 0 0 435771358.12028885 1197995311.5117054 0 1197995311.5117054 -536202689.39994812 0 0 0 0 410335245.56747437 1269934753.5835247 0 1269934753.5835247 -155904348.28733826 0 0 0 0 827782489.06035614 1079286925.0407982 0 1079286925.0407982 -617264186.654953 0 0 0 0 984652483.93869019 1392205503.2510872 0 1392205503.2510872 2829868.9624633789 0 0 0 0 173190529.36804199 86447921.127540588 0 86447921.127540588 -1352400399.2427216 0 0 0 0 97710041.851921082 235253473.91205215 0 235253473.91205215 -74312464.513771057 0 0 0 0 147924915.3052597 320595727.02249908 0 320595727.02249908 -358106654.18275642 0 0 0 0 -182366524.43682289 1243960147.9207492 0 1243960147.9207492 64164428.460697174 0 0 0 0 157317503.19028473 200753885.38779449 0 200753885.38779449 -226684443.51239777 0 0 0 0 139137951.38405609 90742490.240352631 0 90742490.240352631 -6183098.4393310547 0 0 0 0 127189288.94083023 43622582.80929184 0 43622582.80929184 65293918.605421066 0 0 0 0 15418689.852338985 10770280.942791097 0 10770280.942791097 -9052747.2416239679 0 0 0 0 74948698.550745592 49190828.285220072 0 49190828.285220072 10492874.678253643 0 0 0 0 223272389.89015579 110040893.70530128 0 110040893.70530128 -103672070.45178986 0 0 0 0 576052043.58261108 1242537060.2319317 0 1242537060.2319317 -963104760.66597939 0 0 0 0 -810276432.87852097 77444969.031630516 0 77444969.031630516 545863648.8048315 0 0 0 0 256542985.02918243 104061866.98987579 0 104061866.98987579 77671043.250299454 0 0 0 0 98904528.888221741 117796381.79471207 0 117796381.79471207 249479479.77451324 0 0 0 0 51682036.120202944 14485685.047837593 0 14485685.047837593 3469530.3146090023 0 0 0 0 -1781591.80519104 158278395.23631781 0 158278395.23631781 -74652970.510485291 0 0 0 0 13857561.384155553 14548910.630706698 0 14548910.630706698 35776583.15207532 0 0 0 0 -537431038.49957275 260701252.22806954 0 260701252.22806954 42102845.538430929 0 0 0 0 -245734751.43922043 218147006.43207186 0 218147006.43207186 24497926.203561783 0 0 0 0 603429352.15683746 322629653.42306519 0 322629653.42306519 65119682.887545586 0 0 0 0 732745116.18343735 430601293.03067398 0 430601293.03067398 155132408.40976334 0 0 0 0 433396276.80751038 460480464.67870712 0 460480464.67870712 228992285.16594315 0 0 0 0 689167306.25650024 600816517.09733391 0 600816517.09733391 125749907.842906 0 0 0 0 606986767.28947449 541197157.70415783 0 541197157.70415783 180373737.97546768 0 0 0 0 741066875.47368622 702933084.9670949 0 702933084.9670949 309138827.91222382 0 0 0 0 529621733.46074295 633728318.05683899 0 633728318.05683899 369702487.30823898 0 0 0 0 1125110355.0361176 -478392006.66042137 0 -478392006.66042137 -1530674770.3026056 0 0 0 0 -1796754.8687973022 252606436.0923624 0 252606436.0923624 992786177.88346195 0 0 0 0 22474363.739248738 1934112.1096793413 0 1934112.1096793413 247088.69926008536 0 0 0 0 649845241.09864807 760106824.56421185 0 760106824.56421185 427173293.58176184 0 0 0 0 216841071.71688461 952984807.67042303 0 952984807.67042303 2259159600.2990131 0 0 0 0 679804964.60479355 688576499.78322601 0 688576499.78322601 342638969.10930634 0 0 0 0 111544482.56937408 938332965.25518799 0 938332965.25518799 3164726894.0368538 0 0 0 0 1161036858.3581543 1750166016.2442074 0 1750166016.2442074 1400660605.4637556 0 0 0 0 2647572006.1278305 1672774404.120059 0 1672774404.120059 -1119234941.401989 0 0 0 0 -303138572.97729397 -252259845.74933243 0 -252259845.74933243 -63000049.726226807 0 0 0 0 -55464410.560357019 32530521.783855066 0 32530521.783855066 56931613.016192243 0 0 0 0 513107776.85345459 109638644.94294739 0 109638644.94294739 -14091592.897730827 0 0 0 0 -379307989.4328056 -133037606.88102651 0 -133037606.88102651 710083.92546081543 0 0 0 0 1300798543.7882957 129492669.26728249 0 129492669.26728249 -530944646.25279236 0 0 0 0 -52256974.742261887 -103872563.41489792 0 -103872563.41489792 -118826364.79235458 0 0 0 0 -770235973.86295509 -363142210.22130775 0 -363142210.22130775 -188895449.59768867 0 0 0 0 2855803.019906044 107926758.91962433 0 107926758.91962433 -126783861.15427399 0 0 0 0 -21927098.468500853 -262897395.14485884 0 -262897395.14485884 -256347150.55431366 0 0 0 0 660441588.79203415 489301123.51022935 0 489301123.51022935 200821753.12158203 0 0 0 0 631593611.42562866 581851326.36035299 0 581851326.36035299 247284131.20520973 0 0 0 0 575653572.58900452 565513585.09361362 0 565513585.09361362 342303892.98791504 0 0 0 0 491984834.41118622 535940080.44298697 0 535940080.44298697 337386808.6491127 0 0 0 0 519586954.22544861 442257863.51316357 0 442257863.51316357 204409094.4917776 0 0 0 0 359013167.76306152 452065913.83094788 0 452065913.83094788 359026562.42532921 0 0 0 0 -660511073.6694603 -495871731.13614655 0 -495871731.13614655 -120605248.04284668 0 0 0 0 -239695844.94490433 -183012624.12696838 0 -183012624.12696838 189577168.95094299 0 0 0 0 -1216400.5528489128 -593791.60813474655 0 -593791.60813474655 897019.16815845668 0 0 0 0 -57933316.704547316 33830719.418537304 0 33830719.418537304 60731694.267641738 0 0 0 0 292058274.65596008 589473226.8558321 0 589473226.8558321 397795327.08320618 0 0 0 0 337980917.52983093 542862203.08538246 0 542862203.08538246 436151097.70405579 0 0 0 0 359394908.85726929 711797165.20311642 0 711797165.20311642 223746700.06092453 0 0 0 0 -439724380.65919495 -18503540.59197998 0 -18503540.59197998 140961325.65623474 0 0 0 0 -442886563.83997726 -115197575.86729431 0 -115197575.86729431 -394420754.81896591 0 0 0 0 -310912549.28092957 -23680352.381217957 0 -23680352.381217957 83981555.771003723 0 0 0 0 -240176418.67642403 -96635272.873542786 0 -96635272.873542786 153350971.32681274 0 0 0 0 -212693534.14352036 -235287693.72563934 0 -235287693.72563934 290707399.06877136 0 0 0 0 -235853042.78931618 -81133183.953594208 0 -81133183.953594208 190014093.38588715 0 0 0 0 -195532648.35639954 -196786521.81575012 0 -196786521.81575012 497423987.81660843 0 0 0 0 64361885.637469769 -283136388.42235565 0 -283136388.42235565 270745970.81708527 0 0 0 0 -263042723.75874519 -60234216.373968124 0 -60234216.373968124 119093108.89840698 0 0 0 0 -1305795.7954340465 4285248.776952669 0 4285248.776952669 22292594.220101826 0 0 0 0 -326509602.59172821 365651011.43022513 0 365651011.43022513 19784431.656904221 0 0 0 0 650228299.83345795 437115812.28062153 0 437115812.28062153 226609083.39122105 0 0 0 0 1156731774.1179276 413111598.09357357 0 413111598.09357357 227701579.42854774 0 0 0 0 708950070.29198456 501136957.60778713 0 501136957.60778713 214880388.09300423 0 0 0 0 515362353.08657074 591105201.42037821 0 591105201.42037821 525972836.01703262 0 0 0 0 639427198.93510246 744953994.36813521 0 744953994.36813521 432371500.5314579 0 0 0 0 522211163.63250732 591944377.39033127 0 591944377.39033127 308787233.68450928 0 0 0 0 608343341.96385193 148442919.8377037 0 148442919.8377037 -58145420.694552898 0 0 0 0 804623117.72880554 433383298.43670559 0 433383298.43670559 345319868.85126305 0 0 0 0 564243006.00595093 512841914.29749489 0 512841914.29749489 -112312408.37678909 0 0 0 0 555446420.78886032 515536144.15204382 0 515536144.15204382 358495977.71365738 0 0 0 0 559114044.30523682 84924925.683042526 0 84924925.683042526 227229720.62208843 0 0 0 0 794282161.47650528 1126620974.9690509 0 1126620974.9690509 1034199781.7349586 0 0 0 0 1122388937.4793854 705104270.23443317 0 705104270.23443317 396910291.55188751 0 0 0 0 2259843289.1446838 986261754.36843157 0 986261754.36843157 149115459.15296459 0 0 0 0 -1160764249.8726425 120537876.11687374 0 120537876.11687374 391464921.75136137 0 0 0 0 517966.65231543407 1960743.6347943842 0 1960743.6347943842 7891137.6480608452 0 0 0 0 278304852.7087326 723954117.35002327 0 723954117.35002327 510569570.39086151 0 0 0 0 333755578.30432129 427555728.52731895 0 427555728.52731895 1230494711.6195979 0 0 0 0 385154122.63254547 536939898.23137474 0 536939898.23137474 158322632.14986038 0 0 0 0 459301629.46477127 350083226.60347891 0 350083226.60347891 396230454.88486862 0 0 0 0 -444092490.36405563 31808138.446640015 0 31808138.446640015 102688135.68984985 0 0 0 0 201421760.84737396 -22079436.577049255 0 -22079436.577049255 349475342.74744606 0 0 0 0 68512207.063049316 266758996.90540218 0 266758996.90540218 387051711.34076309 0 0 0 0 -66072220.898113415 37604139.811580792 0 37604139.811580792 57212288.007968172 0 0 0 0 100065916.61129761 312784915.38015747 0 312784915.38015747 473135485.89022064 0 0 0 0 215129645.07180786 418377630.73886299 0 418377630.73886299 529950631.79535961 0 0 0 0 538333806.95074463 356620395.93825245 0 356620395.93825245 459962297.2197876 0 0 0 0 181945157.82779503 122366296.29315889 0 122366296.29315889 547979124.71763992 0 0 0 0 517202989.93505859 340056160.61742401 0 340056160.61742401 744610278.23881149 0 0 0 0 430843352.73520279 128566192.49413443 0 128566192.49413443 504729970.19720078 0 0 0 0 -419561008.63396454 42184267.827362061 0 42184267.827362061 54904765.048362732 0 0 0 0 -389582738.6862011 109087341.66249466 0 109087341.66249466 -21379152.886486053 0 0 0 0 92461624.034503937 437911791.74748564 0 437911791.74748564 -374735911.65075684 0 0 0 0 301813016.36639404 183572226.06270695 0 183572226.06270695 85354924.49074173 0 0 0 0 -46441658.410087943 729248.46598419547 0 729248.46598419547 33762999.027561933 0 0 0 0 -47682192.697226264 51961689.061818138 0 51961689.061818138 18855329.091078378 0 0 0 0 138201019.29164124 221787543.99156952 0 221787543.99156952 102992957.3252182 0 0 0 0 144003814.94866943 292594004.29684162 0 292594004.29684162 48684974.481091499 0 0 0 0 -97790971.803517342 252743535.87010783 0 252743535.87010783 202271625.60548782 0 0 0 0 219599488.46643066 448034233.86788082 0 448034233.86788082 314126884.79750729 0 0 0 0 -293033928.34200668 64697285.123363495 0 64697285.123363495 229688481.49901581 0 0 0 0 -98111939.280068398 113451706.90095806 0 113451706.90095806 294336929.68356323 0 0 0 0 -212657760.23663712 2190853.162071228 0 2190853.162071228 195812766.2883873 0 0 0 0 -359766366.74319458 61320672.516311646 0 61320672.516311646 209408141.9756546 0 0 0 0 -228123227.3775835 64914101.284799099 0 64914101.284799099 131754254.37872314 0 0 0 0 -361527716.05119705 82181121.656766891 0 82181121.656766891 67347500.49382019 0 0 0 0 -448870477.33314896 57048256.677024841 0 57048256.677024841 74621923.713096619 0 0 0 0 -452058390.58745193 31719670.496313095 0 31719670.496313095 174484371.09622955 0 0 0 0 -359139987.47267914 69221257.041072845 0 69221257.041072845 105786655.52545166 0 0 0 0 -416882995.57751083 80012405.313285828 0 80012405.313285828 154581417.44995117 0 0 0 0 -339568831.12040901 122048008.67764664 0 122048008.67764664 189096795.07711983 0 0 0 0 -374395762.04346657 195408591.3892374 0 195408591.3892374 55055635.513389587 0 0 0 0 -373567746.63066673 191204994.98957062 0 191204994.98957062 15499132.740890503 0 0 0 0 -350179691.03514528 112605472.02709436 0 112605472.02709436 119921445.04871368 0 0 0 0 -388873479.01645851 120339594.62670898 0 120339594.62670898 154139793.22929382 0 0 0 0 -191468044.12968826 167633800.94716644 0 167633800.94716644 111060287.47086143 0 0 0 0 -155632024.22145247 9778659.9990746975 0 9778659.9990746975 269768822.55399323 0 0 0 0 -43870171.370745659 49043805.241315842 0 49043805.241315842 240419662.23221207 0 0 0 0 27307131.807949066 -95673432.187226772 0 -95673432.187226772 304224859.56381989 0 0 0 0 178025417.06437492 107957215.19774246 0 107957215.19774246 452145105.12215996 0 0 0 0 309899320.15600586 367749845.1856308 0 367749845.1856308 278384173.44539452 0 0 0 0 -109510319.96751785 97148583.902838707 0 97148583.902838707 576024861.94107056 0 0 0 0 869885739.1053257 1014688833.7988167 0 1014688833.7988167 939855057.96679497 0 0 0 0 225368889.1726799 420263994.81081581 0 420263994.81081581 413641177.29565811 0 0 0 0 1868538599.9940701 421117728.21726418 0 421117728.21726418 -4240365.3164114952 0 0 0 0 414168198.01145554 137458304.66856384 0 137458304.66856384 35087912.209095001 0 0 0 0 3250807.978119757 5184589.1979160346 0 5184589.1979160346 11429614.393530324 0 0 0 0 -15088114.062494278 -313997931.7730732 0 -313997931.7730732 1361156545.1556473 0 0 0 0 64375702.97716713 848359718.53443146 0 848359718.53443146 1731505791.1505756 0 0 0 0 1806482873.4444571 244778199.11853027 0 244778199.11853027 378924505.30640411 0 0 0 0 -101191125.20734024 105731845.16630363 0 105731845.16630363 1528394779.1328316 0 0 0 0 684943148.35054684 -267874596.60625553 0 -267874596.60625553 -464524410.69764328 0 0 0 0 9923100.3677157573 -281668.72698424011 0 -281668.72698424011 -954747.69788989797 0 0 0 0 -114891448.19803238 234765878.76975727 0 234765878.76975727 426501804.99032593 0 0 0 0 -19992153.584479332 129519207.28684044 0 129519207.28684044 149376112.4085474 0 0 0 0 -39727036.823275566 76242640.453258514 0 76242640.453258514 226248045.50962925 0 0 0 0 -1816354.3929071426 -108659595.95339012 0 -108659595.95339012 34885929.749715805 0 0 0 0 65911143.410819292 -4111558.79666996 0 -4111558.79666996 -57529891.945819855 0 0 0 0 -84299577.695543289 -243415898.83631516 0 -243415898.83631516 -211879492.79921007 0 0 0 0 -157760157.71613407 -46317080.498510361 0 -46317080.498510361 16490824.972742081 0 0 0 0 164019896.7464273 -12448358.497764111 0 -12448358.497764111 -37580195.66444397 0 0 0 0 -33964915.794674397 115980391.55006218 0 115980391.55006218 305790824.31430054 0 0 0 0 -53063972.98397541 -228343889.06406212 0 -228343889.06406212 162941082.67860222 0 0 0 0 4010331.9294283055 -859460.19468779862 0 -859460.19468779862 366752.11467351764 0 0 0 0 -364731037.27971649 -9472056.1786518097 0 -9472056.1786518097 572087585.95614243 0 0 0 0 -542020507.50955343 151821705.70314026 0 151821705.70314026 398850887.44359589 0 0 0 0 -776446847.83604002 370279656.88025284 0 370279656.88025284 183058618.76638889 0 0 0 0 -77525601.665056944 292270707.91831207 0 292270707.91831207 -112581953.00666237 0 0 0 0 -6783089.7425766531 3100349.3219637945 0 3100349.3219637945 -3239708.608813107 0 0 0 0 -531893748.61259973 -151427645.9495883 0 -151427645.9495883 -7540235.0018386841 0 0 0 0 -502865380.66228426 527366549.76362133 0 527366549.76362133 401666456.4479599 0 0 0 0 -21520122.72996974 531436049.98846626 0 531436049.98846626 325396500.53228426 0 0 0 0 -53935852.059458971 174804812.0387516 0 174804812.0387516 420121603.97001314 0 0 0 0 -42101352.276079178 141897520.20847702 0 141897520.20847702 257778914.55419922 0 0 0 0 -37023003.64298296 117867886.06196404 0 117867886.06196404 103287771.85855865 0 0 0 0 70811592.607635498 -135267180.73132706 0 -135267180.73132706 182306100.78274632 0 0 0 0 14416899.411095619 559612658.00305367 0 559612658.00305367 664261853.14132595 0 0 0 0 -85699405.070934296 9911508.7896308899 0 9911508.7896308899 974111701.23274994 0 0 0 0 204517405.74660015 571693222.86443043 0 571693222.86443043 529098150.61412811 0 0 0 0 9000777.0939834565 2320907.8960000798 0 2320907.8960000798 -1891652.0626070574 0 0 0 0 523039768.58086348 355983049.29685783 0 355983049.29685783 -55128256.210725784 0 0 0 0 3725374.1391823478 2654328.5241577178 0 2654328.5241577178 -1216435.6590197533 0 0 0 0 -97567502.898893237 530535894.68021774 0 530535894.68021774 836263994.22734261 0 0 0 0 -40457117.85370183 492112394.99583817 0 492112394.99583817 589979654.74417877 0 0 0 0 -254346577.5220871 326597958.98536587 0 326597958.98536587 524111802.08811188 0 0 0 0 -39032094.38338989 533491592.4041748 0 533491592.4041748 512519963.57606196 0 0 0 0 -300754353.32879019 351828082.08867264 0 351828082.08867264 508964114.94618607 0 0 0 0 -256445748.85396677 309727964.37205648 0 309727964.37205648 432183078.06371307 0 0 0 0 -98889582.818215132 300542294.83825207 0 300542294.83825207 21082459.727537155 0 0 0 0 -293732206.39720535 331353323.88053513 0 331353323.88053513 228325501.43963432 0 0 0 0 -556302191.46251535 145727940.09363222 0 145727940.09363222 164699531.79799652 0 0 0 0 -336820934.25637007 315873606.13303614 0 315873606.13303614 431783268.27052689 0 0 0 0 -128599488.05263329 167450743.26382637 0 167450743.26382637 -123214865.73636246 0 0 0 0 -57493792.23987788 161206125.51931286 0 161206125.51931286 -211233855.00886536 0 0 0 0 -29487715.118686676 184129982.26535797 0 184129982.26535797 -157725030.03185272 0 0 0 0 58601980.377674341 28589181.460986614 0 28589181.460986614 -64114818.913562775 0 0 0 0 -34579235.953565598 139592088.84782028 0 139592088.84782028 -130878935.22089195 0 0 0 0 -71936956.690285683 109400045.89663315 0 109400045.89663315 -154600719.07282257 0 0 0 0 -107886408.65366173 156045385.72568655 0 156045385.72568655 -191969072.62055588 0 0 0 0 -236790272.02008772 83344062.836782455 0 83344062.836782455 -68985429.795450211 0 0 0 0 -268856704.04015827 299165462.39340973 0 299165462.39340973 -293134519.69593906 0 0 0 0 -66432507.977757454 287814091.85259676 0 287814091.85259676 -389834590.41300201 0 0 0 0 -91359423.420334816 247190427.69980812 0 247190427.69980812 -326456247.5345993 0 0 0 0 -91647255.113112926 150139870.601511 0 150139870.601511 -214541295.70339012 0 0 0 0 -123450807.39144033 186091907.99819851 0 186091907.99819851 -207741415.84215164 0 0 0 0 -85284141.071267098 145531725.53712749 0 145531725.53712749 -472340341.97779846 0 0 0 0 -283063872.70476294 60169438.512901306 0 60169438.512901306 -197820968.55124664 0 0 0 0 -139113569.56369543 316942036.64789772 0 316942036.64789772 -414656717.18052101 0 0 0 0 -473657765.38391966 560266940.37282228 0 560266940.37282228 -884993652.41297913 0 0 0 0 -258947603.43361986 175364619.63252068 0 175364619.63252068 -135905934.36338425 0 0 0 0 -620395280.84777737 -196399183.86235237 0 -196399183.86235237 -505635251.8949585 0 0 0 0 22765722.288898468 30482719.386198044 0 30482719.386198044 51905291.788315773 0 0 0 0 -163632989.14019346 -142336916.73834515 0 -142336916.73834515 -120211422.76292992 0 0 0 0 537544.61126889661 -181414.48776486516 0 -181414.48776486516 -610324.99093743414 0 0 0 0 54229915.964080811 -89926403.633491516 0 -89926403.633491516 -43292459.360908508 0 0 0 0 -271385715.38019562 34950755.245246887 0 34950755.245246887 -48125605.853694916 0 0 0 0 -50166857.32882309 -18411498.225242615 0 -18411498.225242615 -88011520.76750946 0 0 0 0 50333480.077354431 -81137914.928340912 0 -81137914.928340912 -105735904.09880066 0 0 0 0 -152534548.97543716 -7778427.3230667114 0 -7778427.3230667114 -33175518.769393921 0 0 0 0 -636452.30769525468 -549225.23087290674 0 -549225.23087290674 681013.01855970919 0 0 0 0 -282112966.77719498 -69019018.258987427 0 -69019018.258987427 45937091.147644043 0 0 0 0 -88489649.17924118 -120876439.10830688 0 -120876439.10830688 22366522.657623291 0 0 0 0 -375292919.06107926 -1935379.2478044033 0 -1935379.2478044033 63223832.847640991 0 0 0 0 -35314437.622612476 33778579.594163895 0 33778579.594163895 -63818360.06035614 0 0 0 0 71534536.787082195 44541567.274992943 0 44541567.274992943 -46122185.100082397 0 0 0 0 -64755592.238025665 28783762.623672485 0 28783762.623672485 -40958682.437031269 0 0 0 0 30420584.21199584 56751530.2283535 0 56751530.2283535 -173278287.28194046 0 0 0 0 -76168031.997247934 61441866.758795738 0 61441866.758795738 -121478709.14603424 0 0 0 0 -127131398.04004097 79705029.305028915 0 79705029.305028915 -111254856.39731503 0 0 0 0 -27778651.509192944 90353466.281526566 0 90353466.281526566 -260123059.67516708 0 0 0 0 19768829.812412262 19246416.316829681 0 19246416.316829681 -253280557.74093223 0 0 0 0 -30842903.285541534 80497948.369474411 0 80497948.369474411 -178149695.11759949 0 0 0 0 -75852214.569553256 49626899.315011978 0 49626899.315011978 -193560268.8863945 0 0 0 0 -118744165.73962736 -9773640.8129806519 0 -9773640.8129806519 3231105.7597160339 0 0 0 0 -51128807.254020691 50005621.60641861 0 50005621.60641861 -195096226.46289825 0 0 0 0 -40699590.737187862 25366813.695145607 0 25366813.695145607 -144527209.37163544 0 0 0 0 26074472.764391899 5824382.7490367889 0 5824382.7490367889 -140109848.37769794 0 0 0 0 -19346269.126654625 -5348884.1359539032 0 -5348884.1359539032 -136535687.85424042 0 0 0 0 -14485367.134701146 8497944.7932413742 0 8497944.7932413742 102159.09788872302 0 0 0 0 6931294.4959611893 72847960.678728104 0 72847960.678728104 -92380230.68838501 0 0 0 0 70142257.912142754 224009028.96658826 0 224009028.96658826 -230257039.22992706 0 0 0 0 -68329028.600864008 65130045.815863177 0 65130045.815863177 12949662.611013874 0 0 0 0 24685542.842856169 51797642.279252529 0 51797642.279252529 -665060842.23586655 0 0 0 0 -476764164.89052963 638590099.54500771 0 638590099.54500771 -567558022.76213455 0 0 0 0 -38599177.919301987 -47483489.387235641 0 -47483489.387235641 -46205209.409645081 0 0 0 0 -3096399.4074971154 3225109.5707016066 0 3225109.5707016066 -3210092.5738149881 0 0 0 0 -398218602.34528542 50107595.725364685 0 50107595.725364685 69069280.514144897 0 0 0 0 -604830341.14006233 525722845.71705246 0 525722845.71705246 -316063800.07008553 0 0 0 0 -1011048819.9817333 -241467387.37499523 0 -241467387.37499523 778743919.19503784 0 0 0 0 -29960349.633640289 -185940896.94258499 0 -185940896.94258499 49680705.710418701 0 0 0 0 -132931615.84422302 68485218.605158806 0 68485218.605158806 -23110721.414779663 0 0 0 0 -63145149.894760124 43208260.902564108 0 43208260.902564108 39466784.317074969 0 0 0 0 83134100.926305294 -27693854.956503481 0 -27693854.956503481 483478245.14736557 0 0 0 0 80030037.174772263 -118387732.68364334 0 -118387732.68364334 -12447422.627967834 0 0 0 0 104046199.55768394 -260121361.35490036 0 -260121361.35490036 90724108.362266541 0 0 0 0 506558476.95846558 490746838.87821388 0 490746838.87821388 -77648362.286993027 0 0 0 0 56914968.612838745 302162262.11328697 0 302162262.11328697 -130248349.59397125 0 0 0 0 38702085.243293762 168946929.90459824 0 168946929.90459824 -214377302.86256027 0 0 0 0 155412850.11904144 316210404.34206772 0 316210404.34206772 -268314923.56860352 0 0 0 0 341935365.65223694 100478707.99316788 0 100478707.99316788 -199657698.24416351 0 0 0 0 332164551.40692139 292507527.23663712 0 292507527.23663712 -273242100.64978027 0 0 0 0 150601919.66607285 267140595.30702209 0 267140595.30702209 -344391216.87010956 0 0 0 0 73329872.058952734 19327591.243662752 0 19327591.243662752 -468307.35851757787 0 0 0 0 -363298997.76068115 253074000.26486874 0 253074000.26486874 890309278.33771515 0 0 0 0 155208456.88174057 112768724.86532593 0 112768724.86532593 570981375.10753441 0 0 0 0 -222446452.52920532 198121212.53409576 0 198121212.53409576 259705997.73433685 0 0 0 0 302809529.32843781 315358500.42992401 0 315358500.42992401 188973495.31565857 0 0 0 0 -16775701.69393158 449624412.22219086 0 449624412.22219086 482623747.70714188 0 0 0 0 -1337817913.9802437 566983724.23826408 0 566983724.23826408 410639572.74103355 0 0 0 0 -339169.61030194163 523516.42863028869 0 523516.42863028869 -167860.93786241114 0 0 0 0 514567752.96068573 698329781.08207893 0 698329781.08207893 285286942.61405945 0 0 0 0 200083630.02863216 42152321.04923439 0 42152321.04923439 969234220.23976135 0 0 0 0 873113988.921175 579053409.5426712 0 579053409.5426712 324965785.83912659 0 0 0 0 -157441197.80253983 148112194.99219513 0 148112194.99219513 -29379704.614555836 0 0 0 0 -48585093.772330284 -26757268.655045509 0 -26757268.655045509 58448242.258979797 0 0 0 0 -37586807.122185484 34152937.611427069 0 34152937.611427069 -2465466.0281484285 0 0 0 0 -3975200.9285869189 6091675.5246614665 0 6091675.5246614665 -8788270.2766848542 0 0 0 0 -229147874.48040056 435887409.6625042 0 435887409.6625042 -310347623.58194852 0 0 0 0 -156475556.97202563 153857490.10449266 0 153857490.10449266 -144036832.90354156 0 0 0 0 -32292959.540023595 33891185.338227749 0 33891185.338227749 -29430325.963398501 0 0 0 0 208035174.61115456 394806988.42262459 0 394806988.42262459 -187034915.86046982 0 0 0 0 -251588781.72806168 457793216.42389107 0 457793216.42389107 479870127.83345795 0 0 0 0 5508902.2904415801 5969277.9690678343 0 5969277.9690678343 6703220.9328896254 0 0 0 0 317372292.72608948 1175347089.7315521 0 1175347089.7315521 619263590.54544067 0 0 0 0 1100072623.1314163 715685571.65181923 0 715685571.65181923 458278773.44890594 0 0 0 0 -502616811.67900467 142565512.1293602 0 142565512.1293602 99633740.065795898 0 0 0 0 179558035.8872776 29195655.515123367 0 29195655.515123367 -31524061.439376831 0 0 0 0 368328283.39755249 353273617.44864273 0 353273617.44864273 222176940.5615387 0 0 0 0 -23471019.366233826 86986664.724056244 0 86986664.724056244 101728358.88016701 0 0 0 0 44023971.061416626 433304434.91394806 0 433304434.91394806 481331825.77322006 0 0 0 0 80197983.313392639 240725154.289114 0 240725154.289114 328956079.30606461 0 0 0 0 -152828703.02725601 299667026.70273209 0 299667026.70273209 390699235.17913055 0 0 0 0 -161245537.29090798 228808323.68463969 0 228808323.68463969 1664686775.7159348 0 0 0 0 5556044.9007300809 11046379.501065195 0 11046379.501065195 6306292.769606784 0 0 0 0 -151807751.92088175 347784127.16214085 0 347784127.16214085 -283069734.88722992 0 0 0 0 -157068233.90581512 386533129.49155807 0 386533129.49155807 -290876982.25661182 0 0 0 0 14781649.659403086 3545425.9395021126 0 3545425.9395021126 -1860957.0292377546 0 0 0 0 -136262384.6694212 332136788.28112888 0 332136788.28112888 -611731143.63720703 0 0 0 0 8639039.1502914429 33858102.797394753 0 33858102.797394753 -23882732.825820923 0 0 0 0 7430276.2559990287 14026956.202930816 0 14026956.202930816 3245422.3324985728 0 0 0 0 91067960.485786438 19777224.406293869 0 19777224.406293869 -66455039.467838287 0 0 0 0 3424799.6434936523 19683940.159301758 0 19683940.159301758 -50397329.591171265 0 0 0 0 20070154.687835626 17377122.942804724 0 17377122.942804724 4249576.5751820356 0 0 0 0 3466403.100353241 28802121.813201904 0 28802121.813201904 -23342573.438909054 0 0 0 0 -345780293.57923126 317296688.4486351 0 317296688.4486351 -484792330.70309067 0 0 0 0 14155860.276047789 15427467.937270381 0 15427467.937270381 -8072279.560299024 0 0 0 0 -36340624.847915649 455175855.74326706 0 455175855.74326706 -631198845.01846313 0 0 0 0 -21993073.229682922 14278095.270370483 0 14278095.270370483 17495832.183673859 0 0 0 0 -2443718.1256200671 4968702.3386328146 0 4968702.3386328146 -1029082.6790211014 0 0 0 0 -195700823.36035538 399839018.69346619 0 399839018.69346619 -418520272.36699677 0 0 0 0 -61594141.434970856 533245375.74167061 0 533245375.74167061 -321423295.66397858 0 0 0 0 -203660775.56331635 317541328.4835968 0 317541328.4835968 -163414947.72348785 0 0 0 0 171545234.53100586 243331991.90784454 0 243331991.90784454 -388332234.31256104 0 0 0 0 104458245.59001923 382286104.73955011 0 382286104.73955011 198842066.97084045 0 0 0 0 126056206.69820595 452249895.42403889 0 452249895.42403889 -108579322.58177185 0 0 0 0 2092728.5522720292 4334797.430999089 0 4334797.430999089 -7274567.0244860649 0 0 0 0 -11905086.49199295 25212377.926456451 0 25212377.926456451 53417072.402702332 0 0 0 0 -223419367.50182116 299365771.78650868 0 299365771.78650868 -200475864.93242645 0 0 0 0 -302117263.18693542 600035718.865448 0 600035718.865448 -295619559.77024078 0 0 0 0 -658363228.15543175 532430054.89615631 0 532430054.89615631 -239933956.19966888 0 0 0 0 -411072922.24540889 295076736.26644945 0 295076736.26644945 -37647460.635501862 0 0 0 0 -150174156.97640175 235291289.24539185 0 235291289.24539185 -277991608.00710344 0 0 0 0 -296787217.44567543 229837722.32640839 0 229837722.32640839 -268660592.12176514 0 0 0 0 -191732998.59162861 292538943.16918612 0 292538943.16918612 -109092944.21625519 0 0 0 0 -38950721.836874723 255346382.21836281 0 255346382.21836281 -101368289.68075848 0 0 0 0 -127417670.81174064 400918895.15893936 0 400918895.15893936 29869700.398690462 0 0 0 0 -361672724.890975 119157971.72764683 0 119157971.72764683 -24366103.339557648 0 0 0 0 -30648282.593365375 34137516.050662838 0 34137516.050662838 -32204371.697179794 0 0 0 0 -171152563.26780629 253440169.19853449 0 253440169.19853449 -271208.81600189209 0 0 0 0 -99913769.037137985 228309447.24269485 0 228309447.24269485 -326678980.04090118 0 0 0 0 -216658894.39808846 92944495.473892212 0 92944495.473892212 -301921748.05767107 0 0 0 0 -435252287.4700222 187835835.26930237 0 187835835.26930237 132416298.13996887 0 0 0 0 1020190695.3321304 823208655.31080627 0 823208655.31080627 223254971.23508835 0 0 0 0 423370428.89962578 -192548865.58707428 0 -192548865.58707428 -667692386.59689331 0 0 0 0 391880627.64953136 1880894181.1446114 0 1880894181.1446114 601427742.84057617 0 0 0 0 4994725.7096116021 5197221.9744032845 0 5197221.9744032845 1444145.6899730712 0 0 0 0 -443344945.29133987 400414050.42429352 0 400414050.42429352 -624686258.00896454 0 0 0 0 -1080069075.618454 944873827.93584824 0 944873827.93584824 104033869.80399704 0 0 0 0 -21840475.210403442 526030069.29544067 0 526030069.29544067 -311773916.91777802 0 0 0 0 -302371858.38125229 518001131.03103638 0 518001131.03103638 -311932480.44308567 0 0 0 0 -5059404.5319685005 7432887.119581297 0 7432887.119581297 -9033184.3770799786 0 0 0 0 -1639005140.7283983 129272208.94255352 0 129272208.94255352 129380026.81840515 0 0 0 0 -1949081769.766655 302609008.85249329 0 302609008.85249329 -7756233.4496459961 0 0 0 0 718911441.09410763 751283268.57637978 0 751283268.57637978 45846266.47280407 0 0 0 0 -32022913.729338448 33904517.756611556 0 33904517.756611556 -29964658.256940223 0 0 0 0 -121929492.79192245 377561132.60142374 0 377561132.60142374 178888030.41552162 0 0 0 0 625927657.87362766 134883741.22112656 0 134883741.22112656 -82124493.067995071 0 0 0 0 -122657585.96308517 9697710.996424675 0 9697710.996424675 -9712697.2103176117 0 0 0 0 13952974.653204352 227537353.16366673 0 227537353.16366673 -41941813.984415054 0 0 0 0 394679030.15107727 262401847.4813652 0 262401847.4813652 77369447.49284935 0 0 0 0 289344124.15957451 417111134.34276009 0 417111134.34276009 255439834.67797852 0 0 0 0 212839651.96781921 135886236.1252327 0 135886236.1252327 147472070.04739761 0 0 0 0 146357050.21391296 232073786.89072132 0 232073786.89072132 20738718.327285767 0 0 0 0 -69096230.275960922 17675188.870542526 0 17675188.870542526 68883854.693733215 0 0 0 0 -477915.28689241409 351744976.64867258 0 351744976.64867258 232131443.94499969 0 0 0 0 342654184.05473304 457351361.90697527 0 457351361.90697527 84029500.67376709 0 0 0 0 -5609661.4803932682 20601617.049206562 0 20601617.049206562 -25383576.27725856 0 0 0 0 602044462.92733574 334746481.92849541 0 334746481.92849541 49873815.5216465 0 0 0 0 -183366542.20810318 24467539.099239349 0 24467539.099239349 -8425605.5852584839 0 0 0 0 265697147.09089279 358901939.21160889 0 358901939.21160889 113748046.04944229 0 0 0 0 -61053774.084960938 -6710719.5173950195 0 -6710719.5173950195 -21997154.431777954 0 0 0 0 -54858760.232925415 10483779.388275146 0 10483779.388275146 -16344251.820716858 0 0 0 0 -32549429.415420532 36212290.414642334 0 36212290.414642334 -3559059.9233779907 0 0 0 0 -96515382.596862793 13995438.673950195 0 13995438.673950195 8567703.58984375 0 0 0 0 -96044168.811965942 -10883028.897384644 0 -10883028.897384644 -13642661.130584717 0 0 0 0 -116954333.21751404 1466637.6849212646 0 1466637.6849212646 887952.02952575684 0 0 0 0 -64636719.261583626 103884777.55161417 0 103884777.55161417 60147194.700622559 0 0 0 0 -129745497.85694885 67220961.017211914 0 67220961.017211914 18112506.779380798 0 0 0 0 -66235674.27142334 50847385.500808716 0 50847385.500808716 17583242.591293335 0 0 0 0 -65358071.137863159 77328026.933143616 0 77328026.933143616 54159572.601089478 0 0 0 0 27711859.289525986 166474916.32195473 0 166474916.32195473 -12716196.863113403 0 0 0 0 -66477853.807533264 60618157.705581665 0 60618157.705581665 22408545.252571106 0 0 0 0 -186180499.04140282 179978621.03798866 0 179978621.03798866 -12481646.683105469 0 0 0 0 -65584436.903167725 87206001.777572632 0 87206001.777572632 -15046320.818893433 0 0 0 0 -130333205.83866119 67572147.753612518 0 67572147.753612518 -15216140.473695368 0 0 0 0 -309886173.09698105 146499270.2397728 0 146499270.2397728 -39486015.678409576 0 0 0 0 -209055114.87777424 148958814.34740114 0 148958814.34740114 -99286861.000938416 0 0 0 0 -20409565.623409271 292007246.43082428 0 292007246.43082428 -219333748.57179642 0 0 0 0 -325978343.9594841 386258105.37577057 0 386258105.37577057 -92996090.020168304 0 0 0 0 -556262686.80180931 414360549.88857079 0 414360549.88857079 -83132383.61605835 0 0 0 0 -353455804.47593188 522893820.38386774 0 522893820.38386774 -27375723.676330566 0 0 0 0 2011321.1774634644 2914746.2259682007 0 2914746.2259682007 -2545859.1404359043 0 0 0 0 107881140.11659622 388944381.17546177 0 388944381.17546177 9601171.3275299072 0 0 0 0 78735977.617759705 163547791.92004776 0 163547791.92004776 -53093820.948364258 0 0 0 0 -33782542.268516541 169578252.82635498 0 169578252.82635498 78416565.534454346 0 0 0 0 -207699350.36554623 60936005.731868744 0 60936005.731868744 -331282696.71420288 0 0 0 0 492833901.34010506 90137345.918775558 0 90137345.918775558 -47912063.409500122 0 0 0 0 1734208.283033818 3636164.6591451522 0 3636164.6591451522 130572.38554024696 0 0 0 0 207410236.80030441 259686899.106987 0 259686899.106987 63969323.355754852 0 0 0 0 204835693.71897888 10519996.456710815 0 10519996.456710815 30220123.199050903 0 0 0 0 142410205.3810997 30213541.14610672 0 30213541.14610672 -12195986.757888794 0 0 0 0 76986401.941799164 60560662.905685425 0 60560662.905685425 28794718.78452301 0 0 0 0 111740341.47856331 74194780.887340546 0 74194780.887340546 -28440838.227088928 0 0 0 0 -27822819.365413666 99352979.166236877 0 99352979.166236877 58183452.276405334 0 0 0 0 -12232837.167095184 116283816.03123093 0 116283816.03123093 76881897.037750244 0 0 0 0 107451965.82691193 170781459.7632885 0 170781459.7632885 86508148.759460449 0 0 0 0 22151977.528709412 98046973.829559326 0 98046973.829559326 53245766.563659668 0 0 0 0 2097368.6523361206 123357368.05350494 0 123357368.05350494 52797689.711723328 0 0 0 0 25286380.456918716 96822731.480606079 0 96822731.480606079 78020923.221328735 0 0 0 0 -39206152.883735657 72041664.411701202 0 72041664.411701202 54800118.049789429 0 0 0 0 -39498437.146156311 87474177.664703369 0 87474177.664703369 75087414.505003929 0 0 0 0 82752561.884483337 53672597.208992004 0 53672597.208992004 -1674193.3025512695 0 0 0 0 1315581.8634227067 41344910.152425244 0 41344910.152425244 13049817.388714641 0 0 0 0 14454977.18214035 87756493.916021347 0 87756493.916021347 33787474.735626221 0 0 0 0 -8349219.0422859192 49698619.466674805 0 49698619.466674805 16488789.241424561 0 0 0 0 15768117.122909633 17525705.272971265 0 17525705.272971265 -26961791.681031302 0 0 0 0 148097998.93719864 232914251.32504272 0 232914251.32504272 250231590.91656876 0 0 0 0 54618882.29034327 74710785.320415974 0 74710785.320415974 -26224699.041386038 0 0 0 0 -16105452.144962311 97828418.537651062 0 97828418.537651062 33590311.600585938 0 0 0 0 99092298.25109911 50343399.456687927 0 50343399.456687927 -431304478.7381134 0 0 0 0 73486956.220983505 -465772.61212921143 0 -465772.61212921143 -250927872.576828 0 0 0 0 -16130283.494542122 128446698.37337399 0 128446698.37337399 42260800.026176453 0 0 0 0 53607858.931533381 64273200.936907232 0 64273200.936907232 56027387.820626169 0 0 0 0 -370244298.94972515 150526381.74053955 0 150526381.74053955 233574377.02554321 0 0 0 0 14437568.92606226 18956911.238647781 0 18956911.238647781 -4220919.0651077032 0 0 0 0 41706173.443504184 18253832.486292452 0 18253832.486292452 -87910065.182288527 0 0 0 0 416812003.74706078 690647406.92724609 0 690647406.92724609 -248282513.66910172 0 0 0 0 46396284.12795601 15667131.762532488 0 15667131.762532488 -93739626.670743912 0 0 0 0 140145044.93025589 324835427.31389236 0 324835427.31389236 -35293240.613174438 0 0 0 0 319110947.5522728 387069567.07811356 0 387069567.07811356 -18357716.346532822 0 0 0 0 86386428.593880653 150390557.11545753 0 150390557.11545753 311732536.7444458 0 0 0 0 505886996.62918472 105360460.91413879 0 105360460.91413879 -141921609.89260101 0 0 0 0 140221748.38394547 151821182.19261169 0 151821182.19261169 -105373526.02627563 0 0 0 0 152317564.3360939 113676994.19878471 0 113676994.19878471 -89523351.939239502 0 0 0 0 143406199.5881412 275575919.07017279 0 275575919.07017279 467597867.29524231 0 0 0 0 18085818.303224817 3997628.9640980624 0 3997628.9640980624 -26889764.332029045 0 0 0 0 -30619722.457071304 39614657.740943909 0 39614657.740943909 -45878299.662242889 0 0 0 0 17182915.976234034 31945482.093314454 0 31945482.093314454 7011484.9076822996 0 0 0 0 -50421900.487314224 -23184024.524421692 0 -23184024.524421692 95727212.523327827 0 0 0 0 -125000155.08696175 76639691.186723709 0 76639691.186723709 56342420.165260315 0 0 0 0 -18522911.363895416 -55777388.628734589 0 -55777388.628734589 41435535.533367157 0 0 0 0 95881273.703437805 30475122.842475891 0 30475122.842475891 -24585292.228183746 0 0 0 0 -81063877.902863979 65066967.494187832 0 65066967.494187832 -3527071.2139091492 0 0 0 0 -103451951.2569809 11497835.325580597 0 11497835.325580597 29256853.542201996 0 0 0 0 -6609409.3178054243 3982668.1355472095 0 3982668.1355472095 886462.80909782648 0 0 0 0 -96973472.517115593 44962587.493688583 0 44962587.493688583 9113453.6271286011 0 0 0 0 -117624206.49959946 249306947.22326279 0 249306947.22326279 -131969511.90561295 0 0 0 0 32873995.446016312 -153207877.61691666 0 -153207877.61691666 204724429.85798311 0 0 0 0 -216335818.33628702 90446739.972239971 0 90446739.972239971 229214152.88467407 0 0 0 0 -815000980.8265419 678856537.26948547 0 678856537.26948547 -70382041.042179108 0 0 0 0 -182873963.86787224 367361000.47188187 0 367361000.47188187 -129197215.51650238 0 0 0 0 7346.5966677926481 1162833.1636935249 0 1162833.1636935249 371715.51613776386 0 0 0 0 -637568863.0161953 489714428.6920929 0 489714428.6920929 -399767257.90091705 0 0 0 0 -754363984.32400084 834009475.33770752 0 834009475.33770752 -626773261.05014038 0 0 0 0 -88823003.987850189 68056372.952192307 0 68056372.952192307 57579487.237503052 0 0 0 0 -537676903.33356857 475774709.70960999 0 475774709.70960999 -622031020.90261698 0 0 0 0 -1963178.5082404241 1859017.3810056821 0 1859017.3810056821 4279779.0726138502 0 0 0 0 -412448968.4691391 495820954.44356918 0 495820954.44356918 -500644396.68556213 0 0 0 0 -729149278.44190121 626934737.40811443 0 626934737.40811443 -425903120.91960907 0 0 0 0 -663549605.14658737 256947262.40327835 0 256947262.40327835 -76494609.008075714 0 0 0 0 -663417996.97222137 521128101.18997192 0 521128101.18997192 -250861029.66117096 0 0 0 0 -102086980.27762413 174072426.04273224 0 174072426.04273224 -233964716.97441483 0 0 0 0 2255172.7566104345 3289143.4455768336 0 3289143.4455768336 -2368179.9072864354 0 0 0 0 -258343505.29808235 179264846.83800888 0 179264846.83800888 -239418572.86453247 0 0 0 0 -528693849.38976479 212309917.54302216 0 212309917.54302216 169202692.49227905 0 0 0 0 1932075.6777251419 5135331.8871791195 0 5135331.8871791195 5143553.1242054701 0 0 0 0 -380208341.6418972 364557873.99837494 0 364557873.99837494 -106514687.70225525 0 0 0 0 -486366287.82271385 335845110.74692917 0 335845110.74692917 -357699282.05321121 0 0 0 0 -332630698.77390099 423046110.76233101 0 423046110.76233101 -309329218.92468262 0 0 0 0 -314717490.29107857 254931942.74108887 0 254931942.74108887 -196214019.96353149 0 0 0 0 -11507556.51912057 4603132.4766907096 0 4603132.4766907096 7425815.3594212532 0 0 0 0 -601878672.67626333 555338670.44965935 0 555338670.44965935 -337188572.97572327 0 0 0 0 -456643860.85250616 388339325.50368118 0 388339325.50368118 -351263719.45713806 0 0 0 0 -89437951.894036293 37932007.098468781 0 37932007.098468781 21676681.550144196 0 0 0 0 -103177493.86287594 135213693.33129883 0 135213693.33129883 82480591.649101257 0 0 0 0 17984062.43688561 34017984.456466377 0 34017984.456466377 4263942.3547565341 0 0 0 0 457968837.09392929 15054360.36894989 0 15054360.36894989 -47411460.420528412 0 0 0 0 607165988.5992384 263021567.22439766 0 263021567.22439766 -55425090.089019775 0 0 0 0 731146394.25407028 276404808.10586166 0 276404808.10586166 -183891964.31693459 0 0 0 0 474592042.87577629 216928186.28593636 0 216928186.28593636 -60836792.457382202 0 0 0 0 74495743.526256561 -4552769.1847343445 0 -4552769.1847343445 22386274.725372314 0 0 0 0 461588575.44107056 192349243.15028191 0 192349243.15028191 49416169.017410278 0 0 0 0 2085242.9568129927 -1660728.5561701283 0 -1660728.5561701283 -2120169.8032959923 0 0 0 0 301568672.71419907 45638598.736385345 0 45638598.736385345 79808838.9061203 0 0 0 0 24397190.830931664 43859116.607638359 0 43859116.607638359 137730915.33319855 0 0 0 0 144046608.00762653 138002243.19420433 0 138002243.19420433 89868624.205345154 0 0 0 0 439480299.99417686 116010040.61514664 0 116010040.61514664 -25472645.787910461 0 0 0 0 508354227.99682236 2839686.9974746704 0 2839686.9974746704 12475031.446785927 0 0 0 0 621376074.25427246 41672545.121046066 0 41672545.121046066 -277861292.70819092 0 0 0 0 96226217.973007202 71288251.661651611 0 71288251.661651611 206437037.41225433 0 0 0 0 255941147.42195129 133760507.71681213 0 133760507.71681213 -121135959.52346802 0 0 0 0 326489319.19300079 241717516.56297493 0 241717516.56297493 30242882.165916443 0 0 0 0 1213964.2076224089 -189194.53543303907 0 -189194.53543303907 -482992.8653610684 0 0 0 0 -37046259.561263084 -86789290.721133232 0 -86789290.721133232 19087136.531280518 0 0 0 0 219210822.79180908 146968929.68898392 0 146968929.68898392 -158582776.43323517 0 0 0 0 753989177.35177231 225978586.45439911 0 225978586.45439911 -150918615.17864418 0 0 0 0 673326543.02035904 -93347358.856430054 0 -93347358.856430054 -1967962.2967453003 0 0 0 0 463139599.17490864 6604538.9600124359 0 6604538.9600124359 375068212.17428589 0 0 0 0 324028714.34666634 508904269.3210907 0 508904269.3210907 160489818.52947235 0 0 0 0 4699211.0333560556 4243102.1680139713 0 4243102.1680139713 3867337.3414927125 0 0 0 0 56272503.199460983 9877330.8683395386 0 9877330.8683395386 582783304.78302002 0 0 0 0 830447486.05080509 391009327.20243835 0 391009327.20243835 -219846158.94093323 0 0 0 0 603567052.15746307 436224065.38394165 0 436224065.38394165 296137667.84961224 0 0 0 0 696900243.8600235 202222041.27417326 0 202222041.27417326 -262622202.75066757 0 0 0 0 8646483.9665280879 10829496.785468385 0 10829496.785468385 12976862.271610141 0 0 0 0 -10205343.024089813 -87379885.168888092 0 -87379885.168888092 77236082.349330902 0 0 0 0 -299237299.42254639 -75985475.146863937 0 -75985475.146863937 -110539594.06287003 0 0 0 0 56311431.296073914 53291567.606964111 0 53291567.606964111 -45271583.231964111 0 0 0 0 -162439416.54674149 87871880.241405487 0 87871880.241405487 73966687.280959666 0 0 0 0 -145912701.93560791 259809804.71886826 0 259809804.71886826 -172853220.32817078 0 0 0 0 -186878687.29789352 132437714.4998455 0 132437714.4998455 31059345.182731628 0 0 0 0 -258992938.8567276 177481013.22199631 0 177481013.22199631 39824362.868263245 0 0 0 0 -229488537.75494766 146139360.29893112 0 146139360.29893112 47384913.728878021 0 0 0 0 -644901227.03026962 286826350.02791595 0 286826350.02791595 -124646.99460411072 0 0 0 0 -179912575.29693508 511562781.314744 0 511562781.314744 -256821479.34830475 0 0 0 0 -8254812.2197723389 242765230.13581848 0 242765230.13581848 -177618054.84455109 0 0 0 0 183508068.61160278 410915537.34476852 0 410915537.34476852 -349616725.4977417 0 0 0 0 -91162963.568529129 326434072.01767159 0 326434072.01767159 -259336860.29356384 0 0 0 0 185976288.69017029 213677538.44905472 0 213677538.44905472 -348039209.64954948 0 0 0 0 -28284793.870536804 172892136.5185585 0 172892136.5185585 -328345129.33070755 0 0 0 0 221049901.82675171 497526338.14894867 0 497526338.14894867 252153496.54606152 0 0 0 0 10887567.987120852 3976988.4017916359 0 3976988.4017916359 -14878447.457352936 0 0 0 0 88601185.467453003 858359160.41617584 0 858359160.41617584 537111109.17378235 0 0 0 0 4720346.4924087524 -99608576.002449036 0 -99608576.002449036 624103231.09320068 0 0 0 0 -661341501.48634624 240574848.77868462 0 240574848.77868462 62312497.034263611 0 0 0 0 -1164011.5638032705 8581481.9445495903 0 8581481.9445495903 7805644.0371661931 0 0 0 0 10203230.678823471 141000995.94111061 0 141000995.94111061 -378389083.09651184 0 0 0 0 -558695098.627285 15537766.712200165 0 15537766.712200165 64537403.588577271 0 0 0 0 24600440.205101967 41585508.552535102 0 41585508.552535102 48858511.791368045 0 0 0 0 -360898252.1764679 1925202.7678794861 0 1925202.7678794861 31867792.195293427 0 0 0 0 -313670572.67718887 248243255.76260757 0 248243255.76260757 31772014.354789734 0 0 0 0 15343102.664180756 95887265.437255859 0 95887265.437255859 -8565665.9817123413 0 0 0 0 15104506.724715233 93924106.883289337 0 93924106.883289337 -24718341.108882904 0 0 0 0 38941141.82314086 83680449.863177776 0 83680449.863177776 -31598059.21023941 0 0 0 0 -74373216.006401062 407999478.96515656 0 407999478.96515656 45461685.302539825 0 0 0 0 -172196842.80505753 134018355.56668854 0 134018355.56668854 209954343.77243805 0 0 0 0 -185713408.42672348 227413813.8270874 0 227413813.8270874 -293639655.07341194 0 0 0 0 -464377891.39056396 421221869.97835541 0 421221869.97835541 -37357656.344150543 0 0 0 0 -329507851.75595474 350091941.15613556 0 350091941.15613556 32568985.922267914 0 0 0 0 -182141080.71419144 275144320.32447815 0 275144320.32447815 -14101865.00112915 0 0 0 0 -322877008.54008484 325949837.788414 0 325949837.788414 -119396138.34603119 0 0 0 0 14593679.113063812 334583866.01977158 0 334583866.01977158 -35160507.603045464 0 0 0 0 127732556.13518906 232950934.66629982 0 232950934.66629982 -13635104.451026917 0 0 0 0 -107523336.44504547 248653692.31574059 0 248653692.31574059 -38165621.158889771 0 0 0 0 -75417328.755050659 269865050.5866642 0 269865050.5866642 -40379911.706850767 0 0 0 0 772910.4294154644 572861.18691613898 0 572861.18691613898 -897493.75417077541 0 0 0 0 -405186917.33624589 506017162.62034935 0 506017162.62034935 -31824577.71647644 0 0 0 0 22197361.077884376 34797038.435906596 0 34797038.435906596 50632581.412291013 0 0 0 0 -58025140.834136963 166279383.37940598 0 166279383.37940598 -68385065.28660965 0 0 0 0 -124860556.82857132 115507639.58690834 0 115507639.58690834 -31393783.444437027 0 0 0 0 -31000954.326946259 107375051.62691307 0 107375051.62691307 -93582441.66595459 0 0 0 0 -421651879.43237966 208473689.40035868 0 208473689.40035868 -265181961.92137146 0 0 0 0 -431498539.44068527 567024933.16059875 0 567024933.16059875 -212376995.27013803 0 0 0 0 44380686.617328644 77344353.701341629 0 77344353.701341629 -28587908.240127563 0 0 0 0 53163395.175453186 78765710.501924515 0 78765710.501924515 -44152579.302419186 0 0 0 0 20582055.108974457 100627598.59146786 0 100627598.59146786 -37971879.938533783 0 0 0 0 -71363613.087352753 123457472.10500717 0 123457472.10500717 -22834209.647315979 0 0 0 0 -11187029.204166412 77313156.369308472 0 77313156.369308472 -23646153.680397034 0 0 0 0 29574570.797721863 101770178.22484016 0 101770178.22484016 -66616637.807928085 0 0 0 0 -31465970.998603821 117453072.16374493 0 117453072.16374493 -34760473.822982788 0 0 0 0 7587113.437582016 93023301.316224098 0 93023301.316224098 -28993885.071563721 0 0 0 0 18766041.888839722 103484644.74185181 0 103484644.74185181 -62192049.566980362 0 0 0 0 71387540.152664185 78252959.626928329 0 78252959.626928329 -43016772.182134628 0 0 0 0 58290542.220291138 54320637.913217545 0 54320637.913217545 -5832908.5996818542 0 0 0 0 45234723.750400543 74797832.611347198 0 74797832.611347198 -21195339.51392746 0 0 0 0 77548465.333467484 68720023.159614205 0 68720023.159614205 -30720517.890655518 0 0 0 0 112204377.18204546 71399023.162631869 0 71399023.162631869 -3421642.6803207397 0 0 0 0 56610664.01089859 48319210.062778473 0 48319210.062778473 73086526.399700165 0 0 0 0 76472045.301292419 43484488.872253418 0 43484488.872253418 -16317465.380112648 0 0 0 0 22111478.542472839 81193126.332233429 0 81193126.332233429 -2179336.4035644531 0 0 0 0 887163.18074035645 68308998.28196907 0 68308998.28196907 -16292948.41194725 0 0 0 0 36941100.316574097 89100369.853273392 0 89100369.853273392 -10027536.046928406 0 0 0 0 112017367.74529266 67383383.39878273 0 67383383.39878273 41797485.425804138 0 0 0 0 57102001.006477356 26191842.652606964 0 26191842.652606964 17844517.526866913 0 0 0 0 58910221.02023875 56278973.591304757 0 56278973.591304757 45382472.430742517 0 0 0 0 125706144.86205292 -20973248.760761261 0 -20973248.760761261 48461605.359828949 0 0 0 0 -82221878.305419922 235707539.49047083 0 235707539.49047083 -75262863.790959954 0 0 0 0 19842367.793447442 30815813.009509817 0 30815813.009509817 41777360.605230451 0 0 0 0 -127034125.18146896 220038610.1858902 0 220038610.1858902 -96498276.464420319 0 0 0 0 -27296871.714691162 126410040.64792824 0 126410040.64792824 -139792209.04649067 0 0 0 0 -10366321.407402039 130882506.76172066 0 130882506.76172066 -68462961.518648148 0 0 0 0 -55174778.055675507 80488909.929533005 0 80488909.929533005 -2240858.1170959473 0 0 0 0 18693318.85736084 40649175.377429962 0 40649175.377429962 43930531.03263092 0 0 0 0 23199139.47598362 106098679.14618611 0 106098679.14618611 2317607.2256851196 0 0 0 0 -175131016.61267853 73865004.078308105 0 73865004.078308105 14396948.676652908 0 0 0 0 -34739080.714347839 133204947.90981483 0 133204947.90981483 50914688.973012924 0 0 0 0 -11277622.201465607 145408465.01842785 0 145408465.01842785 37422750.016036987 0 0 0 0 -160183661.25131226 210220590.60948944 0 210220590.60948944 44028763.250944376 0 0 0 0 14788076.374244258 22319294.68787948 0 22319294.68787948 28404427.927955553 0 0 0 0 -82226729.22819519 344732431.16993332 0 344732431.16993332 265498194.61871433 0 0 0 0 -158300386.47816467 202207931.56427574 0 202207931.56427574 162479644.3667984 0 0 0 0 -1194772700.4199181 637850142.92971802 0 637850142.92971802 -18071531.652496338 0 0 0 0 -77388553.828437805 709892346.89472961 0 709892346.89472961 -221915770.37241364 0 0 0 0 3174536.8107590973 1681159.2230603285 0 1681159.2230603285 -279291.20361587405 0 0 0 0 -368033466.17375994 -71451212.170959711 0 -71451212.170959711 -124876020.03262711 0 0 0 0 2051739851.4617462 -310368782.68251801 0 -310368782.68251801 -682135381.25422668 0 0 0 0 562801835.93601608 -880929583.89769363 0 -880929583.89769363 -391088538.01870346 0 0 0 0 2695361080.9439392 2196314456.265976 0 2196314456.265976 2860756073.7536469 0 0 0 0 6026783.4081844911 688592.4743531011 0 688592.4743531011 -2540032.9253905267 0 0 0 0 -18103182.884742022 -521811321.83350623 0 -521811321.83350623 -271569549.62176514 0 0 0 0 -42560301.468444824 -363662366.0826149 0 -363662366.0826149 630154792.41828156 0 0 0 0 -607488202.69169998 -424414153.22058296 0 -424414153.22058296 313254483.59973145 0 0 0 0 -681643688.94874954 -641443750.53656769 0 -641443750.53656769 -321329863.50791931 0 0 0 0 356393203.60132599 483527203.54481125 0 483527203.54481125 -554868625.08045959 0 0 0 0 378030928.83850861 711829866.64440155 0 711829866.64440155 176583411.31121826 0 0 0 0 -666146902.2469101 -1929397902.8540726 0 -1929397902.8540726 -1242616933.2906952 0 0 0 0 846944284.73072815 1283483619.2904167 0 1283483619.2904167 817895183.23854828 0 0 0 0 1878376913.6337585 -3110444.6948494911 0 -3110444.6948494911 -473828569.3874054 0 0 0 0 26220003.721035779 -1190795.6444011554 0 -1190795.6444011554 2001270.6047400311 0 0 0 0 307743479.37356567 725598441.02794647 0 725598441.02794647 2512870068.7756152 0 0 0 0 334565815.3026123 -488840057.06370163 0 -488840057.06370163 28057845.713876724 0 0 0 0 164630265.31382179 -170335722.31403828 0 -170335722.31403828 -287484744.72357941 0 0 0 0 1071738778.4381599 484615813.71040344 0 484615813.71040344 10622147.751937866 0 0 0 0 170297358.99420905 -26323527.423036337 0 -26323527.423036337 1132524452.2377167 0 0 0 0 406404780.85325623 620499411.59526062 0 620499411.59526062 874565102.13779068 0 0 0 0 2175362393.9331779 1287437653.6349201 0 1287437653.6349201 633041563.60782242 0 0 0 0 910226524.79543686 114747429.60009384 0 114747429.60009384 -17744629.720436096 0 0 0 0 832823504.95063782 42162650.87894249 0 42162650.87894249 -625687667.13716507 0 0 0 0 1345408693.6236229 69517311.971942902 0 69517311.971942902 -458200206.2640686 0 0 0 0 642861864.13642311 -124421933.99398613 0 -124421933.99398613 -453290570.70801544 0 0 0 0 607620945.19400024 385895122.02515793 0 385895122.02515793 -273559510.75199127 0 0 0 0 542297266.23731995 116053695.94673157 0 116053695.94673157 -234865889.4701767 0 0 0 0 334689746.76955414 131438854.09453583 0 131438854.09453583 -234318400.60434151 0 0 0 0 369889725.91645813 394280536.15777588 0 394280536.15777588 -273460904.01896191 0 0 0 0 439124817.24089813 22137977.758281708 0 22137977.758281708 -928456546.66807938 0 0 0 0 464754421.61903763 182966659.17516136 0 182966659.17516136 -557594313.53108215 0 0 0 0 509425203.50649643 14760287.533214569 0 14760287.533214569 -278796214.57856965 0 0 0 0 501868456.61441326 38355085.12404871 0 38355085.12404871 -239007275.36087036 0 0 0 0 488112644.18032837 -61866579.781604767 0 -61866579.781604767 -410485596.99880981 0 0 0 0 67305467.722686768 -54003476.578483582 0 -54003476.578483582 -250848440.96400833 0 0 0 0 -105646344.17338181 134504051.9695034 0 134504051.9695034 -104747816.69728851 0 0 0 0 242823171.55529594 192984286.11367607 0 192984286.11367607 -101298485.21996307 0 0 0 0 -205598518.21443176 102763080.63412094 0 102763080.63412094 -196846649.97907257 0 0 0 0 118304437.87976837 21500917.827732086 0 21500917.827732086 -185705524.38079834 0 0 0 0 -302893550.89227104 -340053836.06677246 0 -340053836.06677246 -133875090.66589355 0 0 0 0 471379273.88150787 -311752368.51734543 0 -311752368.51734543 -205150479.8572464 0 0 0 0 634025380.00777054 -135236748.03493881 0 -135236748.03493881 -398952942.01081133 0 0 0 0 
</DataArray>
<DataArray type="Float64" Name="cross_section_updated" format="ascii">
1 1 1 1 1 0.0077799116128846532 1 1 1 1 1 1 1 0.0088415341265212014 1 1 1 1 0.0071810738784221003 1 1 0.010713850141578787 1 1 1 1 0.00053212527098088665 1 1 1 1 0.0042981231099182005 1 1 1 1 1 1 1 1 1 1 1 1 1 0.0096316158154838155 1 1 0.0099718836892210439 1 1 1 1 1 0.0096325402771011079 1 1 1 1 1 1 1 3.979750510349836e-05 1 1 1 1 0.0091894959903350056 1 1 1 1 1 1 1 1 1 0.0073430504294083165 1 1 0.01063164085176331 1 1 0.012118212231792394 1 1 1 1 0.0099918870829043081 1 1 1 1 1 1 1 0.009269099425941979 0.0099887492514832629 0.0090314493882943311 1 1 0.0088504259409274283 1 1 1 1 1 0.0098117968022692972 1 1 1 1 1 1 1 1 1 1 1 1 1 0.010127272273316501 1 1 1 0.010531271337196647 1 1 1 1 1 1 0.010309209308247191 1 1 1 1 1 1 1 1 1 1 1 1 1 1 1 1 1 1 1 1 1 1 1 1 1 0.0098771652868218512 1 1 1 0.0072667913002296899 1 1 0.010214364269862684 1 1 1 1 1 1 1 1 1 1 1 0.0099269319754997781 1 1 1 1 1 1 1 1 0.0095540724505445568 1 1 1 1 1 1 1 1 0.0095665531641942331 1 1 1 1 1 1 1 1 1 0.0090288098263874399 1 1 1 1 1 1 1 1 1 1 1 1 1 1 1 1 1 1 1 1 1 1 1 0.0099931803200008357 1 1 1 1.6243363563928082e-09 1 0.010089211164189552 1 0.0072268184153805419 1 1 0.014329307064184248 1 1 1 0.01280798276705377 1 0.0067023369980914217 1 0.0096583414283163312 1 0.0080680577654256153 0.005993674923923744 1 0.0089566445857106134 1 1 0.0079569016267854419 1 0.01271466732712636 1 1 1 0.0073692605026907335 1 0.0082322836410558264 0.010696506549812313 1 1 0.012061088613720239 1 1 1 0.0089618755088848694 1 0.014148601752815772 0.011820618506183753 0.008207654904851841 1 0.01021217278119441 1 1 1 0.009912547628148298 1 0.011134254451148372 0.0077831986975823511 0.009629087576996806 1 1 0.012579233707445372 0.013346089473358776 1 1 1 1 0.017209554413442053 1 0.010022745987774771 1 1 0.012505974805997432 1 1 1 0.0088921550702739435 1 0.0092694270598673283 0.0072740038515758006 0.0093309957827368752 1 1 1 0.011698562832234043 1 0.0078517567855499529 0.014262226872903638 0.010367912838344477 0.01314500516629407 1 1 1 0.0084327162431061461 0.009999370390854391 1 1 0.0049188844631149614 0.013417022505636263 0.013589398700628983 1 0.011716355925228168 1 1 1 1 0.0099772221736140893 1 1 1 1 1 1 1 0.012307341760264589 1 1 1 1 1 1 0.0087313943789606024 0.0099853319643865551 1 1 1 0.012842432236498114 1 1 1 0.010008341100620892 1 0.013675658110855828 1 0.0066196725753252103 0.014769616957895641 1 1 1 1 0.0098713178109972755 1 1 0.017720716526209206 1 1 1 1 0.0099432567076368043 1 0.0099919165729830464 1 1 1 1 1 0.0076738011083211724 0.016724684941222784 1 1 1 1 1 1 1 1 0.0099270518355496027 1 1 1 0.0093778030978698898 1 1 0.0090045944649080698 1 0.0099988864948566715 1 1 1 1 1 1 1 1 1 1 1 0.014169041415530837 1 0.007452853079226154 1 0.013355806746912453 1 1 1 0.0094770487838657744 1 0.010070259151030009 1 0.0083179814878090869 1 1 1 1 1 1 0.010959088112369 1 0.0073161736812153624 1 1 1 0.011697802641347477 1 1 1 0.014407925769211148 1 0.0074316202031204613 0.016513638190559846 1 1 1 1 0.0077609664517862519 1 1 1 1 0.0025373237824966423 0.017451898622793106 1 1 0.014366721706536193 1 0.012793665833068305 1 0.012242952995076516 0.013171737912468548 1 1 1 0.0099544548047423818 1 1 1 1 0.0056911607394116055 1 1 1 1 1 1 1 1 1 1 1 0.009969322451292572 1 1 1 1 0.013383087251784387 1 1 1 0.0063711874358342996 1 0.013614679175574199 0.010087333916986529 0.0099990879206406837 1 1 1 0.015795497782427358 0.007370285251171468 1 0.004362001587936459 1 1 0.0086612945487177587 1 1 1 1 0.0076374658306964998 1 1 1 1 1 1 1 1 1 1 1 0.0046448043283713689 0.021142176071146573 1 1 0.0054517482664621243 1 1 1 0.010074035031705557 1 1 1 1 1 1 0.014489584414447206 1 1 1 0.008908610004849403 1 1 1 0.0086294042025499805 1 1 1 1 1 1 1 1 1 1 1 0.015528891038923477 1 1 1 0.016386115027386648 1 1 1 1 1 1 1 0.0088568970700920215 1 1 1 1 1 0.0068379916122329699 1 1 1 1 1 1 1 1 1 1 1 1 1 1 1 1 1 1 1 0.011171728365211055 1 1 1 1 0.010912378068967728 1 1 0.010378444000983277 1 1 1 1 1 1 1 0.010359209369667007 1 1 1 1 1 1 1 1 0.0099735889541949091 1 0.011088468096150557 1 1 0.0083476899702457502 1 1 1 0.0088723130567226749 1 1 0.011379125803244149 1 1 1 0.0088104114590105975 1 0.0097053632332431208 1 1 0.010009792156652372 1 0.0097406381288049834 1 1 1 1 1 1 1 1 1 1 1 1 1 1 1 1 1 1 1 1 1 1 0.0099544990897635893 1 0.0092273897372175395 1 0.0097500140231311927 1 1 1 1 1 1 1 1 1 1 1 1 1 1 1 0.0099485046798266606 1 1 1 1 1 1 1 1 1 0.010005994409936934 1 1 1 1 1 1 1 1 1 1 1 1 1 1 1 1 1 1 1 1 1 1 1 1 1 1 1 1 1 0.009907491339825724 1 1 0.010037720580219296 1 1 1 0.007873355860034674 0.014405423410577545 1 0.014229906401846119 1 1 1 1 1 0.0079667085099800767 1 1 1 1 1 0.0082142110009385989 1 1 1 1 1 1 1 1 1 1 1 1 1 1 1 1 1 1 1 1 1 1 1 1 1 1 1 1 1 1 1 1 1 1 1 1 1 1 1 1 1 1 1 1 1 1 1 1 1 0.010713409268259574 1 1 1 1 1 1 1 1 1 1 1 1 1 1 1 0.013567928215822402 1 1 1 1 0.011523238454147551 1 1 1 1 1 1 1 1 1 1 1 1 1 1 1 1 1 1 1 1 1 1 1 1 1 1 1 0.010484345048873876 1 1 0.0077125536878667328 1 0.0059250722966649426 0.011644989348758177 0.010684797456158213 0.016552908867374826 1 1 0.009902197660943619 1 1 1 1 1 1 1 1 1 1 1 1 1 1 1 1 1 0.0049586776291507366 1 1 0.010525855282864788 1 0.010900129270745254 1 1 1 1 0.0040993827024247455 1 0.0071319628745833835 1 1 1 1 0.0094303506924949543 1 1 1 0.010356730238765389 1 1 1 1 1 0.0088821513763321369 1 0.011641224476673324 1 1 0.0093475023636373014 0.011736680419389522 1 0.010142344781202045 1 1 1 1 1 1 1 1 1 1 1 0.004318682086436835 1 1 1 0.0069863438170120048 1 1 1 0.0079145337066149311 1 1 0.0011550864928553013 0.010003963218836757 0.0099800036413463106 1 1 1 1 1 1 1 1 1 1 1 0.0098077890424602323 1 1 1 1 1 1 1 1 0.00055086440854067078 3.0389447694401106e-09 2.8836806241494539e-09 1 1 1 1 1 1 1 1 0.0016171763413907886 0.0099054054571823744 1 1 1 0.0090753093417417288 1 1 0.0078916080824396866 1 1 1 1 1 1 1 1 1 1 1 0.0092744205950572554 1 1 1 1 1 1 1 1 0.0094197552396304181 1 1 1 1 1 1 1 1 1 1 0.010009326682788144 1 0.011771316913459218 0.010773756881218594 0.0036101199311910403 1 1 1 1 1 1 1 -2.0605898758130348e-10 -1.7024882371929895e-10 1 0.01142637187587742 1 1 1 1 1 0.011395141878852629 1 0.0098697220472496461 0.0080232926240428812 1 1 1 0.0083181550645557364 1 0.0084393916535152741 1 1 1 1 0.009848258715872308 1 1 1 1 1 1 1 1 1 1 1 1 1 1 1 1 1 0.012031708043317525 1 1 1 0.0088458759694389974 1 1 1 1 1 0.010908587047960355 1 1 1 1 1 1 0.0093323991684622701 1 0.0097686451042923936 1 1 1 1 1 1 1 1 0.008505753995100656 1 1 1 0.014097710525663441 1 1 1 1 1 1 1 1 1 1 1 1 1 1 1 1 1 1 1 1 1 1 1 1 1 0.0079682683187965366 0.010499046025571983 0.017921255366511409 1 1 1 1 0.0095087998381502229 1 1 1 1 0.0089558178133003728 1 1 1 1 1 1 1 0.011198248189065035 1 1 1 1 1 1 1 1 0.012067399455748702 1 1 1 1 1 1 1 1 1 1 1 1 0.012642396272083791 1 1 1 1 1 1 0.010834796966859465 1 1 1 1 1 1 1 1 0.0094663628044432801 1 1 1 0.016455387303283716 1 1 1 1 1 1 1 1 1 1 1 1 0.010869151266683662 1 1 1 1 1 1 1 1 1 1 1 1 1 1 1 1 1 1 1 1 1 1 1 1 1 1 1 1 1 1 1 1 1 1 1 1 1 1 1 1 1 1 1 1 1 1 1 0.0096026680599671475 1 1 1 1 1 1 1 1 1 1 1 1 1 1 1 1 1 1 1 1 1 1 1 1 0.011107261642858794 1 1 1 1 1 1 1 1 1 1 0.0098867412456699472 1 1 0.012970978848138089 1 1 1 1 1 1 1 1 1 0.0095249393904287202 1 0.0091441141419302263 1 1 1 1 0.014297982211030319 1 1 0.0091380464039134551 1 0.0082169937248057802 1 1 1 1 1 0.0084116266699392171 1 1 1 1 1 1 1 1 0.012091551788227448 1 1 1 1 1 1 1 1 1 1 1 1 1 1 0.008443974169596434 1 0.011831329032263201 0.0097521498607084194 1 1 1 1 1 0.0099209676177483934 1 1 1 1 1 1 1 1 1 1 1 1 1 1 1 0.0094159926736034211 1 1 1 1 1 1 1 1 1 1 1 1 1 1 1 1 0.0098875565773638673 1 1 1 1 1 0.0058023078657468679 0.0092818538767282122 1 1 0.0077704141314156473 1 1 1 1 1 1 1 1 1 1 0.0084601322922071166 1 1 1 1 1 1 1 1 1 0.0055762023598653968 1 0.028247284040677778 1 1 1 1 1 0.0090546786187823761 1 1 1 1 0.026991165622893228 1 1 1 0.0063700067445935848 1 1 1 0.024244042952029182 1 1 0.0085752667541584612 1 1 1 1 1 1 1 1 1 1 1 1 1 1 1 1 0.0074393521037134265 1 1 1 1 1 1 1 0.0090022866562162723 1 1 1 1 1 1 1 1 1 1 1 1 1 1 1 1 1 1 1 1 1 1 1 1 1 1 1 0.022025225460076556 1 1 1 1 0.0095076269082811672 1 1 1 -7.7656466847264571e-10 1 1 1 1 1 1 1 1 1 3.0407944131422004e-10 1 0.01001684242833244 1 1 1 1 1 1 1 1 1 1 1 1 1 1 1 1 1 1 0.0099304306521623472 0.019696841279061326 1 1 1 0.0060267153693473342 1 1 0.01593931187899799 1 1 0.010535927680236812 1 1 1 0.0097608649278271079 1 1 0.010168874141819991 1 1 1 1 1 1 1 1 1 1 1 1 1 1 1 1 1 1 1 1 0.0096484215051909732 1 0.011894078605412467 1 1 1 1 1 1 1 1 1 1 1 0.014643676906352796 1 0.016053489252084999 1 1 1 0.0016661380058027326 1 1 1 1 1 0.0098181940549686049 1 1 1 1 1 1 0.0055481691415499197 1 1 1 1 1 1 1 1 1 1 1 0.0081508501443652067 1 1 1 1 1 1 1 1 2.104500906874307e-09 1 1 1 0.006935476824597421 1 1 0.010544814370103777 1 1 1 1 1 0.012320924273186044 1 1 1 1 1 1 1 1 1 0.010146450637905991 1 1 0.020144050248670352 1 0.014497536623696785 1 0.0063849170782444287 0.014808633841885967 0.012219668648607993 1 0.009805968716191776 1 1 1 1 1 1 0.0068754432034530862 1 1 1 1 1 1 0.010890899043722554 1 1 1 1 1 1 1 0.0066443634244549438 1 1 1 1 0.0064328551086468306 1 1 1 1 1 0.013769129162772871 1 0.009965870640009639 1 1 1 1 1 1 1 1 1 1 0.012460568908198046 1 1 1 1 1 1 1 0.0041117933689728504 1 1 1 1 1 1 1 0.010014771795416787 1 0.01378068598998029 1 1 1 1 1 1 1 1 0.018824668935034233 1 1 1 0.015772955964592786 0.010037717516224808 1 1 1 1 1 0.018159571406811795 0.00999073758506391 1 0.018422598337793868 1 1 0.0030115206509407923 1 1 0.0024797327107625327 1 1 1 1 1 1 1 1 0.000189743302962619 1 1 1 1 1 0.022777167381594399 1 1 1 1 0.018387035079912704 1 1 0.017272975626730979 1 1 1 1 1 1 1 1 1 1 1 1 1 1 1 1 1 1 1 1 1 1 1 1 1 1 1 1 1 1 1 1 1 1 1 1 1 1 1 1 1 0.0088394978036335174 1 1 0.010223855352191714 1 1 1 1 1 0.011218561707094184 1 1 1 1 0.0088574079559738499 1 1 1 1 1 1 1 1 1 1 1 1 1 1 1 1 1 1 1 1 1 1 1 1 0.011278167662827413 1 1 1 0.010608004821028669 1 1 1 1 1 1 0.010315648879725478 1 1 1 1 1 1 1 1 1 1 1 0.010953974412011893 1 0.0063307797748218828 0.013244945923237439 1 1 0.011617657240976558 1 1 1 1 1 1 1 1 1 1 1 0.015228911131545793 1 1 0.013088952495859072 1 1 1 1 1 1 1 1 1 1 1 1 1 1 1 0.013267850446889249 1 1 1 1 1 1 1 0.0099646677003559763 1 0.012031367595934364 1 1 1 1 0.0038326854714063044 1 0.0081368502561519705 1 1 1 1 1 1 1 1 1 0.0069956610708031049 1 1 1 1 1 1 1 1 1 1 1 1 1 1 1 1 1 0.0057880557448420546 1 1 1 1 1 1 1 1 1 1 1 1 1 1 1 1 1 1 1 1 1 1 1 1 1 0.0077797848374930572 0.0094205672455137078 1 1 1 1 1 1 1 1 1 1 1 0.0075812140642345285 1 1 1 1 0.0034523400144339843 1 1 1 1 0.0046748847520233019 1 1 1 1 1 1 1 1 0.012492093047593491 1 1 1 1 1 1 1 1 1 0.010323034671158283 1 1 1 1 1 1 1 1 1 1 1 1 1 1 1 1 1 1 1 1 0.0012303320465122738 1 1 1 1 1 1 1 1 1 1 1 1 1 1 0.012673200586841368 1 0.010338452733877264 1 1 1 1 1 1 1 1 0.011730489767453214 1 1 0.010654101613602739 1 1 1 1 1 1 1 1 1 1 1 1 1 1 1 1 1 1 1 1 1 1 1 1 1 1 1 1 1 1 1 1 1 1 1 1 0.010347173313040647 1 1 0.010305240880067292 1 1 1 1 0.0086276881744061507 1 0.012051419511059995 1 1 0.010190045986656262 1 0.012246038899447909 1 1 1 1 1 0.01103978156658194 1 1 1 1 1 1 1 1 1 1 1 1 0.00090672408152309147 1 1 1 0.0071782969599669347 1 1 1 1 1 1 1 1 1 0.013374377661985577 1 1 1 1 0.01139661854777905 0.0093373541281971915 1 1 1 1 1 1 1 1 0.010016747024869453 1 1 1 1 1 0.02080401080953059 1 1 1 0.017007201818684439 1 1 1 0.002426927641275901 1 1 1 1 0.013301606366285199 1 1 1 1 1 1 1 1 1 1 1 1 1 1 0.00068512289426317634 1 1 1 1 1 1 0.0083749594112441494 1 0.001721383894480755 0.010004247296101484 1 0.0094961581211134832 1 0.013981773884387753 1 1 1 1 0.0096431588656156406 1 1 1 1 0.009076135057210187 1 1 1 1 1 1 1 1 1 0.010972674542559221 1 1 1 1 1 1 1 1 1 1 1 1 1 1 0.012178931875425186 1 1 1 0.0099954428487248215 1 1 1 0.009905029890597437 1 0.010262107335070133 1 1 1 1 1 1 1 1 1 1 1 1 1 1 1 1 0.01102383001966971 1 1 1 1 1 1 0.013385454563616421 1 1 1 1 1 1 1 1 1 1 1 1 1 1 1 1 1 1 0.021566650176199353 1 1 1 1 1 1 1 1 1 1 1 1 1 1 1 1 1 1 1 1 1 1 1 1 1 1 1 1 1 1 1 1 1 1 0.0089812188992576779 1 1 1 1 0.010072260379349825 1 1 1 1 1 1 1 0.017084241402207122 1 1 1 1 1 1 1 1 1 0.0025341928144238211 1 1 0.021922482596282086 1 1 1 1 1 0.010011300058089395 1 1 1 0.0076445365226173786 1 1 0.010383899974516567 1 1 1 1 1 1 1 1 1 1 1 1 1 1 1 1 1 1 1 1 0.0013519388376255752 1 1 1 1 1 1 1 1 1 1 0.015519956596935953 0.00087382944609694195 1 0.021052070175060715 1 1 1 1 1 0.023223784849214994 1 1 1 1 0.012483491290444897 1 1 1 1 1 0.0094893936474850574 1 0.0096881588151848733 1 1 0.0060702555010387141 1 1 1 1 1 1 1 1 0.0086559202647987273 1 1 1 1 1 1 0.010310458148652786 1 1 1 1 1 1 0.010384104159468388 1 1 1 1 0.011131669714138417 1 1 0.010035049435144307 1 0.011874821722571578 1 1 0.010099804587277487 1 1 1 1 1 1 0.010515884010746379 1 1 1 1 0.0099986207615139558 1 1 1 1 1 1 1 1 0.010112490031747606 0.012893715257457418 1 1 1 1 1 1 1 1 0.0094284430828742716 1 1 1 1 1 1 0.0098747930887742898 1 1 1 1 1 1 1 0.011261649764207168 1 1 1 0.014054354420273521 1 1 1 1 1 1 1 1 1 1 1 1 0.0062285280784008454 1 1 1 1 0.0060106526818668807 1 1 0.0098480644181269585 1 1 1 1 0.0096512840238621653 1 1 1 0.010125709113283705 0.010772570746307546 1 1 1 0.010233199927011084 1 1 1 0.0048879541703959334 1 1 1 1 1 1 1 1 1 0.011725329852477026 1 1 1 0.010057983926972526 1 1 1 1 1 1 1 1 1 1 1 1 0.0075376702853343011 1 0.0099658830147136279 1 1 0.0020536887779633861 1 1 0.0042459935269597883 1 1 1 1 1 1 1 0.010067500319059675 1 1 1 1 1 0.0097791198408717396 1 0.0018777534572280092 1 1 1 0.0088923838160793571 0.010536363575924568 1 0.016852017471683491 0.0046757219492201754 1 0.0048322850590565812 1 1 1 1 1 1 0.010750870992278503 1 0.020750195121974874 1 1 1 1 1 1 1 1 1 1 1 1 1 0.0098942650224603454 1 1 0.01277849293165061 1 0.012324472002161213 1 1 0.015929894347491522 1 1 1 0.012475670546922904 0.0089187805669003334 1 1 0.018488197939556056 1 1 1 1 1 1 1 1 1 1 1 1 1 1 1 1 1 1 1 1 1 1 1 0.0090419381373396356 0.0099718183636111207 1 0.010312820999413649 1 0.0099124011875878978 1 1 0.01000605037219221 0.010355020058425153 1 1 0.0099969785439340767 1 1 0.010474671733872214 1 1 0.0095828752165887168 1 0.01000598517192763 1 1 1 1 0.010037305298175488 1 1 1 1 0.0096718757857597523 1 0.0088462279441967918 0.011067163415447886 1 0.011267872172095132 1 1 0.0095787499090528513 0.0082454285367046 1 1 1 0.010068702584510885 1 1 1 1 0.012967109039047291 0.0088072158880108595 1 1 1 1 1 0.0098502779033490528 1 1 1 1 1 1 1 1 1 1 1 0.012297587726114915 1 0.0068024069960794659 1 0.0040059114967485945 1 1 0.010007006153475599 1 0.0031262825972293955 1 1 1 1 1 1 1 1 0.009855487791091945 1 1 0.011596966486695877 1 1 1 1 0.01000135067452149 1 1 1 1 1 1 1 1 1 1 1 1 0.010163605149474897 1 1 1 1 1 1 1 1 1 1 1 0.010259223897630799 1 1 1 1 1 1 0.010323414208854249 1 0.010920749830319152 1 1 0.010737455551531201 1 1 1 1 1 1 1 1 1 1 1 1 1 1 1 1 1 0.0084112547575291678 0.0081128166144819863 1 1 1 0.0098267717611341746 1 1 0.006591805455974575 1 1 1 1 1 1 1 1 1 1 1 1 1 1 1 1 1 1 1 1 1 1 1 1 1 0.010017952755075273 0.0014540764097472278 1 1 1 1 1 1 1 1 1 1 1 2.4064678028068442e-10 1 1 1 1 1 1 1 1 1 1 1 1 1 1 1 1 1 1 1 1 1 1 1 1 1 1 1 1 1 1 1 1 1 0.0095339580114103192 1 1 1 1 1 0.0094663030735334941 1 1 0.01223593784325238 1 1 0.0065542597467971603 0.024281422834087622 1 1 1 1 1 1 1 1 1 1 1 1 1 0.023793514217607545 1 1 0.010759145889519808 1 1 1 1 1 1 0.0099827955622301349 1 1 0.022428888108964498 1 1 1 1 1 1 1 1 1 1 1 1 1 0.020789323810384591 1 1 1 1 1 1 1 0.0099756607226971772 1 1 1 1 1 1 1 1 1 1 1 1 0.010518551258741229 1 1 0.010195137049886994 1 1 1 1 1 1 1 1 1 1 1 1 1 1 1 1 1 1 1 1 0.018068158798861225 1 1 0.01030556468093554 1 0.013660496858190745 1 1 1 0.0098895718132227042 1 1 0.0056968115630621485 1 0.014893844304714582 1 1 1 0.0055492115732499112 1 1 1 1 0.0098350240125176062 1 1 1 1 1 1 1 0.0096125877118793026 1 1 1 0.0085545364800289608 1 1 1 1 1 1 1 1 1 1 1 1 0.011256561108295 1 1 1 1 1 1 1 1 0.01049158413674579 1 1 1 1 1 1 1 1 1 1 1 0.0083264926270755907 1 1 1 1 1 1 1 1 1 1 1 1 1 1 1 1 1 1 1 0.011404607158775549 0.0072242195541883866 1 1 1 0.0090844307909575955 1 1 1 1 1 1 1 1 1 1 1 1 0.01084343890800225 1 1 1 1 1 1 1 1 1 0.012327133106180534 1 1 1 1 1 1 1 1 1 1 1 1 1 1 1 1 0.0041337559019317804 1 0.0087833413308963815 1 1 1 1 1 0.005666324893673488 1 1 1 1 0.010100163106925044 1 1 1 0.010049359512543597 1 1 1 0.0070204786249906236 1 1 1 1 1 1 1 1 1 0.0089366046739473171 1 1 1 0.0071309281321376376 1 1 0.0094381732380140783 1 1 1 1 1 1 0.0096658348966817964 1 1 1 1 1 1 1 1 0.0093000306992035188 1 1 1 0.0095341886995209055 1 1 1 1 1 1 1 1 1 1 1 1 1 1 1 1 1 1 1 1 1 1 1 1 1 1 1 0.0082581420536648794 1 1 1 1 1 1 1 0.0092381671061976724 1 1 1 1 1 1 1 1 1 1 1 1 1 1 1 1 1 1 1 1 1 1 1 1 1 0.010018498688454336 1 0.010049982162964186 1 1 1 1 1 1 0.0094953126969626132 1 1 1 0.0095943104159981248 1 1 0.008972362649188827 1 1 1 1 1 1 1 1 1 1 1 1 2.9792258555982887e-09 1 1 1 1 1 0.00030560491349491264 1 1 1 1 1 1 1 1 1 1 1 1 1 0.0095267961714724583 1 1 1 0.0091583001899337921 1 1 1 1 1 1 1 1 1 1 1 1 0.007874954637157483 0.017502501309676059 1 1 1 1 0.019307285914132086 1 1 1 1 1 1 1 1 1 0.010162192051642645 0.0052421507399619104 1 1 1 1 1 0.0024430174788494172 1 1 1 1 1 0.0093453814632333387 1 1 1 1 1 0.010139943862021045 1 0.0037606874943824226 1 1 1 1 0.0083572729970361314 1 0.0091589535704597914 1 0.016228781564054745 0.010022356108658315 1 1 1 1 1 1 1 0.010095983339215013 0.0076698278375623187 1 1 1 1 1 1 0.010003303025444507 0.01003775724656962 0.012158329054733524 1 0.0068990349453839153 0.0098280257625218692 1 1 1 0.013818623040691352 1 1 1 1 1 0.013822257685858871 0.0094726043868129106 0.010004621809784557 1 0.014412854929860511 1 1 1 0.0098938569087003974 1 0.0087884211739300781 0.01063630644166544 1 1 1 1 1 1 1 0.0083822483687961968 0.012959698740105476 1 1 0.0080886022301083337 0.0032689247801723116 0.01273618440281752 1 1 1 1 1 1 1 1 1 1 1 1 1 1 1 1 1 1 1 1 1 1 1 1 1 1 1 1 1 1 1 1 1 1 1 1 1 1 1 1 0.0099621456876796653 1 1 1 1 1 1 1 1 1 1 0.0094023876307746841 1 1 1 1 1 1 0.0082026322158697471 1 1 0.0065318328820318447 1 1 1 1 1 1 1 1 1 1 1 1 1 0.011124819742026622 1 0.013393461297308666 1 1 1 1 0.011170693239146066 1 1 1 0.01666353756299431 1 1 0.017396326313869389 1 1 1 0.0099641482037615692 1 1 0.0098911193564521493 1 1 1 1 1 0.0098588763856475303 1 1 1 1 1 1 1 0.0099350892777124722 1 1 1 1 1 1 1 0.016995934807559378 1 1 0.016380139853418334 1 1 1 1 0.0086712411448825813 1 0.010485017508875746 1 1 1 1 1 0.0055694662862318597 1 1 1 1 0.011311042556015413 1 1 1 1 1 1 0.013986495513844144 0.00080596168807464674 1 1 1 1 1 0.017681194690219053 1 1 0.009816408850933947 1 1 1 1 1 1 1 1 1 1 0.0088048509291957025 1 1 1 1 1 1 1 1 1 1 1 1 1 1 1 1 1 1 0.0096281403477764052 1 1 1 1 1 1 0.0101982510292508 1 1 1 1 1 1 1 0.0081518657287926524 0.010519633273265713 1 1 1 1 0.0099576751786278062 1 1 1 1 1 1 1 0.010748808045995671 1 1 -1.5471651737541947e-13 1 0.0081924196316286238 0.017048029372938894 0.0015825856730104296 1 1 1 1 1 1 0.0023678938202647271 1 1 1 1 1 0.009999335721012588 1 1 1 1 0.0036304069036309158 1 1 1 0.013941167064626052 1 1 1 0.014489214043737536 1 1 1 1 1 1 1 1 1 1 1 1 1 1 1 1 1 1 1 1 1 1 1 1 1 0.010723278805901064 1 1 1 1 1 1 1 0.011960119185767115 1 0.01153592028651905 1 1 1 1 1 1 0.017694915174378444 1 1 0.011497657611558805 1 1 1 0.0099430181044076263 1 1 0.0085577309472814472 1 1 1 1 1 0.0097268951059568953 1 1 1 0.0099208402257142253 0.0096339177182463223 1 1 1 1 1 1 1 1 1 1 1 1 0.010866172670573417 1 1 1 1 1 1 1 1 1 0.012540151164920015 1 1 1 1 1 0.0097537466742192505 0.0031156364536875231 1 1 1 1 1 1 1 1 1 0.0090579772332653463 1 1 1 1 1 1 1 1 0.0053999262687881924 1 1 1 1 1 1 1 1 1 1 1 1 1 1 1 1 1 1 0.008870827549596616 1 1 1 1 0.0074253640296255592 1 0.0084326657538875208 1 0.0095730536408760933 1 1 1 1 1 1 1 1 1 1 1 1 1 1 1 1 1 0.0097018442006417474 1 1 1 1 1 0.0056747106288196694 1 1 1 0.011417336557574598 0.0040021142786471411 1 1 1 1 1 0.0069425671143520662 1 1 1 1 0.0075141793449730043 1 1 1 1 1 1 1 1 0.0046129809102202074 1 1 1 1 1 1 1 0.0065681554214763981 1 1 1 1 1 1 1 1 1 0.01039305361259537 1 1 1 1 1 1 1 1 1 1 1 1 1 1 1 1 1 1 0.0096597864956303302 1 1 1 1 1 1 1 1 1 1 1 1 1 0.01070289832343471 1 1 1 1 1 1 0.0099427577192768377 1 1 0.0097658419996826135 1 1 0.0099603488115041633 1 1 1 1 1 1 1 1 1 1 1 1 1 1 1 1 1 1 1 1 1 1 1 1 1 1 0.01017434815248428 1 0.010684069960105369 1 0.010006442127549755 0.01029520149014534 1 1 1 0.011545160403306855 1 1 1 1 1 1 1 1 1 0.0090994537053069157 0.012122480756722995 1 0.021769235991688993 1 1 1 1 1 1 1 1 1 1 1 1 1 1 0.0099994767099665285 1 0.0059632017315860257 0.0064709431818346097 1 0.01554789563812559 1 1 1 1 1 1 1 1 1 0.0048435430339105398 0.0097524786825380835 1 1 1 1 1 1 1 1 1 1 1 1 1 1 1 1 1 1 1 1 1 1 0.010465580859999062 1 1 1 1 1 0.0095146093744535309 1 1 1 1 1 0.0083608445891996605 1 1 1 0.012299625139929297 1 1 1 1 1 1 1 1 1 0.012148797963680142 1 1 1 1 0.022157792922295524 1 1 1 1 1 1 0.0063737272311517323 1 1 1 1 1 1 1 0.0087948947844539715 1 1 1 1 0.006736122831471722 1 1 1 1 1 1 1 1 1 1 0.010778706212261341 1 1 1 1 0.0090287310995047151 1 1 1 0.015913763444562114 1 1 1 1 1 0.0022185927392672639 1 1 1 1 1 1 1 1 1 1 1 1 1 1 0.0059586788182483183 0.020922063143411516 1 1 0.016170013237856443 1 1 1 1 1 1 1 0.0085009013971753325 1 1 1 1 1 1 0.0078388598144061919 1 1 1 1 1 1 1 1 1 1 1 1 1 1 1 1 1 1 1 1 1 1 1 0.0048110618387867954 1 1 1 1 1 1 1 1 0.009690219563711612 1 1 1 1 0.0093686214836462972 1 1 1 1 1 0.0035374999039307423 1 0.01003345221825363 1 0.010500816092237722 1 1 1 1 1 1 1 0.0099820085277805247 1 1 1 0.010974371341082735 1 1 1 1 1 0.012339301936256014 1 1 1 1 1 0.0099547035888793226 1 0.0099944177973250586 1 1 0.010263945853302217 1 0.010212321259206791 1 1 1 1 1 0.0080660956797711653 1 1 1 0.0045908256860281438 1 1 1 1 1 1 1 1 1 1 0.0097855158139467137 1 1 1 1 1 1 1 1 1 1 1 1 1 1 1 1 1 1 1 1 1 1 0.0072807558798677393 1 1 1 1 1 1 1 1 1 1 1 1 1 1 1 1 1 1 0.0032912912942623766 1 1 1 0.001067396939402776 1 1 1 1 1 1 0.017769718127435385 1 1 1 0.011481483591866508 0.011052682364869535 1 0.0053737897419143532 1 0.010686328023985264 0.014541707588679492 1 0.015594568457488731 1 1 0.010029339932195049 1 1 0.0093563168017496944 0.009934973812824488 1 1 1 1 1 1 1 1 0.0099361709477667273 1 0.010008898172228248 1 1 1 1 1 1 1 1 1 1 1 1 1 1 1 1 1 1 1 1 1 1 0.012109761773201586 1 1 1 1 1 1 1 1 0.013717379613922814 1 1 0.010232064626930541 1 1 0.015103599727585943 0.010017908201458717 1 1 0.0099986191810915448 1 1 1 1 1 1 1 1 1 1 1 1 1 1 1 1 1 1 1 1 1 1 1 1 1 1 1 1 1 1 1 1 1 1 1 1 1 1 1 0.016282418790653119 1 0.016808729621908991 1 1 1 1 1 1 1 1 1 1 1 1 1 1 1 1 1 1 1 1 1 1 1 1 1 1 1 1 1 1 1 1 1 1 1 1 1 1 1 1 0.00676267916595584 1 1 0.0050986467589587796 1 1 1 1 1 0.01058555381227318 1 0.010588425289540713 1 1 0.0082314597042100358 1 1 1 1 1 1 0.008478405033356555 1 1 1 1 1 1 1 1 1 1 1 0.0098345798466133796 1 1 0.021499875230332824 0.013544628876669979 1 0.016535065307225212 1 1 0.0039929832674322867 1 1 1 1 0.016286203414119418 1 1 1 1 1 1 1 1 1 0.0099413246758044346 1 0.020557459337644822 1 1 1 1 1 1 1 0.010238298268154524 1 0.0051690764870361214 1 1 1 1 1 1 1 1 1 0.010126848465693894 1 0.0051015048021195442 1 1 1 1 1 1 1 1 1 1 0.010460525625208383 1 1 1 0.020483666190813311 1 1 0.010001887739869091 1 1 0.012330712151779402 1 1 1 1 0.011344125457140754 1 1 1 0.010017591092227329 1 1 1 1 1 1 1 1 1 1 1 1 1 1 0.010437812265994684 1 1 1 1 1 1 0.0094369114968990333 1 0.0098098672877114223 1 0.019105937723775952 1 1 1 0.0090094715525530708 1 1 1 1 1 1 1 1 0.020084691300556561 1 1 1 1 1 0.010005206625274182 1 1 0.021073129985124041 1 1 1 1 1 1 1 1 1 0.016193923474978014 1 1 1 0.012290895050805942 1 1 1 1 1 1 0.019226661989023952 1 1 1 1 1 1 1 1 1 1 1 1 1 1 1 1 1 1 1 1 1 1 1 1 1 1 1 1 1 1 1 0.0085182326844925865 1 1 1 1 1 0.009621071845995692 1 1 0.009233414051355103 0.0093064990977032823 1 1 1 1 0.0072634417945307214 1 1 1 1 1 0.010034503653361879 1 1 1 1 1 1 1 1 1 1 1 1 1 1 1 1 0.0092948361232504904 1 1 1 1 1 1 1 1 0.0080201217416993389 0.0062397754719043024 1 1 1 1 1 1 0.008132759578662432 1 1 1 1 0.011211667168501985 1 1 1 1 1 1 1 1 1 1 1 1 1 1 1 1 1 1 1 1 1 1 1 1 0.0089788318176306919 1 1 0.0097554352563886098 1 1 1 1 1 1 1 1 1 1 1 1 1 1 1 1 1 1 1 1 1 1 1 1 1 1 1 0.0088076984153177898 1 0.0075516122144724807 1 1 1 1 1 0.0051515261906958619 1 1 1 1 1 1 1 1 1 1 1 1 1 1 1 1 1 1 1 1 0.011783598854252231 0.0062627625962740352 1 0.010762503456423322 1 1 1 1 1 1 1 1 1 1 1 1 1 1 1 1 0.010224623383479382 1 1 1 0.010039669528081524 1 1 1 1 1 1 1 1 1 1 1 1 1 0.0075999139762233971 1 1 1 1 1 1 1 1 1 1 1 1 1 1 1 1 1 1 1 1 1 1 0.017941481378289537 1 1 1 1 1 1 1 1 1 1 1 1 1 0.017235274172946447 1 -2.281133591047757e-09 1 1 0.01129444077991072 0.0020167750149503796 1 1 1 1 1 1 1 1 1 1 1 1 1 1 1 1 1 1 1 1 0.010186482289955504 1 1 0.029076084876456607 1 1 1 0.011435693538271573 1 1 1 1 1 1 0.028811376950231501 1 1 1 0.009683519917579585 1 1 1 1 1 1 1 1 0.010084475514224936 1 1 0.0079382476596854372 1 1 0.017397853468113789 1 0.017779072780800556 1 1 1 1 0.014775693797215182 0.016285510284181372 1 1 0.01620147697818921 0.015485093455737011 1 1 0.00072135516756770051 1 1 1 1 0.010948143261934965 1 1 0.0036436413092314802 4.8071350537345903e-09 1 0.009881776819104399 1 1 1 1 1 1 1 1 1 1 1 1 1 1 1 1 1 1 1 1 0.0030527956150309329 1 1 1 1 0.0030332311403997634 1 1 1 1 0.0097459053194037838 0.010383503787947248 1 1 1 1 1 1 1 1 1 1 1 1 0.010147926841859722 1 1 1 0.00024226975193807759 1 1 1 1 1 1 1 0.0011221722249947896 1 1 1 0.0084901153138853564 1 1 0.010404746854508795 0.0095862040792056291 1 1 1 3.4316506667547708e-09 1 1 1 0.0098548644082596115 1 1 1 1 1 1 1 1 1 1 1 1 1 1 1 1 1 1 0.009649908144289468 1 1 1 1 1 1 1 1 1 1 1 1 1 1 1 1 1 1 0.010036236543670548 0.0092093710102686445 1 1 1 1 1 0.00912376701430514 0.010092805828653134 1 0.0092183538944124975 1 1 1 1 1 1 1 1 1 0.017421050864437848 1 1 1 0.015740785465380443 1 1 1 1 1 1 1 1 1 1 1 1 1 1 0.021885289521453619 1 1 1 1 1 1 1 0.012616966682527158 1 1 0.014110097409164486 1 1 1 1 1 1 0.00031546796241518904 1 1 1 1 0.00092848885889594297 1 1 1 1 1 1 0.0073757353582453479 1 1 1 1 1 1 1 1 0.010174247165487467 -3.8956892984935709e-09 1 1 1 0.0089271946522510234 0.003410995726472018 1 1 1 1 1 0.009761324724017563 1 1 1 1 1 1 0.01225054183244946 1 1 1 1 0.0096806996537099482 1 1 1 1 1 0.010779722095146944 1 1 1 1 0.006643186942779912 1 1 1 1 1 1 1 1 1 1 1 1 1 1 1 1 1 1 1 1 1 1 1 1 1 0.010400883607953196 1 1 1 1 0.015476919849084789 1 0.015437705308809516 1 0.01525664489085342 1 1 0.016925181350522532 1 1 0.0037879620092234525 1 1 0.0083595959347087714 1 1 1 1 1 1 0.011130223472335532 1 1 0.010288942076941539 1 0.0098306430370561533 0.0036667192353480454 0.010327533705879082 1 1 0.0018608628716327048 1 0.0093919081966242421 0.0068066325549493469 1 1 1 0.0069313897437393163 1 0.010099040590945348 1 1 1 1 1 1 0.010659680567602577 1 1 1 0.0099520020683257094 1 1 1 1 1 1 1 0.013322003989805554 1 1 1 0.011795833721682992 1 0.010053783050220314 0.010143194002917457 1 1 1 1 1 1 1 0.0084899101778079696 1 1 1 1 1 1 1 1 0.0093603032845334371 0.013409941093143678 1 1 1 1 0.013949004442718934 1 1 0.013930268772141428 1 1 1 0.0099971783717351763 1 1 1 0.012573936560424501 0.011168265557227292 1 1 1 1 0.0099007983800791684 1 1 1 1 1 0.010762940077789426 0.012535146720837475 1 1 1 1 1 1 1 1 1 1 1 1 1 1 1 1 1 1 1 1 1 1 1 1 1 1 1 1 1 1 1 0.0084609033875554743 1 1 1 0.010137428852181763 1 1 1 1 1 1 1 1 1 1 1 1 1 1 1 0.011611591548770816 1 0.0098226696844430812 0.0080650470657693749 1 1 0.01229568939939614 1 1 1 1 1 1 1 1 1 1 1 1 1 1 1 1 1 1 1 1 1 1 1 0.0096271318497818149 1 1 0.012259301057642721 0.0099911435140091747 1 1 1 1 1 1 1 0.012009173936402969 1 1 1 0.0083151891850083877 1 1 1 1 0.0093030486306577356 0.0097654342028818848 1 1 1 1 1 1 1 0.012242304213189304 1 1 1 1 0.01114357548239317 1 1 1 1 0.010535485187423553 1 1 1 1 1 1 1 1 1 1 1 1 1 1 1 1 1 1 1 0.0089039555391880344 1 1 1 1 1 1 1 1 1 1 1 1 1 1 1 1 0.0099077061793785091 1 1 1 0.0098468517459930557 1 1 1 1 1 1 1 1 1 0.010328812379323366 1 1 1 1 1 1 1 1 1 1 1 1 1 1 1 1 1 1 1 1 1 0.010022772426957708 1 1 1 1 1 1 1 1 1 1 1 1 1 1 1 1 1 0.010030727624004237 1 1 1 1 1 0.0098525527459346843 1 1 1 1 1 1 1 1 1 1 1 1 1 1 1 1 1 1 1 1 1 1 1 1 1 1 1 0.0097159804713121967 1 1 0.00062491193013122955 1 1 1 -2.1644239915977193e-09 1 1 1 1 1 1 1 1 1 1 1 1 1 1 1 0.0026746892559114388 1 0.0098112779890434931 1 1 1 1 1 1 1 1 1 0.0033060742239980206 1 1 1 1 1 1 1 1 1 0.0082128921962053361 0.0054217055661216016 1 1 1 1 1 1 1 1 1 1 1 1 1 1 1 1 1 1 1 1 1 1 1 1 1 1 1 1 1 1 1 1 1 1 1 1 1 1 1 1 1 1 1 1 1 1 1 1 1 1 1 1 1 1 1 1 1 1 1 1 1 1 1 1 1 1 1 1 1 1 1 0.008160747955902695 1 1 1 1 1 1 0.0051756738423309858 1 1 1 1 1 1 1 1 1 0.0084454301215500065 1 0.0052278180826336295 1 1 1 1 1 1 1 1 1 1 1 1 1 1 1 1 1 1 1 1 1 1 1 1 1 1 1 1 1 1 1 1 1 1 0.013038624656921122 1 1 1 0.010076429363811092 0.0091178630528901961 1 1 1 1 1 1 1 1 1 1 1 1 1 1 1 1 1 1 1 1 1 1 0.01114444463516032 0.010010877995956844 1 1 1 1 1 1 1 1 0.0072266133870999933 1 1 1 1 1 1 0.0062803069171228614 1 1 1 1 1 0.008504816415871138 1 1 1 1 0.0094285790377620186 1 1 1 0.010317740125277126 1 1 1 0.0096072386879601564 1 1 0.0084580062219729787 1 1 1 1 1 1 1 1 1 1 1 1 1 0.0099101171903840414 1 1 1 1 1 1 1 1 0.0072236970706729938 1 1 1 1 1 1 1 1 1 1 1 0.0099905008868563239 1 1 1 0.0099403308787055812 1 1 1 1 0.0093957283857717018 1 1 1 1 1 1 1 1 0.0092598205791695927 1 0.01199908064487884 1 1 0.0056595996807112907 1 1 1 1 1 0.010843154435352879 1 1 1 1 1 1 1 1 1 1 1 1 0.0094718226208109699 1 1 1 1 1 1 1 1 1 0.008290869259848014 1 1 1 1 1 1 0.0089704027858127002 1 1 1 1 1 1 1 0.0089654789073097523 1 1 1 1 1 0.0084373015281207098 1 1 1 1 1 1 1 1 1 1 1 1 1 1 1 1 1 1 1 1 1 1 1 1 1 1 1 1 1 1 1 1 1 1 1 1 1 1 1 1 1 1 1 1 1 1 1 0.010209162669470284 1 0.01045504991782133 1 1 1 1 1 1 1 1 1 1 1 1 1 1 0.010103590815484235 1 1 1 1 1 1 1 1 1 1 1 1 1 1 1 0.0057936953748357663 1 1 0.010964788775649322 1 0.012618078755827997 1 1 1 1 1 0.012419806577373174 1 1 1 1 1 1 1 1 1 1 1 1 1 1 1 1 1 1 1 1 0.0050352440812478135 1 1 1 1 1 1 1 1 1 1 1 0.0033132341417015359 1 0.0099387014057916081 1 1 0.0021301229741640896 1 0.018797295344791111 1 1 1 1 1 1 1 0.00980375385663621 1 0.0028879086804339121 1 1 1 1 -5.7272305231670373e-09 1 1 1 1 0.0096276927746785437 0.007691359396823169 1 1 0.0075669782036676125 1 1 1 1 1 1 1 1 1 1 1 1 1 1 1 1 0.0084288735970208511 1 1 1 1 1 1 1 1 1 1 1 1 1 1 0.0055999956045651843 1 0.010048162457196846 1 1 1 1 1 1 1 0.028063036762725736 1 0.027189039534909049 1 1 1 1 1 1 1 1 1 0.0094743737877672363 2.6596853643090501e-09 1 1 1 0.0062844560864840021 1 1 1 1 0.020340107485847678 1 0.0087522811519571905 1 1 0.0091572031271512748 1 0.020243863043598535 0.021277634624066392 0.0080687366134423524 1 1 0.010007546550157098 1 1 1 0.0098433528794205343 0.0079260505676558603 -2.8251330788653384e-10 1 1 1 1 1 1 1 1 1 1 1 0.0020894435948915452 1 1 1 1 1 1 3.6276095721071711e-09 1 1 1 0.0093704532051018564 1 1 1 1 1 1 1 1 0.0046077515482742352 1 1 1 0.0080201339303983578 1 1 1 1 1 1 1 1 1 1 1 1 1 1 1 1 1 1 1 1 1 1 1 1 1 1 1 1 1 1 1 1 1 1 1 1 1 1 1 1 1 1 1 1 1 1 1 1 1 1 1 1 1 1 1 1 1 1 1 1 0.011244547110129687 1 1 1 1 1 0.013212615019575312 1 1 1 1 0.01158132977746964 1 1 1 0.014421008602648007 1 1 1 1 1 1 1 1 1 1 1 1 1 1 1 1 1 1 1 1 1 1 1 1 1 1 1 1 1 1 1 1 1 1 1 1 1 1 1 1 0.0083756227915338464 1 1 0.00533069650025721 1 1 1 1 1 1 1 0.01086141750973265 1 1 1 1 1 1 1 1 1 1 1 0.012633769481552037 1 1 0.0099146927678864256 1 0.014005299400227711 1 1 1 0.0025493131441184456 1 1 1 1 1 1 1 1 0.0097973024736659042 1 1 1 1 0.010811517724311229 1 1 1 1 0.00085222616438112436 1 0.013606518801176113 1 1 1 1 1 1 1 1 1 1 1 1 0.0028550233631800086 1 0.0016190970884926645 1 1 1 1 1 1 1 1 1 1 1 1 1 0.01065702662090115 1 1 1 1 1 1 1 1 1 0.011128028174303597 1 1 1 0.010471001553402477 1 1 1 1 1 1 1 1 1 1 1 1 1 1 1 1 1 1 1 1 1 1 1 1 1 1 1 1 1 1 1 1 1 1 1 0.014257465532022333 1 1 0.0098896956491662802 1 1 1 1 0.0080794760026318101 1 1 1 1 1 1 1 1 1 1 1 1 1 1 1 0.012541919157643196 1 1 1 1 1 1 1 1 1 0.0087337868928650218 1 0.010945944764751647 1 1 1 1 1 1 1 0.009741341642173152 1 1 1 1 1 1 1 1 1 1 1 1 1 1 0.0082687712598105804 1 1 1 1 1 1 1 1 1 1 1 0.0060929771797175831 1 1 1 1 1 1 1 1 1 1 1 1 1 1 1 1 1 1 1 1 1 1 1 0.0089943897336505589 1 0.010598287980087188 1 1 1 1 1 1 0.0038725698397820488 1 0.011695212383748091 1 1 1 0.002956204980386159 1 1 1 0.016828601209263577 1 1 1 0.0020515923730114695 1 1 0.014914415529745987 1 1 1 1 1 1 1 0.011946710588985341 1 1 1 1 1 1 1 0.0030538437988016382 1 1 1 1 1 1 1 1 1 1 1 1 1 0.0077937592889971187 1 1 1 1 1 1 1 1 0.001220203000095157 1 1 1 1 1 1 1 1 1 1 1 1 1 1 1 1 1 1 1 1 0.0053017949887571893 1 1 1 1 1 1 1 1 1 1 1 1 1 1 1 1 1 1 1 1 1 1 1 1 1 1 1 1 1 1 1 1 1 1 1 1 1 1 1 1 1 1 1 1 1 1 1 1 1 1 0.010842171795179115 1 0.0048368993652192112 1 1 1 0.013023959739693232 1 1 0.0097087666796978403 0.0035370136225449308 1 0.011987780819199533 1 1 1 1 1 1 1 1 1 1 1 1 1 1 1 1 1 1 1 1 1 1 1 1 1 1 1 1 1 1 1 1 1 1 1 0.010064680372595756 1 1 1 1 0.0098402458151743422 1 1 3.9345705513116336e-11 1 1 1 0.011273438400170924 1 1 1 1 0.011954684697875098 1 0.0099948999654156101 0.011823631895261304 1 1 1 1 0.013480482866160326 1 1 1 0.0088909900421768346 1 1 1 0.010048065637051358 1 1 1 1 1 1 0.0097208990658871619 1 1 1 1 1 1 1 1 1 1 1 1 1 1 1 1 1 1 1 1 0.010680724598031849 1 1 1 1 1 1 1 1 1 1 1 1 1 1 1 1 1 1 0.0083396883081949813 1 1 0.0054025535394720686 1 1 0.015082795100195563 1 1 1 1 1 1 1 1 1 1 1 0.0030235658468290086 1 1 1 1 0.010891931242936574 1 1 1 1 0.010057605236837998 1 1 1 0.0109382209002662 1 1 1 1 1 1 1 1 1 1 1 1 1 1 1 1 1 1 1 1 1 1 1 1 1 0.0082041608117163385 1 1 1 1 1 1 1 1 0.010937065699002678 1 1 1 0.014788967226567432 1 1 1 1 1 1 1 1 1 1 1 1 1 1 1 1 1 1 1 1 1 1 1 1 0.019841735110203134 1 1 1 0.0048249839786440058 1 1 1 1 1 1 1 1 0.018571498724337002 1 1 0.0049565684395775148 1 1 1 1 0.0081856217685011504 1 1 1 1 1 1 1 0.020673226405391903 1 0.005986145625265029 1 1 0.0050129735229542671 1 1 0.019325869355290716 0.0098794172306935352 1 1 1 1 1 1 1 1 1 1 1 1 1 1 1 1 1 1 1 1 1 0.022346929766317351 1 1 1 1 0.021630660163148137 1 1 1 1 1 1 1 1 1 1 1 1 1 0.020804469392564889 1 1 0.011169401351474872 1 1 1 1 1 1 1 1 1 1 1 1 1 1 1 1 1 1 1 1 1 1 1 1 1 1 1 1 1 1 1 1 1 1 1 1 1 1 1 1 1 1 1 1 1 1 1 1 1 1 1 1 1 1 1 1 1 1 1 1 1 1 1 1 1 1 1 1 1 1 1 1 1 1 1 1 1 1 1 1 1 1 1 1 1 1 1 1 1 1 1 1 1 1 1 1 1 1 1 1 1 1 1 1 1 1 1 1 1 1 1 1 1 1 1 1 1 1 1 1 1 1 1 1 1 1 1 1 0.0085906390250368343 1 1 1 1 1 1 1 0.01219881168870611 1 1 1 1 1 1 1 1 1 0.016513188990895766 1 0.00043932101709059056 1 1 1 0.0061145788795003292 1 1 0.0056439482701436984 1 1 1 1 1 1 1 1 1 1 1 1 1 1 1 1 1 1 1 1 1 1 1 1 1 1 1 1 1 1 1 1 1 1 1 1 1 0.006117483380216622 1 1 0.0066101066103405604 0.014443802035549106 1 1 0.010379400251974837 1 1 0.0022335741005718984 1 1 1 0.005047675209495818 1 1 1 1 1 1 1 1 1 0.006095317936896218 1 1 1 1 1 1 0.0083004675281847587 1 1 1 1 1 1 1 1 1 1 1 1 1 1 1 1 1 1 1 1 1 1 1 1 1 1 1 1 1 1 1 0.023311646503579989 1 1 1 1 1 1 1 1 1 1 1 1 1 1 1 1 1 1 1 1 1 1 1 1 1 1 1 1 1 1 1 1 1 1 1 1 1 1 1 1 1 1 1 1 1 1 0.0015408723978655586 1 0.0095237595333620348 1 1 1 1 0.010364176475249901 1 1 1 1 -4.9019956132462239e-09 1 1 1 1 0.01016694326963676 1 1 1 1 1 1 1 1 0.012203547708409111 1 1 0.011131649966856283 1 0.010019886637677215 1 1 1 1 0.014323633983060047 1 1 0.0047712846817221481 0.015380712097843145 1 1 1 1 1 1 0.0095939714859750447 1 1 1 1 1 1 1 1 1 1 0.0035092636984047198 0.0082883098737754624 1 1 1 1 1 0.0060922547438625706 1 1 0.010303652017491727 1 1 1 1 0.017759225359034424 1 1 0.010080812889750247 1 1 1 1 1 1 1 1 1 1 1 1 1 1 1 1 1 1 1 1 1 1 1 1 1 1 1 1 1 0.009030154048676263 1 0.0097032552407198443 1 1 1 1 1 1 1 1 1 1 1 1 1 0.010614432660040474 1 1 1 1 0.00023365745885160077 -5.4024186860179846e-10 1 1 1 1 1 1 1 1 1 1 1 1 1 1 1 1 1 1 1 1 1 1 1 1 1 1 1 1 1 1 1 1 1 1 1 1 1 1 1 1 1 1 0.011229127204451059 1 1 1 0.01061469454441058 1 1 1 1 1 1 1 1 1 1 1 1 1 1 1 1 1 1 1 1 0.00064042548937578991 1 1 0.0013628434575871477 1 1 1 1 1 1 1 1 1 0.010086586407917306 1 1 1 1 1 2.3187698851290239e-08 1 1 1 1 1 0.010189066344825162 1 0.0095509883493731761 1 1 1 1 1 1 1 1 1 1 1 1 1 0.0087202823355578343 1 1 1 0.01484265935297599 0.00057369301730259871 1 1 1 1 1 1 1 1 0.010230526300736197 1 1 0.0025552960883493629 1 1 0.0099983164022379514 0.0063247020112320862 1 1 1 1 1 0.010031375552565724 1 1 1 1 1 1 1 0.008701042913674531 1 1 0.0062625876681013763 0.0095718146152078826 1 1 1 1 1 1 0.0098344207711609996 0.01004390679009267 1 1 1 0.0099653484381373725 1 1 1 1 1 1 1 0.011743868807141615 1 1 1 1 1 1 1 1 1 1 1 1 1 1 1 1 1 1 1 1 1 1 1 1 1 1 -3.5671011144877696e-09 1 1 1 1 1 1 1 0.0085607645789335732 1 1 1 1 1 1 1 1 1 1 1 -4.2674186823132843e-09 1 1 1 1 1 1 1 1 0.0058425007091948873 1 1 1 1 1 1 1 1 1 1 1 1 1 1 1 1 0.0099514545781082958 1 1 1 0.0075847314786408422 1 1 1 1 1 0.011414341792537015 1 1 1 1 1 1 1 1 1 1 1 1 1 1 0.0076881003890846931 1 1 1 1 0.003602879707003355 1 1 -7.1071364557417915e-09 1 1 1 1 1 0.010278357624456107 1 1 1 1 1 1 1 1 1 1 1 1 1 1 0.010350037336536069 1 0.014752821872355312 1 1 1 0.009488230743795345 1 0.0060912738591746528 1 0.016015376030619612 1 1 1 1 1 1 0.0096478252706645382 8.3136547264495153e-09 1 1 1 1 1 1 6.9400771587901922e-10 1 0.010219282966567194 1 1 1 1 1 1 1 1 1 1 1 1 1 1 1 1 1 0.018183135496018136 1 1 1 0.010160363003093587 0.017979277245099595 1 1 1 1 1 0.0034072333672414742 1 1 0.010400351774872368 0.0074677579588301405 1 1 1 1 1 1 1 1 1 1 1 1 1 1 1 1 1 1 1 1 1 1 1 1 1 1 1 1 1 1 1 1 1 1 1 1 1 1 1 1 1 1 1 1 0.01706395200883886 1 1 0.00086536290914281978 0.0040026225269772595 0.013076202316702031 1 1 1 1 1 1 0.010733125869525588 1 1 1 1 1 1 1 1 1 0.010964754391387048 1 1 1 0.013826522846464533 1 1 1 1 1 1 1 1 1 1 1 1 1 1 1 1 1 1 1 1 0.011698404447661979 1 1 1 1 0.010480380529601305 1 1 1 1 1 1 1 1 1 1 1 1 1 1 1 1 1 1 1 1 1 1 1 1 1 1 1 1 1 1 1 1 1 1 0.0096536603822593627 1 0.009853177127529018 1 1 1 1 1 1 1 1 0.0096777024699640033 1 1 1 0.0088606463152931317 1 0.0098245253424349803 1 1 1 1 1 1 1 1 0.0014220158420263848 1 1 1 1 0.006367702223010285 1 1 1 1 0.0070549597384194015 1 1 1 1 1 1 1 0.0058795026051433226 1 1 1 1 0.0080315287997576729 1 1 1 1 1 1 1 1 1 1 1 1 1 1 1 1 1 1 1 1 1 1 1 1 1 1 1 1 1 1 1 1 1 1 1 1 1 1 1 1 1 1 1 1 1 1 0.011496210468907163 1 1 1 1 0.010132580547123973 0.012259625148428668 1 1 0.014917672723962112 0.011163550811238744 1 1 1 1 1 1 1 1 1 1 1 1 1 1 1 1 1 1 1 0.010434813833937961 1 1 1 0.010611093595104822 0.010051811574376915 1 1 1 1 1 1 1 1 1 1 1 1 1 1 1 1 1 1 1 1 1 1 1 1 1 1 1 0.010562224369809407 1 1 1 1 1 1 1 0.0085945982905244536 1 1 1 1 1 1 1 1 1 1 1 1 1 1 1 0.0060811202436506645 1 1 1 1 1 1 1 1 0.011021522061738464 1 0.0087757790369531047 0.012848261787206307 1 1 1 1 1 1 1 1 1 1 1 1 0.0082577692305540462 1 1 1 1 1 1 1 1 1 1 1 1 1 1 1 1 1 1 0.010377896314586745 1 1 1 0.0063521781794145214 1 1 1 1 1 1 1 1 0.008507560116426182 1 1 1 1 1 1 1 1 1 1 1 1 1 1 1 0.012202051779119163 1 1 1 0.010795180671761308 1 1 1 1 1 1 1 1 1 1 1 1 1 1 1 1 1 1 1 1 1 1 1 1 1 1 1 1 1 1 1 1 1 0.01098581661732085 1 0.010424254476886729 1 1 1 1 1 1 1 1 0.0098871049084051262 1 1 1 1 1 1 1 1 1 0.0093628224245370442 1 1 0.01006648604775949 1 1 1 1 1 0.0098620217747652332 1 1 1 1 0.0097893647178381449 1 1 1 1 0.0096096432501368706 1 1 1 0.0099783303846854368 1 0.0060749118707533745 1 1 0.0077737883266589883 1 1 1 1 1 1 1 1 1 1 1 1 1 1 0.010012881852812412 1 1 0.010088403445046005 1 0.0099092619822242906 1 1 1 0.010235580935564119 1 1 0.0044322425754808716 1 1 1 1 0.01037858012145243 1 0.011013126223556083 1 1 1 1 1 1 0.010364540856773578 1 0.010424557099409726 1 1 1 1 1 0.010337971612671458 1 1 1 1 0.010575829752223223 1 1 1 1 1 1 0.0089228291244081367 1 1 1 1 1 1 1 1 1 1 1 1 1 1 1 1 1 1 1 1 1 1 1 1 1 1 1 1 1 1 1 1 1 0.010117155234963433 0.010093038411955871 1 1 1 1 1 1 1 1 1 1 0.012458605140488299 1 1 0.010621988639382983 0.0075459323787730502 1 0.010035653820771515 1 1 1 1 1 1 1 0.011466113081723352 1 1 1 1 1 1 1 1 1 1 1 1 0.0094016479496527791 1 1 1 1 0.0097730558514345367 1 1 1 1 1 1 1 1 1 1 1 1 0.014421928371036083 1 1 1 1 1 1 1 1 1 1 1 1 1 1 1 1 1 0.014292833698332015 1 1 1 1 1 0.011475711111054174 1 1 1 0.0088246571515790753 1 1 1 1 1 1 0.0099649201595386622 1 0.015683350901573752 1 1 1 0.012432821595991697 1 1 1 1 1 1 1 1 1 0.01695057630714614 1 1 0.010011839966439142 1 1 1 1 1 1 1 0.010237823925103896 1 1 1 1 1 1 1 1 1 1 1 1 1 0.0086685148601872535 1 1 0.012596541827017384 1 1 1 1 1 1 0.010074288236251214 1 1 1 1 1 1 0.017910555804686826 1 1 1 1 1 1 1 0.023617428250542229 1 1 1 1 1 1 1 1 1 1 1 1 1 1 1 1 1 1 1 1 1 1 0.011555700056740177 1 1 1 1 1 1 1 1 1 1 0.012382048194787531 1 1 1 1 0.011875127407675788 0.017339952444580212 1 1 1 1 0.016260201260167681 1 1 1 1 1 1 1 1 1 0.014962562184962854 1 1 1 1 1 1 1 1 1 1 1 0.017373194011412813 1 1 1 0.011928314698108186 1 1 1 0.012699433645723372 1 1 1 1 1 1 1 1 1 1 1 1 0.013276859452733415 1 1 1 1 1 0.010249362201488928 1 1 0.010587727924140446 1 1 1 1 1 1 1 1 1 1 1 1 1 1 0.0078639902364629841 1 1 1 1 1 1 1 0.0044288853432372481 1 1 1 0.0031033375169620958 1 1 1 1 1 0.010622903146357079 1 1 1 1 1 1 1 1 1 0.010284537423705577 1 1 1 1 1 1 1 1 0.0032634283864651815 1 1 1 1 1 0.010108262361609215 1 1 1 1 1 1 1 0.010042982436231076 1 1 1 1 1 1 1 1 1 1 1 1 1 1 1 1 1 1 1 1 1 1 1 1 1 1 1 1 1 1 1 1 1 1 1 1 1 1 1 1 1 1 1 1 1 1 1 1 0.0090975609171443025 1 1 1 1 1 1 1 0.0076388897544567291 1 1 1 1 1 1 1 1 1 1 1 1 1 1 1 1 1 1 1 1 1 1 0.012668223504209042 0.010194611314973019 1 1 0.0035960809300799867 0.013940540787057459 1 1 1 1 1 1 1 0.011922937747750818 1 1 1 1 1 1 1 1 1 1 1 1 1 1 0.011052530030261777 1 1 1 1 1 1 1 1 0.010195501694615257 1 1 0.010260757538825729 1 1 1 0.010685048597353307 1 1 1 1 1 1 1 1 1 1 1 1 1 1 1 1 1 1 1 1 1 1 1 1 1 1 1 1 0.0091916924046975962 1 1 1 1 1 1 1 1 0.010004247450165975 1 1 1 1 1 1 0.007380591118620293 0.009980001098937652 1 1 1 1 0.010743070365205646 1 1 0.0080330488526083252 1 1 0.0077409149018881004 1 1 1 1 1 1 0.0094921786274106482 1 1 1 1 1 1 1 1 0.0099087699369311208 1 1 1 1 1 1 1 1 1 1 1 0.0098257002747511035 1 1 0.0099166905948986153 1 1 1 1 1 1 1 0.007534824198534025 1 1 1 0.010344544630961287 1 0.012457865790571843 1 0.0085012831833542399 1 1 1 1 1 1 1 1 1 1 1 1 1 1 1 1 1 0.017635613039357331 1 0.0099881125448064295 1 1 1 1 1 1 1 1 1 1 0.015680304300884809 1 1 1 1 1 1 1 0.010796874807715488 1 1 1 0.01000587921721182 1 0.014702917960434986 0.010349935779361323 1 1 0.012004816124781013 1 1 1 1 0.019026770125685183 1 1 1 0.0085202553448733218 1 1 1 0.015658299978568088 1 0.014018518377700427 0.018310740842684629 1 1 1 1 1 1 0.01321188088867273 1 1 1 1 1 1 1 1 0.0070736098086101665 0.010029357044654895 0.0091421415592616573 1 0.011461690390846185 1 1 0.012339725775534605 0.0099984341752046083 1 1 0.0035699274178560055 1 1 1 1 1 1 1 1 1 1 1 0.0099340194775758631 1 1 1 1 1 1 1 1 1 1 1 1 1 0.005866801647076314 0.0070405849070492368 1 1 1 1 0.0071666391421759124 1 1 1 0.010075124622462265 1 1 1 1 1 0.0075082849772315011 0.0099955090870409713 1 1 1 0.010373342235561502 1 1 1 1 1 1 1 1 1 1 1 1 1 1 1 0.0088208094329239872 1 1 1 0.012560880125904816 1 1 1 0.0093301174353392982 1 1 1 1 1 1 0.020123774395369508 1 1 1 1 1 0.017063541141307176 1 1 1 1 1 1 1 1 0.010031942555647794 1 1 1 1 1 1 1 1 1 0.010814431854857079 1 1 1 1 0.0095421772107041544 1 0.010365726231218371 1 1 0.0071170818101717256 1 0.012807432745742307 1 1 1 1 1 1 0.012169405079492103 1 0.010240654218505138 0.014774368245645923 1 1 1 1 1 1 1 1 0.012991861764476649 1 0.0096731184977301432 1 0.0099518797039859185 1 0.016507903276509875 1 1 1 1 1 1 1 1 1 1 1 0.0098686265464914685 1 1 1 0.0095961464661575499 1 1 1 1 1 1 1 1 0.0097275199196660903 1 1 1 1 1 1 1 1 1 0.0094885928503093131 1 1 1 1 0.010805230100086107 1 1 0.012301505537492693 1 1 1 1 1 1 1 1 1 0.015376521962790244 1 1 1 0.013681931008506905 1 1 1 1 1 1 1 1 1 1 1 1 1 1 1 1 1 1 1 0.017099967986618926 1 1 1 1 1 1 1 1 1 1 0.011392571359938774 1 1 1 1 1 1 1 1 1 1 1 1 1 1 1 1 1 1 1 1 1 1 1 1 1 1 1 1 1 1 1 1 1 1 1 1 1 1 1 1 1 1 1 1 1 0.0087992909407232714 0.010153682300031266 1 1 1 1 1 1 1 1 1 1 1 1 1 0.001323444900127542 0.011074224577458934 1 1 1 0.013112872983354441 1 1 0.014866046428320923 1 1 1 0.018270575449699233 1 1 1 0.010174821673214828 1 1 1 1 1 1 1 1 0.010401522432306111 1 1 0.010153092225779418 1 0.0041185254239132912 0.0077563631474764361 1 1 1 1 1 1 0.018861908174435803 1 0.0064941480600051241 0.0088603451572303732 0.0099611501490429882 1 1 0.0055386912427443855 1 1 0.017930384823189684 0.018643029996924708 1 1 1 1 1 1 1 1 1 1 1 1 1 1 1 1 1 1 1 1 1 0.017638630623155654 1 1 1 1 1 1 1 1 1 0.008462906862023882 1 1 1 1 1 1 1 0.011057413366823948 0.016707277906601068 1 1 1 1 1 1 1 1 1 1 1 1 1 1 1 1 1 1 1 1 1 1 1 0.0095008626027783399 1 0.01005521177811724 1 1 1 1 1 1 1 0.014020347267749731 1 1 1 0.004485254463015495 0.014577033275291151 1 1 0.01148763228849385 1 1 1 1 0.0035770566480561664 1 1 1 0.019416905966443708 1 1 1 0.0038942401783211948 1 1 1 1 1 1 1 1 1 0.0039021838594721983 0.013683381308018123 1 1 1 1 1 0.016340826179941138 1 1 0.003245299242181747 0.0065187603417109462 -6.2818934221109402e-09 1 1 1 1 1 0.015557225653353024 1 1 1 1 1 1 1 1 1 0.010130807173663603 1 0.010065928708613307 1 1 1 1 1 1 1 1 1 1 1 1 1 1 1 1 1 1 1 1 1 1 1 1 0.010937586388744119 1 1 1 1 0.0076935201753074358 0.012709092889021211 1 1 1 0.0054774204490058362 1 1 1 1 1 1 1 1 1 1 1 1 1 1 1 1 0.025737075736731764 1 1 1 0.010208917481224426 1 1 0.011907255611799008 1 1 1 1 1 1 1 1 1 1 1 1 1 0.014093149586105705 1 1 0.020474207038859386 1 1 1 0.0050125754622599508 1 0.0041936893029497178 1 0.010409262287492289 1 0.011029809748189304 0.023295129851660417 0.010062017690845297 1 1 1 1 1 1 1 1 0.010498836631875076 1 1 1 1 1 1 1 1 0.023662204818785244 1 1 4.1642066784780551e-05 1 1 1 1 1 1 1 1 1 1 1 1 1 1 1 1 1 1 1 1 1 0.0039360259301343473 1 1 1 1 1 1 1 1 1 1 0.0060333340504922298 1 0.0030897655623982057 1 1 0.010781240546797095 1 0.013981870097496227 1 0.0099706632431590253 1 1 0.010152161742637788 1 0.015949800391540928 1 1 0.0084718343278220812 1 1 1 0.0094722059674584459 1 1 1 1 1 1 1 1 1 1 1 1 1 1 1 1 1 1 1 1 1 1 1 1 1 1 1 1 1 1 1 1 1 1 1 1 1 1 1 1 1 1 1 1 1 1 1 1 1 1 1 1 1 1 1 1 1 1 1 1 1 0.015778254002287523 1 1 0.022639872037672794 1 1 1 1 1 1 0.0083632098519988082 0.019253823664093991 1 1 1 1 1 1 1 1 1 1 1 1 1 1 1 1 1 1 0.01824608811353504 1 1 1 0.010601913436183545 1 1 1 1 1 1 1 1 1 1 1 1 1 1 1 1 0.0096435006014284688 1 1 1 1 1 1 1 0.023953964609078664 1 1 1 1 1 1 1 1 0.019624837557767186 1 0.01115906235804077 1 1 1 1 1 1 1 1 1 1 1 1 1 1 1 1 0.010055361846438696 1 1 1 1 1 1 1 0.010168508141308437 1 1 1 1 0.010142827449501669 1 1 1 1 1 1 1 0.01043141969590056 1 1 0.0024324744546450894 0.009561670155743671 1 1 0.011102980412079817 1 1 1 1 1 1 0.010324055973843907 1 1 1 1 1 1 1 1 1 0.01022690468723339 1 1 0.0098011135413768741 1 1 0.0099744751792959722 1 1 0.0018322608837775881 1 1 1 1 1 0.0022038148249374258 1 1 1 1 1 1 1 1 0.0089203134383520136 1 1 1 1 1 1 1 0.0061041680639751916 1 1 1 1 1 1 1 1 1 1 1 1 0.0085795285041669264 1 1 1 1 1 1 1 0.010495116220624649 0.0098841424050351706 1 0.013950975397389338 1 0.0021192162727854298 1 1 1 1 1 1 1 1 1 1 1 1 1 1 1 0.010014184953717378 1 -5.6517748380641164e-09 1 1 1 1 1 1 1 1 0.0070602364855030242 1 0.0094431100725655068 1 0.0037524052452988753 1 0.0067615274470406023 1 0.010475862322049306 1 1 0.009104609450944625 1 1 1 1 1 0.0073454033782203772 1 1 1 1 1 1 1 1 0.0098629763468344872 1 1 1 1 1 0.0095310710134891702 1 1 0.014401706274822845 1 0.0077601670448210758 0.0082769484389707132 1 1 1 1 1 1 1 1 0.010000101347921481 1 1 1 1 1 1 1 1 1 1 1 1 1 0.0077411534772755738 1 1 1 1 1 1 1 0.009927645912808869 1 1 1 0.0099277689296849228 1 1 1 1 1 1 1 1 1 1 1 1 1 1 1 1 1 0.0109026568423369 1 1 1 1 1 1 1 0.010322708536251614 1 1 0.0091771559325879576 1 1 1 1 1 1 1 1 1 1 1 1 1 1 1 0.009366578073338315 1 1 1 1 0.011660234067538352 1 1 1 1 1 1 1 1 1 1 1 1 1 1 1 1 1 1 1 1 1 1 1 1 1 0.0077846615936769236 1 1 1 1 1 1 0.0096119522131713608 1 1 1 1 1 1 1 1 1 0.0099518248630580432 0.010927435029400752 1 1 1 0.014130962656829713 1 0.0099536793347252753 1 1 1 1 1 1 1 1 1 1 1 1 1 1 1 0.0096272011419259382 1 1 1 1 1 1 1 1 1 1 1 1 0.010395061852051461 0.010759190843027185 1 1 1 1 1 1 1 1 0.0091370491038028287 1 1 0.010100051567240202 1 1 0.006089437574711587 0.012982920097989233 1 1 1 1 1 1 1 0.0086314487908193127 1 1 1 1 1 1 1 1 1 0.010364128990975725 1 1 1 0.0085408125058245785 1 1 1 1 1 0.0090140225758653259 1 1 1 1 1 1 1 1 1 1 1 1 0.0087626134820763743 1 1 1 0.010010101887811963 1 1 1 0.010034833234740005 1 1 1 1 1 1 1 1 1 1 1 1 1 1 1 1 1 1 1 1 1 1 1 1 1 1 1 1 1 1 1 1 0.0093901298972154604 1 1 1 1 1 1 1 1 1 1 1 1 1 1 1 1 1 1 1 1 1 1 1 1 0.01017415720284601 1 0.01005256630677611 1 1 0.0046737593642704051 1 1 1 1 1 1 1 1 1 0.013885796879111657 1 1 1 1 1 1 1 1 1 1 1 1 1 1 0.0060840643274879275 1 1 1 1 0.00783873209032597 1 1 1 0.0093780514812475853 1 1 1 1 1 1 1 1 1 1 1 1 1 1 1 1 1 1 1 1 1 1 1 1 1 1 1 1 1 1 1 1 1 1 1 1 1 1 1 1 1 1 1 1 1 1 1 1 1 1 1 1 1 1 1 1 1 1 1 1 1 1 1 1 1 1 1 1 1 1 1 1 1 1 1 1 1 1 1 1 1 1 1 1 1 1 1 1 1 1 1 1 1 1 1 1 1 1 1 1 1 1 1 1 1 1 1 1 1 1 1 1 1 1 1 1 1 1 1 1 1 1 1 1 1 1 1 1 1 1 1 1 1 1 1 1 1 1 1 1 1 1 1 1 1 1 1 1 1 1 1 1 1 1 1 1 1 1 1 1 1 1 1 1 1 1 1 1 1 1 1 1 1 1 1 1 1 1 1 1 1 1 1 1 1 1 1 1 1 0.024858923360619851 1 1 1 1 1 1 1 1 1 1 1 1 1 1 1 1 0.011951814000786794 1 1 1 1 1 1 1 1 0.029729977661961816 1 1 1 1 0.0087690558743528588 1 1 1 1 1 1 1 1 1 1 1 1 1 1 1 1 1 1 1 1 1 1 0.012606141976605496 1 1 1 1 1 1 1 1 1 1 1 1 1 0.0083329185980674878 0.023227001567680702 1 1 1 1 1 0.018556848890804212 1 0.015320576965660759 1 1 1 1 1 1 1 1 1 1 1 0.013593785500298204 1 1 1 1 1 1 1 0.010222243862714583 1 1 1 1 1 1 1 1 1 1 1 1 1 1 1 0.010075892964445705 0.010404011228958092 1 1 1 1 1 1 1 1 1 1 1 1 0.013418219164673756 1 1 1 1 1 1 1 1 1 1 1 1 1 1 1 1 0.011200473521442723 1 1 1 1 1 1 1 0.0091504020957403134 1 1 1 1 1 1 1 1 1 1 0.0099576209411328838 0.0033090296410386924 1 1 1 1 1 1 1 1 1 1 1 1 1 1 1 1 1 1 1 1 1 1 1 1 1 1 1 1 1 1 0.012211981209750809 1 1 1 1 1 0.011445167360638955 1 1 1 1 1 1 1 1 1 1 0.010662578514150067 1 1 1 1 0.0086449738285832925 1 1 1 1 1 1 1 1 1 1 0.011062021861580815 1 0.010279433015091911 1 1 1 1 1 1 1 1 1 1 1 1 1 1 1 1 1 1 1 1 1 1 1 1 1 1 1 1 1 1 1 0.010019153154721842 1 1 1 1 1 0.010095046119167549 1 1 1 1 1 1 1 1 1 1 1 1 1 1 1 1 1 1 0.0071834827636423453 1 1 4.9674279758993301e-09 1 1 1 0.009025058255659045 1 1 1 1 1 0.0063726116012879485 1 1 1 1 1 1 1 1 1 1 0.022031811024930875 1 1 1 1 1 1 0.010009271184562454 1 1 1 1 1 0.0048738129662484978 0.0095089979442551861 1 1 -9.0449819821480926e-09 1 1 0.010202429573948199 1 1 1 1 1 1 1 1 1 1 0.011729358789320292 1 1 0.01224313833414508 1 1 0.012205660453526682 1 1 0.014909202353204459 1 1 0.010008315115484993 1 1 0.010003746294624666 1 1 1 1 1 1 0.0092341289322179863 1 1 1 1 1 1 1 1 1 1 1 -5.3422905439692858e-09 1 1 1 1 1 1 1 0.011347367116141229 1 1 1 1 0.0078928473694295006 1 1 1 -7.8591248092729771e-11 1 1 1 1 1 1 1 1 1 1 1 0.0042602591187585366 1 1 1 1 1 1 1 1 1 1 1 1 1 1 1 1 1 1 1 1 1 1 1 1 0.010061825084873303 1 1 1 1 1 0.010278421068463413 1 1 1 1 1 1 1 1 1 1 1 1 1 1 0.0077250323389186915 1 1 0.0053140706314894117 1 0.024627506081775059 1 1 1 1 0.028847531961208407 1 0.0077642033136314861 5.3650961277795783e-09 1 1.0297436514594693e-10 1 1 1 1 1 1 1 0.010245202117819409 1 0.013479392484158505 1 1 1 1 1 1 0.0097215508360329189 1 1 1 1 1 1 0.010214896274685865 1 1 1 1 0.010483070821127802 1 1 1 1 1 0.010136113321124513 1 1 0.011139066513606403 1 1 1 1 0.010419243840120006 1 1 1 1 0.013221290717133381 1 1 1 1 1 1 0.0099731630832505663 1 1 1 1 1 1 1 1 1 0.010161834993428716 1 1 1 1 1 1 0.011337242596286599 1 1 1 1 0.013466460471744223 1 1 1 1 1 1 1 1 1 1 1 1 1 1 1 1 0.0099872501297717034 1 1 1 0.0090280262211101751 1 1 0.022650697919942109 1 1 1 1 1 1 1 1 1 1 1 1 1 1 1 1 0.01008816170564068 1 0.021588278400450838 1 1 1 1 1 1 1 1 1 1 1 1 1 1 1 1 1 1 1 1 1 1 1 1 1 1 0.026575767388433896 1 1 0.019993790416016819 1 1 1 1 1 1 1 1 1 1 0.017096063801947087 1 1 1 1 0.010511233434828507 1 1 1 1 0.010423071729187824 1 1 1 1 1 1 1 1 1 0.014112194549765521 1 1 1 1 1 1 1 1 1 1 1 1 1 1 1 1 1 1 1 1 1 1 1 1 1 1 1 1 
</DataArray>
</CellData>
</Piece>
</UnstructuredGrid>
</VTKFile>
