<?xml version="1.0"?>
<VTKFile type="UnstructuredGrid" version="0.1" byte_order="LittleEndian">
<UnstructuredGrid>
<Piece NumberOfPoints="30896" NumberOfCells="10754">
<Points>
<DataArray type="Float64" NumberOfComponents="3" format="ascii">
-0.5 -0.5 0 -0.49999999999999728 -0.4951078961474179 0 -0.47556137958802641 -0.4863134336798039 0 -0.49999999999999728 -0.4951078961474179 0 -0.48888184660152939 -0.47928258675589552 0 -0.47556137958802641 -0.4863134336798039 0 -0.49999999999999728 -0.4951078961474179 0 -0.47556137958802641 -0.4863134336798039 0 -0.5 -0.5 0 -0.47556137958802641 -0.4863134336798039 0 -0.45469313645163489 -0.5 0 -0.49999999999999728 -0.4951078961474179 0 -0.48888184660152939 -0.47928258675589552 0 -0.5 -0.4678935797153464 0 -0.48888184660152939 -0.47928258675589552 0 -0.47642501453424091 -0.46426639560023519 0 -0.5 -0.4678935797153464 0 -0.48888184660152939 -0.47928258675589552 0 -0.47556137958802641 -0.4863134336798039 0 -0.47642501453424091 -0.46426639560023519 0 -0.45469313645163489 -0.5 0 -0.45112275917605582 -0.47751897121218889 0 -0.42668413876408529 -0.46872450874457411 0 -0.47556137958802641 -0.4863134336798039 0 -0.45469313645163489 -0.5 0 -0.45112275917605582 -0.47751897121218889 0 -0.47556137958802641 -0.4863134336798039 0 -0.45112275917605582 -0.47751897121218889 0 -0.47642501453424091 -0.46426639560023519 0 -0.47556137958802641 -0.4863134336798039 0 -0.45112275917605582 -0.47751897121218889 0 -0.45112275917605582 -0.47751897121218889 0 -0.42668413876408529 -0.46872450874457411 0 -0.44993955490824161 -0.45591906818088718 0 -0.44530484513786373 -0.43634110900104739 0 -0.42814680334366051 -0.4507704629762338 0 -0.45112275917605582 -0.47751897121218889 0 -0.44993955490824161 -0.45591906818088718 0 -0.42668413876408529 -0.46872450874457411 0 -0.45112275917605582 -0.47751897121218889 0 -0.44993955490824161 -0.45591906818088718 0 -0.47642501453424091 -0.46426639560023519 0 -0.44993955490824161 -0.45591906818088718 0 -0.47265242256893941 -0.43851018614216059 0 -0.44530484513786373 -0.43634110900104739 0 -0.44993955490824161 -0.45591906818088718 0 -0.47265242256893941 -0.43851018614216059 0 -0.47642501453424091 -0.46426639560023519 0 -0.47265242256893941 -0.43851018614216059 0 -0.47642501453424091 -0.46426639560023519 0 -0.50000000000001488 -0.440679263283275 0 -0.47642501453424091 -0.46426639560023519 0 -0.5 -0.4678935797153464 0 -0.50000000000001488 -0.440679263283275 0 -0.47265242256893941 -0.43851018614216059 0 -0.50000000000001488 -0.440679263283275 0 -0.47265242256893941 -0.43851018614216059 0 -0.50000000000001488 -0.440679263283275 0 -0.48181425948517698 -0.42045974715113688 0 -0.50000000000001488 -0.440679263283275 0 -0.5 -0.41156950275764981 0 -0.48181425948517698 -0.42045974715113688 0 -0.5 -0.41156950275764981 0 -0.48181425948517698 -0.42045974715113688 0 -0.4845316273001109 -0.39572849247115149 0 -0.48181425948517698 -0.42045974715113688 0 -0.4845316273001109 -0.39572849247115149 0 -0.46832053264262152 -0.40285976570587362 0 -0.47265242256893941 -0.43851018614216059 0 -0.48181425948517698 -0.42045974715113688 0 -0.45494047923195308 -0.41731935769620471 0 -0.5 -0.3824597422320245 0 -0.4845316273001109 -0.39572849247115149 0 -0.47893177514547453 -0.37576308150860971 0 -0.5 -0.41156950275764981 0 -0.5 -0.3824597422320245 0 -0.4845316273001109 -0.39572849247115149 0 -0.4845316273001109 -0.39572849247115149 0 -0.46767420915850161 -0.38937209213934038 0 -0.46832053264262152 -0.40285976570587362 0 -0.4845316273001109 -0.39572849247115149 0 -0.47893177514547453 -0.37576308150860971 0 -0.46767420915850161 -0.38937209213934038 0 -0.47893177514547453 -0.37576308150860971 0 -0.46767420915850161 -0.38937209213934038 0 -0.45227661575813988 -0.37789141437863999 0 -0.46767420915850161 -0.38937209213934038 0 -0.4553314831780042 -0.39730905521101673 0 -0.45227661575813988 -0.37789141437863999 0 -0.4553314831780042 -0.39730905521101673 0 -0.46832053264262152 -0.40285976570587362 0 -0.45494047923195308 -0.41731935769620471 0 -0.46767420915850161 -0.38937209213934038 0 -0.4553314831780042 -0.39730905521101673 0 -0.46832053264262152 -0.40285976570587362 0 -0.4553314831780042 -0.39730905521101673 0 -0.45494047923195308 -0.41731935769620471 0 -0.43748468617581038 -0.40293469790464193 0 -0.4553314831780042 -0.39730905521101673 0 -0.45227661575813988 -0.37789141437863999 0 -0.43748468617581038 -0.40293469790464193 0 -0.45227661575813988 -0.37789141437863999 0 -0.4343645645853691 -0.38569248880880852 0 -0.43723425011550399 -0.3740873654345962 0 -0.45227661575813988 -0.37789141437863999 0 -0.43748468617581038 -0.40293469790464193 0 -0.45227661575813988 -0.37789141437863999 0 -0.4343645645853691 -0.38569248880880852 0 -0.43748468617581038 -0.40293469790464193 0 -0.47265242256893941 -0.43851018614216059 0 -0.45494047923195308 -0.41731935769620471 0 -0.44530484513786373 -0.43634110900104739 0 -0.47265242256893941 -0.43851018614216059 0 -0.44530484513786373 -0.43634110900104739 0 -0.48181425948517698 -0.42045974715113688 0 -0.46832053264262152 -0.40285976570587362 0 -0.45494047923195308 -0.41731935769620471 0 -0.45494047923195308 -0.41731935769620471 0 -0.43481357268735787 -0.42140601871702288 0 -0.43748468617581038 -0.40293469790464193 0 -0.45494047923195308 -0.41731935769620471 0 -0.44530484513786373 -0.43634110900104739 0 -0.43481357268735787 -0.42140601871702288 0 -0.44530484513786373 -0.43634110900104739 0 -0.41795726770678809 -0.43417203185993408 0 -0.43481357268735787 -0.42140601871702288 0 -0.41838058518437432 -0.4162628971232864 0 -0.41795726770678809 -0.43417203185993408 0 -0.44530484513786373 -0.43634110900104739 0 -0.43481357268735787 -0.42140601871702288 0 -0.41795726770678809 -0.43417203185993408 0 -0.43481357268735787 -0.42140601871702288 0 -0.41838058518437432 -0.4162628971232864 0 -0.43748468617581038 -0.40293469790464193 0 -0.41838058518437432 -0.4162628971232864 0 -0.40387362494084011 -0.42303636282091339 0 -0.39828894518590541 -0.40803159407563722 0 -0.41838058518437432 -0.4162628971232864 0 -0.41795726770678809 -0.43417203185993408 0 -0.40387362494084011 -0.42303636282091339 0 -0.4343645645853691 -0.38569248880880852 0 -0.42331126737778718 -0.39508519651506918 0 -0.42151600349960411 -0.37846376981109492 0 -0.4343645645853691 -0.38569248880880852 0 -0.42151600349960411 -0.37846376981109492 0 -0.43723425011550399 -0.3740873654345962 0 -0.41838058518437432 -0.4162628971232864 0 -0.43748468617581038 -0.40293469790464193 0 -0.42331126737778718 -0.39508519651506918 0 -0.4343645645853691 -0.38569248880880852 0 -0.43748468617581038 -0.40293469790464193 0 -0.42331126737778718 -0.39508519651506918 0 -0.41838058518437432 -0.4162628971232864 0 -0.4077511286599933 -0.38848944906560812 0 -0.41838058518437432 -0.4162628971232864 0 -0.42331126737778718 -0.39508519651506918 0 -0.4077511286599933 -0.38848944906560812 0 -0.41838058518437432 -0.4162628971232864 0 -0.4077511286599933 -0.38848944906560812 0 -0.39828894518590541 -0.40803159407563722 0 -0.42331126737778718 -0.39508519651506918 0 -0.4077511286599933 -0.38848944906560812 0 -0.42151600349960411 -0.37846376981109492 0 -0.4077511286599933 -0.38848944906560812 0 -0.42151600349960411 -0.37846376981109492 0 -0.40911244233707361 -0.3733511811947916 0 -0.4077511286599933 -0.38848944906560812 0 -0.39268944785074639 -0.39496098019696357 0 -0.38727979656423278 -0.38134629288484628 0 -0.4077511286599933 -0.38848944906560812 0 -0.38727979656423278 -0.38134629288484628 0 -0.39712167213561189 -0.36071600100792989 0 -0.4077511286599933 -0.38848944906560812 0 -0.39268944785074639 -0.39496098019696357 0 -0.39828894518590541 -0.40803159407563722 0 -0.39268944785074639 -0.39496098019696357 0 -0.37743792099285423 -0.40197658476176312 0 -0.38727979656423278 -0.38134629288484628 0 -0.37743792099285423 -0.40197658476176312 0 -0.38727979656423278 -0.38134629288484628 0 -0.37743792099285423 -0.40197658476176312 0 -0.38727979656423278 -0.38134629288484628 0 -0.36120022784666578 -0.38959513091372089 0 -0.39268944785074639 -0.39496098019696357 0 -0.37743792099285423 -0.40197658476176312 0 -0.39828894518590541 -0.40803159407563722 0 -0.40387362494084011 -0.42303636282091339 0 -0.38315958056171501 -0.41736888227639313 0 -0.39060969027571252 -0.43200295471882089 0 -0.41795726770678809 -0.43417203185993408 0 -0.39060969027571252 -0.43200295471882089 0 -0.41795726770678809 -0.43417203185993408 0 -0.40387362494084011 -0.42303636282091339 0 -0.39060969027571252 -0.43200295471882089 0 -0.40387362494084011 -0.42303636282091339 0 -0.39828894518590541 -0.40803159407563722 0 -0.38315958056171501 -0.41736888227639313 0 -0.37743792099285423 -0.40197658476176312 0 -0.39828894518590541 -0.40803159407563722 0 -0.38315958056171501 -0.41736888227639313 0 -0.37743792099285423 -0.40197658476176312 0 -0.38315958056171501 -0.41736888227639313 0 -0.36759604542147561 -0.4226068766386798 0 -0.39060969027571252 -0.43200295471882089 0 -0.36326211284463678 -0.42983387757770769 0 -0.38315958056171501 -0.41736888227639313 0 -0.39060969027571252 -0.43200295471882089 0 -0.36759604542147561 -0.4226068766386798 0 -0.39060969027571252 -0.43200295471882089 0 -0.37780689794014433 -0.45113558380934432 0 -0.40224551835211481 -0.45993004627695921 0 -0.39060969027571252 -0.43200295471882089 0 -0.37780689794014433 -0.45113558380934432 0 -0.36326211284463678 -0.42983387757770769 0 -0.41795726770678809 -0.43417203185993408 0 -0.39060969027571252 -0.43200295471882089 0 -0.40224551835211481 -0.45993004627695921 0 -0.37780689794014433 -0.45113558380934432 0 -0.40224551835211481 -0.45993004627695921 0 -0.37780689794014433 -0.45113558380934432 0 -0.38511263920424837 -0.46918695782684849 0 -0.36944275723482128 -0.46524893742037809 0 -0.37780689794014433 -0.45113558380934432 0 -0.40224551835211481 -0.45993004627695921 0 -0.38511263920424837 -0.46918695782684849 0 -0.38511263920424837 -0.46918695782684849 0 -0.37384741698460489 -0.48507156445338823 0 -0.36944275723482128 -0.46524893742037809 0 -0.38511263920424837 -0.46918695782684849 0 -0.38978462682507081 -0.48443719122074241 0 -0.37384741698460489 -0.48507156445338823 0 -0.39327691401223602 -0.50000000000000289 0 -0.37384741698460489 -0.48507156445338823 0 -0.36915001865857361 -0.5 0 -0.38978462682507081 -0.48443719122074241 0 -0.39327691401223602 -0.50000000000000289 0 -0.37384741698460489 -0.48507156445338823 0 -0.39327691401223602 -0.50000000000000289 0 -0.37384741698460489 -0.48507156445338823 0 -0.38978462682507081 -0.48443719122074241 0 -0.39327691401223602 -0.50000000000000289 0 -0.40863282893489827 -0.48037978401152071 0 -0.38511263920424837 -0.46918695782684849 0 -0.38978462682507081 -0.48443719122074241 0 -0.40863282893489827 -0.48037978401152071 0 -0.40224551835211481 -0.45993004627695921 0 -0.38511263920424837 -0.46918695782684849 0 -0.40863282893489827 -0.48037978401152071 0 -0.40224551835211481 -0.45993004627695921 0 -0.40863282893489827 -0.48037978401152071 0 -0.42668413876408529 -0.46872450874457411 0 -0.45469313645163489 -0.5 0 -0.40863282893489827 -0.48037978401152071 0 -0.42668413876408529 -0.46872450874457411 0 -0.45469313645163489 -0.5 0 -0.39327691401223602 -0.50000000000000289 0 -0.40863282893489827 -0.48037978401152071 0 -0.44993955490824161 -0.45591906818088718 0 -0.42668413876408529 -0.46872450874457411 0 -0.42814680334366051 -0.4507704629762338 0 -0.44530484513786373 -0.43634110900104739 0 -0.41795726770678809 -0.43417203185993408 0 -0.42814680334366051 -0.4507704629762338 0 -0.41795726770678809 -0.43417203185993408 0 -0.40224551835211481 -0.45993004627695921 0 -0.42814680334366051 -0.4507704629762338 0 -0.40224551835211481 -0.45993004627695921 0 -0.42668413876408529 -0.46872450874457411 0 -0.42814680334366051 -0.4507704629762338 0 -0.40224551835211481 -0.45993004627695921 0 -0.42668413876408529 -0.46872450874457411 0 -0.4454815151046414 -0.25465384193152107 0 -0.43676683994568732 -0.26857676538423819 0 -0.43058913491078132 -0.24466833150301309 0 -0.4454815151046414 -0.25465384193152107 0 -0.45089574166033608 -0.28357913956377973 0 -0.43676683994568732 -0.26857676538423819 0 -0.4454815151046414 -0.25465384193152107 0 -0.45089574166033608 -0.28357913956377973 0 -0.45089574166033608 -0.28357913956377973 0 -0.4312385360877477 -0.28404386650405389 0 -0.43676683994568732 -0.26857676538423819 0 -0.4454815151046414 -0.25465384193152107 0 -0.46522431304776979 -0.2630536890213529 0 -0.45089574166033608 -0.28357913956377973 0 -0.46522431304776979 -0.2630536890213529 0 -0.46776802512346127 -0.28297840165158711 0 -0.45089574166033608 -0.28357913956377973 0 -0.4454815151046414 -0.25465384193152107 0 -0.46522431304776979 -0.2630536890213529 0 -0.4623524984546008 -0.23881289425989241 0 -0.46522431304776979 -0.2630536890213529 0 -0.48101533693306792 -0.27251209546849381 0 -0.4822966684656641 -0.24775196155403911 0 -0.5 -0.25864843839058449 0 -0.48101533693306792 -0.27251209546849381 0 -0.4822966684656641 -0.24775196155403911 0 -0.5 -0.25864843839058449 0 -0.48101533693306792 -0.27251209546849381 0 -0.5 -0.28756679469925001 0 -0.46522431304776979 -0.2630536890213529 0 -0.48101533693306792 -0.27251209546849381 0 -0.46776802512346127 -0.28297840165158711 0 -0.48101533693306792 -0.27251209546849381 0 -0.48675284657994999 -0.29694277145617631 0 -0.46776802512346127 -0.28297840165158711 0 -0.48675284657994999 -0.29694277145617631 0 -0.46775851231633481 -0.3003372642767736 0 -0.46776802512346127 -0.28297840165158711 0 -0.48101533693306792 -0.27251209546849381 0 -0.48675284657994999 -0.29694277145617631 0 -0.48101533693306792 -0.27251209546849381 0 -0.5 -0.28756679469925001 0 -0.48675284657994999 -0.29694277145617631 0 -0.48675284657994999 -0.29694277145617631 0 -0.49249035622683213 -0.32137344744385871 0 -0.48675284657994999 -0.29694277145617631 0 -0.47895461488856023 -0.3042942178831472 0 -0.49249035622683213 -0.32137344744385871 0 -0.5 -0.28756679469925001 0 -0.48675284657994999 -0.29694277145617631 0 -0.5 -0.31648515100791552 0 -0.48675284657994999 -0.29694277145617631 0 -0.5 -0.31648515100791552 0 -0.49249035622683213 -0.32137344744385871 0 -0.48675284657994999 -0.29694277145617631 0 -0.47895461488856023 -0.3042942178831472 0 -0.46775851231633481 -0.3003372642767736 0 -0.47895461488856023 -0.3042942178831472 0 -0.47241809568250392 -0.31040132230564699 0 -0.47890513531818252 -0.31421922339280312 0 -0.47895461488856023 -0.3042942178831472 0 -0.47241809568250392 -0.31040132230564699 0 -0.46775851231633481 -0.3003372642767736 0 -0.45089574166033608 -0.28357913956377973 0 -0.45630996821603081 -0.31250443719603832 0 -0.47241809568250392 -0.31040132230564699 0 -0.46775851231633481 -0.3003372642767736 0 -0.46280810122399763 -0.31330070730344811 0 -0.46775851231633481 -0.3003372642767736 0 -0.45089574166033608 -0.28357913956377973 0 -0.45630996821603081 -0.31250443719603832 0 -0.46775851231633481 -0.3003372642767736 0 -0.45630996821603081 -0.31250443719603832 0 -0.46280810122399763 -0.31330070730344811 0 -0.46775851231633481 -0.3003372642767736 0 -0.46776802512346127 -0.28297840165158711 0 -0.45089574166033608 -0.28357913956377973 0 -0.45089574166033608 -0.28357913956377973 0 -0.43886869459302902 -0.2943459769963343 0 -0.44348067665516161 -0.30610273310759989 0 -0.45089574166033608 -0.28357913956377973 0 -0.43886869459302902 -0.2943459769963343 0 -0.4312385360877477 -0.28404386650405389 0 -0.45089574166033608 -0.28357913956377973 0 -0.44348067665516161 -0.30610273310759989 0 -0.45630996821603081 -0.31250443719603832 0 -0.44348067665516161 -0.30610273310759989 0 -0.44623147669803692 -0.31844660460064439 0 -0.45630996821603081 -0.31250443719603832 0 -0.44623147669803692 -0.31844660460064439 0 -0.44782678349364341 -0.33694272593437069 0 -0.43730847842731208 -0.31823652216456921 0 -0.44623147669803692 -0.31844660460064439 0 -0.44782678349364341 -0.33694272593437069 0 -0.45630996821603081 -0.31250443719603832 0 -0.44782678349364341 -0.33694272593437069 0 -0.42965005330277201 -0.32891290048403399 0 -0.43730847842731208 -0.31823652216456921 0 -0.44348067665516161 -0.30610273310759989 0 -0.44623147669803692 -0.31844660460064439 0 -0.43730847842731208 -0.31823652216456921 0 -0.46478053483605919 -0.33273253000537578 0 -0.46706854534046932 -0.35284813085263822 0 -0.45740821730551268 -0.3448099561253376 0 -0.44782678349364341 -0.33694272593437069 0 -0.46478053483605919 -0.33273253000537578 0 -0.45740821730551268 -0.3448099561253376 0 -0.44782678349364341 -0.33694272593437069 0 -0.46280810122399763 -0.31330070730344811 0 -0.46478053483605919 -0.33273253000537578 0 -0.46280810122399763 -0.31330070730344811 0 -0.47366411466544439 -0.31985519867206302 0 -0.44782678349364341 -0.33694272593437069 0 -0.46478053483605919 -0.33273253000537578 0 -0.46280810122399763 -0.31330070730344811 0 -0.44782678349364341 -0.33694272593437069 0 -0.45630996821603081 -0.31250443719603832 0 -0.46280810122399763 -0.31330070730344811 0 -0.47895461488856023 -0.3042942178831472 0 -0.47890513531818252 -0.31421922339280312 0 -0.49249035622683213 -0.32137344744385871 0 -0.46478053483605919 -0.33273253000537578 0 -0.47366411466544439 -0.31985519867206302 0 -0.48099681264746641 -0.32926705948168189 0 -0.47241809568250392 -0.31040132230564699 0 -0.46280810122399763 -0.31330070730344811 0 -0.47366411466544439 -0.31985519867206302 0 -0.47241809568250392 -0.31040132230564699 0 -0.47366411466544439 -0.31985519867206302 0 -0.47890513531818252 -0.31421922339280312 0 -0.47366411466544439 -0.31985519867206302 0 -0.48319357711722599 -0.32292955948751162 0 -0.48099681264746641 -0.32926705948168189 0 -0.48319357711722599 -0.32292955948751162 0 -0.48857093991587153 -0.33159134689404168 0 -0.48099681264746641 -0.32926705948168189 0 -0.47366411466544439 -0.31985519867206302 0 -0.48319357711722599 -0.32292955948751162 0 -0.47890513531818252 -0.31421922339280312 0 -0.5 -0.31648515100791552 0 -0.49249035622683213 -0.32137344744385871 0 -0.50000000000000178 -0.34540350731658098 0 -0.48319357711722599 -0.32292955948751162 0 -0.47890513531818252 -0.31421922339280312 0 -0.49249035622683213 -0.32137344744385871 0 -0.48319357711722599 -0.32292955948751162 0 -0.49249035622683213 -0.32137344744385871 0 -0.48857093991587153 -0.33159134689404168 0 -0.49249035622683213 -0.32137344744385871 0 -0.49822786587371432 -0.34580412343154099 0 -0.50000000000000178 -0.34540350731658098 0 -0.49249035622683213 -0.32137344744385871 0 -0.49822786587371432 -0.34580412343154099 0 -0.49249035622683213 -0.32137344744385871 0 -0.48857093991587153 -0.33159134689404168 0 -0.49822786587371432 -0.34580412343154099 0 -0.48857093991587153 -0.33159134689404168 0 -0.48794608771411918 -0.33858254462561571 0 -0.48099681264746641 -0.32926705948168189 0 -0.48857093991587153 -0.33159134689404168 0 -0.48794608771411918 -0.33858254462561571 0 -0.49822786587371432 -0.34580412343154099 0 -0.48794608771411918 -0.33858254462561571 0 -0.48099681264746641 -0.32926705948168189 0 -0.4826482056070916 -0.34932612714208883 0 -0.48099681264746641 -0.32926705948168189 0 -0.46706854534046932 -0.35284813085263822 0 -0.46478053483605919 -0.33273253000537578 0 -0.48099681264746641 -0.32926705948168189 0 -0.46706854534046932 -0.35284813085263822 0 -0.4826482056070916 -0.34932612714208883 0 -0.46706854534046932 -0.35284813085263822 0 -0.48099681264746641 -0.32926705948168189 0 -0.4826482056070916 -0.34932612714208883 0 -0.46706854534046932 -0.35284813085263822 0 -0.4826482056070916 -0.34932612714208883 0 -0.47372338632549599 -0.36400271866790129 0 -0.46706854534046932 -0.35284813085263822 0 -0.4826482056070916 -0.34932612714208883 0 -0.48769178977630467 -0.36418483945752977 0 -0.47372338632549599 -0.36400271866790129 0 -0.48794608771411918 -0.33858254462561571 0 -0.4826482056070916 -0.34932612714208883 0 -0.49822786587371432 -0.34580412343154099 0 -0.4826482056070916 -0.34932612714208883 0 -0.5 -0.3533499817063992 0 -0.49822786587371432 -0.34580412343154099 0 -0.4826482056070916 -0.34932612714208883 0 -0.5 -0.3533499817063992 0 -0.48769178977630467 -0.36418483945752977 0 -0.4826482056070916 -0.34932612714208883 0 -0.49822786587371432 -0.34580412343154099 0 -0.5 -0.3533499817063992 0 -0.49822786587371432 -0.34580412343154099 0 -0.50000000000000178 -0.34540350731658098 0 -0.5 -0.3533499817063992 0 -0.49822786587371432 -0.34580412343154099 0 -0.49822786587371432 -0.34580412343154099 0 -0.50000000000000178 -0.34540350731658098 0 -0.5 -0.3824597422320245 0 -0.5 -0.3533499817063992 0 -0.48769178977630467 -0.36418483945752977 0 -0.5 -0.3824597422320245 0 -0.47893177514547453 -0.37576308150860971 0 -0.48769178977630467 -0.36418483945752977 0 -0.47893177514547453 -0.37576308150860971 0 -0.48769178977630467 -0.36418483945752977 0 -0.47372338632549599 -0.36400271866790129 0 -0.45227661575813988 -0.37789141437863999 0 -0.47372338632549599 -0.36400271866790129 0 -0.46706854534046932 -0.35284813085263822 0 -0.45227661575813988 -0.37789141437863999 0 -0.46706854534046932 -0.35284813085263822 0 -0.47893177514547453 -0.37576308150860971 0 -0.45227661575813988 -0.37789141437863999 0 -0.47372338632549599 -0.36400271866790129 0 -0.45227661575813988 -0.37789141437863999 0 -0.46706854534046932 -0.35284813085263822 0 -0.44995700555187917 -0.35671643770896577 0 -0.46706854534046932 -0.35284813085263822 0 -0.45740821730551268 -0.3448099561253376 0 -0.44995700555187917 -0.35671643770896577 0 -0.46706854534046932 -0.35284813085263822 0 -0.44995700555187917 -0.35671643770896577 0 -0.44995700555187917 -0.35671643770896577 0 -0.43284546576328919 -0.36058474456529338 0 -0.44782678349364341 -0.33694272593437069 0 -0.45740821730551268 -0.3448099561253376 0 -0.44995700555187917 -0.35671643770896577 0 -0.44782678349364341 -0.33694272593437069 0 -0.43284546576328919 -0.36058474456529338 0 -0.44782678349364341 -0.33694272593437069 0 -0.44995700555187917 -0.35671643770896577 0 -0.43284546576328919 -0.36058474456529338 0 -0.45227661575813988 -0.37789141437863999 0 -0.44995700555187917 -0.35671643770896577 0 -0.43723425011550399 -0.3740873654345962 0 -0.44995700555187917 -0.35671643770896577 0 -0.43723425011550399 -0.3740873654345962 0 -0.43284546576328919 -0.36058474456529338 0 -0.42151600349960411 -0.37846376981109492 0 -0.43284546576328919 -0.36058474456529338 0 -0.42151600349960411 -0.37846376981109492 0 -0.43723425011550399 -0.3740873654345962 0 -0.43284546576328919 -0.36058474456529338 0 -0.43284546576328919 -0.36058474456529338 0 -0.41579256992483632 -0.35289695453673481 0 -0.42510272232011082 -0.34236126604132161 0 -0.44782678349364341 -0.33694272593437069 0 -0.43284546576328919 -0.36058474456529338 0 -0.42510272232011082 -0.34236126604132161 0 -0.41579256992483632 -0.35289695453673481 0 -0.40533529380217898 -0.34349881398713089 0 -0.42510272232011082 -0.34236126604132161 0 -0.41579256992483632 -0.35289695453673481 0 -0.4070776252289281 -0.3557118186065823 0 -0.40533529380217898 -0.34349881398713089 0 -0.41579256992483632 -0.35289695453673481 0 -0.4070776252289281 -0.3557118186065823 0 -0.41006096505308531 -0.3657355048945336 0 -0.43284546576328919 -0.36058474456529338 0 -0.41006096505308531 -0.3657355048945336 0 -0.43284546576328919 -0.36058474456529338 0 -0.41579256992483632 -0.35289695453673481 0 -0.41006096505308531 -0.3657355048945336 0 -0.42151600349960411 -0.37846376981109492 0 -0.43284546576328919 -0.36058474456529338 0 -0.41006096505308531 -0.3657355048945336 0 -0.42151600349960411 -0.37846376981109492 0 -0.41006096505308531 -0.3657355048945336 0 -0.40911244233707361 -0.3733511811947916 0 -0.4077511286599933 -0.38848944906560812 0 -0.40911244233707361 -0.3733511811947916 0 -0.39712167213561189 -0.36071600100792989 0 -0.38727979656423278 -0.38134629288484628 0 -0.39712167213561189 -0.36071600100792989 0 -0.4077511286599933 -0.38848944906560812 0 -0.39712167213561189 -0.36071600100792989 0 -0.41006096505308531 -0.3657355048945336 0 -0.40911244233707361 -0.3733511811947916 0 -0.39712167213561189 -0.36071600100792989 0 -0.4070776252289281 -0.3557118186065823 0 -0.41006096505308531 -0.3657355048945336 0 -0.39712167213561189 -0.36071600100792989 0 -0.38727979656423278 -0.38134629288484628 0 -0.38580110007278018 -0.36751621317035132 0 -0.36641497508733623 -0.36552232174338761 0 -0.38727979656423278 -0.38134629288484628 0 -0.39712167213561189 -0.36071600100792989 0 -0.38580110007278018 -0.36751621317035132 0 -0.38580110007278018 -0.36751621317035132 0 -0.38781580055372228 -0.35504859065261157 0 -0.36641497508733623 -0.36552232174338761 0 -0.38781580055372228 -0.35504859065261157 0 -0.36641497508733623 -0.36552232174338761 0 -0.39712167213561189 -0.36071600100792989 0 -0.38580110007278018 -0.36751621317035132 0 -0.38781580055372228 -0.35504859065261157 0 -0.37948697590251679 -0.34724462453187882 0 -0.38781580055372228 -0.35504859065261157 0 -0.36641497508733623 -0.36552232174338761 0 -0.37948697590251679 -0.34724462453187882 0 -0.38781580055372228 -0.35504859065261157 0 -0.39092554687567133 -0.34452629623129188 0 -0.4070776252289281 -0.3557118186065823 0 -0.39712167213561189 -0.36071600100792989 0 -0.40533529380217898 -0.34349881398713089 0 -0.39712167213561189 -0.36071600100792989 0 -0.38781580055372228 -0.35504859065261157 0 -0.39092554687567133 -0.34452629623129188 0 -0.39712167213561189 -0.36071600100792989 0 -0.40533529380217898 -0.34349881398713089 0 -0.39712167213561189 -0.36071600100792989 0 -0.39092554687567133 -0.34452629623129188 0 -0.39712167213561189 -0.36071600100792989 0 -0.39092554687567133 -0.34452629623129188 0 -0.40533529380217898 -0.34349881398713089 0 -0.40533529380217898 -0.34349881398713089 0 -0.39733051652390972 -0.3327944424796126 0 -0.4135489154687465 -0.32628162696633212 0 -0.39092554687567133 -0.34452629623129188 0 -0.39733051652390972 -0.3327944424796126 0 -0.38472942161573043 -0.32833659145465388 0 -0.39092554687567133 -0.34452629623129188 0 -0.40533529380217898 -0.34349881398713089 0 -0.39733051652390972 -0.3327944424796126 0 -0.37948697590251679 -0.34724462453187882 0 -0.39092554687567133 -0.34452629623129188 0 -0.38472942161573043 -0.32833659145465388 0 -0.37948697590251679 -0.34724462453187882 0 -0.38472942161573043 -0.32833659145465388 0 -0.36754913538012329 -0.34278932257744871 0 -0.39092554687567133 -0.34452629623129188 0 -0.38472942161573043 -0.32833659145465388 0 -0.38472942161573043 -0.32833659145465388 0 -0.38620787303726162 -0.3147993950993338 0 -0.40037328223680929 -0.32010419628755338 0 -0.38472942161573043 -0.32833659145465388 0 -0.38620787303726162 -0.3147993950993338 0 -0.37187149731767438 -0.31478237946829041 0 -0.38620787303726162 -0.3147993950993338 0 -0.40037328223680929 -0.32010419628755338 0 -0.39824383968486182 -0.30622449884740421 0 -0.39733051652390972 -0.3327944424796126 0 -0.38472942161573043 -0.32833659145465388 0 -0.40037328223680929 -0.32010419628755338 0 -0.39733051652390972 -0.3327944424796126 0 -0.40037328223680929 -0.32010419628755338 0 -0.4135489154687465 -0.32628162696633212 0 -0.40037328223680929 -0.32010419628755338 0 -0.41451846351484722 -0.31144439897275239 0 -0.39824383968486182 -0.30622449884740421 0 -0.40037328223680929 -0.32010419628755338 0 -0.4135489154687465 -0.32628162696633212 0 -0.41451846351484722 -0.31144439897275239 0 -0.4135489154687465 -0.32628162696633212 0 -0.42541156425676607 -0.31727014161400402 0 -0.41451846351484722 -0.31144439897275239 0 -0.40533529380217898 -0.34349881398713089 0 -0.4135489154687465 -0.32628162696633212 0 -0.40533529380217898 -0.34349881398713089 0 -0.4135489154687465 -0.32628162696633212 0 -0.42510272232011082 -0.34236126604132161 0 -0.4135489154687465 -0.32628162696633212 0 -0.42510272232011082 -0.34236126604132161 0 -0.42965005330277201 -0.32891290048403399 0 -0.44782678349364341 -0.33694272593437069 0 -0.42510272232011082 -0.34236126604132161 0 -0.42965005330277201 -0.32891290048403399 0 -0.4135489154687465 -0.32628162696633212 0 -0.42965005330277201 -0.32891290048403399 0 -0.42541156425676607 -0.31727014161400402 0 -0.42965005330277201 -0.32891290048403399 0 -0.43730847842731208 -0.31823652216456921 0 -0.42541156425676607 -0.31727014161400402 0 -0.43730847842731208 -0.31823652216456921 0 -0.42541156425676607 -0.31727014161400402 0 -0.42985982396887068 -0.30365816880990382 0 -0.42541156425676607 -0.31727014161400402 0 -0.42985982396887068 -0.30365816880990382 0 -0.41451846351484722 -0.31144439897275239 0 -0.44348067665516161 -0.30610273310759989 0 -0.43730847842731208 -0.31823652216456921 0 -0.42985982396887068 -0.30365816880990382 0 -0.43886869459302902 -0.2943459769963343 0 -0.44348067665516161 -0.30610273310759989 0 -0.42985982396887068 -0.30365816880990382 0 -0.42985982396887068 -0.30365816880990382 0 -0.4312385360877477 -0.28404386650405389 0 -0.41561020145908339 -0.29593816271289181 0 -0.43886869459302902 -0.2943459769963343 0 -0.42985982396887068 -0.30365816880990382 0 -0.4312385360877477 -0.28404386650405389 0 -0.41163282763447823 -0.28254790591051943 0 -0.41561020145908339 -0.29593816271289181 0 -0.39526816760358902 -0.28963472709303878 0 -0.4312385360877477 -0.28404386650405389 0 -0.41163282763447823 -0.28254790591051943 0 -0.41561020145908339 -0.29593816271289181 0 -0.41561020145908339 -0.29593816271289181 0 -0.41451846351484722 -0.31144439897275239 0 -0.39824383968486182 -0.30622449884740421 0 -0.42985982396887068 -0.30365816880990382 0 -0.41561020145908339 -0.29593816271289181 0 -0.41451846351484722 -0.31144439897275239 0 -0.41561020145908339 -0.29593816271289181 0 -0.39824383968486182 -0.30622449884740421 0 -0.39526816760358902 -0.28963472709303878 0 -0.38620787303726162 -0.3147993950993338 0 -0.3776557209620135 -0.29899024391597828 0 -0.37187149731767438 -0.31478237946829041 0 -0.39824383968486182 -0.30622449884740421 0 -0.3776557209620135 -0.29899024391597828 0 -0.39526816760358902 -0.28963472709303878 0 -0.38620787303726162 -0.3147993950993338 0 -0.39824383968486182 -0.30622449884740421 0 -0.3776557209620135 -0.29899024391597828 0 -0.39526816760358902 -0.28963472709303878 0 -0.39136677374201229 -0.27470009100412179 0 -0.37690120084965573 -0.27969639327543111 0 -0.3776557209620135 -0.29899024391597828 0 -0.39526816760358902 -0.28963472709303878 0 -0.37690120084965573 -0.27969639327543111 0 -0.41163282763447823 -0.28254790591051943 0 -0.39526816760358902 -0.28963472709303878 0 -0.39136677374201229 -0.27470009100412179 0 -0.39136677374201229 -0.27470009100412179 0 -0.38145023735708738 -0.26180023218171311 0 -0.40265723398887537 -0.26475330474911019 0 -0.41163282763447823 -0.28254790591051943 0 -0.39136677374201229 -0.27470009100412179 0 -0.40265723398887537 -0.26475330474911019 0 -0.39136677374201229 -0.27470009100412179 0 -0.37690120084965573 -0.27969639327543111 0 -0.38145023735708738 -0.26180023218171311 0 -0.37690120084965573 -0.27969639327543111 0 -0.38145023735708738 -0.26180023218171311 0 -0.36780443843016741 -0.26770660612687952 0 -0.38145023735708738 -0.26180023218171311 0 -0.36578396897160348 -0.24915970074255669 0 -0.39048754245709583 -0.24661174010262721 0 -0.38145023735708738 -0.26180023218171311 0 -0.40265723398887537 -0.26475330474911019 0 -0.39048754245709583 -0.24661174010262721 0 -0.40265723398887537 -0.26475330474911019 0 -0.40759085301938969 -0.25086279526678429 0 -0.39048754245709583 -0.24661174010262721 0 -0.42111098127262969 -0.26360811870676631 0 -0.40759085301938969 -0.25086279526678429 0 -0.41745980658338833 -0.2428671873123063 0 -0.40265723398887537 -0.26475330474911019 0 -0.42111098127262969 -0.26360811870676631 0 -0.40759085301938969 -0.25086279526678429 0 -0.41163282763447823 -0.28254790591051943 0 -0.42111098127262969 -0.26360811870676631 0 -0.4312385360877477 -0.28404386650405389 0 -0.41163282763447823 -0.28254790591051943 0 -0.42111098127262969 -0.26360811870676631 0 -0.41163282763447823 -0.28254790591051943 0 -0.40265723398887537 -0.26475330474911019 0 -0.42111098127262969 -0.26360811870676631 0 -0.4312385360877477 -0.28404386650405389 0 -0.42111098127262969 -0.26360811870676631 0 -0.43676683994568732 -0.26857676538423819 0 -0.42111098127262969 -0.26360811870676631 0 -0.43058913491078132 -0.24466833150301309 0 -0.42111098127262969 -0.26360811870676631 0 -0.43058913491078132 -0.24466833150301309 0 -0.41745980658338833 -0.2428671873123063 0 -0.42111098127262969 -0.26360811870676631 0 -0.43676683994568732 -0.26857676538423819 0 -0.43058913491078132 -0.24466833150301309 0 -0.31844113940909019 -0.26219706451962471 0 -0.33677839641252172 -0.26281761305270779 0 -0.32734218655219682 -0.23841588823838661 0 -0.31844113940909019 -0.26219706451962471 0 -0.32837789616667667 -0.27762110225403258 0 -0.31107778839474692 -0.2740132491447807 0 -0.32837789616667667 -0.27762110225403258 0 -0.32118019849726043 -0.28790060418129709 0 -0.31107778839474692 -0.2740132491447807 0 -0.31844113940909019 -0.26219706451962471 0 -0.32837789616667667 -0.27762110225403258 0 -0.33677839641252172 -0.26281761305270779 0 -0.32837789616667667 -0.27762110225403258 0 -0.33677839641252172 -0.26281761305270779 0 -0.34405355603251592 -0.28163093383033277 0 -0.32837789616667667 -0.27762110225403258 0 -0.33677839641252172 -0.26281761305270779 0 -0.33677839641252172 -0.26281761305270779 0 -0.34405355603251592 -0.28163093383033277 0 -0.33677839641252172 -0.26281761305270779 0 -0.34846404945852011 -0.24222497766024539 0 -0.33677839641252172 -0.26281761305270779 0 -0.32734218655219682 -0.23841588823838661 0 -0.33677839641252172 -0.26281761305270779 0 -0.35375046745689842 -0.26477099259766429 0 -0.34846404945852011 -0.24222497766024539 0 -0.35375046745689842 -0.26477099259766429 0 -0.36578396897160348 -0.24915970074255669 0 -0.34846404945852011 -0.24222497766024539 0 -0.35375046745689842 -0.26477099259766429 0 -0.36780443843016741 -0.26770660612687952 0 -0.36578396897160348 -0.24915970074255669 0 -0.38145023735708738 -0.26180023218171311 0 -0.36780443843016741 -0.26770660612687952 0 -0.36578396897160348 -0.24915970074255669 0 -0.37690120084965573 -0.27969639327543111 0 -0.36780443843016741 -0.26770660612687952 0 -0.35961839543606028 -0.2850861241732644 0 -0.35375046745689842 -0.26477099259766429 0 -0.36780443843016741 -0.26770660612687952 0 -0.35961839543606028 -0.2850861241732644 0 -0.33677839641252172 -0.26281761305270779 0 -0.35375046745689842 -0.26477099259766429 0 -0.34405355603251592 -0.28163093383033277 0 -0.35375046745689842 -0.26477099259766429 0 -0.34405355603251592 -0.28163093383033277 0 -0.35961839543606028 -0.2850861241732644 0 -0.34460758350906701 -0.29412245335232912 0 -0.35961839543606028 -0.2850861241732644 0 -0.35530642144990132 -0.30529736093756998 0 -0.34405355603251592 -0.28163093383033277 0 -0.34460758350906701 -0.29412245335232912 0 -0.35961839543606028 -0.2850861241732644 0 -0.3776557209620135 -0.29899024391597828 0 -0.37690120084965573 -0.27969639327543111 0 -0.35961839543606028 -0.2850861241732644 0 -0.3776557209620135 -0.29899024391597828 0 -0.35961839543606028 -0.2850861241732644 0 -0.35530642144990132 -0.30529736093756998 0 -0.3776557209620135 -0.29899024391597828 0 -0.35530642144990132 -0.30529736093756998 0 -0.37187149731767438 -0.31478237946829041 0 -0.34460758350906701 -0.29412245335232912 0 -0.35530642144990132 -0.30529736093756998 0 -0.33152732699708171 -0.30682058407485779 0 -0.35530642144990132 -0.30529736093756998 0 -0.33152732699708171 -0.30682058407485779 0 -0.3425460400100982 -0.31951566450249069 0 -0.34460758350906701 -0.29412245335232912 0 -0.33152732699708171 -0.30682058407485779 0 -0.33253221762977542 -0.29177726374562041 0 -0.32837789616667667 -0.27762110225403258 0 -0.34405355603251592 -0.28163093383033277 0 -0.33253221762977542 -0.29177726374562041 0 -0.34405355603251592 -0.28163093383033277 0 -0.34460758350906701 -0.29412245335232912 0 -0.33253221762977542 -0.29177726374562041 0 -0.33253221762977542 -0.29177726374562041 0 -0.32118019849726043 -0.28790060418129709 0 -0.31856481265168279 -0.3011283885543074 0 -0.32837789616667667 -0.27762110225403258 0 -0.33253221762977542 -0.29177726374562041 0 -0.32118019849726043 -0.28790060418129709 0 -0.32118019849726043 -0.28790060418129709 0 -0.30880353401350757 -0.28582860324752463 0 -0.31107778839474692 -0.2740132491447807 0 -0.32118019849726043 -0.28790060418129709 0 -0.31856481265168279 -0.3011283885543074 0 -0.30880353401350757 -0.28582860324752463 0 -0.33152732699708171 -0.30682058407485779 0 -0.31183360751611089 -0.31358305617017329 0 -0.33152732699708171 -0.30682058407485779 0 -0.31856481265168279 -0.3011283885543074 0 -0.31183360751611089 -0.31358305617017329 0 -0.33152732699708171 -0.30682058407485779 0 -0.33253221762977542 -0.29177726374562041 0 -0.31856481265168279 -0.3011283885543074 0 -0.33152732699708171 -0.30682058407485779 0 -0.32723258712507258 -0.3194908308025281 0 -0.31183360751611089 -0.31358305617017329 0 -0.32723258712507258 -0.3194908308025281 0 -0.31800766200892228 -0.3255498457509528 0 -0.33224829909314979 -0.33198500351416571 0 -0.32723258712507258 -0.3194908308025281 0 -0.31800766200892228 -0.3255498457509528 0 -0.31183360751611089 -0.31358305617017329 0 -0.3208465282518641 -0.33879798658458438 0 -0.31357018470381848 -0.35069765987895257 0 -0.3102278465091215 -0.33379789531092641 0 -0.31800766200892228 -0.3255498457509528 0 -0.3208465282518641 -0.33879798658458438 0 -0.3102278465091215 -0.33379789531092641 0 -0.31800766200892228 -0.3255498457509528 0 -0.3208465282518641 -0.33879798658458438 0 -0.33224829909314979 -0.33198500351416571 0 -0.33224829909314979 -0.33198500351416571 0 -0.3425460400100982 -0.31951566450249069 0 -0.35079254177722319 -0.33528627034376868 0 -0.33224829909314979 -0.33198500351416571 0 -0.35079254177722319 -0.33528627034376868 0 -0.33502952292092097 -0.35054031094896859 0 -0.3208465282518641 -0.33879798658458438 0 -0.33224829909314979 -0.33198500351416571 0 -0.33502952292092097 -0.35054031094896859 0 -0.32723258712507258 -0.3194908308025281 0 -0.33224829909314979 -0.33198500351416571 0 -0.3425460400100982 -0.31951566450249069 0 -0.33152732699708171 -0.30682058407485779 0 -0.32723258712507258 -0.3194908308025281 0 -0.3425460400100982 -0.31951566450249069 0 -0.3425460400100982 -0.31951566450249069 0 -0.35669650008699311 -0.31904294997001631 0 -0.35079254177722319 -0.33528627034376868 0 -0.35530642144990132 -0.30529736093756998 0 -0.3425460400100982 -0.31951566450249069 0 -0.35669650008699311 -0.31904294997001631 0 -0.35669650008699311 -0.31904294997001631 0 -0.36628115322561722 -0.32794041741906987 0 -0.35079254177722319 -0.33528627034376868 0 -0.35530642144990132 -0.30529736093756998 0 -0.35669650008699311 -0.31904294997001631 0 -0.37187149731767438 -0.31478237946829041 0 -0.38472942161573043 -0.32833659145465388 0 -0.36628115322561722 -0.32794041741906987 0 -0.37187149731767438 -0.31478237946829041 0 -0.35669650008699311 -0.31904294997001631 0 -0.36628115322561722 -0.32794041741906987 0 -0.37187149731767438 -0.31478237946829041 0 -0.36628115322561722 -0.32794041741906987 0 -0.36754913538012329 -0.34278932257744871 0 -0.35079254177722319 -0.33528627034376868 0 -0.38472942161573043 -0.32833659145465388 0 -0.36628115322561722 -0.32794041741906987 0 -0.36754913538012329 -0.34278932257744871 0 -0.36754913538012329 -0.34278932257744871 0 -0.35079254177722319 -0.33528627034376868 0 -0.35427172800446061 -0.35238429464294241 0 -0.35079254177722319 -0.33528627034376868 0 -0.35427172800446061 -0.35238429464294241 0 -0.33502952292092097 -0.35054031094896859 0 -0.36754913538012329 -0.34278932257744871 0 -0.35427172800446061 -0.35238429464294241 0 -0.36641497508733623 -0.36552232174338761 0 -0.37948697590251679 -0.34724462453187882 0 -0.36754913538012329 -0.34278932257744871 0 -0.36641497508733623 -0.36552232174338761 0 -0.35427172800446061 -0.35238429464294241 0 -0.36641497508733623 -0.36552232174338761 0 -0.34501414962095017 -0.3759960528341636 0 -0.35427172800446061 -0.35238429464294241 0 -0.33502952292092097 -0.35054031094896859 0 -0.34501414962095017 -0.3759960528341636 0 -0.36641497508733623 -0.36552232174338761 0 -0.34501414962095017 -0.3759960528341636 0 -0.33502952292092097 -0.35054031094896859 0 -0.32746634715939849 -0.36697458704559083 0 -0.34501414962095017 -0.3759960528341636 0 -0.3208465282518641 -0.33879798658458438 0 -0.33502952292092097 -0.35054031094896859 0 -0.31357018470381848 -0.35069765987895257 0 -0.33502952292092097 -0.35054031094896859 0 -0.31357018470381848 -0.35069765987895257 0 -0.32746634715939849 -0.36697458704559083 0 -0.32746634715939849 -0.36697458704559083 0 -0.31325991674896259 -0.36926770156265992 0 -0.32361332415456412 -0.38646978392493958 0 -0.31357018470381848 -0.35069765987895257 0 -0.32746634715939849 -0.36697458704559083 0 -0.31325991674896259 -0.36926770156265992 0 -0.31325991674896259 -0.36926770156265992 0 -0.30096196214172721 -0.35808716013330433 0 -0.29653734460592429 -0.36935963149320289 0 -0.31325991674896259 -0.36926770156265992 0 -0.29653734460592429 -0.36935963149320289 0 -0.30474737419276721 -0.3809491979213474 0 -0.31357018470381848 -0.35069765987895257 0 -0.29253808346781812 -0.34648947959108789 0 -0.29784675749162731 -0.3349881308309145 0 -0.31357018470381848 -0.35069765987895257 0 -0.31325991674896259 -0.36926770156265992 0 -0.30096196214172721 -0.35808716013330433 0 -0.31357018470381848 -0.35069765987895257 0 -0.30096196214172721 -0.35808716013330433 0 -0.29253808346781812 -0.34648947959108789 0 -0.29253808346781812 -0.34648947959108789 0 -0.2861340083158489 -0.35942228158435358 0 -0.27244210765467058 -0.3426105524488281 0 -0.30096196214172721 -0.35808716013330433 0 -0.29253808346781812 -0.34648947959108789 0 -0.2861340083158489 -0.35942228158435358 0 -0.2861340083158489 -0.35942228158435358 0 -0.28882343842161012 -0.3788403610020723 0 -0.27421696399178142 -0.37511095305903219 0 -0.2861340083158489 -0.35942228158435358 0 -0.29653734460592429 -0.36935963149320289 0 -0.28882343842161012 -0.3788403610020723 0 -0.30096196214172721 -0.35808716013330433 0 -0.2861340083158489 -0.35942228158435358 0 -0.29653734460592429 -0.36935963149320289 0 -0.2861340083158489 -0.35942228158435358 0 -0.27243804675517191 -0.35811310453685202 0 -0.27421696399178142 -0.37511095305903219 0 -0.26601795262238581 -0.36748148200823783 0 -0.257137386720446 -0.37449496511257058 0 -0.27421696399178142 -0.37511095305903219 0 -0.26601795262238581 -0.36748148200823783 0 -0.27243804675517191 -0.35811310453685202 0 -0.27421696399178142 -0.37511095305903219 0 -0.26601795262238581 -0.36748148200823783 0 -0.26027941302214391 -0.36220690532449662 0 -0.27243804675517191 -0.35811310453685202 0 -0.26601795262238581 -0.36748148200823783 0 -0.26027941302214391 -0.36220690532449662 0 -0.257137386720446 -0.37449496511257058 0 -0.26027941302214391 -0.36220690532449662 0 -0.25082379819777462 -0.36466963930633223 0 -0.25278926348353631 -0.35509747783213791 0 -0.26027941302214391 -0.36220690532449662 0 -0.25082379819777462 -0.36466963930633223 0 -0.257137386720446 -0.37449496511257058 0 -0.25159214206901609 -0.34393232083695813 0 -0.25278926348353631 -0.35509747783213791 0 -0.26220079247390471 -0.34959882650008139 0 -0.26027941302214391 -0.36220690532449662 0 -0.25278926348353631 -0.35509747783213791 0 -0.26220079247390471 -0.34959882650008139 0 -0.26027941302214391 -0.36220690532449662 0 -0.26220079247390471 -0.34959882650008139 0 -0.27243804675517191 -0.35811310453685202 0 -0.25159214206901609 -0.34393232083695813 0 -0.26220079247390471 -0.34959882650008139 0 -0.26269507604772468 -0.33928381644405747 0 -0.2861340083158489 -0.35942228158435358 0 -0.27243804675517191 -0.35811310453685202 0 -0.27244210765467058 -0.3426105524488281 0 -0.26220079247390471 -0.34959882650008139 0 -0.27243804675517191 -0.35811310453685202 0 -0.27244210765467058 -0.3426105524488281 0 -0.26220079247390471 -0.34959882650008139 0 -0.27244210765467058 -0.3426105524488281 0 -0.26269507604772468 -0.33928381644405747 0 -0.27243804675517191 -0.35811310453685202 0 -0.27244210765467058 -0.3426105524488281 0 -0.27244210765467058 -0.3426105524488281 0 -0.27244616855416942 -0.32710800036080417 0 -0.28504583398662331 -0.33444654375010541 0 -0.27244210765467058 -0.3426105524488281 0 -0.27244616855416942 -0.32710800036080417 0 -0.27244210765467058 -0.3426105524488281 0 -0.26269507604772468 -0.33928381644405747 0 -0.27244616855416942 -0.32710800036080417 0 -0.25479416948686262 -0.33316938207361579 0 -0.27244616855416942 -0.32710800036080417 0 -0.26269507604772468 -0.33928381644405747 0 -0.25479416948686262 -0.33316938207361579 0 -0.27244616855416942 -0.32710800036080417 0 -0.25159214206901609 -0.34393232083695813 0 -0.25479416948686262 -0.33316938207361579 0 -0.24656237633128969 -0.33606907515999301 0 -0.25159214206901609 -0.34393232083695813 0 -0.26269507604772468 -0.33928381644405747 0 -0.25479416948686262 -0.33316938207361579 0 -0.25479416948686262 -0.33316938207361579 0 -0.26178111340647903 -0.31856426857433101 0 -0.27244616855416942 -0.32710800036080417 0 -0.25186883964129181 -0.32168124549074012 0 -0.26178111340647903 -0.31856426857433101 0 -0.25734408590355717 -0.30717476922060122 0 -0.25186883964129181 -0.32168124549074012 0 -0.25734408590355717 -0.30717476922060122 0 -0.2419451101458325 -0.30898797660575461 0 -0.25479416948686262 -0.33316938207361579 0 -0.25186883964129181 -0.32168124549074012 0 -0.26178111340647903 -0.31856426857433101 0 -0.27244616855416942 -0.32710800036080417 0 -0.27245230344651389 -0.30368794572589342 0 -0.26178111340647903 -0.31856426857433101 0 -0.27244616855416942 -0.32710800036080417 0 -0.27245230344651389 -0.30368794572589342 0 -0.27244616855416942 -0.32710800036080417 0 -0.29213988803514013 -0.32034552826548879 0 -0.27245230344651389 -0.30368794572589342 0 -0.27244616855416942 -0.32710800036080417 0 -0.29213988803514013 -0.32034552826548879 0 -0.28504583398662331 -0.33444654375010541 0 -0.27244616855416942 -0.32710800036080417 0 -0.29213988803514013 -0.32034552826548879 0 -0.29253808346781812 -0.34648947959108789 0 -0.27244210765467058 -0.3426105524488281 0 -0.28504583398662331 -0.33444654375010541 0 -0.29253808346781812 -0.34648947959108789 0 -0.28504583398662331 -0.33444654375010541 0 -0.29784675749162731 -0.3349881308309145 0 -0.29213988803514013 -0.32034552826548879 0 -0.28504583398662331 -0.33444654375010541 0 -0.29784675749162731 -0.3349881308309145 0 -0.29784675749162731 -0.3349881308309145 0 -0.3102278465091215 -0.33379789531092641 0 -0.30577761060053882 -0.3256247364818059 0 -0.31357018470381848 -0.35069765987895257 0 -0.29784675749162731 -0.3349881308309145 0 -0.3102278465091215 -0.33379789531092641 0 -0.31800766200892228 -0.3255498457509528 0 -0.3102278465091215 -0.33379789531092641 0 -0.30577761060053882 -0.3256247364818059 0 -0.29213988803514013 -0.32034552826548879 0 -0.31183360751611089 -0.31358305617017329 0 -0.31800766200892228 -0.3255498457509528 0 -0.30577761060053882 -0.3256247364818059 0 -0.31183360751611089 -0.31358305617017329 0 -0.29213988803514013 -0.32034552826548879 0 -0.31183360751611089 -0.31358305617017329 0 -0.30559790258829522 -0.3068105634378232 0 -0.29213988803514013 -0.32034552826548879 0 -0.30577761060053882 -0.3256247364818059 0 -0.31183360751611089 -0.31358305617017329 0 -0.29213988803514013 -0.32034552826548879 0 -0.29784675749162731 -0.3349881308309145 0 -0.30577761060053882 -0.3256247364818059 0 -0.30559790258829522 -0.3068105634378232 0 -0.3022246122168275 -0.29432445841739918 0 -0.28902817046357682 -0.2935392272644029 0 -0.31856481265168279 -0.3011283885543074 0 -0.30559790258829522 -0.3068105634378232 0 -0.3022246122168275 -0.29432445841739918 0 -0.30559790258829522 -0.3068105634378232 0 -0.28902817046357682 -0.2935392272644029 0 -0.31856481265168279 -0.3011283885543074 0 -0.31183360751611089 -0.31358305617017329 0 -0.30559790258829522 -0.3068105634378232 0 -0.31856481265168279 -0.3011283885543074 0 -0.30880353401350757 -0.28582860324752463 0 -0.3022246122168275 -0.29432445841739918 0 -0.30880353401350757 -0.28582860324752463 0 -0.3022246122168275 -0.29432445841739918 0 -0.29432391610488162 -0.27918185201664347 0 -0.28902817046357682 -0.2935392272644029 0 -0.27245843833885841 -0.28026789109098249 0 -0.29432391610488162 -0.27918185201664347 0 -0.3022246122168275 -0.29432445841739918 0 -0.28902817046357682 -0.2935392272644029 0 -0.29432391610488162 -0.27918185201664347 0 -0.29213988803514013 -0.32034552826548879 0 -0.30559790258829522 -0.3068105634378232 0 -0.28980456613338151 -0.30609581617340209 0 -0.28902817046357682 -0.2935392272644029 0 -0.28980456613338151 -0.30609581617340209 0 -0.27245230344651389 -0.30368794572589342 0 -0.29213988803514013 -0.32034552826548879 0 -0.28980456613338151 -0.30609581617340209 0 -0.27245230344651389 -0.30368794572589342 0 -0.30559790258829522 -0.3068105634378232 0 -0.28902817046357682 -0.2935392272644029 0 -0.28980456613338151 -0.30609581617340209 0 -0.25734408590355717 -0.30717476922060122 0 -0.25946044299702758 -0.29028480023949782 0 -0.24736795376787321 -0.29721616667175882 0 -0.27245230344651389 -0.30368794572589342 0 -0.25734408590355717 -0.30717476922060122 0 -0.25946044299702758 -0.29028480023949782 0 -0.26178111340647903 -0.31856426857433101 0 -0.27245230344651389 -0.30368794572589342 0 -0.25734408590355717 -0.30717476922060122 0 -0.25946044299702758 -0.29028480023949782 0 -0.26011611763477738 -0.27038245142357381 0 -0.24606874914257529 -0.28333857957217129 0 -0.25946044299702758 -0.29028480023949782 0 -0.24606874914257529 -0.28333857957217129 0 -0.24736795376787321 -0.29721616667175882 0 -0.27245230344651389 -0.30368794572589342 0 -0.25946044299702758 -0.29028480023949782 0 -0.27245843833885841 -0.28026789109098249 0 -0.28902817046357682 -0.2935392272644029 0 -0.27245230344651389 -0.30368794572589342 0 -0.27245843833885841 -0.28026789109098249 0 -0.28902817046357682 -0.2935392272644029 0 -0.27245843833885841 -0.28026789109098249 0 -0.27245230344651389 -0.30368794572589342 0 -0.27245843833885841 -0.28026789109098249 0 -0.27245843833885841 -0.28026789109098249 0 -0.27246605345631281 -0.251197052221666 0 -0.27245843833885841 -0.28026789109098249 0 -0.26011611763477738 -0.27038245142357381 0 -0.26598019493490882 -0.26497391266302228 0 -0.27245843833885841 -0.28026789109098249 0 -0.26011611763477738 -0.27038245142357381 0 -0.25946044299702758 -0.29028480023949782 0 -0.27245843833885841 -0.28026789109098249 0 -0.26011611763477738 -0.27038245142357381 0 -0.26011611763477738 -0.27038245142357381 0 -0.25082250396566569 -0.26495204787373272 0 -0.24606874914257529 -0.28333857957217129 0 -0.26011611763477738 -0.27038245142357381 0 -0.26061177542409347 -0.26189327584346811 0 -0.26598019493490882 -0.26497391266302228 0 -0.26011611763477738 -0.27038245142357381 0 -0.26598019493490882 -0.26497391266302228 0 -0.26011611763477738 -0.27038245142357381 0 -0.24606874914257529 -0.28333857957217129 0 -0.26011611763477738 -0.27038245142357381 0 -0.25318276733537848 -0.25698187275224182 0 -0.23859145966156051 -0.25314252443921992 0 -0.26011611763477738 -0.27038245142357381 0 -0.25318276733537848 -0.25698187275224182 0 -0.26061177542409347 -0.26189327584346811 0 -0.26061177542409347 -0.26189327584346811 0 -0.26316802179130933 -0.25523486653503458 0 -0.26598019493490882 -0.26497391266302228 0 -0.25318276733537848 -0.25698187275224182 0 -0.26061177542409347 -0.26189327584346811 0 -0.26316802179130933 -0.25523486653503458 0 -0.25318276733537848 -0.25698187275224182 0 -0.26316802179130933 -0.25523486653503458 0 -0.26016098104475471 -0.24521111095149681 0 -0.26316802179130933 -0.25523486653503458 0 -0.27246605345631281 -0.251197052221666 0 -0.26016098104475471 -0.24521111095149681 0 -0.26316802179130933 -0.25523486653503458 0 -0.27246605345631281 -0.251197052221666 0 -0.26598019493490882 -0.26497391266302228 0 -0.27245843833885841 -0.28026789109098249 0 -0.27246605345631281 -0.251197052221666 0 -0.26598019493490882 -0.26497391266302228 0 -0.27245843833885841 -0.28026789109098249 0 -0.27246605345631281 -0.251197052221666 0 -0.28450241956904038 -0.26528279725672171 0 -0.27246605345631281 -0.251197052221666 0 -0.28853503480731579 -0.25197964871683892 0 -0.28450241956904038 -0.26528279725672171 0 -0.28853503480731579 -0.25197964871683892 0 -0.28450241956904038 -0.26528279725672171 0 -0.2997318029224999 -0.2640045891897384 0 -0.27245843833885841 -0.28026789109098249 0 -0.28450241956904038 -0.26528279725672171 0 -0.29432391610488162 -0.27918185201664347 0 -0.28450241956904038 -0.26528279725672171 0 -0.29432391610488162 -0.27918185201664347 0 -0.2997318029224999 -0.2640045891897384 0 -0.31844113940909019 -0.26219706451962471 0 -0.31107778839474692 -0.2740132491447807 0 -0.2997318029224999 -0.2640045891897384 0 -0.30880353401350757 -0.28582860324752463 0 -0.29432391610488162 -0.27918185201664347 0 -0.31107778839474692 -0.2740132491447807 0 -0.29432391610488162 -0.27918185201664347 0 -0.31107778839474692 -0.2740132491447807 0 -0.2997318029224999 -0.2640045891897384 0 -0.28853503480731579 -0.25197964871683892 0 -0.2997318029224999 -0.2640045891897384 0 -0.30637149853914691 -0.24889150081984651 0 -0.31844113940909019 -0.26219706451962471 0 -0.2997318029224999 -0.2640045891897384 0 -0.30637149853914691 -0.24889150081984651 0 -0.33498842292934561 -0.45521469336015519 0 -0.32102019287047528 -0.4408597736997798 0 -0.33591453541356098 -0.42766480043659449 0 -0.33498842292934561 -0.45521469336015519 0 -0.3560289120881337 -0.45070745210553798 0 -0.33591453541356098 -0.42766480043659449 0 -0.33498842292934561 -0.45521469336015519 0 -0.32102019287047528 -0.4408597736997798 0 -0.3172792423913281 -0.45536050349447132 0 -0.32102019287047528 -0.4408597736997798 0 -0.3172792423913281 -0.45536050349447132 0 -0.30520202181436312 -0.44870041912636849 0 -0.33498842292934561 -0.45521469336015519 0 -0.3172792423913281 -0.45536050349447132 0 -0.31810262915041593 -0.47085631188622662 0 -0.31810262915041593 -0.47085631188622662 0 -0.31857087501733189 -0.48528300867261198 0 -0.33391594592667501 -0.48312440576880489 0 -0.31810262915041593 -0.47085631188622662 0 -0.31857087501733189 -0.48528300867261198 0 -0.30377640663785338 -0.47482066952967628 0 -0.32089622795124878 -0.5 0 -0.31857087501733189 -0.48528300867261198 0 -0.33391594592667501 -0.48312440576880489 0 -0.32089622795124878 -0.5 0 -0.31857087501733189 -0.48528300867261198 0 -0.30481275171786892 -0.48964911421817148 0 -0.32089622795124878 -0.5 0 -0.33391594592667501 -0.48312440576880489 0 -0.34502312330491131 -0.5 0 -0.33498842292934561 -0.45521469336015519 0 -0.31810262915041593 -0.47085631188622662 0 -0.33391594592667501 -0.48312440576880489 0 -0.33498842292934561 -0.45521469336015519 0 -0.33391594592667501 -0.48312440576880489 0 -0.35441791995697519 -0.47014312890677168 0 -0.33391594592667501 -0.48312440576880489 0 -0.35441791995697519 -0.47014312890677168 0 -0.35708657098174212 -0.48800083988604159 0 -0.33391594592667501 -0.48312440576880489 0 -0.34502312330491131 -0.5 0 -0.35708657098174212 -0.48800083988604159 0 -0.34502312330491131 -0.5 0 -0.35708657098174212 -0.48800083988604159 0 -0.36915001865857361 -0.5 0 -0.35708657098174212 -0.48800083988604159 0 -0.37384741698460489 -0.48507156445338823 0 -0.36915001865857361 -0.5 0 -0.35441791995697519 -0.47014312890677168 0 -0.37384741698460489 -0.48507156445338823 0 -0.35441791995697519 -0.47014312890677168 0 -0.35708657098174212 -0.48800083988604159 0 -0.37384741698460489 -0.48507156445338823 0 -0.35441791995697519 -0.47014312890677168 0 -0.37384741698460489 -0.48507156445338823 0 -0.36944275723482128 -0.46524893742037809 0 -0.35441791995697519 -0.47014312890677168 0 -0.36944275723482128 -0.46524893742037809 0 -0.3560289120881337 -0.45070745210553798 0 -0.37780689794014433 -0.45113558380934432 0 -0.36944275723482128 -0.46524893742037809 0 -0.3560289120881337 -0.45070745210553798 0 -0.33498842292934561 -0.45521469336015519 0 -0.35441791995697519 -0.47014312890677168 0 -0.33498842292934561 -0.45521469336015519 0 -0.35441791995697519 -0.47014312890677168 0 -0.3560289120881337 -0.45070745210553798 0 -0.37780689794014433 -0.45113558380934432 0 -0.3560289120881337 -0.45070745210553798 0 -0.36326211284463678 -0.42983387757770769 0 -0.39060969027571252 -0.43200295471882089 0 -0.36326211284463678 -0.42983387757770769 0 -0.36759604542147561 -0.4226068766386798 0 -0.36326211284463678 -0.42983387757770769 0 -0.36759604542147561 -0.4226068766386798 0 -0.35197595850605951 -0.41815272660733011 0 -0.37743792099285423 -0.40197658476176312 0 -0.36759604542147561 -0.4226068766386798 0 -0.37743792099285423 -0.40197658476176312 0 -0.36759604542147561 -0.4226068766386798 0 -0.36205048514266108 -0.40756237078168489 0 -0.36759604542147561 -0.4226068766386798 0 -0.36205048514266108 -0.40756237078168489 0 -0.35197595850605951 -0.41815272660733011 0 -0.35197595850605951 -0.41815272660733011 0 -0.3502181944396654 -0.40212492125520599 0 -0.33022507185859729 -0.40683014797205708 0 -0.36205048514266108 -0.40756237078168489 0 -0.35197595850605951 -0.41815272660733011 0 -0.3502181944396654 -0.40212492125520599 0 -0.36326211284463678 -0.42983387757770769 0 -0.35197595850605951 -0.41815272660733011 0 -0.33591453541356098 -0.42766480043659449 0 -0.36326211284463678 -0.42983387757770769 0 -0.33591453541356098 -0.42766480043659449 0 -0.3560289120881337 -0.45070745210553798 0 -0.36326211284463678 -0.42983387757770769 0 -0.33591453541356098 -0.42766480043659449 0 -0.38727979656423278 -0.38134629288484628 0 -0.36641497508733623 -0.36552232174338761 0 -0.36120022784666578 -0.38959513091372089 0 -0.37743792099285423 -0.40197658476176312 0 -0.36205048514266108 -0.40756237078168489 0 -0.36120022784666578 -0.38959513091372089 0 -0.36120022784666578 -0.38959513091372089 0 -0.3502181944396654 -0.40212492125520599 0 -0.34016009787757068 -0.39141278761274978 0 -0.36205048514266108 -0.40756237078168489 0 -0.36120022784666578 -0.38959513091372089 0 -0.3502181944396654 -0.40212492125520599 0 -0.36641497508733623 -0.36552232174338761 0 -0.36120022784666578 -0.38959513091372089 0 -0.34501414962095017 -0.3759960528341636 0 -0.36120022784666578 -0.38959513091372089 0 -0.34501414962095017 -0.3759960528341636 0 -0.34016009787757068 -0.39141278761274978 0 -0.34501414962095017 -0.3759960528341636 0 -0.34016009787757068 -0.39141278761274978 0 -0.32361332415456412 -0.38646978392493958 0 -0.34501414962095017 -0.3759960528341636 0 -0.32361332415456412 -0.38646978392493958 0 -0.32746634715939849 -0.36697458704559083 0 -0.34501414962095017 -0.3759960528341636 0 -0.32361332415456412 -0.38646978392493958 0 -0.3502181944396654 -0.40212492125520599 0 -0.34016009787757068 -0.39141278761274978 0 -0.33022507185859729 -0.40683014797205708 0 -0.34016009787757068 -0.39141278761274978 0 -0.32361332415456412 -0.38646978392493958 0 -0.33022507185859729 -0.40683014797205708 0 -0.32361332415456412 -0.38646978392493958 0 -0.33022507185859729 -0.40683014797205708 0 -0.30221249868817812 -0.39694351501571562 0 -0.32361332415456412 -0.38646978392493958 0 -0.30221249868817812 -0.39694351501571562 0 -0.31325991674896259 -0.36926770156265992 0 -0.32361332415456412 -0.38646978392493958 0 -0.30474737419276721 -0.3809491979213474 0 -0.35197595850605951 -0.41815272660733011 0 -0.33591453541356098 -0.42766480043659449 0 -0.33022507185859729 -0.40683014797205708 0 -0.33591453541356098 -0.42766480043659449 0 -0.33022507185859729 -0.40683014797205708 0 -0.30856695798248518 -0.42549572329548119 0 -0.33022507185859729 -0.40683014797205708 0 -0.30856695798248518 -0.42549572329548119 0 -0.30221249868817812 -0.39694351501571562 0 -0.32102019287047528 -0.4408597736997798 0 -0.33591453541356098 -0.42766480043659449 0 -0.30856695798248518 -0.42549572329548119 0 -0.33591453541356098 -0.42766480043659449 0 -0.30856695798248518 -0.42549572329548119 0 -0.30856695798248518 -0.42549572329548119 0 -0.28985244054114861 -0.43501820415861431 0 -0.30520202181436312 -0.44870041912636849 0 -0.30856695798248518 -0.42549572329548119 0 -0.28772790326204312 -0.40732880650809822 0 -0.30221249868817812 -0.39694351501571562 0 -0.30856695798248518 -0.42549572329548119 0 -0.28772790326204312 -0.40732880650809822 0 -0.28121938055140921 -0.42332664615437032 0 -0.28985244054114861 -0.43501820415861431 0 -0.28121938055140921 -0.42332664615437032 0 -0.27916648082401752 -0.44068081658890951 0 -0.30856695798248518 -0.42549572329548119 0 -0.28985244054114861 -0.43501820415861431 0 -0.28121938055140921 -0.42332664615437032 0 -0.30856695798248518 -0.42549572329548119 0 -0.28121938055140921 -0.42332664615437032 0 -0.28985244054114861 -0.43501820415861431 0 -0.28121938055140921 -0.42332664615437032 0 -0.32361332415456412 -0.38646978392493958 0 -0.30474737419276721 -0.3809491979213474 0 -0.30221249868817812 -0.39694351501571562 0 -0.30474737419276721 -0.3809491979213474 0 -0.30221249868817812 -0.39694351501571562 0 -0.28882343842161012 -0.3788403610020723 0 -0.28772790326204312 -0.40732880650809822 0 -0.30221249868817812 -0.39694351501571562 0 -0.28111410714497981 -0.39074811447797181 0 -0.29653734460592429 -0.36935963149320289 0 -0.30474737419276721 -0.3809491979213474 0 -0.28882343842161012 -0.3788403610020723 0 -0.28882343842161012 -0.3788403610020723 0 -0.27421696399178142 -0.37511095305903219 0 -0.28111410714497981 -0.39074811447797181 0 -0.30221249868817812 -0.39694351501571562 0 -0.28882343842161012 -0.3788403610020723 0 -0.28111410714497981 -0.39074811447797181 0 -0.257137386720446 -0.37449496511257058 0 -0.28111410714497981 -0.39074811447797181 0 -0.26519980913290958 -0.40163170268530368 0 -0.257137386720446 -0.37449496511257058 0 -0.28111410714497981 -0.39074811447797181 0 -0.257137386720446 -0.37449496511257058 0 -0.27421696399178142 -0.37511095305903219 0 -0.28111410714497981 -0.39074811447797181 0 -0.28772790326204312 -0.40732880650809822 0 -0.28111410714497981 -0.39074811447797181 0 -0.26519980913290958 -0.40163170268530368 0 -0.26519980913290958 -0.40163170268530368 0 -0.2491802377144112 -0.37993675921623637 0 -0.26519980913290958 -0.40163170268530368 0 -0.2451150788115237 -0.40662439141411111 0 -0.24526332025955391 -0.39178491481871291 0 -0.26519980913290958 -0.40163170268530368 0 -0.24526332025955391 -0.39178491481871291 0 -0.2491802377144112 -0.37993675921623637 0 -0.257137386720446 -0.37449496511257058 0 -0.26519980913290958 -0.40163170268530368 0 -0.2491802377144112 -0.37993675921623637 0 -0.26773290585615223 -0.43514837574721482 0 -0.28121938055140921 -0.42332664615437032 0 -0.27916648082401752 -0.44068081658890951 0 -0.26773290585615223 -0.43514837574721482 0 -0.28121938055140921 -0.42332664615437032 0 -0.25651849659909659 -0.42136749189723921 0 -0.28121938055140921 -0.42332664615437032 0 -0.25651849659909659 -0.42136749189723921 0 -0.26519980913290958 -0.40163170268530368 0 -0.28121938055140921 -0.42332664615437032 0 -0.28772790326204312 -0.40732880650809822 0 -0.26519980913290958 -0.40163170268530368 0 -0.28121938055140921 -0.42332664615437032 0 -0.26519980913290958 -0.40163170268530368 0 -0.28121938055140921 -0.42332664615437032 0 -0.25651849659909659 -0.42136749189723921 0 -0.26519980913290958 -0.40163170268530368 0 -0.25651849659909659 -0.42136749189723921 0 -0.2451150788115237 -0.40662439141411111 0 -0.26773290585615223 -0.43514837574721482 0 -0.25651849659909659 -0.42136749189723921 0 -0.25085143580496172 -0.43772394792448571 0 -0.26988525896313892 -0.45603955820886272 0 -0.25068289521090947 -0.47391779450866423 0 -0.23806333441898631 -0.45819257275177289 0 -0.26773290585615223 -0.43514837574721482 0 -0.25085143580496172 -0.43772394792448571 0 -0.26988525896313892 -0.45603955820886272 0 -0.25085143580496172 -0.43772394792448571 0 -0.26988525896313892 -0.45603955820886272 0 -0.25085143580496172 -0.43772394792448571 0 -0.26988525896313892 -0.45603955820886272 0 -0.23806333441898631 -0.45819257275177289 0 -0.26988525896313892 -0.45603955820886272 0 -0.27212990826584771 -0.47449988998670217 0 -0.25068289521090947 -0.47391779450866423 0 -0.26988525896313892 -0.45603955820886272 0 -0.2889190821213159 -0.47435516849323989 0 -0.27212990826584771 -0.47449988998670217 0 -0.26988525896313892 -0.45603955820886272 0 -0.2889190821213159 -0.47435516849323989 0 -0.26988525896313892 -0.45603955820886272 0 -0.27916648082401752 -0.44068081658890951 0 -0.28813417512993211 -0.44889135295096422 0 -0.26773290585615223 -0.43514837574721482 0 -0.26988525896313892 -0.45603955820886272 0 -0.27916648082401752 -0.44068081658890951 0 -0.28985244054114861 -0.43501820415861431 0 -0.27916648082401752 -0.44068081658890951 0 -0.28813417512993211 -0.44889135295096422 0 -0.28985244054114861 -0.43501820415861431 0 -0.28813417512993211 -0.44889135295096422 0 -0.30520202181436312 -0.44870041912636849 0 -0.28813417512993211 -0.44889135295096422 0 -0.29706055196783893 -0.4615277938098038 0 -0.30520202181436312 -0.44870041912636849 0 -0.26988525896313892 -0.45603955820886272 0 -0.29706055196783893 -0.4615277938098038 0 -0.2889190821213159 -0.47435516849323989 0 -0.26988525896313892 -0.45603955820886272 0 -0.28813417512993211 -0.44889135295096422 0 -0.29706055196783893 -0.4615277938098038 0 -0.29706055196783893 -0.4615277938098038 0 -0.2889190821213159 -0.47435516849323989 0 -0.29706055196783893 -0.4615277938098038 0 -0.30520202181436312 -0.44870041912636849 0 -0.3172792423913281 -0.45536050349447132 0 -0.31810262915041593 -0.47085631188622662 0 -0.29706055196783893 -0.4615277938098038 0 -0.3172792423913281 -0.45536050349447132 0 -0.29706055196783893 -0.4615277938098038 0 -0.30520202181436312 -0.44870041912636849 0 -0.32102019287047528 -0.4408597736997798 0 -0.30856695798248518 -0.42549572329548119 0 -0.30520202181436312 -0.44870041912636849 0 -0.32089622795124878 -0.5 0 -0.30481275171786892 -0.48964911421817148 0 -0.29676933259758648 -0.5 0 -0.30481275171786892 -0.48964911421817148 0 -0.29277780019879318 -0.48859766359035961 0 -0.29676933259758648 -0.5 0 -0.30481275171786892 -0.48964911421817148 0 -0.30377640663785338 -0.47482066952967628 0 -0.2889190821213159 -0.47435516849323989 0 -0.31857087501733189 -0.48528300867261198 0 -0.30481275171786892 -0.48964911421817148 0 -0.30377640663785338 -0.47482066952967628 0 -0.31810262915041593 -0.47085631188622662 0 -0.29706055196783893 -0.4615277938098038 0 -0.30377640663785338 -0.47482066952967628 0 -0.30481275171786892 -0.48964911421817148 0 -0.2889190821213159 -0.47435516849323989 0 -0.30481275171786892 -0.48964911421817148 0 -0.2889190821213159 -0.47435516849323989 0 -0.29277780019879318 -0.48859766359035961 0 -0.29706055196783893 -0.4615277938098038 0 -0.30377640663785338 -0.47482066952967628 0 -0.2889190821213159 -0.47435516849323989 0 -0.2889190821213159 -0.47435516849323989 0 -0.29277780019879318 -0.48859766359035961 0 -0.28078075968261967 -0.4871775842466205 0 -0.2889190821213159 -0.47435516849323989 0 -0.28078075968261967 -0.4871775842466205 0 -0.29676933259758648 -0.5 0 -0.28078075968261967 -0.4871775842466205 0 -0.27264243724392417 -0.50000000000000144 0 -0.29277780019879318 -0.48859766359035961 0 -0.29676933259758648 -0.5 0 -0.28078075968261967 -0.4871775842466205 0 -0.28078075968261967 -0.4871775842466205 0 -0.27264243724392417 -0.50000000000000144 0 -0.26391988157666929 -0.48558099746443301 0 -0.28078075968261967 -0.4871775842466205 0 -0.27264243724392417 -0.50000000000000144 0 -0.2889190821213159 -0.47435516849323989 0 -0.28078075968261967 -0.4871775842466205 0 -0.27212990826584771 -0.47449988998670217 0 -0.28078075968261967 -0.4871775842466205 0 -0.27212990826584771 -0.47449988998670217 0 -0.26391988157666929 -0.48558099746443301 0 -0.27212990826584771 -0.47449988998670217 0 -0.25068289521090947 -0.47391779450866423 0 -0.26391988157666929 -0.48558099746443301 0 -0.25068289521090947 -0.47391779450866423 0 -0.26391988157666929 -0.48558099746443301 0 -0.25110750883249022 -0.5 0 -0.27264243724392417 -0.50000000000000144 0 -0.26391988157666929 -0.48558099746443301 0 -0.25110750883249022 -0.5 0 -0.25110750883249022 -0.5 0 -0.23588072024800369 -0.48406640468225848 0 -0.22957258042105619 -0.5 0 -0.25068289521090947 -0.47391779450866423 0 -0.25110750883249022 -0.5 0 -0.23588072024800369 -0.48406640468225848 0 -0.25068289521090947 -0.47391779450866423 0 -0.23588072024800369 -0.48406640468225848 0 -0.23806333441898631 -0.45819257275177289 0 -0.23588072024800369 -0.48406640468225848 0 -0.22257181829532621 -0.46844830678930632 0 -0.21733763482983781 -0.48521288359287262 0 -0.23588072024800369 -0.48406640468225848 0 -0.23806333441898631 -0.45819257275177289 0 -0.22257181829532621 -0.46844830678930632 0 -0.23588072024800369 -0.48406640468225848 0 -0.22957258042105619 -0.5 0 -0.21733763482983781 -0.48521288359287262 0 -0.25085143580496172 -0.43772394792448571 0 -0.23806333441898631 -0.45819257275177289 0 -0.22759644617556099 -0.44284293422319793 0 -0.23806333441898631 -0.45819257275177289 0 -0.22257181829532621 -0.46844830678930632 0 -0.22759644617556099 -0.44284293422319793 0 -0.22257181829532621 -0.46844830678930632 0 -0.22759644617556099 -0.44284293422319793 0 -0.21166474536897911 -0.45320698696585932 0 -0.21166474536897911 -0.45320698696585932 0 -0.19371717881445299 -0.45389049805201209 0 -0.20478428370393109 -0.43601623613716223 0 -0.22759644617556099 -0.44284293422319793 0 -0.21166474536897911 -0.45320698696585932 0 -0.20478428370393109 -0.43601623613716223 0 -0.22257181829532621 -0.46844830678930632 0 -0.21166474536897911 -0.45320698696585932 0 -0.20399524063989649 -0.46939353445940363 0 -0.21166474536897911 -0.45320698696585932 0 -0.19371717881445299 -0.45389049805201209 0 -0.20399524063989649 -0.46939353445940363 0 -0.19371717881445299 -0.45389049805201209 0 -0.1826500739249757 -0.47176475996686251 0 -0.19371717881445299 -0.45389049805201209 0 -0.20399524063989649 -0.46939353445940363 0 -0.1826500739249757 -0.47176475996686251 0 -0.19371717881445299 -0.45389049805201209 0 -0.20478428370393109 -0.43601623613716223 0 -0.19371717881445299 -0.45389049805201209 0 -0.18511514096164161 -0.4414566997826157 0 -0.20478428370393109 -0.43601623613716223 0 -0.21733763482983781 -0.48521288359287262 0 -0.2080376520096221 -0.49995474628067521 0 -0.19534386296730019 -0.48585975312376761 0 -0.22957258042105619 -0.5 0 -0.21733763482983781 -0.48521288359287262 0 -0.2080376520096221 -0.49995474628067521 0 -0.22257181829532621 -0.46844830678930632 0 -0.21733763482983781 -0.48521288359287262 0 -0.20399524063989649 -0.46939353445940363 0 -0.21733763482983781 -0.48521288359287262 0 -0.20399524063989649 -0.46939353445940363 0 -0.19534386296730019 -0.48585975312376761 0 -0.20399524063989649 -0.46939353445940363 0 -0.19534386296730019 -0.48585975312376761 0 -0.1826500739249757 -0.47176475996686251 0 -0.19534386296730019 -0.48585975312376761 0 -0.1826500739249757 -0.47176475996686251 0 -0.2080376520096221 -0.49995474628067521 0 -0.19534386296730019 -0.48585975312376761 0 -0.18660273663394389 -0.5 0 -0.2080376520096221 -0.49995474628067521 0 -0.19534386296730019 -0.48585975312376761 0 -0.19534386296730019 -0.48585975312376761 0 -0.18660273663394389 -0.5 0 -0.17390894759162029 -0.48588237998343142 0 -0.18660273663394389 -0.5 0 -0.17390894759162029 -0.48588237998343142 0 -0.1651678212582656 -0.50000000000000067 0 -0.17390894759162029 -0.48588237998343142 0 -0.1651678212582656 -0.50000000000000067 0 -0.17390894759162029 -0.48588237998343142 0 -0.1651678212582656 -0.50000000000000067 0 -0.1510963200167392 -0.48666184932318263 0 -0.17390894759162029 -0.48588237998343142 0 -0.16204071579968629 -0.47275322061957908 0 -0.1510963200167392 -0.48666184932318263 0 -0.17390894759162029 -0.48588237998343142 0 -0.16204071579968629 -0.47275322061957908 0 -0.1826500739249757 -0.47176475996686251 0 -0.19534386296730019 -0.48585975312376761 0 -0.17390894759162029 -0.48588237998343142 0 -0.1826500739249757 -0.47176475996686251 0 -0.17390894759162029 -0.48588237998343142 0 -0.1826500739249757 -0.47176475996686251 0 -0.19371717881445299 -0.45389049805201209 0 -0.1826500739249757 -0.47176475996686251 0 -0.1688153163733708 -0.45640285247279028 0 -0.1826500739249757 -0.47176475996686251 0 -0.1688153163733708 -0.45640285247279028 0 -0.18511514096164161 -0.4414566997826157 0 -0.1688153163733708 -0.45640285247279028 0 -0.17250503227884231 -0.43311526383709459 0 -0.19371717881445299 -0.45389049805201209 0 -0.18511514096164161 -0.4414566997826157 0 -0.1688153163733708 -0.45640285247279028 0 -0.1688153163733708 -0.45640285247279028 0 -0.1549805588217632 -0.44104094497872059 0 -0.17250503227884231 -0.43311526383709459 0 -0.1688153163733708 -0.45640285247279028 0 -0.1529815336331676 -0.45753125956458229 0 -0.1549805588217632 -0.44104094497872059 0 -0.1688153163733708 -0.45640285247279028 0 -0.1549805588217632 -0.44104094497872059 0 -0.16204071579968629 -0.47275322061957908 0 -0.1826500739249757 -0.47176475996686251 0 -0.1688153163733708 -0.45640285247279028 0 -0.16204071579968629 -0.47275322061957908 0 -0.1688153163733708 -0.45640285247279028 0 -0.1529815336331676 -0.45753125956458229 0 -0.16204071579968629 -0.47275322061957908 0 -0.1529815336331676 -0.45753125956458229 0 -0.13833356064643221 -0.472066460190877 0 -0.1529815336331676 -0.45753125956458229 0 -0.14073751652458541 -0.44539281956094462 0 -0.13833356064643221 -0.472066460190877 0 -0.1529815336331676 -0.45753125956458229 0 -0.14073751652458541 -0.44539281956094462 0 -0.1549805588217632 -0.44104094497872059 0 -0.14073751652458541 -0.44539281956094462 0 -0.1549805588217632 -0.44104094497872059 0 -0.15592209957161821 -0.42747790191441842 0 -0.14073751652458541 -0.44539281956094462 0 -0.1308656160089324 -0.43679077700699148 0 -0.12125484613594641 -0.45165213820568029 0 -0.14073751652458541 -0.44539281956094462 0 -0.13833356064643221 -0.472066460190877 0 -0.12125484613594641 -0.45165213820568029 0 -0.14073751652458541 -0.44539281956094462 0 -0.13833356064643221 -0.472066460190877 0 -0.13833356064643221 -0.472066460190877 0 -0.12046109785936859 -0.48390085679855899 0 -0.12125484613594641 -0.45165213820568029 0 -0.13833356064643221 -0.472066460190877 0 -0.13592960476827909 -0.49874010082080938 0 -0.12046109785936859 -0.48390085679855899 0 -0.13833356064643221 -0.472066460190877 0 -0.13592960476827909 -0.49874010082080938 0 -0.1651678212582656 -0.50000000000000067 0 -0.13592960476827909 -0.49874010082080938 0 -0.1510963200167392 -0.48666184932318263 0 -0.13833356064643221 -0.472066460190877 0 -0.13592960476827909 -0.49874010082080938 0 -0.1510963200167392 -0.48666184932318263 0 -0.16204071579968629 -0.47275322061957908 0 -0.13833356064643221 -0.472066460190877 0 -0.1510963200167392 -0.48666184932318263 0 -0.1470545433423229 -0.40061155408693999 0 -0.1397052383850883 -0.3941558688717049 0 -0.13536417164737791 -0.41175811872836948 0 -0.14725669346081491 -0.39297026757751669 0 -0.1470545433423229 -0.40061155408693999 0 -0.1397052383850883 -0.3941558688717049 0 -0.1470545433423229 -0.40061155408693999 0 -0.15388830227490269 -0.41322736288370421 0 -0.15871719143119181 -0.40188236338003758 0 -0.1470545433423229 -0.40061155408693999 0 -0.154795328286604 -0.39605665893512071 0 -0.15871719143119181 -0.40188236338003758 0 -0.1470545433423229 -0.40061155408693999 0 -0.154795328286604 -0.39605665893512071 0 -0.1543790441550168 -0.39019497574091461 0 -0.14725669346081491 -0.39297026757751669 0 -0.1470545433423229 -0.40061155408693999 0 -0.1543790441550168 -0.39019497574091461 0 -0.1470545433423229 -0.40061155408693999 0 -0.1543790441550168 -0.39019497574091461 0 -0.154795328286604 -0.39605665893512071 0 -0.1543790441550168 -0.39019497574091461 0 -0.15842006582744159 -0.39460565471389231 0 -0.14404630512279609 -0.3765536190150397 0 -0.1397052383850883 -0.3941558688717049 0 -0.14725669346081491 -0.39297026757751669 0 -0.14404630512279609 -0.3765536190150397 0 -0.1397052383850883 -0.3941558688717049 0 -0.14725669346081491 -0.39297026757751669 0 -0.1543790441550168 -0.39019497574091461 0 -0.14404630512279609 -0.3765536190150397 0 -0.1543790441550168 -0.39019497574091461 0 -0.14404630512279609 -0.3765536190150397 0 -0.1543790441550168 -0.39019497574091461 0 -0.14404630512279609 -0.3765536190150397 0 -0.15708724266967411 -0.37594264727609872 0 -0.14404630512279609 -0.3765536190150397 0 -0.12831663950257149 -0.38021397648005167 0 -0.1397052383850883 -0.3941558688717049 0 -0.12831663950257149 -0.38021397648005167 0 -0.1397052383850883 -0.3941558688717049 0 -0.1249111643395507 -0.39744404711562231 0 -0.1397052383850883 -0.3941558688717049 0 -0.13536417164737791 -0.41175811872836948 0 -0.1249111643395507 -0.39744404711562231 0 -0.1397052383850883 -0.3941558688717049 0 -0.13536417164737791 -0.41175811872836948 0 -0.13536417164737791 -0.41175811872836948 0 -0.1326360882677684 -0.42282000931406782 0 -0.11985868923764841 -0.42015462286740107 0 -0.13536417164737791 -0.41175811872836948 0 -0.1326360882677684 -0.42282000931406782 0 -0.14314147240273961 -0.41871917893101213 0 -0.13536417164737791 -0.41175811872836948 0 -0.1326360882677684 -0.42282000931406782 0 -0.1326360882677684 -0.42282000931406782 0 -0.14314147240273961 -0.41871917893101213 0 -0.11832862897245811 -0.43139897133032939 0 -0.14073751652458541 -0.44539281956094462 0 -0.1308656160089324 -0.43679077700699148 0 -0.14314147240273961 -0.41871917893101213 0 -0.14314147240273961 -0.41871917893101213 0 -0.11832862897245811 -0.43139897133032939 0 -0.1308656160089324 -0.43679077700699148 0 -0.14314147240273961 -0.41871917893101213 0 -0.11832862897245811 -0.43139897133032939 0 -0.14073751652458541 -0.44539281956094462 0 -0.15592209957161821 -0.42747790191441842 0 -0.14314147240273961 -0.41871917893101213 0 -0.14073751652458541 -0.44539281956094462 0 -0.14314147240273961 -0.41871917893101213 0 -0.1470545433423229 -0.40061155408693999 0 -0.13536417164737791 -0.41175811872836948 0 -0.15388830227490269 -0.41322736288370421 0 -0.13536417164737791 -0.41175811872836948 0 -0.15388830227490269 -0.41322736288370421 0 -0.13536417164737791 -0.41175811872836948 0 -0.14314147240273961 -0.41871917893101213 0 -0.15388830227490269 -0.41322736288370421 0 -0.14314147240273961 -0.41871917893101213 0 -0.15388830227490269 -0.41322736288370421 0 -0.15592209957161821 -0.42747790191441842 0 -0.14314147240273961 -0.41871917893101213 0 -0.15388830227490269 -0.41322736288370421 0 -0.15388830227490269 -0.41322736288370421 0 -0.18006915609998991 -0.41530390116977089 0 -0.17939731223442359 -0.40019181734022008 0 -0.15388830227490269 -0.41322736288370421 0 -0.18006915609998991 -0.41530390116977089 0 -0.15388830227490269 -0.41322736288370421 0 -0.17939731223442359 -0.40019181734022008 0 -0.15592209957161821 -0.42747790191441842 0 -0.15388830227490269 -0.41322736288370421 0 -0.18006915609998991 -0.41530390116977089 0 -0.1549805588217632 -0.44104094497872059 0 -0.15592209957161821 -0.42747790191441842 0 -0.17250503227884231 -0.43311526383709459 0 -0.15592209957161821 -0.42747790191441842 0 -0.17250503227884231 -0.43311526383709459 0 -0.18006915609998991 -0.41530390116977089 0 -0.17250503227884231 -0.43311526383709459 0 -0.18006915609998991 -0.41530390116977089 0 -0.1925952616859184 -0.42901710808929222 0 -0.18511514096164161 -0.4414566997826157 0 -0.17250503227884231 -0.43311526383709459 0 -0.1925952616859184 -0.42901710808929222 0 -0.18006915609998991 -0.41530390116977089 0 -0.17939731223442359 -0.40019181734022008 0 -0.19356956333574649 -0.40656909908558692 0 -0.17939731223442359 -0.40019181734022008 0 -0.16502320751540001 -0.39333356193066349 0 -0.17432000437072381 -0.38758756803355848 0 -0.15388830227490269 -0.41322736288370421 0 -0.17939731223442359 -0.40019181734022008 0 -0.15871719143119181 -0.40188236338003758 0 -0.17939731223442359 -0.40019181734022008 0 -0.16502320751540001 -0.39333356193066349 0 -0.15871719143119181 -0.40188236338003758 0 -0.16502320751540001 -0.39333356193066349 0 -0.15842006582744159 -0.39460565471389231 0 -0.15871719143119181 -0.40188236338003758 0 -0.16502320751540001 -0.39333356193066349 0 -0.15842006582744159 -0.39460565471389231 0 -0.1581691527703733 -0.39021884838627752 0 -0.1543790441550168 -0.39019497574091461 0 -0.15842006582744159 -0.39460565471389231 0 -0.1581691527703733 -0.39021884838627752 0 -0.154795328286604 -0.39605665893512071 0 -0.15842006582744159 -0.39460565471389231 0 -0.15871719143119181 -0.40188236338003758 0 -0.1543790441550168 -0.39019497574091461 0 -0.1603814201966933 -0.3867043089722127 0 -0.16924346041609359 -0.36905546596256711 0 -0.1543790441550168 -0.39019497574091461 0 -0.15708724266967411 -0.37594264727609872 0 -0.16924346041609359 -0.36905546596256711 0 -0.1603814201966933 -0.3867043089722127 0 -0.16847538451277991 -0.379632160190574 0 -0.16924346041609359 -0.36905546596256711 0 -0.1543790441550168 -0.39019497574091461 0 -0.16924346041609359 -0.36905546596256711 0 -0.1543790441550168 -0.39019497574091461 0 -0.1581691527703733 -0.39021884838627752 0 -0.1603814201966933 -0.3867043089722127 0 -0.16502320751540001 -0.39333356193066349 0 -0.1581691527703733 -0.39021884838627752 0 -0.1603814201966933 -0.3867043089722127 0 -0.16502320751540001 -0.39333356193066349 0 -0.1603814201966933 -0.3867043089722127 0 -0.16874468437358331 -0.38501910894679459 0 -0.1603814201966933 -0.3867043089722127 0 -0.16874468437358331 -0.38501910894679459 0 -0.16847538451277991 -0.379632160190574 0 -0.16502320751540001 -0.39333356193066349 0 -0.16874468437358331 -0.38501910894679459 0 -0.17432000437072381 -0.38758756803355848 0 -0.16847538451277991 -0.379632160190574 0 -0.17553197306474949 -0.3777497568807216 0 -0.16924346041609359 -0.36905546596256711 0 -0.16874468437358331 -0.38501910894679459 0 -0.16847538451277991 -0.379632160190574 0 -0.17553197306474949 -0.3777497568807216 0 -0.17939731223442359 -0.40019181734022008 0 -0.1829028446654625 -0.3816435950693926 0 -0.1934605023623108 -0.38173119329951499 0 -0.17939731223442359 -0.40019181734022008 0 -0.17432000437072381 -0.38758756803355848 0 -0.1829028446654625 -0.3816435950693926 0 -0.17553197306474949 -0.3777497568807216 0 -0.1829028446654625 -0.3816435950693926 0 -0.17990369105023821 -0.36966676981042063 0 -0.17553197306474949 -0.3777497568807216 0 -0.17432000437072381 -0.38758756803355848 0 -0.1829028446654625 -0.3816435950693926 0 -0.16874468437358331 -0.38501910894679459 0 -0.17553197306474949 -0.3777497568807216 0 -0.17432000437072381 -0.38758756803355848 0 -0.1934605023623108 -0.38173119329951499 0 -0.20490632219394411 -0.3871562717967354 0 -0.2041209602347919 -0.36949077483872789 0 -0.17939731223442359 -0.40019181734022008 0 -0.1934605023623108 -0.38173119329951499 0 -0.20490632219394411 -0.3871562717967354 0 -0.1829028446654625 -0.3816435950693926 0 -0.1934605023623108 -0.38173119329951499 0 -0.19042881146088689 -0.37062945897328059 0 -0.20490632219394411 -0.3871562717967354 0 -0.19356956333574649 -0.40656909908558692 0 -0.206250009925077 -0.4173804394558408 0 -0.17939731223442359 -0.40019181734022008 0 -0.20490632219394411 -0.3871562717967354 0 -0.17939731223442359 -0.40019181734022008 0 -0.20490632219394411 -0.3871562717967354 0 -0.19356956333574649 -0.40656909908558692 0 -0.21393081697869459 -0.40345684198923443 0 -0.21769787209971889 -0.39228327022630172 0 -0.20490632219394411 -0.3871562717967354 0 -0.21393081697869459 -0.40345684198923443 0 -0.20490632219394411 -0.3871562717967354 0 -0.206250009925077 -0.4173804394558408 0 -0.20490632219394411 -0.3871562717967354 0 -0.206250009925077 -0.4173804394558408 0 -0.20490632219394411 -0.3871562717967354 0 -0.2041209602347919 -0.36949077483872789 0 -0.20490632219394411 -0.3871562717967354 0 -0.22007313598819839 -0.37940576747382032 0 -0.20490632219394411 -0.3871562717967354 0 -0.22007313598819839 -0.37940576747382032 0 -0.2041209602347919 -0.36949077483872789 0 -0.21769787209971889 -0.39228327022630172 0 -0.20490632219394411 -0.3871562717967354 0 -0.22007313598819839 -0.37940576747382032 0 -0.18511514096164161 -0.4414566997826157 0 -0.1925952616859184 -0.42901710808929222 0 -0.20478428370393109 -0.43601623613716223 0 -0.1925952616859184 -0.42901710808929222 0 -0.20478428370393109 -0.43601623613716223 0 -0.20684794714602861 -0.43083010815327138 0 -0.1925952616859184 -0.42901710808929222 0 -0.206250009925077 -0.4173804394558408 0 -0.20684794714602861 -0.43083010815327138 0 -0.18006915609998991 -0.41530390116977089 0 -0.206250009925077 -0.4173804394558408 0 -0.18006915609998991 -0.41530390116977089 0 -0.19356956333574649 -0.40656909908558692 0 -0.206250009925077 -0.4173804394558408 0 -0.18006915609998991 -0.41530390116977089 0 -0.1925952616859184 -0.42901710808929222 0 -0.206250009925077 -0.4173804394558408 0 -0.21393081697869459 -0.40345684198923443 0 -0.21585138859340991 -0.41814197422231258 0 -0.2257885172698311 -0.40209271450916029 0 -0.21393081697869459 -0.40345684198923443 0 -0.21585138859340991 -0.41814197422231258 0 -0.206250009925077 -0.4173804394558408 0 -0.21585138859340991 -0.41814197422231258 0 -0.206250009925077 -0.4173804394558408 0 -0.21585138859340991 -0.41814197422231258 0 -0.20478428370393109 -0.43601623613716223 0 -0.21585138859340991 -0.41814197422231258 0 -0.20478428370393109 -0.43601623613716223 0 -0.20684794714602861 -0.43083010815327138 0 -0.22759644617556099 -0.44284293422319793 0 -0.20478428370393109 -0.43601623613716223 0 -0.2208521478268988 -0.42933277375530549 0 -0.21585138859340991 -0.41814197422231258 0 -0.20478428370393109 -0.43601623613716223 0 -0.2208521478268988 -0.42933277375530549 0 -0.21585138859340991 -0.41814197422231258 0 -0.206250009925077 -0.4173804394558408 0 -0.20684794714602861 -0.43083010815327138 0 -0.206250009925077 -0.4173804394558408 0 -0.20684794714602861 -0.43083010815327138 0 -0.21585138859340991 -0.41814197422231258 0 -0.2208521478268988 -0.42933277375530549 0 -0.23181761264678391 -0.41940833764010932 0 -0.22759644617556099 -0.44284293422319793 0 -0.2208521478268988 -0.42933277375530549 0 -0.23181761264678391 -0.41940833764010932 0 -0.21585138859340991 -0.41814197422231258 0 -0.23181761264678391 -0.41940833764010932 0 -0.22546907378349809 -0.41329935140392948 0 -0.21585138859340991 -0.41814197422231258 0 -0.23181761264678391 -0.41940833764010932 0 -0.21585138859340991 -0.41814197422231258 0 -0.22546907378349809 -0.41329935140392948 0 -0.2257885172698311 -0.40209271450916029 0 -0.21585138859340991 -0.41814197422231258 0 -0.2257885172698311 -0.40209271450916029 0 -0.23181761264678391 -0.41940833764010932 0 -0.22546907378349809 -0.41329935140392948 0 -0.22546907378349809 -0.41329935140392948 0 -0.23273933557384599 -0.40768669702984311 0 -0.2257885172698311 -0.40209271450916029 0 -0.23181761264678391 -0.41940833764010932 0 -0.22546907378349809 -0.41329935140392948 0 -0.23273933557384599 -0.40768669702984311 0 -0.25651849659909659 -0.42136749189723921 0 -0.23181761264678391 -0.41940833764010932 0 -0.25651849659909659 -0.42136749189723921 0 -0.23181761264678391 -0.41940833764010932 0 -0.2451150788115237 -0.40662439141411111 0 -0.23181761264678391 -0.41940833764010932 0 -0.23273933557384599 -0.40768669702984311 0 -0.2451150788115237 -0.40662439141411111 0 -0.25085143580496172 -0.43772394792448571 0 -0.23181761264678391 -0.41940833764010932 0 -0.25651849659909659 -0.42136749189723921 0 -0.25085143580496172 -0.43772394792448571 0 -0.23181761264678391 -0.41940833764010932 0 -0.25085143580496172 -0.43772394792448571 0 -0.22759644617556099 -0.44284293422319793 0 -0.23181761264678391 -0.41940833764010932 0 -0.21769787209971889 -0.39228327022630172 0 -0.22007313598819839 -0.37940576747382032 0 -0.23572564594625289 -0.38604345479600821 0 -0.22007313598819839 -0.37940576747382032 0 -0.23572564594625289 -0.38604345479600821 0 -0.23631394887815341 -0.37304558211817029 0 -0.21769787209971889 -0.39228327022630172 0 -0.2257885172698311 -0.40209271450916029 0 -0.23572564594625289 -0.38604345479600821 0 -0.2257885172698311 -0.40209271450916029 0 -0.23572564594625289 -0.38604345479600821 0 -0.2257885172698311 -0.40209271450916029 0 -0.2369263795722015 -0.39884643451356722 0 -0.23572564594625289 -0.38604345479600821 0 -0.21393081697869459 -0.40345684198923443 0 -0.21769787209971889 -0.39228327022630172 0 -0.2257885172698311 -0.40209271450916029 0 -0.23273933557384599 -0.40768669702984311 0 -0.2257885172698311 -0.40209271450916029 0 -0.2369263795722015 -0.39884643451356722 0 -0.2369263795722015 -0.39884643451356722 0 -0.24526332025955391 -0.39178491481871291 0 -0.23572564594625289 -0.38604345479600821 0 -0.23273933557384599 -0.40768669702984311 0 -0.2451150788115237 -0.40662439141411111 0 -0.2369263795722015 -0.39884643451356722 0 -0.2451150788115237 -0.40662439141411111 0 -0.2369263795722015 -0.39884643451356722 0 -0.24526332025955391 -0.39178491481871291 0 -0.24526332025955391 -0.39178491481871291 0 -0.24140135002674701 -0.38177748141769108 0 -0.2491802377144112 -0.37993675921623637 0 -0.24526332025955391 -0.39178491481871291 0 -0.23572564594625289 -0.38604345479600821 0 -0.24140135002674701 -0.38177748141769108 0 -0.23572564594625289 -0.38604345479600821 0 -0.24140135002674701 -0.38177748141769108 0 -0.23631394887815341 -0.37304558211817029 0 -0.24140135002674701 -0.38177748141769108 0 -0.2491802377144112 -0.37993675921623637 0 -0.23631394887815341 -0.37304558211817029 0 -0.257137386720446 -0.37449496511257058 0 -0.23316066629591239 -0.35824181574716901 0 -0.2491802377144112 -0.37993675921623637 0 -0.23316066629591239 -0.35824181574716901 0 -0.25082379819777462 -0.36466963930633223 0 -0.23316066629591239 -0.35824181574716901 0 -0.24496691599307249 -0.35718062971591952 0 -0.257137386720446 -0.37449496511257058 0 -0.2491802377144112 -0.37993675921623637 0 -0.23316066629591239 -0.35824181574716901 0 -0.2491802377144112 -0.37993675921623637 0 -0.23631394887815341 -0.37304558211817029 0 -0.23316066629591239 -0.35824181574716901 0 -0.25082379819777462 -0.36466963930633223 0 -0.257137386720446 -0.37449496511257058 0 -0.23316066629591239 -0.35824181574716901 0 -0.22672864692582601 -0.36821872167052599 0 -0.23316066629591239 -0.35824181574716901 0 -0.21736683654103969 -0.36218172134294457 0 -0.22007313598819839 -0.37940576747382032 0 -0.22672864692582601 -0.36821872167052599 0 -0.21736683654103969 -0.36218172134294457 0 -0.22007313598819839 -0.37940576747382032 0 -0.23631394887815341 -0.37304558211817029 0 -0.22672864692582601 -0.36821872167052599 0 -0.23631394887815341 -0.37304558211817029 0 -0.22672864692582601 -0.36821872167052599 0 -0.23316066629591239 -0.35824181574716901 0 -0.23316066629591239 -0.35824181574716901 0 -0.21604144572169531 -0.34663717407452049 0 -0.23316066629591239 -0.35824181574716901 0 -0.228077183098987 -0.35135736935955159 0 -0.21604144572169531 -0.34663717407452049 0 -0.23316066629591239 -0.35824181574716901 0 -0.21736683654103969 -0.36218172134294457 0 -0.21604144572169531 -0.34663717407452049 0 -0.228077183098987 -0.35135736935955159 0 -0.22306888526425961 -0.34251015296490328 0 -0.21604144572169531 -0.34663717407452049 0 -0.23316066629591239 -0.35824181574716901 0 -0.228077183098987 -0.35135736935955159 0 -0.23474239558664831 -0.34742085470588591 0 -0.23316066629591239 -0.35824181574716901 0 -0.228077183098987 -0.35135736935955159 0 -0.228077183098987 -0.35135736935955159 0 -0.23474239558664831 -0.34742085470588591 0 -0.22989775451977659 -0.3405331335015489 0 -0.228077183098987 -0.35135736935955159 0 -0.22989775451977659 -0.3405331335015489 0 -0.22306888526425961 -0.34251015296490328 0 -0.23474239558664831 -0.34742085470588591 0 -0.24309393599506701 -0.35071358597803909 0 -0.2407035262896578 -0.34118789433628288 0 -0.23316066629591239 -0.35824181574716901 0 -0.23474239558664831 -0.34742085470588591 0 -0.24309393599506701 -0.35071358597803909 0 -0.23316066629591239 -0.35824181574716901 0 -0.24496691599307249 -0.35718062971591952 0 -0.24309393599506701 -0.35071358597803909 0 -0.25082379819777462 -0.36466963930633223 0 -0.25278926348353631 -0.35509747783213791 0 -0.24496691599307249 -0.35718062971591952 0 -0.25278926348353631 -0.35509747783213791 0 -0.24496691599307249 -0.35718062971591952 0 -0.24309393599506701 -0.35071358597803909 0 -0.25159214206901609 -0.34393232083695813 0 -0.24309393599506701 -0.35071358597803909 0 -0.2407035262896578 -0.34118789433628288 0 -0.25159214206901609 -0.34393232083695813 0 -0.25278926348353631 -0.35509747783213791 0 -0.24309393599506701 -0.35071358597803909 0 -0.25159214206901609 -0.34393232083695813 0 -0.24656237633128969 -0.33606907515999301 0 -0.2407035262896578 -0.34118789433628288 0 -0.25479416948686262 -0.33316938207361579 0 -0.24656237633128969 -0.33606907515999301 0 -0.2424333260183951 -0.32873864115952478 0 -0.24656237633128969 -0.33606907515999301 0 -0.2424333260183951 -0.32873864115952478 0 -0.23619773473261699 -0.33471461757526672 0 -0.2424333260183951 -0.32873864115952478 0 -0.23619773473261699 -0.33471461757526672 0 -0.23067515268307481 -0.32770821523978472 0 -0.24656237633128969 -0.33606907515999301 0 -0.23619773473261699 -0.33471461757526672 0 -0.2407035262896578 -0.34118789433628288 0 -0.23619773473261699 -0.33471461757526672 0 -0.2407035262896578 -0.34118789433628288 0 -0.22989775451977659 -0.3405331335015489 0 -0.23474239558664831 -0.34742085470588591 0 -0.2407035262896578 -0.34118789433628288 0 -0.22989775451977659 -0.3405331335015489 0 -0.25186883964129181 -0.32168124549074012 0 -0.2419451101458325 -0.30898797660575461 0 -0.25186883964129181 -0.32168124549074012 0 -0.24239519287797501 -0.31941842765469941 0 -0.2419451101458325 -0.30898797660575461 0 -0.25479416948686262 -0.33316938207361579 0 -0.25186883964129181 -0.32168124549074012 0 -0.2424333260183951 -0.32873864115952478 0 -0.25186883964129181 -0.32168124549074012 0 -0.2424333260183951 -0.32873864115952478 0 -0.24239519287797501 -0.31941842765469941 0 -0.2424333260183951 -0.32873864115952478 0 -0.24239519287797501 -0.31941842765469941 0 -0.23333349570638051 -0.31826584736277808 0 -0.2424333260183951 -0.32873864115952478 0 -0.23333349570638051 -0.31826584736277808 0 -0.23067515268307481 -0.32770821523978472 0 -0.24239519287797501 -0.31941842765469941 0 -0.23333349570638051 -0.31826584736277808 0 -0.2419451101458325 -0.30898797660575461 0 -0.23333349570638051 -0.31826584736277808 0 -0.22515692883641539 -0.32112480484758987 0 -0.2234997826246585 -0.31502753396313737 0 -0.23333349570638051 -0.31826584736277808 0 -0.2234997826246585 -0.31502753396313737 0 -0.22753274898265929 -0.30800662054706812 0 -0.23333349570638051 -0.31826584736277808 0 -0.23067515268307481 -0.32770821523978472 0 -0.22515692883641539 -0.32112480484758987 0 -0.23067515268307481 -0.32770821523978472 0 -0.2223996052445486 -0.32787064108628161 0 -0.22515692883641539 -0.32112480484758987 0 -0.2223996052445486 -0.32787064108628161 0 -0.22515692883641539 -0.32112480484758987 0 -0.21815541306816019 -0.32060085724780729 0 -0.2234997826246585 -0.31502753396313737 0 -0.21815541306816019 -0.32060085724780729 0 -0.2154968367943105 -0.31153557706332069 0 -0.22515692883641539 -0.32112480484758987 0 -0.2234997826246585 -0.31502753396313737 0 -0.21815541306816019 -0.32060085724780729 0 -0.23619773473261699 -0.33471461757526672 0 -0.22989775451977659 -0.3405331335015489 0 -0.2264151887232784 -0.33414910473842491 0 -0.23619773473261699 -0.33471461757526672 0 -0.23067515268307481 -0.32770821523978472 0 -0.2264151887232784 -0.33414910473842491 0 -0.2223996052445486 -0.32787064108628161 0 -0.2264151887232784 -0.33414910473842491 0 -0.21959786071355711 -0.33585816145183112 0 -0.23067515268307481 -0.32770821523978472 0 -0.2223996052445486 -0.32787064108628161 0 -0.2264151887232784 -0.33414910473842491 0 -0.2223996052445486 -0.32787064108628161 0 -0.21959786071355711 -0.33585816145183112 0 -0.21439708744280611 -0.32778270299225232 0 -0.21959786071355711 -0.33585816145183112 0 -0.22306888526425961 -0.34251015296490328 0 -0.21604144572169531 -0.34663717407452049 0 -0.2264151887232784 -0.33414910473842491 0 -0.21959786071355711 -0.33585816145183112 0 -0.22306888526425961 -0.34251015296490328 0 -0.22989775451977659 -0.3405331335015489 0 -0.2264151887232784 -0.33414910473842491 0 -0.22306888526425961 -0.34251015296490328 0 -0.19892222514747829 -0.33503253240187147 0 -0.21604144572169531 -0.34663717407452049 0 -0.21959786071355711 -0.33585816145183112 0 -0.2112261866008481 -0.33500875935851782 0 -0.21604144572169531 -0.34663717407452049 0 -0.2112261866008481 -0.33500875935851782 0 -0.19892222514747829 -0.33503253240187147 0 -0.21604144572169531 -0.34663717407452049 0 -0.21959786071355711 -0.33585816145183112 0 -0.2112261866008481 -0.33500875935851782 0 -0.21439708744280611 -0.32778270299225232 0 -0.2112261866008481 -0.33500875935851782 0 -0.20649438921948721 -0.32946053607636377 0 -0.21439708744280611 -0.32778270299225232 0 -0.2112261866008481 -0.33500875935851782 0 -0.20649438921948721 -0.32946053607636377 0 -0.19892222514747829 -0.33503253240187147 0 -0.19897229293824739 -0.326776446405872 0 -0.2154968367943105 -0.31153557706332069 0 -0.21482082369524119 -0.30423737288791808 0 -0.19897229293824739 -0.326776446405872 0 -0.21482082369524119 -0.30423737288791808 0 -0.2007240313913197 -0.31110509459339247 0 -0.19897229293824739 -0.326776446405872 0 -0.2154968367943105 -0.31153557706332069 0 -0.19897229293824739 -0.326776446405872 0 -0.21482082369524119 -0.30423737288791808 0 -0.21070320389260219 -0.32323122395712323 0 -0.19897229293824739 -0.326776446405872 0 -0.2154968367943105 -0.31153557706332069 0 -0.21815541306816019 -0.32060085724780729 0 -0.21070320389260219 -0.32323122395712323 0 -0.2154968367943105 -0.31153557706332069 0 -0.2223996052445486 -0.32787064108628161 0 -0.21815541306816019 -0.32060085724780729 0 -0.21439708744280611 -0.32778270299225232 0 -0.21815541306816019 -0.32060085724780729 0 -0.21439708744280611 -0.32778270299225232 0 -0.21070320389260219 -0.32323122395712323 0 -0.20649438921948721 -0.32946053607636377 0 -0.21439708744280611 -0.32778270299225232 0 -0.21070320389260219 -0.32323122395712323 0 -0.20649438921948721 -0.32946053607636377 0 -0.21070320389260219 -0.32323122395712323 0 -0.19897229293824739 -0.326776446405872 0 -0.19897229293824739 -0.326776446405872 0 -0.1937097239156029 -0.32098499040077128 0 -0.2007240313913197 -0.31110509459339247 0 -0.1937097239156029 -0.32098499040077128 0 -0.18843549244021399 -0.32853619336541101 0 -0.1867070788926305 -0.31752222723840978 0 -0.19897229293824739 -0.326776446405872 0 -0.1937097239156029 -0.32098499040077128 0 -0.18843549244021399 -0.32853619336541101 0 -0.1937097239156029 -0.32098499040077128 0 -0.2007240313913197 -0.31110509459339247 0 -0.1867070788926305 -0.31752222723840978 0 -0.19897229293824739 -0.326776446405872 0 -0.1841078766771708 -0.34791595618421989 0 -0.19897229293824739 -0.326776446405872 0 -0.1841078766771708 -0.34791595618421989 0 -0.1863921104711172 -0.33837936379693828 0 -0.19897229293824739 -0.326776446405872 0 -0.19892222514747829 -0.33503253240187147 0 -0.1841078766771708 -0.34791595618421989 0 -0.20649438921948721 -0.32946053607636377 0 -0.19897229293824739 -0.326776446405872 0 -0.19892222514747829 -0.33503253240187147 0 -0.19897229293824739 -0.326776446405872 0 -0.18843549244021399 -0.32853619336541101 0 -0.1863921104711172 -0.33837936379693828 0 -0.19897229293824739 -0.326776446405872 0 -0.1863921104711172 -0.33837936379693828 0 -0.19892222514747829 -0.33503253240187147 0 -0.19455027978134939 -0.34763081213969771 0 -0.1841078766771708 -0.34791595618421989 0 -0.19892222514747829 -0.33503253240187147 0 -0.19455027978134939 -0.34763081213969771 0 -0.2033355982756401 -0.3518252778807206 0 -0.19455027978134939 -0.34763081213969771 0 -0.1927882004407302 -0.35825374497457979 0 -0.1841078766771708 -0.34791595618421989 0 -0.19455027978134939 -0.34763081213969771 0 -0.1927882004407302 -0.35825374497457979 0 -0.2033355982756401 -0.3518252778807206 0 -0.1927882004407302 -0.35825374497457979 0 -0.2041209602347919 -0.36949077483872789 0 -0.2033355982756401 -0.3518252778807206 0 -0.1927882004407302 -0.35825374497457979 0 -0.19042881146088689 -0.37062945897328059 0 -0.18662353950076521 -0.36321865160743888 0 -0.1934605023623108 -0.38173119329951499 0 -0.19042881146088689 -0.37062945897328059 0 -0.2041209602347919 -0.36949077483872789 0 -0.1927882004407302 -0.35825374497457979 0 -0.19042881146088689 -0.37062945897328059 0 -0.2041209602347919 -0.36949077483872789 0 -0.22007313598819839 -0.37940576747382032 0 -0.2041209602347919 -0.36949077483872789 0 -0.21736683654103969 -0.36218172134294457 0 -0.2041209602347919 -0.36949077483872789 0 -0.21736683654103969 -0.36218172134294457 0 -0.2033355982756401 -0.3518252778807206 0 -0.2041209602347919 -0.36949077483872789 0 -0.2033355982756401 -0.3518252778807206 0 -0.19892222514747829 -0.33503253240187147 0 -0.21604144572169531 -0.34663717407452049 0 -0.2033355982756401 -0.3518252778807206 0 -0.21736683654103969 -0.36218172134294457 0 -0.21604144572169531 -0.34663717407452049 0 -0.2033355982756401 -0.3518252778807206 0 -0.2275776639614947 -0.25997943494478321 0 -0.226781963338341 -0.25039823210532269 0 -0.21861982774552349 -0.25375453494519951 0 -0.2275776639614947 -0.25997943494478321 0 -0.21712919195799249 -0.25817410291821652 0 -0.21861982774552349 -0.25375453494519951 0 -0.226781963338341 -0.25039823210532269 0 -0.21861982774552349 -0.25375453494519951 0 -0.2119300112202292 -0.2477988027976491 0 -0.22049062805320399 -0.26422029894671101 0 -0.2275776639614947 -0.25997943494478321 0 -0.21712919195799249 -0.25817410291821652 0 -0.22049062805320399 -0.26422029894671101 0 -0.2275776639614947 -0.25997943494478321 0 -0.2316218687082415 -0.26837739287951717 0 -0.26011611763477738 -0.27038245142357381 0 -0.25082250396566569 -0.26495204787373272 0 -0.23859145966156051 -0.25314252443921992 0 -0.25082250396566569 -0.26495204787373272 0 -0.2275776639614947 -0.25997943494478321 0 -0.226781963338341 -0.25039823210532269 0 -0.25082250396566569 -0.26495204787373272 0 -0.226781963338341 -0.25039823210532269 0 -0.26011611763477738 -0.27038245142357381 0 -0.23859145966156051 -0.25314252443921992 0 -0.25082250396566569 -0.26495204787373272 0 -0.2275776639614947 -0.25997943494478321 0 -0.2316218687082415 -0.26837739287951717 0 -0.25082250396566569 -0.26495204787373272 0 -0.226781963338341 -0.25039823210532269 0 -0.23859145966156051 -0.25314252443921992 0 -0.25318276733537848 -0.25698187275224182 0 -0.23859145966156051 -0.25314252443921992 0 -0.24794684516777099 -0.24523412413146431 0 -0.25082250396566569 -0.26495204787373272 0 -0.24014769918848089 -0.27393577164405469 0 -0.2316218687082415 -0.26837739287951717 0 -0.25082250396566569 -0.26495204787373272 0 -0.24014769918848089 -0.27393577164405469 0 -0.24606874914257529 -0.28333857957217129 0 -0.24014769918848089 -0.27393577164405469 0 -0.23207767493744111 -0.27907506625079759 0 -0.24606874914257529 -0.28333857957217129 0 -0.24014769918848089 -0.27393577164405469 0 -0.23207767493744111 -0.27907506625079759 0 -0.2316218687082415 -0.26837739287951717 0 -0.23207767493744111 -0.27907506625079759 0 -0.2316218687082415 -0.26837739287951717 0 -0.22043365474232371 -0.27216348552056302 0 -0.22049062805320399 -0.26422029894671101 0 -0.2316218687082415 -0.26837739287951717 0 -0.22043365474232371 -0.27216348552056302 0 -0.23207767493744111 -0.27907506625079759 0 -0.22043365474232371 -0.27216348552056302 0 -0.22156460889574911 -0.28291963380212798 0 -0.23207767493744111 -0.27907506625079759 0 -0.22156460889574911 -0.28291963380212798 0 -0.2320213806503732 -0.29629470772076888 0 -0.22156460889574911 -0.28291963380212798 0 -0.2210617340740173 -0.29678753522669798 0 -0.2320213806503732 -0.29629470772076888 0 -0.22156460889574911 -0.28291963380212798 0 -0.2320213806503732 -0.29629470772076888 0 -0.23207767493744111 -0.27907506625079759 0 -0.2320213806503732 -0.29629470772076888 0 -0.24606874914257529 -0.28333857957217129 0 -0.2320213806503732 -0.29629470772076888 0 -0.24606874914257529 -0.28333857957217129 0 -0.24736795376787321 -0.29721616667175882 0 -0.2320213806503732 -0.29629470772076888 0 -0.24606874914257529 -0.28333857957217129 0 -0.2320213806503732 -0.29629470772076888 0 -0.24736795376787321 -0.29721616667175882 0 -0.2419451101458325 -0.30898797660575461 0 -0.2320213806503732 -0.29629470772076888 0 -0.2419451101458325 -0.30898797660575461 0 -0.25734408590355717 -0.30717476922060122 0 -0.24736795376787321 -0.29721616667175882 0 -0.2419451101458325 -0.30898797660575461 0 -0.23333349570638051 -0.31826584736277808 0 -0.2419451101458325 -0.30898797660575461 0 -0.22753274898265929 -0.30800662054706812 0 -0.2320213806503732 -0.29629470772076888 0 -0.2154968367943105 -0.31153557706332069 0 -0.2320213806503732 -0.29629470772076888 0 -0.22753274898265929 -0.30800662054706812 0 -0.2154968367943105 -0.31153557706332069 0 -0.2210617340740173 -0.29678753522669798 0 -0.2320213806503732 -0.29629470772076888 0 -0.2154968367943105 -0.31153557706332069 0 -0.2320213806503732 -0.29629470772076888 0 -0.2419451101458325 -0.30898797660575461 0 -0.22753274898265929 -0.30800662054706812 0 -0.2234997826246585 -0.31502753396313737 0 -0.22753274898265929 -0.30800662054706812 0 -0.2154968367943105 -0.31153557706332069 0 -0.21482082369524119 -0.30423737288791808 0 -0.20674240169136601 -0.3001647415376788 0 -0.2124211320584265 -0.2926670636929149 0 -0.2210617340740173 -0.29678753522669798 0 -0.2154968367943105 -0.31153557706332069 0 -0.21482082369524119 -0.30423737288791808 0 -0.2210617340740173 -0.29678753522669798 0 -0.21482082369524119 -0.30423737288791808 0 -0.2124211320584265 -0.2926670636929149 0 -0.21482082369524119 -0.30423737288791808 0 -0.20674240169136601 -0.3001647415376788 0 -0.2007240313913197 -0.31110509459339247 0 -0.19890745801687651 -0.29353339356094832 0 -0.18440958462928461 -0.29259833920611661 0 -0.1867070788926305 -0.31752222723840978 0 -0.20674240169136601 -0.3001647415376788 0 -0.2007240313913197 -0.31110509459339247 0 -0.19890745801687651 -0.29353339356094832 0 -0.19890745801687651 -0.29353339356094832 0 -0.1867070788926305 -0.31752222723840978 0 -0.2007240313913197 -0.31110509459339247 0 -0.19890745801687651 -0.29353339356094832 0 -0.1867070788926305 -0.31752222723840978 0 -0.1909470704652588 -0.27235879938260421 0 -0.18440958462928461 -0.29259833920611661 0 -0.19890745801687651 -0.29353339356094832 0 -0.1909470704652588 -0.27235879938260421 0 -0.18440958462928461 -0.29259833920611661 0 -0.19890745801687651 -0.29353339356094832 0 -0.21110783714112441 -0.26954455988348769 0 -0.19890745801687651 -0.29353339356094832 0 -0.21100025902804409 -0.28466616273486972 0 -0.21110783714112441 -0.26954455988348769 0 -0.20674240169136601 -0.3001647415376788 0 -0.19890745801687651 -0.29353339356094832 0 -0.2124211320584265 -0.2926670636929149 0 -0.19890745801687651 -0.29353339356094832 0 -0.2124211320584265 -0.2926670636929149 0 -0.21100025902804409 -0.28466616273486972 0 -0.22156460889574911 -0.28291963380212798 0 -0.2210617340740173 -0.29678753522669798 0 -0.2124211320584265 -0.2926670636929149 0 -0.22156460889574911 -0.28291963380212798 0 -0.2124211320584265 -0.2926670636929149 0 -0.21100025902804409 -0.28466616273486972 0 -0.22043365474232371 -0.27216348552056302 0 -0.22156460889574911 -0.28291963380212798 0 -0.21110783714112441 -0.26954455988348769 0 -0.22156460889574911 -0.28291963380212798 0 -0.21110783714112441 -0.26954455988348769 0 -0.22156460889574911 -0.28291963380212798 0 -0.21100025902804409 -0.28466616273486972 0 -0.21110783714112441 -0.26954455988348769 0 -0.22043365474232371 -0.27216348552056302 0 -0.21282436619789871 -0.26616945738657322 0 -0.21110783714112441 -0.26954455988348769 0 -0.22049062805320399 -0.26422029894671101 0 -0.22043365474232371 -0.27216348552056302 0 -0.21282436619789871 -0.26616945738657322 0 -0.21282436619789871 -0.26616945738657322 0 -0.21110783714112441 -0.26954455988348769 0 -0.19890745801687651 -0.29353339356094832 0 -0.21110783714112441 -0.26954455988348769 0 -0.1909470704652588 -0.27235879938260421 0 -0.1909470704652588 -0.27235879938260421 0 -0.18785800918765211 -0.25660925826373709 0 -0.1974845563012321 -0.25211925955909159 0 -0.1909470704652588 -0.27235879938260421 0 -0.1974845563012321 -0.25211925955909159 0 -0.21110783714112441 -0.26954455988348769 0 -0.1909470704652588 -0.27235879938260421 0 -0.1974845563012321 -0.25211925955909159 0 -0.18785800918765211 -0.25660925826373709 0 -0.18304556088669491 -0.24901181650649459 0 -0.1944546464084827 -0.248243754792105 0 -0.18785800918765211 -0.25660925826373709 0 -0.1974845563012321 -0.25211925955909159 0 -0.1944546464084827 -0.248243754792105 0 -0.1974845563012321 -0.25211925955909159 0 -0.1944546464084827 -0.248243754792105 0 -0.21110783714112441 -0.26954455988348769 0 -0.1974845563012321 -0.25211925955909159 0 -0.20395346744563289 -0.25144749885754442 0 -0.2086390279796457 -0.25224625467968192 0 -0.20672753040619921 -0.2493436236836028 0 -0.20395346744563289 -0.25144749885754442 0 -0.2086390279796457 -0.25224625467968192 0 -0.208195526914847 -0.2580153718168276 0 -0.21110783714112441 -0.26954455988348769 0 -0.1974845563012321 -0.25211925955909159 0 -0.208195526914847 -0.2580153718168276 0 -0.1974845563012321 -0.25211925955909159 0 -0.20395346744563289 -0.25144749885754442 0 -0.208195526914847 -0.2580153718168276 0 -0.2086390279796457 -0.25224625467968192 0 -0.208195526914847 -0.2580153718168276 0 -0.21238860391132039 -0.25462597624278571 0 -0.21282436619789871 -0.26616945738657322 0 -0.21110783714112441 -0.26954455988348769 0 -0.208195526914847 -0.2580153718168276 0 -0.21282436619789871 -0.26616945738657322 0 -0.208195526914847 -0.2580153718168276 0 -0.21332060147901841 -0.25992934053555528 0 -0.21282436619789871 -0.26616945738657322 0 -0.21332060147901841 -0.25992934053555528 0 -0.21600199112170421 -0.26238705228959303 0 -0.22049062805320399 -0.26422029894671101 0 -0.21282436619789871 -0.26616945738657322 0 -0.21600199112170421 -0.26238705228959303 0 -0.22049062805320399 -0.26422029894671101 0 -0.21600199112170421 -0.26238705228959303 0 -0.21712919195799249 -0.25817410291821652 0 -0.21332060147901841 -0.25992934053555528 0 -0.21600199112170421 -0.26238705228959303 0 -0.21712919195799249 -0.25817410291821652 0 -0.21712919195799249 -0.25817410291821652 0 -0.21861982774552349 -0.25375453494519951 0 -0.21238860391132039 -0.25462597624278571 0 -0.2086390279796457 -0.25224625467968192 0 -0.21238860391132039 -0.25462597624278571 0 -0.2119300112202292 -0.2477988027976491 0 -0.21861982774552349 -0.25375453494519951 0 -0.21238860391132039 -0.25462597624278571 0 -0.2119300112202292 -0.2477988027976491 0 -0.208195526914847 -0.2580153718168276 0 -0.21332060147901841 -0.25992934053555528 0 -0.21238860391132039 -0.25462597624278571 0 -0.21332060147901841 -0.25992934053555528 0 -0.21712919195799249 -0.25817410291821652 0 -0.21238860391132039 -0.25462597624278571 0 -0.1567095298194581 -0.25098612554623639 0 -0.17226762831241629 -0.26212119673635342 0 -0.15540088797845039 -0.26381748544776829 0 -0.1567095298194581 -0.25098612554623639 0 -0.17226762831241629 -0.26212119673635342 0 -0.17096101338676031 -0.24733675592071611 0 -0.17226762831241629 -0.26212119673635342 0 -0.18304556088669491 -0.24901181650649459 0 -0.17096101338676031 -0.24733675592071611 0 -0.1909470704652588 -0.27235879938260421 0 -0.18785800918765211 -0.25660925826373709 0 -0.17226762831241629 -0.26212119673635342 0 -0.18785800918765211 -0.25660925826373709 0 -0.17226762831241629 -0.26212119673635342 0 -0.18304556088669491 -0.24901181650649459 0 -0.1909470704652588 -0.27235879938260421 0 -0.17951160018273141 -0.27867564089517999 0 -0.18440958462928461 -0.29259833920611661 0 -0.17226762831241629 -0.26212119673635342 0 -0.17951160018273141 -0.27867564089517999 0 -0.1673278648532211 -0.28215105480932162 0 -0.1909470704652588 -0.27235879938260421 0 -0.17226762831241629 -0.26212119673635342 0 -0.17951160018273141 -0.27867564089517999 0 -0.17226762831241629 -0.26212119673635342 0 -0.1673278648532211 -0.28215105480932162 0 -0.17226762831241629 -0.26212119673635342 0 -0.15687066955972989 -0.27590766909673298 0 -0.1673278648532211 -0.28215105480932162 0 -0.17226762831241629 -0.26212119673635342 0 -0.15687066955972989 -0.27590766909673298 0 -0.15540088797845039 -0.26381748544776829 0 -0.1673278648532211 -0.28215105480932162 0 -0.1741974215879655 -0.30040488136515758 0 -0.16238810139402579 -0.30218091288228988 0 -0.1673278648532211 -0.28215105480932162 0 -0.16238810139402579 -0.30218091288228988 0 -0.1673278648532211 -0.28215105480932162 0 -0.16238810139402579 -0.30218091288228988 0 -0.15378437947677831 -0.28943501179113518 0 -0.15687066955972989 -0.27590766909673298 0 -0.1673278648532211 -0.28215105480932162 0 -0.15378437947677831 -0.28943501179113518 0 -0.17951160018273141 -0.27867564089517999 0 -0.1673278648532211 -0.28215105480932162 0 -0.18440958462928461 -0.29259833920611661 0 -0.1673278648532211 -0.28215105480932162 0 -0.18440958462928461 -0.29259833920611661 0 -0.1741974215879655 -0.30040488136515758 0 -0.18440958462928461 -0.29259833920611661 0 -0.1741974215879655 -0.30040488136515758 0 -0.1778720987933104 -0.3128378790296289 0 -0.18440958462928461 -0.29259833920611661 0 -0.1778720987933104 -0.3128378790296289 0 -0.18440958462928461 -0.29259833920611661 0 -0.1867070788926305 -0.31752222723840978 0 -0.1778720987933104 -0.3128378790296289 0 -0.1741974215879655 -0.30040488136515758 0 -0.1699935986405893 -0.30834935795037549 0 -0.1778720987933104 -0.3128378790296289 0 -0.1699935986405893 -0.30834935795037549 0 -0.16238810139402579 -0.30218091288228988 0 -0.1659710743427395 -0.31678671455016461 0 -0.16238810139402579 -0.30218091288228988 0 -0.15744833793482929 -0.32221077095525769 0 -0.1741974215879655 -0.30040488136515758 0 -0.1699935986405893 -0.30834935795037549 0 -0.16238810139402579 -0.30218091288228988 0 -0.16238810139402579 -0.30218091288228988 0 -0.14220226127569169 -0.3016902910830993 0 -0.15744833793482929 -0.32221077095525769 0 -0.16238810139402579 -0.30218091288228988 0 -0.14220226127569169 -0.3016902910830993 0 -0.15378437947677831 -0.28943501179113518 0 -0.14220226127569169 -0.3016902910830993 0 -0.1336285063189227 -0.31191690631061408 0 -0.13973831755140639 -0.32201557788684382 0 -0.14220226127569169 -0.3016902910830993 0 -0.1336285063189227 -0.31191690631061408 0 -0.12731534856921209 -0.29639041901150798 0 -0.12731534856921209 -0.29639041901150798 0 -0.13117627995659251 -0.27858288005347759 0 -0.118130391665729 -0.29009652613246562 0 -0.14220226127569169 -0.3016902910830993 0 -0.14474034800893781 -0.27699766801267728 0 -0.13117627995659251 -0.27858288005347759 0 -0.14220226127569169 -0.3016902910830993 0 -0.13117627995659251 -0.27858288005347759 0 -0.14220226127569169 -0.3016902910830993 0 -0.12731534856921209 -0.29639041901150798 0 -0.13117627995659251 -0.27858288005347759 0 -0.14220226127569169 -0.3016902910830993 0 -0.15378437947677831 -0.28943501179113518 0 -0.14474034800893781 -0.27699766801267728 0 -0.15687066955972989 -0.27590766909673298 0 -0.15378437947677831 -0.28943501179113518 0 -0.14474034800893781 -0.27699766801267728 0 -0.15687066955972989 -0.27590766909673298 0 -0.14474034800893781 -0.27699766801267728 0 -0.15540088797845039 -0.26381748544776829 0 -0.14474034800893781 -0.27699766801267728 0 -0.13630047498866529 -0.27234313351602962 0 -0.14275240595177291 -0.26492095214241462 0 -0.14474034800893781 -0.27699766801267728 0 -0.14275240595177291 -0.26492095214241462 0 -0.15540088797845039 -0.26381748544776829 0 -0.14474034800893781 -0.27699766801267728 0 -0.13117627995659251 -0.27858288005347759 0 -0.14474034800893781 -0.27699766801267728 0 -0.13117627995659251 -0.27858288005347759 0 -0.13630047498866529 -0.27234313351602962 0 -0.13117627995659251 -0.27858288005347759 0 -0.1293407297404934 -0.27473607385261312 0 -0.13630047498866529 -0.27234313351602962 0 -0.13117627995659251 -0.27858288005347759 0 -0.1293407297404934 -0.27473607385261312 0 -0.1293407297404934 -0.27473607385261312 0 -0.13349261128553019 -0.26647809351896529 0 -0.124252294822781 -0.26743711535551401 0 -0.13349261128553019 -0.26647809351896529 0 -0.13630047498866529 -0.27234313351602962 0 -0.14275240595177291 -0.26492095214241462 0 -0.1293407297404934 -0.27473607385261312 0 -0.13349261128553019 -0.26647809351896529 0 -0.13630047498866529 -0.27234313351602962 0 -0.13349261128553019 -0.26647809351896529 0 -0.13900924745119439 -0.25839716977230848 0 -0.13116254152980181 -0.25820195520242639 0 -0.13349261128553019 -0.26647809351896529 0 -0.13900924745119439 -0.25839716977230848 0 -0.14275240595177291 -0.26492095214241462 0 -0.13349261128553019 -0.26647809351896529 0 -0.13116254152980181 -0.25820195520242639 0 -0.124252294822781 -0.26743711535551401 0 -0.13116254152980181 -0.25820195520242639 0 -0.1403691958144051 -0.25091306602697511 0 -0.13900924745119439 -0.25839716977230848 0 -0.13116254152980181 -0.25820195520242639 0 -0.1403691958144051 -0.25091306602697511 0 -0.13116254152980181 -0.25820195520242639 0 -0.1403691958144051 -0.25091306602697511 0 -0.12713129679009599 -0.24276029516910849 0 -0.1403691958144051 -0.25091306602697511 0 -0.14283944422994119 -0.25243440783936488 0 -0.14283944422994119 -0.25243440783936488 0 -0.14337679224077651 -0.25773081042925899 0 -0.14819574345069639 -0.25853819579900578 0 -0.13900924745119439 -0.25839716977230848 0 -0.14283944422994119 -0.25243440783936488 0 -0.14337679224077651 -0.25773081042925899 0 -0.13900924745119439 -0.25839716977230848 0 -0.1403691958144051 -0.25091306602697511 0 -0.14283944422994119 -0.25243440783936488 0 -0.13900924745119439 -0.25839716977230848 0 -0.14337679224077651 -0.25773081042925899 0 -0.14275240595177291 -0.26492095214241462 0 -0.14337679224077651 -0.25773081042925899 0 -0.14275240595177291 -0.26492095214241462 0 -0.14819574345069639 -0.25853819579900578 0 -0.14275240595177291 -0.26492095214241462 0 -0.14819574345069639 -0.25853819579900578 0 -0.15540088797845039 -0.26381748544776829 0 -0.1567095298194581 -0.25098612554623639 0 -0.14819574345069639 -0.25853819579900578 0 -0.15540088797845039 -0.26381748544776829 0 -0.1567095298194581 -0.25098612554623639 0 -0.14283944422994119 -0.25243440783936488 0 -0.14819574345069639 -0.25853819579900578 0 -0.1632043336983296 -0.34570483327202489 0 -0.16188659145875731 -0.3566122879162148 0 -0.170818877789958 -0.36166281424770969 0 -0.1632043336983296 -0.34570483327202489 0 -0.170818877789958 -0.36166281424770969 0 -0.1632043336983296 -0.34570483327202489 0 -0.170818877789958 -0.36166281424770969 0 -0.17381192800398759 -0.34998228118800517 0 -0.1632043336983296 -0.34570483327202489 0 -0.17381192800398759 -0.34998228118800517 0 -0.17450669976838451 -0.3415110609158713 0 -0.16188659145875731 -0.3566122879162148 0 -0.1584005043541139 -0.36240964214858612 0 -0.14981804736474849 -0.35315023565568998 0 -0.1632043336983296 -0.34570483327202489 0 -0.16188659145875731 -0.3566122879162148 0 -0.14981804736474849 -0.35315023565568998 0 -0.1584005043541139 -0.36240964214858612 0 -0.16043726421886309 -0.36827444546061061 0 -0.15358948380707901 -0.36796807843156321 0 -0.1584005043541139 -0.36240964214858612 0 -0.16043726421886309 -0.36827444546061061 0 -0.16443314459656441 -0.36328756597531281 0 -0.16188659145875731 -0.3566122879162148 0 -0.1584005043541139 -0.36240964214858612 0 -0.16443314459656441 -0.36328756597531281 0 -0.15708724266967411 -0.37594264727609872 0 -0.16043726421886309 -0.36827444546061061 0 -0.16924346041609359 -0.36905546596256711 0 -0.15708724266967411 -0.37594264727609872 0 -0.16043726421886309 -0.36827444546061061 0 -0.15358948380707901 -0.36796807843156321 0 -0.16043726421886309 -0.36827444546061061 0 -0.16924346041609359 -0.36905546596256711 0 -0.16443314459656441 -0.36328756597531281 0 -0.16188659145875731 -0.3566122879162148 0 -0.16443314459656441 -0.36328756597531281 0 -0.170818877789958 -0.36166281424770969 0 -0.16924346041609359 -0.36905546596256711 0 -0.16443314459656441 -0.36328756597531281 0 -0.170818877789958 -0.36166281424770969 0 -0.16924346041609359 -0.36905546596256711 0 -0.170818877789958 -0.36166281424770969 0 -0.1841078766771708 -0.34791595618421989 0 -0.16924346041609359 -0.36905546596256711 0 -0.17990369105023821 -0.36966676981042063 0 -0.18286451273071541 -0.36003124424935651 0 -0.17553197306474949 -0.3777497568807216 0 -0.16924346041609359 -0.36905546596256711 0 -0.17990369105023821 -0.36966676981042063 0 -0.19042881146088689 -0.37062945897328059 0 -0.17990369105023821 -0.36966676981042063 0 -0.18662353950076521 -0.36321865160743888 0 -0.1829028446654625 -0.3816435950693926 0 -0.19042881146088689 -0.37062945897328059 0 -0.17990369105023821 -0.36966676981042063 0 -0.1927882004407302 -0.35825374497457979 0 -0.18286451273071541 -0.36003124424935651 0 -0.18662353950076521 -0.36321865160743888 0 -0.17990369105023821 -0.36966676981042063 0 -0.18286451273071541 -0.36003124424935651 0 -0.18662353950076521 -0.36321865160743888 0 -0.1927882004407302 -0.35825374497457979 0 -0.18286451273071541 -0.36003124424935651 0 -0.1841078766771708 -0.34791595618421989 0 -0.16924346041609359 -0.36905546596256711 0 -0.18286451273071541 -0.36003124424935651 0 -0.1841078766771708 -0.34791595618421989 0 -0.16924346041609359 -0.36905546596256711 0 -0.1841078766771708 -0.34791595618421989 0 -0.170818877789958 -0.36166281424770969 0 -0.17381192800398759 -0.34998228118800517 0 -0.1841078766771708 -0.34791595618421989 0 -0.17381192800398759 -0.34998228118800517 0 -0.1841078766771708 -0.34791595618421989 0 -0.1863921104711172 -0.33837936379693828 0 -0.17381192800398759 -0.34998228118800517 0 -0.1863921104711172 -0.33837936379693828 0 -0.17450669976838451 -0.3415110609158713 0 -0.1867070788926305 -0.31752222723840978 0 -0.18843549244021399 -0.32853619336541101 0 -0.1863921104711172 -0.33837936379693828 0 -0.17450669976838451 -0.3415110609158713 0 -0.1733070558329389 -0.33201814691588971 0 -0.17450669976838451 -0.3415110609158713 0 -0.1867070788926305 -0.31752222723840978 0 -0.18843549244021399 -0.32853619336541101 0 -0.17450669976838451 -0.3415110609158713 0 -0.1867070788926305 -0.31752222723840978 0 -0.17381192800398759 -0.34998228118800517 0 -0.1863921104711172 -0.33837936379693828 0 -0.17450669976838451 -0.3415110609158713 0 -0.1867070788926305 -0.31752222723840978 0 -0.1759013541820536 -0.31898434468868803 0 -0.1778720987933104 -0.3128378790296289 0 -0.1733070558329389 -0.33201814691588971 0 -0.1867070788926305 -0.31752222723840978 0 -0.17290509515921529 -0.32597366529780558 0 -0.1867070788926305 -0.31752222723840978 0 -0.17290509515921529 -0.32597366529780558 0 -0.1759013541820536 -0.31898434468868803 0 -0.17290509515921529 -0.32597366529780558 0 -0.1759013541820536 -0.31898434468868803 0 -0.17049749022260069 -0.32095948932693052 0 -0.1699935986405893 -0.30834935795037549 0 -0.1778720987933104 -0.3128378790296289 0 -0.17151831653312311 -0.31650813258636412 0 -0.1759013541820536 -0.31898434468868803 0 -0.17151831653312311 -0.31650813258636412 0 -0.17049749022260069 -0.32095948932693052 0 -0.1759013541820536 -0.31898434468868803 0 -0.1778720987933104 -0.3128378790296289 0 -0.17151831653312311 -0.31650813258636412 0 -0.16238810139402579 -0.30218091288228988 0 -0.1659710743427395 -0.31678671455016461 0 -0.15892463117990499 -0.32130579874834658 0 -0.16238810139402579 -0.30218091288228988 0 -0.15744833793482929 -0.32221077095525769 0 -0.15892463117990499 -0.32130579874834658 0 -0.1699935986405893 -0.30834935795037549 0 -0.17151831653312311 -0.31650813258636412 0 -0.1659710743427395 -0.31678671455016461 0 -0.17151831653312311 -0.31650813258636412 0 -0.1659710743427395 -0.31678671455016461 0 -0.17049749022260069 -0.32095948932693052 0 -0.1659710743427395 -0.31678671455016461 0 -0.17049749022260069 -0.32095948932693052 0 -0.16617822827709611 -0.32430392958302778 0 -0.1659710743427395 -0.31678671455016461 0 -0.16617822827709611 -0.32430392958302778 0 -0.16299246864899061 -0.32214367496867452 0 -0.17290509515921529 -0.32597366529780558 0 -0.17049749022260069 -0.32095948932693052 0 -0.16617822827709611 -0.32430392958302778 0 -0.17290509515921529 -0.32597366529780558 0 -0.16617822827709611 -0.32430392958302778 0 -0.16780459410049889 -0.32868251438863089 0 -0.16617822827709611 -0.32430392958302778 0 -0.1608959407962216 -0.32617825699315872 0 -0.16780459410049889 -0.32868251438863089 0 -0.15744833793482929 -0.32221077095525769 0 -0.15558978960670081 -0.32974685229634032 0 -0.1608959407962216 -0.32617825699315872 0 -0.15744833793482929 -0.32221077095525769 0 -0.15558978960670081 -0.32974685229634032 0 -0.1608959407962216 -0.32617825699315872 0 -0.15744833793482929 -0.32221077095525769 0 -0.15892463117990499 -0.32130579874834658 0 -0.15744833793482929 -0.32221077095525769 0 -0.15892463117990499 -0.32130579874834658 0 -0.1608959407962216 -0.32617825699315872 0 -0.15892463117990499 -0.32130579874834658 0 -0.16299246864899061 -0.32214367496867452 0 -0.16617822827709611 -0.32430392958302778 0 -0.1608959407962216 -0.32617825699315872 0 -0.16299246864899061 -0.32214367496867452 0 -0.1659710743427395 -0.31678671455016461 0 -0.15892463117990499 -0.32130579874834658 0 -0.16299246864899061 -0.32214367496867452 0 -0.1632043336983296 -0.34570483327202489 0 -0.15558978960670081 -0.32974685229634032 0 -0.1632043336983296 -0.34570483327202489 0 -0.16573665043702249 -0.3349385731532728 0 -0.15558978960670081 -0.32974685229634032 0 -0.1733070558329389 -0.33201814691588971 0 -0.17450669976838451 -0.3415110609158713 0 -0.16573665043702249 -0.3349385731532728 0 -0.1632043336983296 -0.34570483327202489 0 -0.17450669976838451 -0.3415110609158713 0 -0.16573665043702249 -0.3349385731532728 0 -0.1608959407962216 -0.32617825699315872 0 -0.16780459410049889 -0.32868251438863089 0 -0.16573665043702249 -0.3349385731532728 0 -0.1733070558329389 -0.33201814691588971 0 -0.16780459410049889 -0.32868251438863089 0 -0.16573665043702249 -0.3349385731532728 0 -0.1733070558329389 -0.33201814691588971 0 -0.17290509515921529 -0.32597366529780558 0 -0.16780459410049889 -0.32868251438863089 0 -0.1608959407962216 -0.32617825699315872 0 -0.16573665043702249 -0.3349385731532728 0 -0.15558978960670081 -0.32974685229634032 0 -0.15322824259478859 -0.32479770211272219 0 -0.13670702419802769 -0.33492525876395929 0 -0.1632043336983296 -0.34570483327202489 0 -0.15558978960670081 -0.32974685229634032 0 -0.14981804736474849 -0.35315023565568998 0 -0.15558978960670081 -0.32974685229634032 0 -0.15322824259478859 -0.32479770211272219 0 -0.13670702419802769 -0.33492525876395929 0 -0.15558978960670081 -0.32974685229634032 0 -0.13670702419802769 -0.33492525876395929 0 -0.14981804736474849 -0.35315023565568998 0 -0.15558978960670081 -0.32974685229634032 0 -0.14981804736474849 -0.35315023565568998 0 -0.14220226127569169 -0.3016902910830993 0 -0.15322824259478859 -0.32479770211272219 0 -0.13973831755140639 -0.32201557788684382 0 -0.15322824259478859 -0.32479770211272219 0 -0.13973831755140639 -0.32201557788684382 0 -0.13670702419802769 -0.33492525876395929 0 -0.14220226127569169 -0.3016902910830993 0 -0.15744833793482929 -0.32221077095525769 0 -0.15322824259478859 -0.32479770211272219 0 -0.14220226127569169 -0.3016902910830993 0 -0.15322824259478859 -0.32479770211272219 0 -0.15744833793482929 -0.32221077095525769 0 -0.15322824259478859 -0.32479770211272219 0 -0.15558978960670081 -0.32974685229634032 0 -0.15322824259478859 -0.32479770211272219 0 -0.15744833793482929 -0.32221077095525769 0 -0.15558978960670081 -0.32974685229634032 0 -0.15322824259478859 -0.32479770211272219 0 -0.1336285063189227 -0.31191690631061408 0 -0.1259754870766947 -0.3263969998164466 0 -0.1173747546927407 -0.31513521612503242 0 -0.1336285063189227 -0.31191690631061408 0 -0.13973831755140639 -0.32201557788684382 0 -0.1259754870766947 -0.3263969998164466 0 -0.13973831755140639 -0.32201557788684382 0 -0.1259754870766947 -0.3263969998164466 0 -0.13670702419802769 -0.33492525876395929 0 -0.1259754870766947 -0.3263969998164466 0 -0.13670702419802769 -0.33492525876395929 0 -0.1201858058012675 -0.34505281541519728 0 -0.13670702419802769 -0.33492525876395929 0 -0.1201858058012675 -0.34505281541519728 0 -0.13670702419802769 -0.33492525876395929 0 -0.1321160554620317 -0.3608032172151186 0 -0.1201858058012675 -0.34505281541519728 0 -0.13670702419802769 -0.33492525876395929 0 -0.14981804736474849 -0.35315023565568998 0 -0.1321160554620317 -0.3608032172151186 0 -0.1321160554620317 -0.3608032172151186 0 -0.1201858058012675 -0.34505281541519728 0 -0.14404630512279609 -0.3765536190150397 0 -0.14981804736474849 -0.35315023565568998 0 -0.15358948380707901 -0.36796807843156321 0 -0.14404630512279609 -0.3765536190150397 0 -0.14981804736474849 -0.35315023565568998 0 -0.1321160554620317 -0.3608032172151186 0 -0.14404630512279609 -0.3765536190150397 0 -0.14981804736474849 -0.35315023565568998 0 -0.14404630512279609 -0.3765536190150397 0 -0.15708724266967411 -0.37594264727609872 0 -0.15358948380707901 -0.36796807843156321 0 -0.1584005043541139 -0.36240964214858612 0 -0.14981804736474849 -0.35315023565568998 0 -0.15358948380707901 -0.36796807843156321 0 -0.12831663950257149 -0.38021397648005167 0 -0.1321160554620317 -0.3608032172151186 0 -0.1162393889768272 -0.3672048737156009 0 -0.14404630512279609 -0.3765536190150397 0 -0.12831663950257149 -0.38021397648005167 0 -0.1321160554620317 -0.3608032172151186 0 -0.14404630512279609 -0.3765536190150397 0 -0.1321160554620317 -0.3608032172151186 0 -0.1008966109853172 -0.37311997557008358 0 -0.10082003193090661 -0.3569240931416372 0 -0.081454258060546292 -0.36879537086807768 0 -0.1162393889768272 -0.3672048737156009 0 -0.1008966109853172 -0.37311997557008358 0 -0.10082003193090661 -0.3569240931416372 0 -0.10082003193090661 -0.3569240931416372 0 -0.1201858058012675 -0.34505281541519728 0 -0.1017598853968629 -0.34161624658826228 0 -0.10082003193090661 -0.3569240931416372 0 -0.1017598853968629 -0.34161624658826228 0 -0.087540081905036343 -0.34496487404334653 0 -0.1162393889768272 -0.3672048737156009 0 -0.10082003193090661 -0.3569240931416372 0 -0.1201858058012675 -0.34505281541519728 0 -0.10082003193090661 -0.3569240931416372 0 -0.1201858058012675 -0.34505281541519728 0 -0.1321160554620317 -0.3608032172151186 0 -0.1162393889768272 -0.3672048737156009 0 -0.1201858058012675 -0.34505281541519728 0 -0.1259754870766947 -0.3263969998164466 0 -0.1201858058012675 -0.34505281541519728 0 -0.10772934819588149 -0.32860771008485812 0 -0.1201858058012675 -0.34505281541519728 0 -0.10772934819588149 -0.32860771008485812 0 -0.1201858058012675 -0.34505281541519728 0 -0.10772934819588149 -0.32860771008485812 0 -0.1017598853968629 -0.34161624658826228 0 -0.1259754870766947 -0.3263969998164466 0 -0.1173747546927407 -0.31513521612503242 0 -0.10772934819588149 -0.32860771008485812 0 -0.1173747546927407 -0.31513521612503242 0 -0.10772934819588149 -0.32860771008485812 0 -0.10674511739446529 -0.31051651329335311 0 -0.10772934819588149 -0.32860771008485812 0 -0.10674511739446529 -0.31051651329335311 0 -0.095272890590495624 -0.3121626047545189 0 -0.10772934819588149 -0.32860771008485812 0 -0.0911941735581875 -0.32963426394041068 0 -0.095272890590495624 -0.3121626047545189 0 -0.10772934819588149 -0.32860771008485812 0 -0.095272890590495624 -0.3121626047545189 0 -0.10772934819588149 -0.32860771008485812 0 -0.1017598853968629 -0.34161624658826228 0 -0.0911941735581875 -0.32963426394041068 0 -0.0911941735581875 -0.32963426394041068 0 -0.074866117218726325 -0.33253827795447299 0 -0.087540081905036343 -0.34496487404334653 0 -0.1017598853968629 -0.34161624658826228 0 -0.0911941735581875 -0.32963426394041068 0 -0.087540081905036343 -0.34496487404334653 0 -0.0911941735581875 -0.32963426394041068 0 -0.079719637710239238 -0.31731222931786801 0 -0.074866117218726325 -0.33253827795447299 0 -0.0911941735581875 -0.32963426394041068 0 -0.079719637710239238 -0.31731222931786801 0 -0.095272890590495624 -0.3121626047545189 0 -0.079719637710239238 -0.31731222931786801 0 -0.074866117218726325 -0.33253827795447299 0 -0.059385650043778243 -0.33357152589981631 0 -0.079719637710239238 -0.31731222931786801 0 -0.059385650043778243 -0.33357152589981631 0 -0.079719637710239238 -0.31731222931786801 0 -0.063296549155529486 -0.31760476844773439 0 -0.065599225301908634 -0.30457711517701758 0 -0.079719637710239238 -0.31731222931786801 0 -0.063296549155529486 -0.31760476844773439 0 -0.059385650043778243 -0.33357152589981631 0 -0.079719637710239238 -0.31731222931786801 0 -0.074866117218726325 -0.33253827795447299 0 -0.074866117218726325 -0.33253827795447299 0 -0.070012596727212634 -0.34776432659107781 0 -0.087540081905036343 -0.34496487404334653 0 -0.074866117218726325 -0.33253827795447299 0 -0.070012596727212634 -0.34776432659107781 0 -0.074866117218726325 -0.33253827795447299 0 -0.070012596727212634 -0.34776432659107781 0 -0.059385650043778243 -0.33357152589981631 0 -0.081454258060546292 -0.36879537086807768 0 -0.055681677272164803 -0.36267486968122381 0 -0.064300014721647605 -0.38370687760471262 0 -0.070012596727212634 -0.34776432659107781 0 -0.081454258060546292 -0.36879537086807768 0 -0.055681677272164803 -0.36267486968122381 0 -0.10082003193090661 -0.3569240931416372 0 -0.081454258060546292 -0.36879537086807768 0 -0.070012596727212634 -0.34776432659107781 0 -0.081454258060546292 -0.36879537086807768 0 -0.087540081905036343 -0.34496487404334653 0 -0.10082003193090661 -0.3569240931416372 0 -0.081454258060546292 -0.36879537086807768 0 -0.087540081905036343 -0.34496487404334653 0 -0.09821897624812434 -0.25927768947913787 0 -0.1156317886421455 -0.26313639519155407 0 -0.11389444559551069 -0.24985838545747241 0 -0.09821897624812434 -0.25927768947913787 0 -0.11389444559551069 -0.24985838545747241 0 -0.1002358458967087 -0.24456120346176499 0 -0.09821897624812434 -0.25927768947913787 0 -0.088100895525510481 -0.2471032042042493 0 -0.1002358458967087 -0.24456120346176499 0 -0.13116254152980181 -0.25820195520242639 0 -0.11389444559551069 -0.24985838545747241 0 -0.12713129679009599 -0.24276029516910849 0 -0.13116254152980181 -0.25820195520242639 0 -0.1156317886421455 -0.26313639519155407 0 -0.11389444559551069 -0.24985838545747241 0 -0.13116254152980181 -0.25820195520242639 0 -0.1156317886421455 -0.26313639519155407 0 -0.124252294822781 -0.26743711535551401 0 -0.13117627995659251 -0.27858288005347759 0 -0.1293407297404934 -0.27473607385261312 0 -0.1108640228489156 -0.28095674270431842 0 -0.13117627995659251 -0.27858288005347759 0 -0.1108640228489156 -0.28095674270431842 0 -0.1156317886421455 -0.26313639519155407 0 -0.1108640228489156 -0.28095674270431842 0 -0.124252294822781 -0.26743711535551401 0 -0.1293407297404934 -0.27473607385261312 0 -0.1108640228489156 -0.28095674270431842 0 -0.124252294822781 -0.26743711535551401 0 -0.09821897624812434 -0.25927768947913787 0 -0.1108640228489156 -0.28095674270431842 0 -0.090551765741238799 -0.2833306053551593 0 -0.09821897624812434 -0.25927768947913787 0 -0.1156317886421455 -0.26313639519155407 0 -0.1108640228489156 -0.28095674270431842 0 -0.09821897624812434 -0.25927768947913787 0 -0.090551765741238799 -0.2833306053551593 0 -0.1108640228489156 -0.28095674270431842 0 -0.1021763499517359 -0.28887168850034428 0 -0.090551765741238799 -0.2833306053551593 0 -0.11143930362912451 -0.29966549147788329 0 -0.091555861476216527 -0.29638310174171478 0 -0.089250100939325422 -0.28741407664515412 0 -0.1108640228489156 -0.28095674270431842 0 -0.090551765741238799 -0.2833306053551593 0 -0.1021763499517359 -0.28887168850034428 0 -0.11143930362912451 -0.29966549147788329 0 -0.089250100939325422 -0.28741407664515412 0 -0.11143930362912451 -0.29966549147788329 0 -0.089250100939325422 -0.28741407664515412 0 -0.1021763499517359 -0.28887168850034428 0 -0.090551765741238799 -0.2833306053551593 0 -0.089250100939325422 -0.28741407664515412 0 -0.13117627995659251 -0.27858288005347759 0 -0.1108640228489156 -0.28095674270431842 0 -0.118130391665729 -0.29009652613246562 0 -0.1108640228489156 -0.28095674270431842 0 -0.1021763499517359 -0.28887168850034428 0 -0.118130391665729 -0.29009652613246562 0 -0.12731534856921209 -0.29639041901150798 0 -0.118130391665729 -0.29009652613246562 0 -0.11143930362912451 -0.29966549147788329 0 -0.1021763499517359 -0.28887168850034428 0 -0.118130391665729 -0.29009652613246562 0 -0.11143930362912451 -0.29966549147788329 0 -0.1336285063189227 -0.31191690631061408 0 -0.1173747546927407 -0.31513521612503242 0 -0.11143930362912451 -0.29966549147788329 0 -0.1336285063189227 -0.31191690631061408 0 -0.12731534856921209 -0.29639041901150798 0 -0.11143930362912451 -0.29966549147788329 0 -0.1336285063189227 -0.31191690631061408 0 -0.11143930362912451 -0.29966549147788329 0 -0.1173747546927407 -0.31513521612503242 0 -0.11143930362912451 -0.29966549147788329 0 -0.10674511739446529 -0.31051651329335311 0 -0.11143930362912451 -0.29966549147788329 0 -0.09899324413305019 -0.301900826096199 0 -0.091555861476216527 -0.29638310174171478 0 -0.11143930362912451 -0.29966549147788329 0 -0.10674511739446529 -0.31051651329335311 0 -0.09899324413305019 -0.301900826096199 0 -0.10674511739446529 -0.31051651329335311 0 -0.09899324413305019 -0.301900826096199 0 -0.095272890590495624 -0.3121626047545189 0 -0.079719637710239238 -0.31731222931786801 0 -0.084484869324782524 -0.30236315298151112 0 -0.075613820553282307 -0.29989022910380181 0 -0.079719637710239238 -0.31731222931786801 0 -0.09899324413305019 -0.301900826096199 0 -0.095272890590495624 -0.3121626047545189 0 -0.079719637710239238 -0.31731222931786801 0 -0.09899324413305019 -0.301900826096199 0 -0.084484869324782524 -0.30236315298151112 0 -0.079719637710239238 -0.31731222931786801 0 -0.09899324413305019 -0.301900826096199 0 -0.09899324413305019 -0.301900826096199 0 -0.084484869324782524 -0.30236315298151112 0 -0.091555861476216527 -0.29638310174171478 0 -0.084484869324782524 -0.30236315298151112 0 -0.075613820553282307 -0.29989022910380181 0 -0.081417164138101045 -0.29348841635268152 0 -0.079719637710239238 -0.31731222931786801 0 -0.084484869324782524 -0.30236315298151112 0 -0.079719637710239238 -0.31731222931786801 0 -0.065599225301908634 -0.30457711517701758 0 -0.075613820553282307 -0.29989022910380181 0 -0.065599225301908634 -0.30457711517701758 0 -0.075613820553282307 -0.29989022910380181 0 -0.072949564143000134 -0.29382879510171511 0 -0.083373669408634291 -0.28416949857602652 0 -0.063812745917674427 -0.27336924623937181 0 -0.058037043152334059 -0.28713055162144901 0 -0.072949564143000134 -0.29382879510171511 0 -0.083373669408634291 -0.28416949857602652 0 -0.058037043152334059 -0.28713055162144901 0 -0.065599225301908634 -0.30457711517701758 0 -0.072949564143000134 -0.29382879510171511 0 -0.058037043152334059 -0.28713055162144901 0 -0.075613820553282307 -0.29989022910380181 0 -0.072949564143000134 -0.29382879510171511 0 -0.081417164138101045 -0.29348841635268152 0 -0.083373669408634291 -0.28416949857602652 0 -0.058037043152334059 -0.28713055162144901 0 -0.083373669408634291 -0.28416949857602652 0 -0.081417164138101045 -0.29348841635268152 0 -0.089250100939325422 -0.28741407664515412 0 -0.072949564143000134 -0.29382879510171511 0 -0.083373669408634291 -0.28416949857602652 0 -0.081417164138101045 -0.29348841635268152 0 -0.084484869324782524 -0.30236315298151112 0 -0.081417164138101045 -0.29348841635268152 0 -0.089250100939325422 -0.28741407664515412 0 -0.084484869324782524 -0.30236315298151112 0 -0.091555861476216527 -0.29638310174171478 0 -0.089250100939325422 -0.28741407664515412 0 -0.084484869324782524 -0.30236315298151112 0 -0.089250100939325422 -0.28741407664515412 0 -0.090551765741238799 -0.2833306053551593 0 -0.089250100939325422 -0.28741407664515412 0 -0.083373669408634291 -0.28416949857602652 0 -0.090551765741238799 -0.2833306053551593 0 -0.083373669408634291 -0.28416949857602652 0 -0.090551765741238799 -0.2833306053551593 0 -0.089250100939325422 -0.28741407664515412 0 -0.083373669408634291 -0.28416949857602652 0 -0.089250100939325422 -0.28741407664515412 0 -0.09821897624812434 -0.25927768947913787 0 -0.090551765741238799 -0.2833306053551593 0 -0.086069200211456032 -0.27338380896447828 0 -0.083373669408634291 -0.28416949857602652 0 -0.090551765741238799 -0.2833306053551593 0 -0.086069200211456032 -0.27338380896447828 0 -0.09821897624812434 -0.25927768947913787 0 -0.086069200211456032 -0.27338380896447828 0 -0.083941312468939447 -0.26467460036437318 0 -0.086069200211456032 -0.27338380896447828 0 -0.079169602874107348 -0.270450452476379 0 -0.083941312468939447 -0.26467460036437318 0 -0.086069200211456032 -0.27338380896447828 0 -0.079169602874107348 -0.270450452476379 0 -0.077052764337369378 -0.27434781078155501 0 -0.079169602874107348 -0.270450452476379 0 -0.0756553540367077 -0.26522994644863579 0 -0.083941312468939447 -0.26467460036437318 0 -0.083373669408634291 -0.28416949857602652 0 -0.086069200211456032 -0.27338380896447828 0 -0.077052764337369378 -0.27434781078155501 0 -0.063812745917674427 -0.27336924623937181 0 -0.065811928953548274 -0.26448809502790699 0 -0.058037043152334059 -0.28713055162144901 0 -0.083373669408634291 -0.28416949857602652 0 -0.077052764337369378 -0.27434781078155501 0 -0.063812745917674427 -0.27336924623937181 0 -0.083373669408634291 -0.28416949857602652 0 -0.063812745917674427 -0.27336924623937181 0 -0.063812745917674427 -0.27336924623937181 0 -0.072838603274974975 -0.270366047651521 0 -0.065811928953548274 -0.26448809502790699 0 -0.077052764337369378 -0.27434781078155501 0 -0.063812745917674427 -0.27336924623937181 0 -0.072838603274974975 -0.270366047651521 0 -0.072838603274974975 -0.270366047651521 0 -0.0756553540367077 -0.26522994644863579 0 -0.065811928953548274 -0.26448809502790699 0 -0.079169602874107348 -0.270450452476379 0 -0.077052764337369378 -0.27434781078155501 0 -0.072838603274974975 -0.270366047651521 0 -0.079169602874107348 -0.270450452476379 0 -0.072838603274974975 -0.270366047651521 0 -0.0756553540367077 -0.26522994644863579 0 -0.0756553540367077 -0.26522994644863579 0 -0.065811928953548274 -0.26448809502790699 0 -0.078999971301260644 -0.25636047332083373 0 -0.065811928953548274 -0.26448809502790699 0 -0.073586814754762628 -0.24184563843436499 0 -0.065811928953548274 -0.26448809502790699 0 -0.060275895421615211 -0.24946731248260159 0 -0.073586814754762628 -0.24184563843436499 0 -0.065811928953548274 -0.26448809502790699 0 -0.078999971301260644 -0.25636047332083373 0 -0.073586814754762628 -0.24184563843436499 0 -0.09821897624812434 -0.25927768947913787 0 -0.078999971301260644 -0.25636047332083373 0 -0.083941312468939447 -0.26467460036437318 0 -0.09821897624812434 -0.25927768947913787 0 -0.078999971301260644 -0.25636047332083373 0 -0.088100895525510481 -0.2471032042042493 0 -0.0756553540367077 -0.26522994644863579 0 -0.078999971301260644 -0.25636047332083373 0 -0.083941312468939447 -0.26467460036437318 0 -0.02173572639961124 -0.2630876989994797 0 -0.043384033743611328 -0.24771110366927759 0 -0.042937081566867118 -0.27041865856230418 0 -0.02173572639961124 -0.2630876989994797 0 -0.043384033743611328 -0.24771110366927759 0 -0.053806405179422062 -0.2610879205257951 0 -0.042937081566867118 -0.27041865856230418 0 -0.043384033743611328 -0.24771110366927759 0 -0.053806405179422062 -0.2610879205257951 0 -0.060275895421615211 -0.24946731248260159 0 -0.043384033743611328 -0.24771110366927759 0 -0.065811928953548274 -0.26448809502790699 0 -0.053806405179422062 -0.2610879205257951 0 -0.060275895421615211 -0.24946731248260159 0 -0.065811928953548274 -0.26448809502790699 0 -0.053806405179422062 -0.2610879205257951 0 -0.05514811471304288 -0.27078130643436382 0 -0.065811928953548274 -0.26448809502790699 0 -0.058037043152334059 -0.28713055162144901 0 -0.053806405179422062 -0.2610879205257951 0 -0.05514811471304288 -0.27078130643436382 0 -0.042937081566867118 -0.27041865856230418 0 -0.05514811471304288 -0.27078130643436382 0 -0.042937081566867118 -0.27041865856230418 0 -0.058037043152334059 -0.28713055162144901 0 -0.065811928953548274 -0.26448809502790699 0 -0.05514811471304288 -0.27078130643436382 0 -0.058037043152334059 -0.28713055162144901 0 -0.042937081566867118 -0.27041865856230418 0 -0.033403017788053102 -0.29000949276728721 0 -0.02138644744678294 -0.27897371571437563 0 -0.033403017788053102 -0.29000949276728721 0 -0.058037043152334059 -0.28713055162144901 0 -0.042937081566867118 -0.27041865856230418 0 -0.033403017788053102 -0.29000949276728721 0 -0.058037043152334059 -0.28713055162144901 0 -0.063296549155529486 -0.31760476844773439 0 -0.065599225301908634 -0.30457711517701758 0 -0.048481683566191057 -0.31495820339623548 0 -0.065599225301908634 -0.30457711517701758 0 -0.058037043152334059 -0.28713055162144901 0 -0.048481683566191057 -0.31495820339623548 0 -0.058037043152334059 -0.28713055162144901 0 -0.048481683566191057 -0.31495820339623548 0 -0.033403017788053102 -0.29000949276728721 0 -0.058037043152334059 -0.28713055162144901 0 -0.048481683566191057 -0.31495820339623548 0 -0.033403017788053102 -0.29000949276728721 0 -0.0240286119508159 -0.31089377430715359 0 -0.048481683566191057 -0.31495820339623548 0 -0.033403017788053102 -0.29000949276728721 0 -0.0240286119508159 -0.31089377430715359 0 -0.0087689924237721179 -0.29288843391312502 0 -0.0082311400995859537 -0.30972198543705609 0 -0.0087689924237721179 -0.29288843391312502 0 0.0027591516204802402 -0.29690218730465873 0 -0.0240286119508159 -0.31089377430715359 0 -0.0082311400995859537 -0.30972198543705609 0 -0.0087689924237721179 -0.29288843391312502 0 -0.0087689924237721179 -0.29288843391312502 0 -0.02138644744678294 -0.27897371571437563 0 -8.7419055607875981e-05 -0.27846429432967718 0 -0.0087689924237721179 -0.29288843391312502 0 -8.7419055607875981e-05 -0.27846429432967718 0 0.0027591516204802402 -0.29690218730465873 0 -0.033403017788053102 -0.29000949276728721 0 -0.0087689924237721179 -0.29288843391312502 0 -0.02138644744678294 -0.27897371571437563 0 -0.033403017788053102 -0.29000949276728721 0 -0.0087689924237721179 -0.29288843391312502 0 -0.042937081566867118 -0.27041865856230418 0 -0.02138644744678294 -0.27897371571437563 0 -0.02173572639961124 -0.2630876989994797 0 -0.02138644744678294 -0.27897371571437563 0 -8.7419055607875981e-05 -0.27846429432967718 0 -0.02173572639961124 -0.2630876989994797 0 -8.7419055607875981e-05 -0.27846429432967718 0 -0.02173572639961124 -0.2630876989994797 0 -8.7419055607875981e-05 -0.27846429432967718 0 -0.0037695986127568399 -0.25461397044345591 0 -0.0037695986127568399 -0.25461397044345591 0 -0.02173572639961124 -0.2630876989994797 0 -0.019380102806207718 -0.24481059196725999 0 -8.7419055607875981e-05 -0.27846429432967718 0 -0.0037695986127568399 -0.25461397044345591 0 -0.02173572639961124 -0.2630876989994797 0 -0.02173572639961124 -0.2630876989994797 0 -0.019380102806207718 -0.24481059196725999 0 -0.043384033743611328 -0.24771110366927759 0 -0.039051662377317213 -0.34983082248176472 0 -0.040534182301935368 -0.36301265480651362 0 -0.055681677272164803 -0.36267486968122381 0 -0.0373520709184633 -0.35118983587603642 0 -0.039051662377317213 -0.34983082248176472 0 -0.0373520709184633 -0.35118983587603642 0 -0.039051662377317213 -0.34983082248176472 0 -0.040534182301935368 -0.36301265480651362 0 -0.0373520709184633 -0.35118983587603642 0 -0.040534182301935368 -0.36301265480651362 0 -0.02799528589143873 -0.36202727362033599 0 -0.040534182301935368 -0.36301265480651362 0 -0.02799528589143873 -0.36202727362033599 0 -0.033079321404817147 -0.37612369781947219 0 -0.040534182301935368 -0.36301265480651362 0 -0.033079321404817147 -0.37612369781947219 0 -0.047849569204727202 -0.37513076272692047 0 -0.040534182301935368 -0.36301265480651362 0 -0.055681677272164803 -0.36267486968122381 0 -0.047849569204727202 -0.37513076272692047 0 -0.055681677272164803 -0.36267486968122381 0 -0.047849569204727202 -0.37513076272692047 0 -0.064300014721647605 -0.38370687760471262 0 -0.070012596727212634 -0.34776432659107781 0 -0.055681677272164803 -0.36267486968122381 0 -0.056032896605118253 -0.34846038616347053 0 -0.039051662377317213 -0.34983082248176472 0 -0.056032896605118253 -0.34846038616347053 0 -0.059385650043778243 -0.33357152589981631 0 -0.039051662377317213 -0.34983082248176472 0 -0.055681677272164803 -0.36267486968122381 0 -0.039051662377317213 -0.34983082248176472 0 -0.055681677272164803 -0.36267486968122381 0 -0.056032896605118253 -0.34846038616347053 0 -0.070012596727212634 -0.34776432659107781 0 -0.056032896605118253 -0.34846038616347053 0 -0.059385650043778243 -0.33357152589981631 0 -0.039051662377317213 -0.34983082248176472 0 -0.059385650043778243 -0.33357152589981631 0 -0.059385650043778243 -0.33357152589981631 0 -0.048481683566191057 -0.31495820339623548 0 -0.037534115595696457 -0.32836795549313452 0 -0.063296549155529486 -0.31760476844773439 0 -0.059385650043778243 -0.33357152589981631 0 -0.048481683566191057 -0.31495820339623548 0 -0.0240286119508159 -0.31089377430715359 0 -0.048481683566191057 -0.31495820339623548 0 -0.037534115595696457 -0.32836795549313452 0 -0.039051662377317213 -0.34983082248176472 0 -0.059385650043778243 -0.33357152589981631 0 -0.037534115595696457 -0.32836795549313452 0 -0.039051662377317213 -0.34983082248176472 0 -0.037534115595696457 -0.32836795549313452 0 -0.016722970040379759 -0.33258545138070272 0 -0.039051662377317213 -0.34983082248176472 0 -0.016722970040379759 -0.33258545138070272 0 -0.0240286119508159 -0.31089377430715359 0 -0.037534115595696457 -0.32836795549313452 0 -0.016722970040379759 -0.33258545138070272 0 -0.0240286119508159 -0.31089377430715359 0 -0.0082311400995859537 -0.30972198543705609 0 -0.016722970040379759 -0.33258545138070272 0 -0.016722970040379759 -0.33258545138070272 0 0.005605722296558386 -0.31534008027964172 0 -0.0082311400995859537 -0.30972198543705609 0 -0.016722970040379759 -0.33258545138070272 0 0.005605722296558386 -0.31534008027964172 0 -0.016722970040379759 -0.33258545138070272 0 0.0095419102660688482 -0.34083567507412921 0 0.005605722296558386 -0.31534008027964172 0 -0.016722970040379759 -0.33258545138070272 0 -0.01550390759669164 -0.35374264786766652 0 0.0095419102660688482 -0.34083567507412921 0 -0.01550390759669164 -0.35374264786766652 0 0.00380338002415618 -0.36127742782091637 0 0.0095419102660688482 -0.34083567507412921 0 -0.0373520709184633 -0.35118983587603642 0 -0.01550390759669164 -0.35374264786766652 0 -0.02799528589143873 -0.36202727362033599 0 -0.0373520709184633 -0.35118983587603642 0 -0.039051662377317213 -0.34983082248176472 0 -0.016722970040379759 -0.33258545138070272 0 -0.0373520709184633 -0.35118983587603642 0 -0.016722970040379759 -0.33258545138070272 0 -0.01550390759669164 -0.35374264786766652 0 -0.01550390759669164 -0.35374264786766652 0 -0.02799528589143873 -0.36202727362033599 0 -0.01081926117689515 -0.37449111962341891 0 -0.02799528589143873 -0.36202727362033599 0 -0.01081926117689515 -0.37449111962341891 0 -0.033079321404817147 -0.37612369781947219 0 -0.01550390759669164 -0.35374264786766652 0 -0.01081926117689515 -0.37449111962341891 0 0.00380338002415618 -0.36127742782091637 0 -0.01081926117689515 -0.37449111962341891 0 0.0049150407501951932 -0.38480258120011468 0 0.00380338002415618 -0.36127742782091637 0 -0.01081926117689515 -0.37449111962341891 0 -0.0070609294326578606 -0.40158172813143111 0 -0.022203650887043541 -0.38956547619927051 0 -0.01081926117689515 -0.37449111962341891 0 -0.0070609294326578606 -0.40158172813143111 0 -0.01081926117689515 -0.37449111962341891 0 -0.0070609294326578606 -0.40158172813143111 0 0.0049150407501951932 -0.38480258120011468 0 -0.0070609294326578606 -0.40158172813143111 0 -0.032721577875601947 -0.40361700625081792 0 -0.0070609294326578606 -0.40158172813143111 0 -0.022203650887043541 -0.38956547619927051 0 -0.032721577875601947 -0.40361700625081792 0 -0.01081926117689515 -0.37449111962341891 0 -0.022203650887043541 -0.38956547619927051 0 -0.033079321404817147 -0.37612369781947219 0 -0.022203650887043541 -0.38956547619927051 0 -0.033079321404817147 -0.37612369781947219 0 -0.045652650323071087 -0.39013571372268041 0 -0.033079321404817147 -0.37612369781947219 0 -0.045652650323071087 -0.39013571372268041 0 -0.047849569204727202 -0.37513076272692047 0 -0.022203650887043541 -0.38956547619927051 0 -0.045652650323071087 -0.39013571372268041 0 -0.032721577875601947 -0.40361700625081792 0 -0.032721577875601947 -0.40361700625081792 0 -0.047199115610707817 -0.40476529429351438 0 -0.045652650323071087 -0.39013571372268041 0 -0.032721577875601947 -0.40361700625081792 0 -0.047199115610707817 -0.40476529429351438 0 -0.045652650323071087 -0.39013571372268041 0 -0.058382226318545921 -0.40565228437020567 0 -0.064300014721647605 -0.38370687760471262 0 -0.045652650323071087 -0.39013571372268041 0 -0.047199115610707817 -0.40476529429351438 0 -0.058382226318545921 -0.40565228437020567 0 -0.047199115610707817 -0.40476529429351438 0 -0.058382226318545921 -0.40565228437020567 0 -0.045652650323071087 -0.39013571372268041 0 -0.047849569204727202 -0.37513076272692047 0 -0.064300014721647605 -0.38370687760471262 0 -0.058382226318545921 -0.40565228437020567 0 -0.055227368757285317 -0.42820886239554012 0 -0.071093126041458066 -0.4210267930279642 0 -0.047199115610707817 -0.40476529429351438 0 -0.055227368757285317 -0.42820886239554012 0 -0.047199115610707817 -0.40476529429351438 0 -0.058382226318545921 -0.40565228437020567 0 -0.055227368757285317 -0.42820886239554012 0 -0.047199115610707817 -0.40476529429351438 0 -0.055227368757285317 -0.42820886239554012 0 -0.036855833322219478 -0.42085254884801532 0 -0.032721577875601947 -0.40361700625081792 0 -0.047199115610707817 -0.40476529429351438 0 -0.036855833322219478 -0.42085254884801532 0 -0.055227368757285317 -0.42820886239554012 0 -0.036855833322219478 -0.42085254884801532 0 -0.041841186942850828 -0.43778348074018392 0 -0.036855833322219478 -0.42085254884801532 0 -0.02585497811252235 -0.43265300255345029 0 -0.041841186942850828 -0.43778348074018392 0 -0.036855833322219478 -0.42085254884801532 0 -0.02585497811252235 -0.43265300255345029 0 -0.019906792243539601 -0.4178346143007845 0 -0.02585497811252235 -0.43265300255345029 0 -0.019906792243539601 -0.4178346143007845 0 -0.0029380016472179641 -0.43130039857967489 0 -0.0070609294326578606 -0.40158172813143111 0 -0.032721577875601947 -0.40361700625081792 0 -0.019906792243539601 -0.4178346143007845 0 -0.032721577875601947 -0.40361700625081792 0 -0.036855833322219478 -0.42085254884801532 0 -0.019906792243539601 -0.4178346143007845 0 -0.0070609294326578606 -0.40158172813143111 0 -0.019906792243539601 -0.4178346143007845 0 -0.0029380016472179641 -0.43130039857967489 0 -0.0070609294326578606 -0.40158172813143111 0 -0.0029380016472179641 -0.43130039857967489 0 -0.0029380016472179641 -0.43130039857967489 0 -0.027977958752744399 -0.45598142118550877 0 0.001184926138221995 -0.46101906902791878 0 -0.0029380016472179641 -0.43130039857967489 0 0.001184926138221995 -0.46101906902791878 0 -0.027977958752744399 -0.45598142118550877 0 -0.01318929096729139 -0.47815855759800707 0 0.001184926138221995 -0.46101906902791878 0 -0.02585497811252235 -0.43265300255345029 0 -0.0029380016472179641 -0.43130039857967489 0 -0.027977958752744399 -0.45598142118550877 0 -0.01318929096729139 -0.47815855759800707 0 -0.018019568354880389 -0.5 0 0.0053078539236619754 -0.49073773947616273 0 -0.018019568354880389 -0.5 0 0.011410082225796651 -0.5 0 0.0053078539236619754 -0.49073773947616273 0 -0.01318929096729139 -0.47815855759800707 0 0.001184926138221995 -0.46101906902791878 0 0.0053078539236619754 -0.49073773947616273 0 -0.027977958752744399 -0.45598142118550877 0 -0.01318929096729139 -0.47815855759800707 0 -0.031964698761630363 -0.48436702741407711 0 -0.01318929096729139 -0.47815855759800707 0 -0.018019568354880389 -0.5 0 -0.031964698761630363 -0.48436702741407711 0 -0.031964698761630363 -0.48436702741407711 0 -0.048414824900172501 -0.47320500711608288 0 -0.047449218935557369 -0.5 0 -0.018019568354880389 -0.5 0 -0.031964698761630363 -0.48436702741407711 0 -0.047449218935557369 -0.5 0 -0.027977958752744399 -0.45598142118550877 0 -0.031964698761630363 -0.48436702741407711 0 -0.048414824900172501 -0.47320500711608288 0 -0.048414824900172501 -0.47320500711608288 0 -0.064701957185504269 -0.48893725270429739 0 -0.07135222278167988 -0.47423427504126958 0 -0.048414824900172501 -0.47320500711608288 0 -0.047449218935557369 -0.5 0 -0.064701957185504269 -0.48893725270429739 0 -0.027977958752744399 -0.45598142118550877 0 -0.048414824900172501 -0.47320500711608288 0 -0.063289795769482626 -0.45122156871840491 0 -0.027977958752744399 -0.45598142118550877 0 -0.041841186942850828 -0.43778348074018392 0 -0.063289795769482626 -0.45122156871840491 0 -0.02585497811252235 -0.43265300255345029 0 -0.027977958752744399 -0.45598142118550877 0 -0.041841186942850828 -0.43778348074018392 0 -0.048414824900172501 -0.47320500711608288 0 -0.063289795769482626 -0.45122156871840491 0 -0.07135222278167988 -0.47423427504126958 0 -0.055227368757285317 -0.42820886239554012 0 -0.041841186942850828 -0.43778348074018392 0 -0.063289795769482626 -0.45122156871840491 0 -0.055227368757285317 -0.42820886239554012 0 -0.063289795769482626 -0.45122156871840491 0 -0.055227368757285317 -0.42820886239554012 0 -0.07275658987024157 -0.43803255480931758 0 -0.063289795769482626 -0.45122156871840491 0 -0.07275658987024157 -0.43803255480931758 0 -0.063289795769482626 -0.45122156871840491 0 -0.085589729503494014 -0.45536000582415431 0 -0.063289795769482626 -0.45122156871840491 0 -0.085589729503494014 -0.45536000582415431 0 -0.07135222278167988 -0.47423427504126958 0 -0.063289795769482626 -0.45122156871840491 0 -0.07135222278167988 -0.47423427504126958 0 -0.085589729503494014 -0.45536000582415431 0 -0.089628273565208999 -0.43803131052775168 0 -0.1060123332206542 -0.44351643005736791 0 -0.07275658987024157 -0.43803255480931758 0 -0.085589729503494014 -0.45536000582415431 0 -0.089628273565208999 -0.43803131052775168 0 -0.047449218935557369 -0.5 0 -0.07687886951623446 -0.5 0 -0.064701957185504269 -0.48893725270429739 0 -0.07135222278167988 -0.47423427504126958 0 -0.079414649793877135 -0.49724698136413431 0 -0.064701957185504269 -0.48893725270429739 0 -0.07135222278167988 -0.47423427504126958 0 -0.079414649793877135 -0.49724698136413431 0 -0.07687886951623446 -0.5 0 -0.064701957185504269 -0.48893725270429739 0 -0.079414649793877135 -0.49724698136413431 0 -0.07135222278167988 -0.47423427504126958 0 -0.091591843817867738 -0.48006206520094619 0 -0.079414649793877135 -0.49724698136413431 0 -0.085589729503494014 -0.45536000582415431 0 -0.07135222278167988 -0.47423427504126958 0 -0.091591843817867738 -0.48006206520094619 0 -0.07687886951623446 -0.5 0 -0.079414649793877135 -0.49724698136413431 0 -0.1063085200969115 -0.5 0 -0.091591843817867738 -0.48006206520094619 0 -0.079414649793877135 -0.49724698136413431 0 -0.1063085200969115 -0.5 0 -0.091591843817867738 -0.48006206520094619 0 -0.1063085200969115 -0.5 0 -0.12046109785936859 -0.48390085679855899 0 -0.091591843817867738 -0.48006206520094619 0 -0.12046109785936859 -0.48390085679855899 0 -0.1050197196421838 -0.46426471963763599 0 -0.13592960476827909 -0.49874010082080938 0 -0.1063085200969115 -0.5 0 -0.12046109785936859 -0.48390085679855899 0 -0.12046109785936859 -0.48390085679855899 0 -0.1050197196421838 -0.46426471963763599 0 -0.12125484613594641 -0.45165213820568029 0 -0.085589729503494014 -0.45536000582415431 0 -0.1060123332206542 -0.44351643005736791 0 -0.1050197196421838 -0.46426471963763599 0 -0.085589729503494014 -0.45536000582415431 0 -0.091591843817867738 -0.48006206520094619 0 -0.1050197196421838 -0.46426471963763599 0 -0.1060123332206542 -0.44351643005736791 0 -0.1050197196421838 -0.46426471963763599 0 -0.12125484613594641 -0.45165213820568029 0 -0.1060123332206542 -0.44351643005736791 0 -0.12125484613594641 -0.45165213820568029 0 -0.11832862897245811 -0.43139897133032939 0 -0.1308656160089324 -0.43679077700699148 0 -0.12125484613594641 -0.45165213820568029 0 -0.11832862897245811 -0.43139897133032939 0 -0.11832862897245811 -0.43139897133032939 0 -0.1032610340962037 -0.42507317435525799 0 -0.11985868923764841 -0.42015462286740107 0 -0.1326360882677684 -0.42282000931406782 0 -0.11832862897245811 -0.43139897133032939 0 -0.11985868923764841 -0.42015462286740107 0 -0.089628273565208999 -0.43803131052775168 0 -0.1060123332206542 -0.44351643005736791 0 -0.1032610340962037 -0.42507317435525799 0 -0.1060123332206542 -0.44351643005736791 0 -0.11832862897245811 -0.43139897133032939 0 -0.1032610340962037 -0.42507317435525799 0 -0.1032610340962037 -0.42507317435525799 0 -0.1097035232044339 -0.40972284060898129 0 -0.084042874761489916 -0.40768756248959348 0 -0.1097035232044339 -0.40972284060898129 0 -0.084042874761489916 -0.40768756248959348 0 -0.13536417164737791 -0.41175811872836948 0 -0.1097035232044339 -0.40972284060898129 0 -0.1249111643395507 -0.39744404711562231 0 -0.13536417164737791 -0.41175811872836948 0 -0.1097035232044339 -0.40972284060898129 0 -0.1032610340962037 -0.42507317435525799 0 -0.1097035232044339 -0.40972284060898129 0 -0.11985868923764841 -0.42015462286740107 0 -0.13536417164737791 -0.41175811872836948 0 -0.1097035232044339 -0.40972284060898129 0 -0.11985868923764841 -0.42015462286740107 0 -0.1097035232044339 -0.40972284060898129 0 -0.1249111643395507 -0.39744404711562231 0 -0.1128816847291354 -0.38512223294722447 0 -0.1162393889768272 -0.3672048737156009 0 -0.1008966109853172 -0.37311997557008358 0 -0.1128816847291354 -0.38512223294722447 0 -0.12831663950257149 -0.38021397648005167 0 -0.1249111643395507 -0.39744404711562231 0 -0.1128816847291354 -0.38512223294722447 0 -0.12831663950257149 -0.38021397648005167 0 -0.1162393889768272 -0.3672048737156009 0 -0.1128816847291354 -0.38512223294722447 0 -0.1008966109853172 -0.37311997557008358 0 -0.1128816847291354 -0.38512223294722447 0 -0.093087691229170252 -0.38755330717787789 0 -0.1097035232044339 -0.40972284060898129 0 -0.1128816847291354 -0.38512223294722447 0 -0.093087691229170252 -0.38755330717787789 0 -0.1097035232044339 -0.40972284060898129 0 -0.093087691229170252 -0.38755330717787789 0 -0.084042874761489916 -0.40768756248959348 0 -0.093087691229170252 -0.38755330717787789 0 -0.064300014721647605 -0.38370687760471262 0 -0.084042874761489916 -0.40768756248959348 0 -0.081454258060546292 -0.36879537086807768 0 -0.093087691229170252 -0.38755330717787789 0 -0.064300014721647605 -0.38370687760471262 0 -0.1008966109853172 -0.37311997557008358 0 -0.081454258060546292 -0.36879537086807768 0 -0.093087691229170252 -0.38755330717787789 0 -0.058382226318545921 -0.40565228437020567 0 -0.064300014721647605 -0.38370687760471262 0 -0.084042874761489916 -0.40768756248959348 0 -0.058382226318545921 -0.40565228437020567 0 -0.084042874761489916 -0.40768756248959348 0 -0.058382226318545921 -0.40565228437020567 0 -0.071093126041458066 -0.4210267930279642 0 -0.084042874761489916 -0.40768756248959348 0 -0.07275658987024157 -0.43803255480931758 0 -0.089628273565208999 -0.43803131052775168 0 -0.071093126041458066 -0.4210267930279642 0 -0.055227368757285317 -0.42820886239554012 0 -0.07275658987024157 -0.43803255480931758 0 -0.071093126041458066 -0.4210267930279642 0 -0.089628273565208999 -0.43803131052775168 0 -0.071093126041458066 -0.4210267930279642 0 -0.084042874761489916 -0.40768756248959348 0 -0.089628273565208999 -0.43803131052775168 0 -0.1032610340962037 -0.42507317435525799 0 -0.084042874761489916 -0.40768756248959348 0 -0.085714545926266428 -0.080691977416598448 0 -0.072067337261632766 -0.087760867923702815 0 -0.08114177048921134 -0.097797746348516915 0 -0.085714545926266428 -0.080691977416598448 0 -0.092939459961038834 -0.090108756150087982 0 -0.08114177048921134 -0.097797746348516915 0 -0.085714545926266428 -0.080691977416598448 0 -0.092939459961038834 -0.090108756150087982 0 -0.1005792022365217 -0.081152959334235122 0 -0.085714545926266428 -0.080691977416598448 0 -0.085869870429063008 -0.064757839555657407 0 -0.099469776719116249 -0.069590885733700925 0 -0.085714545926266428 -0.080691977416598448 0 -0.085869870429063008 -0.064757839555657407 0 -0.067346746649526473 -0.074829865582056204 0 -0.085869870429063008 -0.064757839555657407 0 -0.067346746649526473 -0.074829865582056204 0 -0.072484142086314388 -0.055674827582651527 0 -0.067346746649526473 -0.074829865582056204 0 -0.072484142086314388 -0.055674827582651527 0 -0.048614734603583003 -0.062616241853626617 0 -0.085714545926266428 -0.080691977416598448 0 -0.067346746649526473 -0.074829865582056204 0 -0.072067337261632766 -0.087760867923702815 0 -0.072067337261632766 -0.087760867923702815 0 -0.08114177048921134 -0.097797746348516915 0 -0.060380769500760392 -0.094533725756310916 0 -0.067346746649526473 -0.074829865582056204 0 -0.072067337261632766 -0.087760867923702815 0 -0.060380769500760392 -0.094533725756310916 0 -0.064011411058109022 -0.1138991820807638 0 -0.08114177048921134 -0.097797746348516915 0 -0.060380769500760392 -0.094533725756310916 0 -0.064011411058109022 -0.1138991820807638 0 -0.086194479918452707 -0.1158135599882666 0 -0.08114177048921134 -0.097797746348516915 0 -0.064011411058109022 -0.1138991820807638 0 -0.086194479918452707 -0.1158135599882666 0 -0.073439664550565165 -0.13173918067759419 0 -0.086194479918452707 -0.1158135599882666 0 -0.08114177048921134 -0.097797746348516915 0 -0.098917674460507268 -0.1008430439517604 0 -0.092939459961038834 -0.090108756150087982 0 -0.08114177048921134 -0.097797746348516915 0 -0.098917674460507268 -0.1008430439517604 0 -0.098917674460507268 -0.1008430439517604 0 -0.1035515218509568 -0.1162319249986364 0 -0.11225232494381671 -0.099581357926130307 0 -0.098917674460507268 -0.1008430439517604 0 -0.11225232494381671 -0.099581357926130307 0 -0.1082768739175848 -0.08843942980272182 0 -0.086194479918452707 -0.1158135599882666 0 -0.098917674460507268 -0.1008430439517604 0 -0.1035515218509568 -0.1162319249986364 0 -0.086194479918452707 -0.1158135599882666 0 -0.1035515218509568 -0.1162319249986364 0 -0.091694461779323458 -0.1340959511989559 0 -0.1035515218509568 -0.1162319249986364 0 -0.11414468044548989 -0.1206841075123688 0 -0.1057046811143998 -0.131526261385745 0 -0.1035515218509568 -0.1162319249986364 0 -0.11414468044548989 -0.1206841075123688 0 -0.1159523502947082 -0.111079193027228 0 -0.1159523502947082 -0.111079193027228 0 -0.1242270714554161 -0.1156172565206714 0 -0.1244078583152065 -0.1026920630541093 0 -0.11414468044548989 -0.1206841075123688 0 -0.1159523502947082 -0.111079193027228 0 -0.1242270714554161 -0.1156172565206714 0 -0.11414468044548989 -0.1206841075123688 0 -0.1242270714554161 -0.1156172565206714 0 -0.1239554800463111 -0.12604821973250921 0 -0.1035515218509568 -0.1162319249986364 0 -0.1159523502947082 -0.111079193027228 0 -0.11225232494381671 -0.099581357926130307 0 -0.1159523502947082 -0.111079193027228 0 -0.11225232494381671 -0.099581357926130307 0 -0.1244078583152065 -0.1026920630541093 0 -0.1244078583152065 -0.1026920630541093 0 -0.1190656331215133 -0.091381882061818742 0 -0.12866193636358 -0.091898162259620303 0 -0.11225232494381671 -0.099581357926130307 0 -0.1244078583152065 -0.1026920630541093 0 -0.1190656331215133 -0.091381882061818742 0 -0.1190656331215133 -0.091381882061818742 0 -0.12115249620834161 -0.081580447318073956 0 -0.12866193636358 -0.091898162259620303 0 -0.12115249620834161 -0.081580447318073956 0 -0.1082768739175848 -0.08843942980272182 0 -0.113031326491354 -0.074427561876946186 0 -0.11225232494381671 -0.099581357926130307 0 -0.1190656331215133 -0.091381882061818742 0 -0.1082768739175848 -0.08843942980272182 0 -0.1190656331215133 -0.091381882061818742 0 -0.12115249620834161 -0.081580447318073956 0 -0.1082768739175848 -0.08843942980272182 0 -0.1082768739175848 -0.08843942980272182 0 -0.1005792022365217 -0.081152959334235122 0 -0.113031326491354 -0.074427561876946186 0 -0.092939459961038834 -0.090108756150087982 0 -0.1082768739175848 -0.08843942980272182 0 -0.1005792022365217 -0.081152959334235122 0 -0.092939459961038834 -0.090108756150087982 0 -0.098917674460507268 -0.1008430439517604 0 -0.1082768739175848 -0.08843942980272182 0 -0.085869870429063008 -0.064757839555657407 0 -0.099469776719116249 -0.069590885733700925 0 -0.098776883622183953 -0.057707453304873348 0 -0.085714545926266428 -0.080691977416598448 0 -0.1005792022365217 -0.081152959334235122 0 -0.099469776719116249 -0.069590885733700925 0 -0.1005792022365217 -0.081152959334235122 0 -0.099469776719116249 -0.069590885733700925 0 -0.113031326491354 -0.074427561876946186 0 -0.099469776719116249 -0.069590885733700925 0 -0.113031326491354 -0.074427561876946186 0 -0.1128468316093084 -0.058807522913895113 0 -0.113031326491354 -0.074427561876946186 0 -0.1246261469092818 -0.068609811403624432 0 -0.1128468316093084 -0.058807522913895113 0 -0.12115249620834161 -0.081580447318073956 0 -0.113031326491354 -0.074427561876946186 0 -0.1246261469092818 -0.068609811403624432 0 -0.1246261469092818 -0.068609811403624432 0 -0.1128468316093084 -0.058807522913895113 0 -0.12813714210876639 -0.048995969727079113 0 -0.1128468316093084 -0.058807522913895113 0 -0.11574590234588961 -0.045078326753823283 0 -0.1014625167431009 -0.04756502613020723 0 -0.1128468316093084 -0.058807522913895113 0 -0.11574590234588961 -0.045078326753823283 0 -0.12813714210876639 -0.048995969727079113 0 -0.11574590234588961 -0.045078326753823283 0 -0.12813714210876639 -0.048995969727079113 0 -0.1154164145970456 -0.028213023830415369 0 -0.12813714210876639 -0.048995969727079113 0 -0.1235787183220574 -0.031807717147688097 0 -0.1154164145970456 -0.028213023830415369 0 -0.12813714210876639 -0.048995969727079113 0 -0.1145751431232169 -0.038055754670701068 0 -0.11574590234588961 -0.045078326753823283 0 -0.12813714210876639 -0.048995969727079113 0 -0.1145751431232169 -0.038055754670701068 0 -0.1154164145970456 -0.028213023830415369 0 -0.12813714210876639 -0.048995969727079113 0 -0.1145751431232169 -0.038055754670701068 0 -0.1086155495298278 -0.031652717004334717 0 -0.1154164145970456 -0.028213023830415369 0 -0.1145751431232169 -0.038055754670701068 0 -0.11574590234588961 -0.045078326753823283 0 -0.1046644144137867 -0.036858949458649627 0 -0.11574590234588961 -0.045078326753823283 0 -0.1046644144137867 -0.036858949458649627 0 -0.1014625167431009 -0.04756502613020723 0 -0.1145751431232169 -0.038055754670701068 0 -0.1086155495298278 -0.031652717004334717 0 -0.1046644144137867 -0.036858949458649627 0 -0.1046644144137867 -0.036858949458649627 0 -0.099806225985261926 -0.023483140057572821 0 -0.091049913049563697 -0.03655693841460337 0 -0.1046644144137867 -0.036858949458649627 0 -0.1014625167431009 -0.04756502613020723 0 -0.091049913049563697 -0.03655693841460337 0 -0.1014625167431009 -0.04756502613020723 0 -0.098776883622183953 -0.057707453304873348 0 -0.087060029857974064 -0.050117692987690823 0 -0.1128468316093084 -0.058807522913895113 0 -0.1014625167431009 -0.04756502613020723 0 -0.098776883622183953 -0.057707453304873348 0 -0.099469776719116249 -0.069590885733700925 0 -0.1128468316093084 -0.058807522913895113 0 -0.098776883622183953 -0.057707453304873348 0 -0.11838767799856049 -0.014653420144483009 0 -0.1149355242045465 -0.024067012510492761 0 -0.1026956870853256 -0.0074300779337511079 0 -0.11838767799856049 -0.014653420144483009 0 -0.12643848653035569 0.0073001295109626626 0 -0.11838767799856049 -0.014653420144483009 0 -0.1026956870853256 -0.0074300779337511079 0 -0.11152128038409891 0.008037257769811252 0 -0.1181942733492 -0.0062964785643825974 0 -0.11838767799856049 -0.014653420144483009 0 -0.12643848653035569 0.0073001295109626626 0 -0.11838767799856049 -0.014653420144483009 0 -0.11152128038409891 0.008037257769811252 0 -0.1181942733492 -0.0062964785643825974 0 -0.11838767799856049 -0.014653420144483009 0 -0.11152128038409891 0.008037257769811252 0 -0.11838767799856049 -0.014653420144483009 0 -0.13014224810698979 -0.0065110860010838848 0 -0.12643848653035569 0.0073001295109626626 0 -0.1235787183220574 -0.031807717147688097 0 -0.11838767799856049 -0.014653420144483009 0 -0.1149355242045465 -0.024067012510492761 0 -0.1154164145970456 -0.028213023830415369 0 -0.1026956870853256 -0.0074300779337511079 0 -0.1235787183220574 -0.031807717147688097 0 -0.11838767799856049 -0.014653420144483009 0 -0.1149355242045465 -0.024067012510492761 0 -0.1235787183220574 -0.031807717147688097 0 -0.11838767799856049 -0.014653420144483009 0 -0.12910556023381989 -0.020772670835539318 0 -0.11838767799856049 -0.014653420144483009 0 -0.1149355242045465 -0.024067012510492761 0 -0.1235787183220574 -0.031807717147688097 0 -0.1149355242045465 -0.024067012510492761 0 -0.1154164145970456 -0.028213023830415369 0 -0.1154164145970456 -0.028213023830415369 0 -0.099806225985261926 -0.023483140057572821 0 -0.1026956870853256 -0.0074300779337511079 0 -0.1154164145970456 -0.028213023830415369 0 -0.1026956870853256 -0.0074300779337511079 0 -0.1086155495298278 -0.031652717004334717 0 -0.1154164145970456 -0.028213023830415369 0 -0.099806225985261926 -0.023483140057572821 0 -0.1086155495298278 -0.031652717004334717 0 -0.1046644144137867 -0.036858949458649627 0 -0.099806225985261926 -0.023483140057572821 0 -0.099806225985261926 -0.023483140057572821 0 -0.1026956870853256 -0.0074300779337511079 0 -0.08543111947802963 -0.0096173047182570252 0 -0.1026956870853256 -0.0074300779337511079 0 -0.08543111947802963 -0.0096173047182570252 0 -0.089974959573605726 0.013352867962913019 0 -0.099806225985261926 -0.023483140057572821 0 -0.079052315743646448 -0.024406082973970129 0 -0.091049913049563697 -0.03655693841460337 0 -0.099806225985261926 -0.023483140057572821 0 -0.08543111947802963 -0.0096173047182570252 0 -0.079052315743646448 -0.024406082973970129 0 -0.08543111947802963 -0.0096173047182570252 0 -0.079052315743646448 -0.024406082973970129 0 -0.064940943285986485 -0.012949909449295459 0 -0.079052315743646448 -0.024406082973970129 0 -0.06264542058024794 -0.028048263178545859 0 -0.064940943285986485 -0.012949909449295459 0 -0.079052315743646448 -0.024406082973970129 0 -0.06264542058024794 -0.028048263178545859 0 -0.072716853217618532 -0.038444072938151982 0 -0.064940943285986485 -0.012949909449295459 0 -0.074089197287396574 0.003089560188189522 0 -0.058863159750131268 0.0042186236050882524 0 -0.08543111947802963 -0.0096173047182570252 0 -0.064940943285986485 -0.012949909449295459 0 -0.074089197287396574 0.003089560188189522 0 -0.085869870429063008 -0.064757839555657407 0 -0.087060029857974064 -0.050117692987690823 0 -0.072484142086314388 -0.055674827582651527 0 -0.085869870429063008 -0.064757839555657407 0 -0.098776883622183953 -0.057707453304873348 0 -0.087060029857974064 -0.050117692987690823 0 -0.079052315743646448 -0.024406082973970129 0 -0.091049913049563697 -0.03655693841460337 0 -0.072716853217618532 -0.038444072938151982 0 -0.087060029857974064 -0.050117692987690823 0 -0.091049913049563697 -0.03655693841460337 0 -0.072716853217618532 -0.038444072938151982 0 -0.1014625167431009 -0.04756502613020723 0 -0.087060029857974064 -0.050117692987690823 0 -0.091049913049563697 -0.03655693841460337 0 -0.06264542058024794 -0.028048263178545859 0 -0.072716853217618532 -0.038444072938151982 0 -0.052409151306995257 -0.046754192912582641 0 -0.072716853217618532 -0.038444072938151982 0 -0.072484142086314388 -0.055674827582651527 0 -0.052409151306995257 -0.046754192912582641 0 -0.087060029857974064 -0.050117692987690823 0 -0.072716853217618532 -0.038444072938151982 0 -0.072484142086314388 -0.055674827582651527 0 -0.072484142086314388 -0.055674827582651527 0 -0.052409151306995257 -0.046754192912582641 0 -0.072484142086314388 -0.055674827582651527 0 -0.052409151306995257 -0.046754192912582641 0 -0.048614734603583003 -0.062616241853626617 0 -0.06264542058024794 -0.028048263178545859 0 -0.052409151306995257 -0.046754192912582641 0 -0.048661001616652003 -0.023013319443940521 0 -0.052409151306995257 -0.046754192912582641 0 -0.032334160527676153 -0.037833558242513769 0 -0.036884435923632809 -0.027617272699447599 0 -0.052409151306995257 -0.046754192912582641 0 -0.032334160527676153 -0.037833558242513769 0 -0.037821649070827502 -0.051516580708388077 0 -0.052409151306995257 -0.046754192912582641 0 -0.048661001616652003 -0.023013319443940521 0 -0.036884435923632809 -0.027617272699447599 0 -0.052409151306995257 -0.046754192912582641 0 -0.032334160527676153 -0.037833558242513769 0 -0.037821649070827502 -0.051516580708388077 0 -0.032506317395164908 -0.061044392891451339 0 -0.048614734603583003 -0.062616241853626617 0 -0.052409151306995257 -0.046754192912582641 0 -0.037821649070827502 -0.051516580708388077 0 -0.048614734603583003 -0.062616241853626617 0 -0.064940943285986485 -0.012949909449295459 0 -0.047148328916374133 -0.0060219220954354086 0 -0.048661001616652003 -0.023013319443940521 0 -0.064940943285986485 -0.012949909449295459 0 -0.047148328916374133 -0.0060219220954354086 0 -0.058863159750131268 0.0042186236050882524 0 -0.06264542058024794 -0.028048263178545859 0 -0.064940943285986485 -0.012949909449295459 0 -0.048661001616652003 -0.023013319443940521 0 -0.048661001616652003 -0.023013319443940521 0 -0.036884435923632809 -0.027617272699447599 0 -0.031435359832694083 -0.01415903532330309 0 -0.032334160527676153 -0.037833558242513769 0 -0.036884435923632809 -0.027617272699447599 0 -0.026016879419593821 -0.025241578083510321 0 -0.036884435923632809 -0.027617272699447599 0 -0.031435359832694083 -0.01415903532330309 0 -0.026016879419593821 -0.025241578083510321 0 -0.047148328916374133 -0.0060219220954354086 0 -0.048661001616652003 -0.023013319443940521 0 -0.031435359832694083 -0.01415903532330309 0 -0.047148328916374133 -0.0060219220954354086 0 -0.036017492828171162 -0.0016407105890012051 0 -0.031435359832694083 -0.01415903532330309 0 -0.036017492828171162 -0.0016407105890012051 0 -0.031435359832694083 -0.01415903532330309 0 -0.023981194886863379 0.0035969300986321649 0 -0.031435359832694083 -0.01415903532330309 0 -0.016520504419426089 -0.0077915694481424328 0 -0.023981194886863379 0.0035969300986321649 0 -0.016520504419426089 -0.0077915694481424328 0 -0.023981194886863379 0.0035969300986321649 0 -0.0081904933395319478 0.001381227285167226 0 -0.031435359832694083 -0.01415903532330309 0 -0.016520504419426089 -0.0077915694481424328 0 -0.018457565767105381 -0.018510276076394189 0 -0.032334160527676153 -0.037833558242513769 0 -0.026016879419593821 -0.025241578083510321 0 -0.012259169748356851 -0.028912923572445189 0 -0.031435359832694083 -0.01415903532330309 0 -0.018457565767105381 -0.018510276076394189 0 -0.026016879419593821 -0.025241578083510321 0 -0.018457565767105381 -0.018510276076394189 0 -0.026016879419593821 -0.025241578083510321 0 -0.012259169748356851 -0.028912923572445189 0 -0.012259169748356851 -0.028912923572445189 0 -0.0082598287759244812 -0.012097783309187029 0 0.003221704116864647 -0.012297760727705361 0 -0.012259169748356851 -0.028912923572445189 0 0.003221704116864647 -0.012297760727705361 0 0.0086802595134123639 -0.0196081622055592 0 -0.012259169748356851 -0.028912923572445189 0 0.003221704116864647 -0.012297760727705361 0 -0.012259169748356851 -0.028912923572445189 0 0.0086802595134123639 -0.0196081622055592 0 -0.018457565767105381 -0.018510276076394189 0 -0.012259169748356851 -0.028912923572445189 0 -0.0082598287759244812 -0.012097783309187029 0 -0.012259169748356851 -0.028912923572445189 0 0.0086802595134123639 -0.0196081622055592 0 0.0026462220442079951 -0.035453514252743609 0 -0.016520504419426089 -0.0077915694481424328 0 -0.018457565767105381 -0.018510276076394189 0 -0.0082598287759244812 -0.012097783309187029 0 -0.0082598287759244812 -0.012097783309187029 0 0.0020292439059455178 -0.0013131619961493509 0 0.003221704116864647 -0.012297760727705361 0 -0.0082598287759244812 -0.012097783309187029 0 -0.0081904933395319478 0.001381227285167226 0 0.0020292439059455178 -0.0013131619961493509 0 -0.016520504419426089 -0.0077915694481424328 0 -0.0082598287759244812 -0.012097783309187029 0 -0.0081904933395319478 0.001381227285167226 0 -0.032506317395164908 -0.061044392891451339 0 -0.023398993789018659 -0.049692270789004067 0 -0.018422174493919689 -0.065502004588553181 0 -0.023398993789018659 -0.049692270789004067 0 -0.01078749010949146 -0.052855069084052388 0 -0.018422174493919689 -0.065502004588553181 0 -0.023398993789018659 -0.049692270789004067 0 -0.01332224214242019 -0.044372129280447148 0 -0.01078749010949146 -0.052855069084052388 0 -0.037821649070827502 -0.051516580708388077 0 -0.032506317395164908 -0.061044392891451339 0 -0.023398993789018659 -0.049692270789004067 0 -0.032334160527676153 -0.037833558242513769 0 -0.023398993789018659 -0.049692270789004067 0 -0.020203633236093501 -0.03743948064616353 0 -0.032334160527676153 -0.037833558242513769 0 -0.037821649070827502 -0.051516580708388077 0 -0.023398993789018659 -0.049692270789004067 0 -0.032334160527676153 -0.037833558242513769 0 -0.012259169748356851 -0.028912923572445189 0 -0.032334160527676153 -0.037833558242513769 0 -0.012259169748356851 -0.028912923572445189 0 -0.020203633236093501 -0.03743948064616353 0 -0.012259169748356851 -0.028912923572445189 0 -0.020203633236093501 -0.03743948064616353 0 -0.023398993789018659 -0.049692270789004067 0 -0.020203633236093501 -0.03743948064616353 0 -0.01332224214242019 -0.044372129280447148 0 -0.020203633236093501 -0.03743948064616353 0 -0.01332224214242019 -0.044372129280447148 0 -0.0092426104713131726 -0.038110452964657232 0 -0.01332224214242019 -0.044372129280447148 0 -0.0092426104713131726 -0.038110452964657232 0 -0.003169975441622507 -0.044985061224614847 0 -0.012259169748356851 -0.028912923572445189 0 -0.020203633236093501 -0.03743948064616353 0 -0.0092426104713131726 -0.038110452964657232 0 -0.012259169748356851 -0.028912923572445189 0 -0.0092426104713131726 -0.038110452964657232 0 0.0026462220442079951 -0.035453514252743609 0 -0.0092426104713131726 -0.038110452964657232 0 -0.003169975441622507 -0.044985061224614847 0 0.0026462220442079951 -0.035453514252743609 0 -0.003169975441622507 -0.044985061224614847 0 -0.001189584669092871 -0.052654503905639749 0 -0.01078749010949146 -0.052855069084052388 0 -0.01332224214242019 -0.044372129280447148 0 -0.003169975441622507 -0.044985061224614847 0 -0.01078749010949146 -0.052855069084052388 0 -0.01078749010949146 -0.052855069084052388 0 -0.0077391937045517513 -0.061360236796201242 0 -0.018422174493919689 -0.065502004588553181 0 -0.001189584669092871 -0.052654503905639749 0 -0.01078749010949146 -0.052855069084052388 0 -0.0077391937045517513 -0.061360236796201242 0 -0.001189584669092871 -0.052654503905639749 0 -0.0077391937045517513 -0.061360236796201242 0 0.0012510057799814029 -0.059227124445018327 0 -0.0077391937045517513 -0.061360236796201242 0 -0.0042577302106490194 -0.069697466595407376 0 0.0012510057799814029 -0.059227124445018327 0 -0.0042577302106490194 -0.069697466595407376 0 -0.0029330283814664421 -0.079571755031748459 0 0.0061806570431333224 -0.07280993901718269 0 -0.0042577302106490194 -0.069697466595407376 0 -0.0029330283814664421 -0.079571755031748459 0 -0.0073524128838944533 -0.082975909888542282 0 -0.0042577302106490194 -0.069697466595407376 0 -0.019863731942264911 -0.08051071036943025 0 -0.018422174493919689 -0.065502004588553181 0 -0.0042577302106490194 -0.069697466595407376 0 -0.019863731942264911 -0.08051071036943025 0 -0.0042577302106490194 -0.069697466595407376 0 -0.0073524128838944533 -0.082975909888542282 0 -0.019863731942264911 -0.08051071036943025 0 -0.0077391937045517513 -0.061360236796201242 0 -0.0042577302106490194 -0.069697466595407376 0 -0.018422174493919689 -0.065502004588553181 0 -0.0029330283814664421 -0.079571755031748459 0 -0.0073524128838944533 -0.082975909888542282 0 -0.0096982394789004427 -0.096602840118525768 0 -0.0096982394789004427 -0.096602840118525768 0 0.002698825122154819 -0.097907731628765635 0 0.0059272775052894586 -0.085527418525803062 0 -0.0029330283814664421 -0.079571755031748459 0 -0.0096982394789004427 -0.096602840118525768 0 0.0061806570431333224 -0.07280993901718269 0 -0.0096982394789004427 -0.096602840118525768 0 0.0059272775052894586 -0.085527418525803062 0 -0.0096982394789004427 -0.096602840118525768 0 0.0061806570431333224 -0.07280993901718269 0 -0.0073524128838944533 -0.082975909888542282 0 -0.0128603797236682 -0.08853681909662045 0 -0.019863731942264911 -0.08051071036943025 0 -0.0128603797236682 -0.08853681909662045 0 -0.01396620970405133 -0.093677543468851654 0 -0.0096982394789004427 -0.096602840118525768 0 -0.0073524128838944533 -0.082975909888542282 0 -0.0128603797236682 -0.08853681909662045 0 -0.0096982394789004427 -0.096602840118525768 0 -0.0128603797236682 -0.08853681909662045 0 -0.01396620970405133 -0.093677543468851654 0 -0.018364364302787799 -0.089306016046725542 0 -0.018364364302787799 -0.089306016046725542 0 -0.029273322256877891 -0.087863892814159739 0 -0.018839298494399789 -0.095519204214085426 0 -0.0128603797236682 -0.08853681909662045 0 -0.018364364302787799 -0.089306016046725542 0 -0.019863731942264911 -0.08051071036943025 0 -0.01396620970405133 -0.093677543468851654 0 -0.018364364302787799 -0.089306016046725542 0 -0.018839298494399789 -0.095519204214085426 0 -0.018364364302787799 -0.089306016046725542 0 -0.019863731942264911 -0.08051071036943025 0 -0.029273322256877891 -0.087863892814159739 0 -0.019863731942264911 -0.08051071036943025 0 -0.029273322256877891 -0.087863892814159739 0 -0.033177807280299357 -0.074729951586654395 0 -0.019863731942264911 -0.08051071036943025 0 -0.018422174493919689 -0.065502004588553181 0 -0.033177807280299357 -0.074729951586654395 0 -0.032506317395164908 -0.061044392891451339 0 -0.018422174493919689 -0.065502004588553181 0 -0.033177807280299357 -0.074729951586654395 0 -0.032506317395164908 -0.061044392891451339 0 -0.033177807280299357 -0.074729951586654395 0 -0.048614734603583003 -0.062616241853626617 0 -0.033177807280299357 -0.074729951586654395 0 -0.046450939007365841 -0.078131332133083709 0 -0.048614734603583003 -0.062616241853626617 0 -0.029273322256877891 -0.087863892814159739 0 -0.033177807280299357 -0.074729951586654395 0 -0.046450939007365841 -0.078131332133083709 0 -0.029273322256877891 -0.087863892814159739 0 -0.044954984634475351 -0.092218747382642144 0 -0.046450939007365841 -0.078131332133083709 0 -0.029273322256877891 -0.087863892814159739 0 -0.044954984634475351 -0.092218747382642144 0 -0.035996423462068043 -0.098159370105169341 0 -0.067346746649526473 -0.074829865582056204 0 -0.046450939007365841 -0.078131332133083709 0 -0.060380769500760392 -0.094533725756310916 0 -0.044954984634475351 -0.092218747382642144 0 -0.046450939007365841 -0.078131332133083709 0 -0.060380769500760392 -0.094533725756310916 0 -0.067346746649526473 -0.074829865582056204 0 -0.046450939007365841 -0.078131332133083709 0 -0.048614734603583003 -0.062616241853626617 0 -0.064011411058109022 -0.1138991820807638 0 -0.044280755854350942 -0.1194174860882725 0 -0.056711662736810747 -0.13034097081247131 0 -0.064011411058109022 -0.1138991820807638 0 -0.04750469263012945 -0.1044096806665883 0 -0.044280755854350942 -0.1194174860882725 0 -0.064011411058109022 -0.1138991820807638 0 -0.060380769500760392 -0.094533725756310916 0 -0.04750469263012945 -0.1044096806665883 0 -0.044954984634475351 -0.092218747382642144 0 -0.060380769500760392 -0.094533725756310916 0 -0.04750469263012945 -0.1044096806665883 0 -0.04750469263012945 -0.1044096806665883 0 -0.035996423462068043 -0.098159370105169341 0 -0.035403811271012983 -0.108229572586371 0 -0.044954984634475351 -0.092218747382642144 0 -0.04750469263012945 -0.1044096806665883 0 -0.035996423462068043 -0.098159370105169341 0 -0.035996423462068043 -0.098159370105169341 0 -0.035403811271012983 -0.108229572586371 0 -0.025236563993636999 -0.1011647891063388 0 -0.035403811271012983 -0.108229572586371 0 -0.044280755854350942 -0.1194174860882725 0 -0.02388579217104941 -0.1178614356138743 0 -0.04750469263012945 -0.1044096806665883 0 -0.035403811271012983 -0.108229572586371 0 -0.044280755854350942 -0.1194174860882725 0 -0.035403811271012983 -0.108229572586371 0 -0.02388579217104941 -0.1178614356138743 0 -0.025236563993636999 -0.1011647891063388 0 -0.02388579217104941 -0.1178614356138743 0 -0.025236563993636999 -0.1011647891063388 0 -0.01254029636727938 -0.098617300072787739 0 -0.02388579217104941 -0.1178614356138743 0 -0.0096982394789004427 -0.096602840118525768 0 -0.029273322256877891 -0.087863892814159739 0 -0.035996423462068043 -0.098159370105169341 0 -0.025236563993636999 -0.1011647891063388 0 -0.029273322256877891 -0.087863892814159739 0 -0.025236563993636999 -0.1011647891063388 0 -0.018839298494399789 -0.095519204214085426 0 -0.025236563993636999 -0.1011647891063388 0 -0.018839298494399789 -0.095519204214085426 0 -0.01254029636727938 -0.098617300072787739 0 -0.0096982394789004427 -0.096602840118525768 0 -0.001762203559796746 -0.10412173643267709 0 -0.0069227298259113756 -0.11381869788500459 0 -0.02388579217104941 -0.1178614356138743 0 -0.0096982394789004427 -0.096602840118525768 0 -0.01254029636727938 -0.098617300072787739 0 -0.0096982394789004427 -0.096602840118525768 0 -0.01254029636727938 -0.098617300072787739 0 -0.01396620970405133 -0.093677543468851654 0 -0.018839298494399789 -0.095519204214085426 0 -0.01254029636727938 -0.098617300072787739 0 -0.01396620970405133 -0.093677543468851654 0 -0.0096982394789004427 -0.096602840118525768 0 -0.01254029636727938 -0.098617300072787739 0 -0.001762203559796746 -0.10412173643267709 0 -0.0069227298259113756 -0.11381869788500459 0 0.0068733299434700183 -0.1081576760984123 0 -0.0096982394789004427 -0.096602840118525768 0 -0.001762203559796746 -0.10412173643267709 0 0.002698825122154819 -0.097907731628765635 0 -0.02388579217104941 -0.1178614356138743 0 -0.0096982394789004427 -0.096602840118525768 0 -0.0069227298259113756 -0.11381869788500459 0 -0.02388579217104941 -0.1178614356138743 0 -0.0069227298259113756 -0.11381869788500459 0 -0.010033495713689781 -0.13837544561322701 0 -0.0069227298259113756 -0.11381869788500459 0 -0.010033495713689781 -0.13837544561322701 0 0.0099818662807374496 -0.12581095382434751 0 -0.02388579217104941 -0.1178614356138743 0 -0.038073344863198667 -0.13912003110922269 0 -0.02388579217104941 -0.1178614356138743 0 -0.010033495713689781 -0.13837544561322701 0 -0.038073344863198667 -0.13912003110922269 0 -0.010033495713689781 -0.13837544561322701 0 -0.02369247408920756 -0.15234037081527169 0 -0.038073344863198667 -0.13912003110922269 0 -0.010033495713689781 -0.13837544561322701 0 -0.02369247408920756 -0.15234037081527169 0 -0.00044241734289412332 -0.16545782402513229 0 -0.010033495713689781 -0.13837544561322701 0 -0.00044241734289412332 -0.16545782402513229 0 0.0097655386782121729 -0.14660786738231121 0 -0.00044241734289412332 -0.16545782402513229 0 -0.026901467660671669 -0.1716092365426535 0 -0.00044241734289412332 -0.16545782402513229 0 -0.011098953125541751 -0.18619447624234811 0 -0.026901467660671669 -0.1716092365426535 0 -0.00044241734289412332 -0.16545782402513229 0 -0.011098953125541751 -0.18619447624234811 0 0.0099013466107155754 -0.18752639761768561 0 -0.011098953125541751 -0.18619447624234811 0 -0.026901467660671669 -0.1716092365426535 0 -0.026918269507787841 -0.19946560035525321 0 -0.02369247408920756 -0.15234037081527169 0 -0.00044241734289412332 -0.16545782402513229 0 -0.026901467660671669 -0.1716092365426535 0 -0.02369247408920756 -0.15234037081527169 0 -0.026901467660671669 -0.1716092365426535 0 -0.052260897555347949 -0.16037862660457111 0 -0.026901467660671669 -0.1716092365426535 0 -0.053360517978449089 -0.17776064906017469 0 -0.052260897555347949 -0.16037862660457111 0 -0.026901467660671669 -0.1716092365426535 0 -0.026918269507787841 -0.19946560035525321 0 -0.044868362297873603 -0.18995611791751971 0 -0.026901467660671669 -0.1716092365426535 0 -0.053360517978449089 -0.17776064906017469 0 -0.044868362297873603 -0.18995611791751971 0 -0.026901467660671669 -0.1716092365426535 0 -0.053360517978449089 -0.17776064906017469 0 -0.053360517978449089 -0.17776064906017469 0 -0.052260897555347949 -0.16037862660457111 0 -0.066448450247499791 -0.18163722209991789 0 -0.053360517978449089 -0.17776064906017469 0 -0.057732228688261722 -0.1843176709532435 0 -0.044868362297873603 -0.18995611791751971 0 -0.053360517978449089 -0.17776064906017469 0 -0.057732228688261722 -0.1843176709532435 0 -0.066448450247499791 -0.18163722209991789 0 -0.057732228688261722 -0.1843176709532435 0 -0.066448450247499791 -0.18163722209991789 0 -0.052260897555347949 -0.16037862660457111 0 -0.066448450247499791 -0.18163722209991789 0 -0.052260897555347949 -0.16037862660457111 0 -0.038073344863198667 -0.13912003110922269 0 -0.063753137357829934 -0.14752897410650351 0 -0.056711662736810747 -0.13034097081247131 0 -0.038073344863198667 -0.13912003110922269 0 -0.063753137357829934 -0.14752897410650351 0 -0.044280755854350942 -0.1194174860882725 0 -0.056711662736810747 -0.13034097081247131 0 -0.038073344863198667 -0.13912003110922269 0 -0.044280755854350942 -0.1194174860882725 0 -0.02388579217104941 -0.1178614356138743 0 -0.038073344863198667 -0.13912003110922269 0 -0.052260897555347949 -0.16037862660457111 0 -0.038073344863198667 -0.13912003110922269 0 -0.02369247408920756 -0.15234037081527169 0 -0.052260897555347949 -0.16037862660457111 0 -0.038073344863198667 -0.13912003110922269 0 -0.019380102806207718 -0.24481059196725999 0 -0.0074517781699137524 -0.2307636465572358 0 -0.032352998972392452 -0.2313476333534788 0 -0.0037695986127568399 -0.25461397044345591 0 -0.019380102806207718 -0.24481059196725999 0 -0.0074517781699137524 -0.2307636465572358 0 -0.0037695986127568399 -0.25461397044345591 0 -0.0074517781699137524 -0.2307636465572358 0 -0.0074517781699137524 -0.2307636465572358 0 -0.01113395772707068 -0.20691332267101559 0 -0.0074517781699137524 -0.2307636465572358 0 -0.02249054321782094 -0.21781811364347631 0 -0.032352998972392452 -0.2313476333534788 0 -0.02249054321782094 -0.21781811364347631 0 -0.035149187826772822 -0.2157913312350844 0 -0.032352998972392452 -0.2313476333534788 0 -0.02249054321782094 -0.21781811364347631 0 -0.026918269507787841 -0.19946560035525321 0 -0.035149187826772822 -0.2157913312350844 0 -0.02249054321782094 -0.21781811364347631 0 -0.01113395772707068 -0.20691332267101559 0 -0.026918269507787841 -0.19946560035525321 0 -0.0074517781699137524 -0.2307636465572358 0 -0.01113395772707068 -0.20691332267101559 0 0.007970675013868337 -0.2115605535251471 0 -0.0074517781699137524 -0.2307636465572358 0 -0.02249054321782094 -0.21781811364347631 0 -0.01113395772707068 -0.20691332267101559 0 -0.011098953125541751 -0.18619447624234811 0 -0.01113395772707068 -0.20691332267101559 0 0.0099013466107155754 -0.18752639761768561 0 -0.011098953125541751 -0.18619447624234811 0 -0.01113395772707068 -0.20691332267101559 0 -0.026918269507787841 -0.19946560035525321 0 -0.026918269507787841 -0.19946560035525321 0 -0.044868362297873603 -0.18995611791751971 0 -0.047108724838841237 -0.2072162575523239 0 -0.057732228688261722 -0.1843176709532435 0 -0.044868362297873603 -0.18995611791751971 0 -0.056296081554596582 -0.19913530018899819 0 -0.044868362297873603 -0.18995611791751971 0 -0.056296081554596582 -0.19913530018899819 0 -0.047108724838841237 -0.2072162575523239 0 -0.057732228688261722 -0.1843176709532435 0 -0.056296081554596582 -0.19913530018899819 0 -0.065019485035412619 -0.192502374306565 0 -0.056296081554596582 -0.19913530018899819 0 -0.047108724838841237 -0.2072162575523239 0 -0.058145516065164757 -0.21353917411724591 0 -0.056296081554596582 -0.19913530018899819 0 -0.058145516065164757 -0.21353917411724591 0 -0.071152731075683803 -0.20828500431037261 0 -0.047108724838841237 -0.2072162575523239 0 -0.058145516065164757 -0.21353917411724591 0 -0.046051624259574223 -0.22145463616234759 0 -0.047108724838841237 -0.2072162575523239 0 -0.035149187826772822 -0.2157913312350844 0 -0.046051624259574223 -0.22145463616234759 0 -0.026918269507787841 -0.19946560035525321 0 -0.047108724838841237 -0.2072162575523239 0 -0.035149187826772822 -0.2157913312350844 0 -0.032352998972392452 -0.2313476333534788 0 -0.046051624259574223 -0.22145463616234759 0 -0.051760011062558862 -0.23171707965072011 0 -0.035149187826772822 -0.2157913312350844 0 -0.032352998972392452 -0.2313476333534788 0 -0.046051624259574223 -0.22145463616234759 0 -0.058145516065164757 -0.21353917411724591 0 -0.046051624259574223 -0.22145463616234759 0 -0.05905262869659117 -0.22439766456562629 0 -0.046051624259574223 -0.22145463616234759 0 -0.05905262869659117 -0.22439766456562629 0 -0.051760011062558862 -0.23171707965072011 0 -0.058145516065164757 -0.21353917411724591 0 -0.05905262869659117 -0.22439766456562629 0 -0.067967291457497067 -0.21925019297177381 0 -0.05905262869659117 -0.22439766456562629 0 -0.051760011062558862 -0.23171707965072011 0 -0.065032341087604029 -0.23233450833906491 0 -0.051760011062558862 -0.23171707965072011 0 -0.065032341087604029 -0.23233450833906491 0 -0.051760011062558862 -0.23171707965072011 0 -0.043384033743611328 -0.24771110366927759 0 -0.065032341087604029 -0.23233450833906491 0 -0.043384033743611328 -0.24771110366927759 0 -0.065032341087604029 -0.23233450833906491 0 -0.060275895421615211 -0.24946731248260159 0 -0.043384033743611328 -0.24771110366927759 0 -0.065032341087604029 -0.23233450833906491 0 -0.019380102806207718 -0.24481059196725999 0 -0.032352998972392452 -0.2313476333534788 0 -0.043384033743611328 -0.24771110366927759 0 -0.032352998972392452 -0.2313476333534788 0 -0.051760011062558862 -0.23171707965072011 0 -0.043384033743611328 -0.24771110366927759 0 -0.088100895525510481 -0.2471032042042493 0 -0.073586814754762628 -0.24184563843436499 0 -0.089462869426695985 -0.23347101632514469 0 -0.088100895525510481 -0.2471032042042493 0 -0.089462869426695985 -0.23347101632514469 0 -0.1002358458967087 -0.24456120346176499 0 -0.078999971301260644 -0.25636047332083373 0 -0.088100895525510481 -0.2471032042042493 0 -0.073586814754762628 -0.24184563843436499 0 -0.060275895421615211 -0.24946731248260159 0 -0.073586814754762628 -0.24184563843436499 0 -0.065032341087604029 -0.23233450833906491 0 -0.073586814754762628 -0.24184563843436499 0 -0.065032341087604029 -0.23233450833906491 0 -0.089462869426695985 -0.23347101632514469 0 -0.065032341087604029 -0.23233450833906491 0 -0.089462869426695985 -0.23347101632514469 0 -0.065032341087604029 -0.23233450833906491 0 -0.067967291457497067 -0.21925019297177381 0 -0.086009380596771379 -0.21743470843174639 0 -0.065032341087604029 -0.23233450833906491 0 -0.086009380596771379 -0.21743470843174639 0 -0.05905262869659117 -0.22439766456562629 0 -0.065032341087604029 -0.23233450833906491 0 -0.067967291457497067 -0.21925019297177381 0 -0.065032341087604029 -0.23233450833906491 0 -0.089462869426695985 -0.23347101632514469 0 -0.086009380596771379 -0.21743470843174639 0 -0.089462869426695985 -0.23347101632514469 0 -0.086009380596771379 -0.21743470843174639 0 -0.099951389181278938 -0.22602111637149441 0 -0.086009380596771379 -0.21743470843174639 0 -0.099951389181278938 -0.22602111637149441 0 -0.086009380596771379 -0.21743470843174639 0 -0.081964885428218656 -0.20717399306786 0 -0.091021707447171377 -0.2011847639320796 0 -0.086009380596771379 -0.21743470843174639 0 -0.081964885428218656 -0.20717399306786 0 -0.071152731075683803 -0.20828500431037261 0 -0.086009380596771379 -0.21743470843174639 0 -0.071152731075683803 -0.20828500431037261 0 -0.067967291457497067 -0.21925019297177381 0 -0.086009380596771379 -0.21743470843174639 0 -0.071152731075683803 -0.20828500431037261 0 -0.058145516065164757 -0.21353917411724591 0 -0.067967291457497067 -0.21925019297177381 0 -0.071152731075683803 -0.20828500431037261 0 -0.056296081554596582 -0.19913530018899819 0 -0.071152731075683803 -0.20828500431037261 0 -0.081964885428218656 -0.20717399306786 0 -0.071152731075683803 -0.20828500431037261 0 -0.077583096893324002 -0.19832135037514009 0 -0.077583096893324002 -0.19832135037514009 0 -0.066448450247499791 -0.18163722209991789 0 -0.077583096893324002 -0.19832135037514009 0 -0.066448450247499791 -0.18163722209991789 0 -0.082189903295683625 -0.1855242000683745 0 -0.071152731075683803 -0.20828500431037261 0 -0.077583096893324002 -0.19832135037514009 0 -0.067512848639754236 -0.19956100729526899 0 -0.077583096893324002 -0.19832135037514009 0 -0.065019485035412619 -0.192502374306565 0 -0.066448450247499791 -0.18163722209991789 0 -0.077583096893324002 -0.19832135037514009 0 -0.067512848639754236 -0.19956100729526899 0 -0.065019485035412619 -0.192502374306565 0 -0.056296081554596582 -0.19913530018899819 0 -0.067512848639754236 -0.19956100729526899 0 -0.065019485035412619 -0.192502374306565 0 -0.056296081554596582 -0.19913530018899819 0 -0.071152731075683803 -0.20828500431037261 0 -0.067512848639754236 -0.19956100729526899 0 -0.077583096893324002 -0.19832135037514009 0 -0.090516732608956513 -0.18903876347507001 0 -0.082189903295683625 -0.1855242000683745 0 -0.081964885428218656 -0.20717399306786 0 -0.077583096893324002 -0.19832135037514009 0 -0.091021707447171377 -0.2011847639320796 0 -0.077583096893324002 -0.19832135037514009 0 -0.091021707447171377 -0.2011847639320796 0 -0.090516732608956513 -0.18903876347507001 0 -0.091021707447171377 -0.2011847639320796 0 -0.1087148210578652 -0.2013072410867742 0 -0.1027280965540868 -0.19293211206527619 0 -0.090516732608956513 -0.18903876347507001 0 -0.1027280965540868 -0.19293211206527619 0 -0.099872392090307432 -0.1826234051040817 0 -0.091021707447171377 -0.2011847639320796 0 -0.090516732608956513 -0.18903876347507001 0 -0.1027280965540868 -0.19293211206527619 0 -0.1087148210578652 -0.2013072410867742 0 -0.13142026151896011 -0.18517977374180339 0 -0.13348444783266239 -0.20226843757292789 0 -0.1087148210578652 -0.2013072410867742 0 -0.13142026151896011 -0.18517977374180339 0 -0.1087148210578652 -0.2013072410867742 0 -0.1027280965540868 -0.19293211206527619 0 -0.13142026151896011 -0.18517977374180339 0 -0.1087148210578652 -0.2013072410867742 0 -0.1128601327921384 -0.22067303458678039 0 -0.1259124619453828 -0.21568561600977459 0 -0.1087148210578652 -0.2013072410867742 0 -0.1259124619453828 -0.21568561600977459 0 -0.13348444783266239 -0.20226843757292789 0 -0.086009380596771379 -0.21743470843174639 0 -0.091021707447171377 -0.2011847639320796 0 -0.1087148210578652 -0.2013072410867742 0 -0.086009380596771379 -0.21743470843174639 0 -0.1087148210578652 -0.2013072410867742 0 -0.1087148210578652 -0.2013072410867742 0 -0.099951389181278938 -0.22602111637149441 0 -0.1128601327921384 -0.22067303458678039 0 -0.086009380596771379 -0.21743470843174639 0 -0.1087148210578652 -0.2013072410867742 0 -0.099951389181278938 -0.22602111637149441 0 -0.089462869426695985 -0.23347101632514469 0 -0.1138933977657872 -0.23460752431124149 0 -0.089462869426695985 -0.23347101632514469 0 -0.099951389181278938 -0.22602111637149441 0 -0.1138933977657872 -0.23460752431124149 0 -0.099951389181278938 -0.22602111637149441 0 -0.1138933977657872 -0.23460752431124149 0 -0.099951389181278938 -0.22602111637149441 0 -0.1128601327921384 -0.22067303458678039 0 -0.1138933977657872 -0.23460752431124149 0 -0.1128601327921384 -0.22067303458678039 0 -0.1138933977657872 -0.23460752431124149 0 -0.1259124619453828 -0.21568561600977459 0 -0.1138933977657872 -0.23460752431124149 0 -0.12713129679009599 -0.24276029516910849 0 -0.1138933977657872 -0.23460752431124149 0 -0.11389444559551069 -0.24985838545747241 0 -0.12713129679009599 -0.24276029516910849 0 -0.1138933977657872 -0.23460752431124149 0 -0.11389444559551069 -0.24985838545747241 0 -0.1002358458967087 -0.24456120346176499 0 -0.089462869426695985 -0.23347101632514469 0 -0.1138933977657872 -0.23460752431124149 0 -0.1002358458967087 -0.24456120346176499 0 -0.091085515369974515 -0.15290894290183249 0 -0.078602076167287038 -0.14538542837679599 0 -0.074928545619074638 -0.1599999226346884 0 -0.091085515369974515 -0.15290894290183249 0 -0.078602076167287038 -0.14538542837679599 0 -0.091694461779323458 -0.1340959511989559 0 -0.078602076167287038 -0.14538542837679599 0 -0.091694461779323458 -0.1340959511989559 0 -0.073439664550565165 -0.13173918067759419 0 -0.086194479918452707 -0.1158135599882666 0 -0.091694461779323458 -0.1340959511989559 0 -0.073439664550565165 -0.13173918067759419 0 -0.056711662736810747 -0.13034097081247131 0 -0.073439664550565165 -0.13173918067759419 0 -0.063753137357829934 -0.14752897410650351 0 -0.064011411058109022 -0.1138991820807638 0 -0.056711662736810747 -0.13034097081247131 0 -0.073439664550565165 -0.13173918067759419 0 -0.078602076167287038 -0.14538542837679599 0 -0.073439664550565165 -0.13173918067759419 0 -0.063753137357829934 -0.14752897410650351 0 -0.052260897555347949 -0.16037862660457111 0 -0.063753137357829934 -0.14752897410650351 0 -0.074928545619074638 -0.1599999226346884 0 -0.078602076167287038 -0.14538542837679599 0 -0.063753137357829934 -0.14752897410650351 0 -0.074928545619074638 -0.1599999226346884 0 -0.052260897555347949 -0.16037862660457111 0 -0.074928545619074638 -0.1599999226346884 0 -0.066448450247499791 -0.18163722209991789 0 -0.057732228688261722 -0.1843176709532435 0 -0.065019485035412619 -0.192502374306565 0 -0.066448450247499791 -0.18163722209991789 0 -0.066448450247499791 -0.18163722209991789 0 -0.094211333432954181 -0.17309946432337031 0 -0.066448450247499791 -0.18163722209991789 0 -0.082189903295683625 -0.1855242000683745 0 -0.094211333432954181 -0.17309946432337031 0 -0.090516732608956513 -0.18903876347507001 0 -0.082189903295683625 -0.1855242000683745 0 -0.094211333432954181 -0.17309946432337031 0 -0.074928545619074638 -0.1599999226346884 0 -0.066448450247499791 -0.18163722209991789 0 -0.094211333432954181 -0.17309946432337031 0 -0.091085515369974515 -0.15290894290183249 0 -0.074928545619074638 -0.1599999226346884 0 -0.094211333432954181 -0.17309946432337031 0 -0.094211333432954181 -0.17309946432337031 0 -0.12197421661840881 -0.16456170654682339 0 -0.10801179711057469 -0.15607603396990569 0 -0.094211333432954181 -0.17309946432337031 0 -0.10954512724953031 -0.1779565805699026 0 -0.12197421661840881 -0.16456170654682339 0 -0.091085515369974515 -0.15290894290183249 0 -0.094211333432954181 -0.17309946432337031 0 -0.10801179711057469 -0.15607603396990569 0 -0.094211333432954181 -0.17309946432337031 0 -0.12197421661840881 -0.16456170654682339 0 -0.090516732608956513 -0.18903876347507001 0 -0.099872392090307432 -0.1826234051040817 0 -0.094211333432954181 -0.17309946432337031 0 -0.099872392090307432 -0.1826234051040817 0 -0.094211333432954181 -0.17309946432337031 0 -0.10954512724953031 -0.1779565805699026 0 -0.1027280965540868 -0.19293211206527619 0 -0.099872392090307432 -0.1826234051040817 0 -0.10954512724953031 -0.1779565805699026 0 -0.1027280965540868 -0.19293211206527619 0 -0.13142026151896011 -0.18517977374180339 0 -0.1270726151334082 -0.1769717723555001 0 -0.10954512724953031 -0.1779565805699026 0 -0.12197421661840881 -0.16456170654682339 0 -0.1270726151334082 -0.1769717723555001 0 -0.1027280965540868 -0.19293211206527619 0 -0.1270726151334082 -0.1769717723555001 0 -0.1027280965540868 -0.19293211206527619 0 -0.10954512724953031 -0.1779565805699026 0 -0.1270726151334082 -0.1769717723555001 0 -0.12197421661840881 -0.16456170654682339 0 -0.12079362057500891 -0.1528381181261606 0 -0.10801179711057469 -0.15607603396990569 0 -0.12079362057500891 -0.1528381181261606 0 -0.12304686532982589 -0.14444358147784259 0 -0.13111375551216781 -0.1487985736047113 0 -0.12079362057500891 -0.1528381181261606 0 -0.12304686532982589 -0.14444358147784259 0 -0.1142795720663571 -0.1481595834801793 0 -0.12197421661840881 -0.16456170654682339 0 -0.12079362057500891 -0.1528381181261606 0 -0.13111375551216781 -0.1487985736047113 0 -0.12304686532982589 -0.14444358147784259 0 -0.1142795720663571 -0.1481595834801793 0 -0.1169607495387586 -0.13609229543847601 0 -0.1142795720663571 -0.1481595834801793 0 -0.10344042669625381 -0.14368935474476691 0 -0.1169607495387586 -0.13609229543847601 0 -0.12079362057500891 -0.1528381181261606 0 -0.1142795720663571 -0.1481595834801793 0 -0.10801179711057469 -0.15607603396990569 0 -0.1142795720663571 -0.1481595834801793 0 -0.10801179711057469 -0.15607603396990569 0 -0.10344042669625381 -0.14368935474476691 0 -0.091085515369974515 -0.15290894290183249 0 -0.091694461779323458 -0.1340959511989559 0 -0.10344042669625381 -0.14368935474476691 0 -0.091085515369974515 -0.15290894290183249 0 -0.10801179711057469 -0.15607603396990569 0 -0.10344042669625381 -0.14368935474476691 0 -0.1035515218509568 -0.1162319249986364 0 -0.091694461779323458 -0.1340959511989559 0 -0.1057046811143998 -0.131526261385745 0 -0.091694461779323458 -0.1340959511989559 0 -0.10344042669625381 -0.14368935474476691 0 -0.1057046811143998 -0.131526261385745 0 -0.10344042669625381 -0.14368935474476691 0 -0.1057046811143998 -0.131526261385745 0 -0.1169607495387586 -0.13609229543847601 0 -0.11414468044548989 -0.1206841075123688 0 -0.1057046811143998 -0.131526261385745 0 -0.1169607495387586 -0.13609229543847601 0 -0.12304686532982589 -0.14444358147784259 0 -0.1169607495387586 -0.13609229543847601 0 -0.13014722809938159 -0.13682324842221019 0 -0.1169607495387586 -0.13609229543847601 0 -0.1239554800463111 -0.12604821973250921 0 -0.13014722809938159 -0.13682324842221019 0 -0.11414468044548989 -0.1206841075123688 0 -0.1169607495387586 -0.13609229543847601 0 -0.1239554800463111 -0.12604821973250921 0 -0.1239554800463111 -0.12604821973250921 0 -0.13014722809938159 -0.13682324842221019 0 -0.13102689637601669 -0.12416147496774529 0 -0.13014722809938159 -0.13682324842221019 0 -0.14194001191156991 -0.13287688612314091 0 -0.13626447168791089 -0.142257980857254 0 -0.13014722809938159 -0.13682324842221019 0 -0.14194001191156991 -0.13287688612314091 0 -0.13102689637601669 -0.12416147496774529 0 -0.14769867998398081 -0.12575373237432191 0 -0.15917236839189991 -0.15312237557187261 0 -0.14769867998398081 -0.12575373237432191 0 -0.14194001191156991 -0.13287688612314091 0 -0.1496370400228286 -0.14194423570990311 0 -0.14769867998398081 -0.12575373237432191 0 -0.1604556635001895 -0.13860247391871461 0 -0.15917236839189991 -0.15312237557187261 0 -0.14769867998398081 -0.12575373237432191 0 -0.1496370400228286 -0.14194423570990311 0 -0.15917236839189991 -0.15312237557187261 0 -0.14769867998398081 -0.12575373237432191 0 -0.15661340788135469 -0.1273547789982559 0 -0.1604556635001895 -0.13860247391871461 0 -0.14194001191156991 -0.13287688612314091 0 -0.14973709980386379 -0.15602394877027689 0 -0.14038589473702601 -0.15010907010545499 0 -0.14194001191156991 -0.13287688612314091 0 -0.14973709980386379 -0.15602394877027689 0 -0.14194001191156991 -0.13287688612314091 0 -0.14973709980386379 -0.15602394877027689 0 -0.1496370400228286 -0.14194423570990311 0 -0.14973709980386379 -0.15602394877027689 0 -0.1496370400228286 -0.14194423570990311 0 -0.15917236839189991 -0.15312237557187261 0 -0.14973709980386379 -0.15602394877027689 0 -0.15917236839189991 -0.15312237557187261 0 -0.12197421661840881 -0.16456170654682339 0 -0.14038589473702601 -0.15010907010545499 0 -0.13111375551216781 -0.1487985736047113 0 -0.14194001191156991 -0.13287688612314091 0 -0.14038589473702601 -0.15010907010545499 0 -0.13626447168791089 -0.142257980857254 0 -0.14038589473702601 -0.15010907010545499 0 -0.13626447168791089 -0.142257980857254 0 -0.13111375551216781 -0.1487985736047113 0 -0.12304686532982589 -0.14444358147784259 0 -0.13014722809938159 -0.13682324842221019 0 -0.13111375551216781 -0.1487985736047113 0 -0.13014722809938159 -0.13682324842221019 0 -0.13626447168791089 -0.142257980857254 0 -0.13111375551216781 -0.1487985736047113 0 -0.12197421661840881 -0.16456170654682339 0 -0.14973709980386379 -0.15602394877027689 0 -0.14038589473702601 -0.15010907010545499 0 -0.12197421661840881 -0.16456170654682339 0 -0.14973709980386379 -0.15602394877027689 0 -0.12197421661840881 -0.16456170654682339 0 -0.14973709980386379 -0.15602394877027689 0 -0.13755026631710221 -0.16464221507958099 0 -0.1270726151334082 -0.1769717723555001 0 -0.1514171337127295 -0.16101143264572371 0 -0.13755026631710221 -0.16464221507958099 0 -0.1270726151334082 -0.1769717723555001 0 -0.1514171337127295 -0.16101143264572371 0 -0.12197421661840881 -0.16456170654682339 0 -0.13755026631710221 -0.16464221507958099 0 -0.1270726151334082 -0.1769717723555001 0 -0.13142026151896011 -0.18517977374180339 0 -0.1270726151334082 -0.1769717723555001 0 -0.1541257019800566 -0.16905230639683469 0 -0.1541257019800566 -0.16905230639683469 0 -0.1588712205117285 -0.18314023464172821 0 -0.1470323232185981 -0.19086507846671841 0 -0.13142026151896011 -0.18517977374180339 0 -0.1541257019800566 -0.16905230639683469 0 -0.13142026151896011 -0.18517977374180339 0 -0.1541257019800566 -0.16905230639683469 0 -0.1470323232185981 -0.19086507846671841 0 -0.1270726151334082 -0.1769717723555001 0 -0.1541257019800566 -0.16905230639683469 0 -0.1514171337127295 -0.16101143264572371 0 -0.14973709980386379 -0.15602394877027689 0 -0.13755026631710221 -0.16464221507958099 0 -0.1514171337127295 -0.16101143264572371 0 -0.1541257019800566 -0.16905230639683469 0 -0.1514171337127295 -0.16101143264572371 0 -0.1631603539722617 -0.16263507545929301 0 -0.1541257019800566 -0.16905230639683469 0 -0.1514171337127295 -0.16101143264572371 0 -0.14973709980386379 -0.15602394877027689 0 -0.1514171337127295 -0.16101143264572371 0 -0.16009468170907709 -0.15532240604130251 0 -0.1514171337127295 -0.16101143264572371 0 -0.16009468170907709 -0.15532240604130251 0 -0.14973709980386379 -0.15602394877027689 0 -0.1514171337127295 -0.16101143264572371 0 -0.1514171337127295 -0.16101143264572371 0 -0.1631603539722617 -0.16263507545929301 0 -0.16009468170907709 -0.15532240604130251 0 -0.1631603539722617 -0.16263507545929301 0 -0.16009468170907709 -0.15532240604130251 0 -0.1541257019800566 -0.16905230639683469 0 -0.1631603539722617 -0.16263507545929301 0 -0.16938403955981751 -0.1774806790841546 0 -0.1541257019800566 -0.16905230639683469 0 -0.1631603539722617 -0.16263507545929301 0 -0.1631603539722617 -0.16263507545929301 0 -0.16938403955981751 -0.1774806790841546 0 -0.1631603539722617 -0.16263507545929301 0 -0.16938403955981751 -0.1774806790841546 0 -0.17333493760872429 -0.167859705149455 0 -0.1631603539722617 -0.16263507545929301 0 -0.17333493760872429 -0.167859705149455 0 -0.17649201929192879 -0.15316571513283281 0 -0.1631603539722617 -0.16263507545929301 0 -0.17649201929192879 -0.15316571513283281 0 -0.1541257019800566 -0.16905230639683469 0 -0.1588712205117285 -0.18314023464172821 0 -0.1541257019800566 -0.16905230639683469 0 -0.1588712205117285 -0.18314023464172821 0 -0.16938403955981751 -0.1774806790841546 0 -0.16938403955981751 -0.1774806790841546 0 -0.17712976598835251 -0.17996341923131731 0 -0.1687127796209196 -0.1888275298745429 0 -0.1588712205117285 -0.18314023464172821 0 -0.16938403955981751 -0.1774806790841546 0 -0.1687127796209196 -0.1888275298745429 0 -0.17712976598835251 -0.17996341923131731 0 -0.1687127796209196 -0.1888275298745429 0 -0.1783576489909309 -0.189882738144381 0 -0.16938403955981751 -0.1774806790841546 0 -0.17712976598835251 -0.17996341923131731 0 -0.17333493760872429 -0.167859705149455 0 -0.17712976598835251 -0.17996341923131731 0 -0.17333493760872429 -0.167859705149455 0 -0.1847441478098443 -0.16932799715588401 0 -0.17712976598835251 -0.17996341923131731 0 -0.18720433163623679 -0.18299602510278329 0 -0.1847441478098443 -0.16932799715588401 0 -0.17712976598835251 -0.17996341923131731 0 -0.18720433163623679 -0.18299602510278329 0 -0.1783576489909309 -0.189882738144381 0 -0.1847441478098443 -0.16932799715588401 0 -0.17649201929192879 -0.15316571513283281 0 -0.19498558996891979 -0.15827588157350581 0 -0.17333493760872429 -0.167859705149455 0 -0.1847441478098443 -0.16932799715588401 0 -0.17649201929192879 -0.15316571513283281 0 -0.17521164319948529 -0.14541168055374001 0 -0.1672300311037114 -0.15064444948548661 0 -0.1898236846115984 -0.14369635480637619 0 -0.17649201929192879 -0.15316571513283281 0 -0.1898236846115984 -0.14369635480637619 0 -0.19498558996891979 -0.15827588157350581 0 -0.1672300311037114 -0.15064444948548661 0 -0.1898236846115984 -0.14369635480637619 0 -0.17649201929192879 -0.15316571513283281 0 -0.1672300311037114 -0.15064444948548661 0 -0.1898236846115984 -0.14369635480637619 0 -0.17521164319948529 -0.14541168055374001 0 -0.1812809330133853 -0.137320521037919 0 -0.16927838154983391 -0.13924501242612181 0 -0.17649201929192879 -0.15316571513283281 0 -0.1898236846115984 -0.14369635480637619 0 -0.17521164319948529 -0.14541168055374001 0 -0.1812809330133853 -0.137320521037919 0 -0.1898236846115984 -0.14369635480637619 0 -0.1812809330133853 -0.137320521037919 0 -0.1783475089701913 -0.12864354258468311 0 -0.19152505706042389 -0.12655640519304909 0 -0.1783475089701913 -0.12864354258468311 0 -0.16927838154983391 -0.13924501242612181 0 -0.16804936007170951 -0.12684279294851589 0 -0.1812809330133853 -0.137320521037919 0 -0.1783475089701913 -0.12864354258468311 0 -0.16927838154983391 -0.13924501242612181 0 -0.16927838154983391 -0.13924501242612181 0 -0.16357061481432161 -0.1344722934549992 0 -0.1604556635001895 -0.13860247391871461 0 -0.16927838154983391 -0.13924501242612181 0 -0.16804936007170951 -0.12684279294851589 0 -0.16357061481432161 -0.1344722934549992 0 -0.16804936007170951 -0.12684279294851589 0 -0.15661340788135469 -0.1273547789982559 0 -0.16357061481432161 -0.1344722934549992 0 -0.15661340788135469 -0.1273547789982559 0 -0.16357061481432161 -0.1344722934549992 0 -0.1604556635001895 -0.13860247391871461 0 -0.1604556635001895 -0.13860247391871461 0 -0.15917236839189991 -0.15312237557187261 0 -0.1672300311037114 -0.15064444948548661 0 -0.15917236839189991 -0.15312237557187261 0 -0.16009468170907709 -0.15532240604130251 0 -0.1672300311037114 -0.15064444948548661 0 -0.14973709980386379 -0.15602394877027689 0 -0.15917236839189991 -0.15312237557187261 0 -0.16009468170907709 -0.15532240604130251 0 -0.1631603539722617 -0.16263507545929301 0 -0.16009468170907709 -0.15532240604130251 0 -0.1672300311037114 -0.15064444948548661 0 -0.15917236839189991 -0.15312237557187261 0 -0.1672300311037114 -0.15064444948548661 0 -0.15917236839189991 -0.15312237557187261 0 -0.16009468170907709 -0.15532240604130251 0 -0.16009468170907709 -0.15532240604130251 0 -0.1672300311037114 -0.15064444948548661 0 -0.1631603539722617 -0.16263507545929301 0 -0.17649201929192879 -0.15316571513283281 0 -0.1672300311037114 -0.15064444948548661 0 -0.17521164319948529 -0.14541168055374001 0 -0.16927838154983391 -0.13924501242612181 0 -0.1672300311037114 -0.15064444948548661 0 -0.16927838154983391 -0.13924501242612181 0 -0.1604556635001895 -0.13860247391871461 0 -0.1672300311037114 -0.15064444948548661 0 -0.17521164319948529 -0.14541168055374001 0 -0.1672300311037114 -0.15064444948548661 0 -0.1403691958144051 -0.25091306602697511 0 -0.15835245211366589 -0.23667575916966591 0 -0.1403691958144051 -0.25091306602697511 0 -0.1361229249397265 -0.2356416417404536 0 -0.15835245211366589 -0.23667575916966591 0 -0.1361229249397265 -0.2356416417404536 0 -0.15835245211366589 -0.23667575916966591 0 -0.1567095298194581 -0.25098612554623639 0 -0.14283944422994119 -0.25243440783936488 0 -0.15835245211366589 -0.23667575916966591 0 -0.1403691958144051 -0.25091306602697511 0 -0.14283944422994119 -0.25243440783936488 0 -0.15835245211366589 -0.23667575916966591 0 -0.1138933977657872 -0.23460752431124149 0 -0.1361229249397265 -0.2356416417404536 0 -0.1138933977657872 -0.23460752431124149 0 -0.12713129679009599 -0.24276029516910849 0 -0.1361229249397265 -0.2356416417404536 0 -0.1403691958144051 -0.25091306602697511 0 -0.12713129679009599 -0.24276029516910849 0 -0.1361229249397265 -0.2356416417404536 0 -0.1403691958144051 -0.25091306602697511 0 -0.12713129679009599 -0.24276029516910849 0 -0.1361229249397265 -0.2356416417404536 0 -0.13924387552084189 -0.22123709260342669 0 -0.1259124619453828 -0.21568561600977459 0 -0.1138933977657872 -0.23460752431124149 0 -0.1361229249397265 -0.2356416417404536 0 -0.1259124619453828 -0.21568561600977459 0 -0.1361229249397265 -0.2356416417404536 0 -0.13924387552084189 -0.22123709260342669 0 -0.1531436575814768 -0.2225691113222249 0 -0.1361229249397265 -0.2356416417404536 0 -0.1531436575814768 -0.2225691113222249 0 -0.15835245211366589 -0.23667575916966591 0 -0.1531436575814768 -0.2225691113222249 0 -0.14870136130366199 -0.2082867112661389 0 -0.16271580461596019 -0.2102391348634603 0 -0.13924387552084189 -0.22123709260342669 0 -0.1531436575814768 -0.2225691113222249 0 -0.14870136130366199 -0.2082867112661389 0 -0.13924387552084189 -0.22123709260342669 0 -0.1259124619453828 -0.21568561600977459 0 -0.13348444783266239 -0.20226843757292789 0 -0.13924387552084189 -0.22123709260342669 0 -0.14870136130366199 -0.2082867112661389 0 -0.13348444783266239 -0.20226843757292789 0 -0.13142026151896011 -0.18517977374180339 0 -0.13348444783266239 -0.20226843757292789 0 -0.1470323232185981 -0.19086507846671841 0 -0.14870136130366199 -0.2082867112661389 0 -0.1470323232185981 -0.19086507846671841 0 -0.1589481046955496 -0.19830218081134049 0 -0.14870136130366199 -0.2082867112661389 0 -0.13348444783266239 -0.20226843757292789 0 -0.1470323232185981 -0.19086507846671841 0 -0.1588712205117285 -0.18314023464172821 0 -0.1470323232185981 -0.19086507846671841 0 -0.1589481046955496 -0.19830218081134049 0 -0.1588712205117285 -0.18314023464172821 0 -0.1589481046955496 -0.19830218081134049 0 -0.1687127796209196 -0.1888275298745429 0 -0.1589481046955496 -0.19830218081134049 0 -0.16738426364480041 -0.1973398095607751 0 -0.16777532614744331 -0.20339348261951851 0 -0.16738426364480041 -0.1973398095607751 0 -0.17410084411528931 -0.19883604493769849 0 -0.16777532614744331 -0.20339348261951851 0 -0.16738426364480041 -0.1973398095607751 0 -0.1687127796209196 -0.1888275298745429 0 -0.17410084411528931 -0.19883604493769849 0 -0.1589481046955496 -0.19830218081134049 0 -0.16738426364480041 -0.1973398095607751 0 -0.1687127796209196 -0.1888275298745429 0 -0.1687127796209196 -0.1888275298745429 0 -0.1783576489909309 -0.189882738144381 0 -0.17410084411528931 -0.19883604493769849 0 -0.1783576489909309 -0.189882738144381 0 -0.18552211558264109 -0.1962493649143324 0 -0.17410084411528931 -0.19883604493769849 0 -0.18720433163623679 -0.18299602510278329 0 -0.1783576489909309 -0.189882738144381 0 -0.18552211558264109 -0.1962493649143324 0 -0.17974426108361641 -0.20286898813495799 0 -0.18552211558264109 -0.1962493649143324 0 -0.17410084411528931 -0.19883604493769849 0 -0.17974426108361641 -0.20286898813495799 0 -0.18552211558264109 -0.1962493649143324 0 -0.18391001833230061 -0.2066240262838393 0 -0.17410084411528931 -0.19883604493769849 0 -0.17544406630423451 -0.20976651640396171 0 -0.16777532614744331 -0.20339348261951851 0 -0.17974426108361641 -0.20286898813495799 0 -0.17410084411528931 -0.19883604493769849 0 -0.17544406630423451 -0.20976651640396171 0 -0.17974426108361641 -0.20286898813495799 0 -0.17544406630423451 -0.20976651640396171 0 -0.18391001833230061 -0.2066240262838393 0 -0.17544406630423451 -0.20976651640396171 0 -0.1658877124730693 -0.2199050353297845 0 -0.17932287509871331 -0.2200735186189392 0 -0.17544406630423451 -0.20976651640396171 0 -0.18391001833230061 -0.2066240262838393 0 -0.17932287509871331 -0.2200735186189392 0 -0.17544406630423451 -0.20976651640396171 0 -0.16271580461596019 -0.2102391348634603 0 -0.1658877124730693 -0.2199050353297845 0 -0.17544406630423451 -0.20976651640396171 0 -0.16777532614744331 -0.20339348261951851 0 -0.16271580461596019 -0.2102391348634603 0 -0.1589481046955496 -0.19830218081134049 0 -0.16777532614744331 -0.20339348261951851 0 -0.16271580461596019 -0.2102391348634603 0 -0.14870136130366199 -0.2082867112661389 0 -0.1589481046955496 -0.19830218081134049 0 -0.16271580461596019 -0.2102391348634603 0 -0.1531436575814768 -0.2225691113222249 0 -0.16271580461596019 -0.2102391348634603 0 -0.1658877124730693 -0.2199050353297845 0 -0.17932287509871331 -0.2200735186189392 0 -0.15835245211366589 -0.23667575916966591 0 -0.1531436575814768 -0.2225691113222249 0 -0.1658877124730693 -0.2199050353297845 0 -0.15835245211366589 -0.23667575916966591 0 -0.1658877124730693 -0.2199050353297845 0 -0.17932287509871331 -0.2200735186189392 0 -0.15835245211366589 -0.23667575916966591 0 -0.17932287509871331 -0.2200735186189392 0 -0.1844298958015663 -0.23788888164482999 0 -0.15835245211366589 -0.23667575916966591 0 -0.17932287509871331 -0.2200735186189392 0 -0.1840901749413584 -0.22455320504102211 0 -0.1844298958015663 -0.23788888164482999 0 -0.17932287509871331 -0.2200735186189392 0 -0.1840901749413584 -0.22455320504102211 0 -0.1955421437151271 -0.2186626704705118 0 -0.1840901749413584 -0.22455320504102211 0 -0.1844298958015663 -0.23788888164482999 0 -0.1909728423241045 -0.23437925277709989 0 -0.1844298958015663 -0.23788888164482999 0 -0.18304556088669491 -0.24901181650649459 0 -0.1888321255202447 -0.24367408901664109 0 -0.1844298958015663 -0.23788888164482999 0 -0.18304556088669491 -0.24901181650649459 0 -0.17096101338676031 -0.24733675592071611 0 -0.1844298958015663 -0.23788888164482999 0 -0.15835245211366589 -0.23667575916966591 0 -0.1844298958015663 -0.23788888164482999 0 -0.17096101338676031 -0.24733675592071611 0 -0.15835245211366589 -0.23667575916966591 0 -0.1567095298194581 -0.25098612554623639 0 -0.17096101338676031 -0.24733675592071611 0 -0.15835245211366589 -0.23667575916966591 0 -0.226781963338341 -0.25039823210532269 0 -0.20274142271101639 -0.23584441633691261 0 -0.226781963338341 -0.25039823210532269 0 -0.21706680168834369 -0.2359025974548658 0 -0.20274142271101639 -0.23584441633691261 0 -0.226781963338341 -0.25039823210532269 0 -0.2119300112202292 -0.2477988027976491 0 -0.20274142271101639 -0.23584441633691261 0 -0.21706680168834369 -0.2359025974548658 0 -0.20274142271101639 -0.23584441633691261 0 -0.20402630815413361 -0.23186651248410109 0 -0.2119300112202292 -0.2477988027976491 0 -0.203219710196472 -0.24498532630231179 0 -0.20672753040619921 -0.2493436236836028 0 -0.2119300112202292 -0.2477988027976491 0 -0.203219710196472 -0.24498532630231179 0 -0.20274142271101639 -0.23584441633691261 0 -0.2086390279796457 -0.25224625467968192 0 -0.2119300112202292 -0.2477988027976491 0 -0.20672753040619921 -0.2493436236836028 0 -0.20395346744563289 -0.25144749885754442 0 -0.203219710196472 -0.24498532630231179 0 -0.20672753040619921 -0.2493436236836028 0 -0.1974845563012321 -0.25211925955909159 0 -0.20274142271101639 -0.23584441633691261 0 -0.1974845563012321 -0.25211925955909159 0 -0.20395346744563289 -0.25144749885754442 0 -0.203219710196472 -0.24498532630231179 0 -0.1974845563012321 -0.25211925955909159 0 -0.203219710196472 -0.24498532630231179 0 -0.20274142271101639 -0.23584441633691261 0 -0.1974845563012321 -0.25211925955909159 0 -0.1944546464084827 -0.248243754792105 0 -0.20274142271101639 -0.23584441633691261 0 -0.18304556088669491 -0.24901181650649459 0 -0.1944546464084827 -0.248243754792105 0 -0.1888321255202447 -0.24367408901664109 0 -0.1944546464084827 -0.248243754792105 0 -0.1888321255202447 -0.24367408901664109 0 -0.19262987584247679 -0.23923050808563481 0 -0.1844298958015663 -0.23788888164482999 0 -0.1888321255202447 -0.24367408901664109 0 -0.19262987584247679 -0.23923050808563481 0 -0.1844298958015663 -0.23788888164482999 0 -0.1909728423241045 -0.23437925277709989 0 -0.19262987584247679 -0.23923050808563481 0 -0.1944546464084827 -0.248243754792105 0 -0.19262987584247679 -0.23923050808563481 0 -0.20274142271101639 -0.23584441633691261 0 -0.1909728423241045 -0.23437925277709989 0 -0.19262987584247679 -0.23923050808563481 0 -0.20274142271101639 -0.23584441633691261 0 -0.1840901749413584 -0.22455320504102211 0 -0.20274142271101639 -0.23584441633691261 0 -0.20402630815413361 -0.23186651248410109 0 -0.1840901749413584 -0.22455320504102211 0 -0.20274142271101639 -0.23584441633691261 0 -0.1840901749413584 -0.22455320504102211 0 -0.20402630815413361 -0.23186651248410109 0 -0.1955421437151271 -0.2186626704705118 0 -0.1840901749413584 -0.22455320504102211 0 -0.1909728423241045 -0.23437925277709989 0 -0.20274142271101639 -0.23584441633691261 0 -0.21706680168834369 -0.2359025974548658 0 -0.2123117585418442 -0.21978232533765599 0 -0.1955421437151271 -0.2186626704705118 0 -0.21706680168834369 -0.2359025974548658 0 -0.20402630815413361 -0.23186651248410109 0 -0.1955421437151271 -0.2186626704705118 0 -0.21706680168834369 -0.2359025974548658 0 -0.1955421437151271 -0.2186626704705118 0 -0.20274142271101639 -0.23584441633691261 0 -0.20402630815413361 -0.23186651248410109 0 -0.2123117585418442 -0.21978232533765599 0 -0.2055612137616023 -0.21197690683374551 0 -0.1955421437151271 -0.2186626704705118 0 -0.2123117585418442 -0.21978232533765599 0 -0.2140976547056771 -0.20599135345860151 0 -0.2271326855173216 -0.21195060945260971 0 -0.2140976547056771 -0.20599135345860151 0 -0.2055612137616023 -0.21197690683374551 0 -0.2002932980837609 -0.2034712780682128 0 -0.2123117585418442 -0.21978232533765599 0 -0.2140976547056771 -0.20599135345860151 0 -0.2055612137616023 -0.21197690683374551 0 -0.2055612137616023 -0.21197690683374551 0 -0.1955421437151271 -0.2186626704705118 0 -0.2002932980837609 -0.2034712780682128 0 -0.17932287509871331 -0.2200735186189392 0 -0.1955421437151271 -0.2186626704705118 0 -0.2002932980837609 -0.2034712780682128 0 -0.17932287509871331 -0.2200735186189392 0 -0.2002932980837609 -0.2034712780682128 0 -0.18391001833230061 -0.2066240262838393 0 -0.17932287509871331 -0.2200735186189392 0 -0.2002932980837609 -0.2034712780682128 0 -0.18552211558264109 -0.1962493649143324 0 -0.2002932980837609 -0.2034712780682128 0 -0.20028773902837491 -0.18752279193888549 0 -0.18552211558264109 -0.1962493649143324 0 -0.18391001833230061 -0.2066240262838393 0 -0.2002932980837609 -0.2034712780682128 0 -0.18720433163623679 -0.18299602510278329 0 -0.18552211558264109 -0.1962493649143324 0 -0.20028773902837491 -0.18752279193888549 0 -0.2002932980837609 -0.2034712780682128 0 -0.20028773902837491 -0.18752279193888549 0 -0.21548468891151909 -0.1898755075801683 0 -0.2140976547056771 -0.20599135345860151 0 -0.2002932980837609 -0.2034712780682128 0 -0.21548468891151909 -0.1898755075801683 0 -0.2140976547056771 -0.20599135345860151 0 -0.21548468891151909 -0.1898755075801683 0 -0.23115689653745231 -0.1944088062047474 0 -0.23115689653745231 -0.1944088062047474 0 -0.24705882299678461 -0.18756482387501719 0 -0.24369663819963541 -0.20477989217108031 0 -0.24369663819963541 -0.20477989217108031 0 -0.24190295796283459 -0.22160586984363309 0 -0.25326563004319919 -0.2127641927454634 0 -0.24369663819963541 -0.20477989217108031 0 -0.2271326855173216 -0.21195060945260971 0 -0.24190295796283459 -0.22160586984363309 0 -0.23115689653745231 -0.1944088062047474 0 -0.24369663819963541 -0.20477989217108031 0 -0.2271326855173216 -0.21195060945260971 0 -0.2140976547056771 -0.20599135345860151 0 -0.23115689653745231 -0.1944088062047474 0 -0.2271326855173216 -0.21195060945260971 0 -0.21706680168834369 -0.2359025974548658 0 -0.2123117585418442 -0.21978232533765599 0 -0.227002564265539 -0.22504145487932739 0 -0.21706680168834369 -0.2359025974548658 0 -0.227002564265539 -0.22504145487932739 0 -0.23659861761735071 -0.23596587230787219 0 -0.2123117585418442 -0.21978232533765599 0 -0.2271326855173216 -0.21195060945260971 0 -0.227002564265539 -0.22504145487932739 0 -0.2271326855173216 -0.21195060945260971 0 -0.227002564265539 -0.22504145487932739 0 -0.24190295796283459 -0.22160586984363309 0 -0.24190295796283459 -0.22160586984363309 0 -0.23659861761735071 -0.23596587230787219 0 -0.25120040017981099 -0.23486924020649069 0 -0.227002564265539 -0.22504145487932739 0 -0.24190295796283459 -0.22160586984363309 0 -0.23659861761735071 -0.23596587230787219 0 -0.23859145966156051 -0.25314252443921992 0 -0.23659861761735071 -0.23596587230787219 0 -0.24794684516777099 -0.24523412413146431 0 -0.23659861761735071 -0.23596587230787219 0 -0.24794684516777099 -0.24523412413146431 0 -0.25120040017981099 -0.23486924020649069 0 -0.23859145966156051 -0.25314252443921992 0 -0.21706680168834369 -0.2359025974548658 0 -0.226781963338341 -0.25039823210532269 0 -0.23859145966156051 -0.25314252443921992 0 -0.21706680168834369 -0.2359025974548658 0 -0.23859145966156051 -0.25314252443921992 0 -0.21706680168834369 -0.2359025974548658 0 -0.23659861761735071 -0.23596587230787219 0 -0.2123655506575487 -0.13676418602383131 0 -0.19498558996891979 -0.15827588157350581 0 -0.21707308771110989 -0.15888389334152889 0 -0.2124452308870988 -0.12762847673653491 0 -0.2123655506575487 -0.13676418602383131 0 -0.1898236846115984 -0.14369635480637619 0 -0.2124452308870988 -0.12762847673653491 0 -0.1898236846115984 -0.14369635480637619 0 -0.2124452308870988 -0.12762847673653491 0 -0.19152505706042389 -0.12655640519304909 0 -0.1898236846115984 -0.14369635480637619 0 -0.1812809330133853 -0.137320521037919 0 -0.19152505706042389 -0.12655640519304909 0 -0.1898236846115984 -0.14369635480637619 0 -0.2123655506575487 -0.13676418602383131 0 -0.1898236846115984 -0.14369635480637619 0 -0.2123655506575487 -0.13676418602383131 0 -0.1898236846115984 -0.14369635480637619 0 -0.19498558996891979 -0.15827588157350581 0 -0.1847441478098443 -0.16932799715588401 0 -0.19498558996891979 -0.15827588157350581 0 -0.19942007942322229 -0.1728263772839585 0 -0.18720433163623679 -0.18299602510278329 0 -0.1847441478098443 -0.16932799715588401 0 -0.19942007942322229 -0.1728263772839585 0 -0.18720433163623679 -0.18299602510278329 0 -0.20028773902837491 -0.18752279193888549 0 -0.19942007942322229 -0.1728263772839585 0 -0.20028773902837491 -0.18752279193888549 0 -0.21548468891151909 -0.1898755075801683 0 -0.2141208808499859 -0.17323759311236189 0 -0.20028773902837491 -0.18752279193888549 0 -0.19942007942322229 -0.1728263772839585 0 -0.2141208808499859 -0.17323759311236189 0 -0.19498558996891979 -0.15827588157350581 0 -0.19942007942322229 -0.1728263772839585 0 -0.21707308771110989 -0.15888389334152889 0 -0.19942007942322229 -0.1728263772839585 0 -0.2141208808499859 -0.17323759311236189 0 -0.21707308771110989 -0.15888389334152889 0 -0.2141208808499859 -0.17323759311236189 0 -0.21707308771110989 -0.15888389334152889 0 -0.2325436841868819 -0.1741209022052897 0 -0.21707308771110989 -0.15888389334152889 0 -0.2325436841868819 -0.1741209022052897 0 -0.23070425259021779 -0.14875167670131609 0 -0.21548468891151909 -0.1898755075801683 0 -0.23115689653745231 -0.1944088062047474 0 -0.2325436841868819 -0.1741209022052897 0 -0.21548468891151909 -0.1898755075801683 0 -0.2141208808499859 -0.17323759311236189 0 -0.2325436841868819 -0.1741209022052897 0 -0.23115689653745231 -0.1944088062047474 0 -0.24705882299678461 -0.18756482387501719 0 -0.2325436841868819 -0.1741209022052897 0 -0.24705882299678461 -0.18756482387501719 0 -0.2325436841868819 -0.1741209022052897 0 -0.25261735106438471 -0.17160910915532521 0 -0.2325436841868819 -0.1741209022052897 0 -0.2491348430240678 -0.15263443203168051 0 -0.25261735106438471 -0.17160910915532521 0 -0.2325436841868819 -0.1741209022052897 0 -0.2491348430240678 -0.15263443203168051 0 -0.23070425259021779 -0.14875167670131609 0 -0.2491348430240678 -0.15263443203168051 0 -0.23070425259021779 -0.14875167670131609 0 -0.2349074167034986 -0.1298320172412851 0 -0.2123655506575487 -0.13676418602383131 0 -0.21707308771110989 -0.15888389334152889 0 -0.23070425259021779 -0.14875167670131609 0 -0.2123655506575487 -0.13676418602383131 0 -0.23070425259021779 -0.14875167670131609 0 -0.2349074167034986 -0.1298320172412851 0 -0.2123655506575487 -0.13676418602383131 0 -0.2349074167034986 -0.1298320172412851 0 -0.2124452308870988 -0.12762847673653491 0 -0.2123655506575487 -0.13676418602383131 0 -0.2349074167034986 -0.1298320172412851 0 -0.2491348430240678 -0.15263443203168051 0 -0.2349074167034986 -0.1298320172412851 0 -0.25744928274944862 -0.1228998484587389 0 -0.2349074167034986 -0.1298320172412851 0 -0.25744928274944862 -0.1228998484587389 0 -0.2349074167034986 -0.1298320172412851 0 -0.23506677716260591 -0.1115605986667029 0 -0.25744928274944862 -0.1228998484587389 0 -0.23506677716260591 -0.1115605986667029 0 -0.25744928274944862 -0.1228998484587389 0 -0.25643684964458258 -0.096381631022205455 0 -0.23506677716260591 -0.1115605986667029 0 -0.23623421428963429 -0.08317218965040496 0 -0.25193147490638151 -0.088107069721096498 0 -0.23506677716260591 -0.1115605986667029 0 -0.25193147490638151 -0.088107069721096498 0 -0.25643684964458258 -0.096381631022205455 0 -0.23506677716260591 -0.1115605986667029 0 -0.25643684964458258 -0.096381631022205455 0 -0.23506677716260591 -0.1115605986667029 0 -0.25193147490638151 -0.088107069721096498 0 -0.23506677716260591 -0.1115605986667029 0 -0.2196352685978479 -0.099362495567304726 0 -0.23623421428963429 -0.08317218965040496 0 -0.2124452308870988 -0.12762847673653491 0 -0.23506677716260591 -0.1115605986667029 0 -0.2196352685978479 -0.099362495567304726 0 -0.2124452308870988 -0.12762847673653491 0 -0.23506677716260591 -0.1115605986667029 0 -0.2124452308870988 -0.12762847673653491 0 -0.2349074167034986 -0.1298320172412851 0 -0.231915799186868 -0.11594262521020129 0 -0.2349074167034986 -0.1298320172412851 0 -0.23506677716260591 -0.1115605986667029 0 -0.231915799186868 -0.11594262521020129 0 -0.2124452308870988 -0.12762847673653491 0 -0.23506677716260591 -0.1115605986667029 0 -0.231915799186868 -0.11594262521020129 0 -0.23506677716260591 -0.1115605986667029 0 -0.231915799186868 -0.11594262521020129 0 -0.23961628114503061 -0.069828736357944066 0 -0.23623421428963429 -0.08317218965040496 0 -0.22889346362450511 -0.063245519250247739 0 -0.23961628114503061 -0.069828736357944066 0 -0.22889346362450511 -0.063245519250247739 0 -0.23980447274095579 -0.056351413916028083 0 -0.23961628114503061 -0.069828736357944066 0 -0.24945893258419219 -0.068538939697580473 0 -0.23980447274095579 -0.056351413916028083 0 -0.23961628114503061 -0.069828736357944066 0 -0.24945893258419219 -0.068538939697580473 0 -0.2436903224858657 -0.07783561927545915 0 -0.23961628114503061 -0.069828736357944066 0 -0.2436903224858657 -0.07783561927545915 0 -0.23623421428963429 -0.08317218965040496 0 -0.24945893258419219 -0.068538939697580473 0 -0.2436903224858657 -0.07783561927545915 0 -0.25193147490638151 -0.088107069721096498 0 -0.2436903224858657 -0.07783561927545915 0 -0.23623421428963429 -0.08317218965040496 0 -0.25193147490638151 -0.088107069721096498 0 -0.23623421428963429 -0.08317218965040496 0 -0.2092099462444173 -0.07462813466957316 0 -0.2196352685978479 -0.099362495567304726 0 -0.23623421428963429 -0.08317218965040496 0 -0.2092099462444173 -0.07462813466957316 0 -0.23623421428963429 -0.08317218965040496 0 -0.22889346362450511 -0.063245519250247739 0 -0.2092099462444173 -0.07462813466957316 0 -0.22889346362450511 -0.063245519250247739 0 -0.2092099462444173 -0.07462813466957316 0 -0.212611179924063 -0.051771575971462203 0 -0.2196352685978479 -0.099362495567304726 0 -0.2092099462444173 -0.07462813466957316 0 -0.19905217622970409 -0.1048788414638463 0 -0.2092099462444173 -0.07462813466957316 0 -0.19905217622970409 -0.1048788414638463 0 -0.1787826814712353 -0.089980423640744378 0 -0.2092099462444173 -0.07462813466957316 0 -0.1821856781992004 -0.06608407968874136 0 -0.2092099462444173 -0.07462813466957316 0 -0.1787826814712353 -0.089980423640744378 0 -0.1821856781992004 -0.06608407968874136 0 -0.2124452308870988 -0.12762847673653491 0 -0.2196352685978479 -0.099362495567304726 0 -0.19905217622970409 -0.1048788414638463 0 -0.19152505706042389 -0.12655640519304909 0 -0.19905217622970409 -0.1048788414638463 0 -0.17848866417572651 -0.1141273071578796 0 -0.2124452308870988 -0.12762847673653491 0 -0.19152505706042389 -0.12655640519304909 0 -0.19905217622970409 -0.1048788414638463 0 -0.1783475089701913 -0.12864354258468311 0 -0.19152505706042389 -0.12655640519304909 0 -0.17848866417572651 -0.1141273071578796 0 -0.1783475089701913 -0.12864354258468311 0 -0.16804936007170951 -0.12684279294851589 0 -0.17848866417572651 -0.1141273071578796 0 -0.17848866417572651 -0.1141273071578796 0 -0.16199758303882911 -0.1172138230691562 0 -0.16490390167273311 -0.1032931237634401 0 -0.16804936007170951 -0.12684279294851589 0 -0.17848866417572651 -0.1141273071578796 0 -0.16199758303882911 -0.1172138230691562 0 -0.16804936007170951 -0.12684279294851589 0 -0.15661340788135469 -0.1273547789982559 0 -0.16199758303882911 -0.1172138230691562 0 -0.15661340788135469 -0.1273547789982559 0 -0.16199758303882911 -0.1172138230691562 0 -0.15098548633746339 -0.1148934476337406 0 -0.16490390167273311 -0.1032931237634401 0 -0.1787826814712353 -0.089980423640744378 0 -0.15285781047078359 -0.089384250399222709 0 -0.16490390167273311 -0.1032931237634401 0 -0.15285781047078359 -0.089384250399222709 0 -0.15239276920709111 -0.1057598145501977 0 -0.16199758303882911 -0.1172138230691562 0 -0.16490390167273311 -0.1032931237634401 0 -0.15239276920709111 -0.1057598145501977 0 -0.17848866417572651 -0.1141273071578796 0 -0.16490390167273311 -0.1032931237634401 0 -0.1787826814712353 -0.089980423640744378 0 -0.19905217622970409 -0.1048788414638463 0 -0.17848866417572651 -0.1141273071578796 0 -0.1787826814712353 -0.089980423640744378 0 -0.1787826814712353 -0.089980423640744378 0 -0.1821856781992004 -0.06608407968874136 0 -0.16389860777212531 -0.074177504026478741 0 -0.1821856781992004 -0.06608407968874136 0 -0.16389860777212531 -0.074177504026478741 0 -0.1551614101539836 -0.057540024707909587 0 -0.1787826814712353 -0.089980423640744378 0 -0.16389860777212531 -0.074177504026478741 0 -0.15285781047078359 -0.089384250399222709 0 -0.15285781047078359 -0.089384250399222709 0 -0.1404974762897746 -0.069190110063151233 0 -0.13930161292231719 -0.087413920097538678 0 -0.15285781047078359 -0.089384250399222709 0 -0.1404974762897746 -0.069190110063151233 0 -0.15285781047078359 -0.089384250399222709 0 -0.13930161292231719 -0.087413920097538678 0 -0.1457660430990218 -0.095614885305536468 0 -0.16389860777212531 -0.074177504026478741 0 -0.15285781047078359 -0.089384250399222709 0 -0.1404974762897746 -0.069190110063151233 0 -0.16389860777212531 -0.074177504026478741 0 -0.1404974762897746 -0.069190110063151233 0 -0.1551614101539836 -0.057540024707909587 0 -0.1246261469092818 -0.068609811403624432 0 -0.1404974762897746 -0.069190110063151233 0 -0.1318014197346819 -0.080011023380930135 0 -0.12115249620834161 -0.081580447318073956 0 -0.1246261469092818 -0.068609811403624432 0 -0.1318014197346819 -0.080011023380930135 0 -0.1404974762897746 -0.069190110063151233 0 -0.13930161292231719 -0.087413920097538678 0 -0.1318014197346819 -0.080011023380930135 0 -0.13930161292231719 -0.087413920097538678 0 -0.12866193636358 -0.091898162259620303 0 -0.13622499157606149 -0.098385089176771218 0 -0.13930161292231719 -0.087413920097538678 0 -0.1318014197346819 -0.080011023380930135 0 -0.12866193636358 -0.091898162259620303 0 -0.12115249620834161 -0.081580447318073956 0 -0.1318014197346819 -0.080011023380930135 0 -0.12866193636358 -0.091898162259620303 0 -0.1244078583152065 -0.1026920630541093 0 -0.12866193636358 -0.091898162259620303 0 -0.13622499157606149 -0.098385089176771218 0 -0.13930161292231719 -0.087413920097538678 0 -0.13622499157606149 -0.098385089176771218 0 -0.1457660430990218 -0.095614885305536468 0 -0.1242270714554161 -0.1156172565206714 0 -0.1244078583152065 -0.1026920630541093 0 -0.1341429240192907 -0.10972982347599999 0 -0.1244078583152065 -0.1026920630541093 0 -0.13622499157606149 -0.098385089176771218 0 -0.1341429240192907 -0.10972982347599999 0 -0.14194001191156991 -0.13287688612314091 0 -0.1341429240192907 -0.10972982347599999 0 -0.14194001191156991 -0.13287688612314091 0 -0.13102689637601669 -0.12416147496774529 0 -0.1341429240192907 -0.10972982347599999 0 -0.1242270714554161 -0.1156172565206714 0 -0.13102689637601669 -0.12416147496774529 0 -0.1341429240192907 -0.10972982347599999 0 -0.14769867998398081 -0.12575373237432191 0 -0.13622499157606149 -0.098385089176771218 0 -0.1341429240192907 -0.10972982347599999 0 -0.1242270714554161 -0.1156172565206714 0 -0.1239554800463111 -0.12604821973250921 0 -0.13102689637601669 -0.12416147496774529 0 -0.14769867998398081 -0.12575373237432191 0 -0.13622499157606149 -0.098385089176771218 0 -0.14769867998398081 -0.12575373237432191 0 -0.13622499157606149 -0.098385089176771218 0 -0.15098548633746339 -0.1148934476337406 0 -0.14769867998398081 -0.12575373237432191 0 -0.14194001191156991 -0.13287688612314091 0 -0.1341429240192907 -0.10972982347599999 0 -0.14769867998398081 -0.12575373237432191 0 -0.15661340788135469 -0.1273547789982559 0 -0.15098548633746339 -0.1148934476337406 0 -0.16199758303882911 -0.1172138230691562 0 -0.15098548633746339 -0.1148934476337406 0 -0.15239276920709111 -0.1057598145501977 0 -0.13622499157606149 -0.098385089176771218 0 -0.15239276920709111 -0.1057598145501977 0 -0.1457660430990218 -0.095614885305536468 0 -0.15285781047078359 -0.089384250399222709 0 -0.15239276920709111 -0.1057598145501977 0 -0.1457660430990218 -0.095614885305536468 0 -0.13622499157606149 -0.098385089176771218 0 -0.15098548633746339 -0.1148934476337406 0 -0.15239276920709111 -0.1057598145501977 0 -0.14257607629543451 -0.025413497876927451 0 -0.14314941006805651 -0.035310448419446722 0 -0.15901182479159859 -0.031964626309405657 0 -0.14257607629543451 -0.025413497876927451 0 -0.15151349162311381 -0.019500747414160909 0 -0.15901182479159859 -0.031964626309405657 0 -0.14257607629543451 -0.025413497876927451 0 -0.15151349162311381 -0.019500747414160909 0 -0.13894539666599631 -0.01494174326127303 0 -0.15151349162311381 -0.019500747414160909 0 -0.15153248104187231 -0.0090056197821476898 0 -0.16542808703925951 -0.01500545514443752 0 -0.15153248104187231 -0.0090056197821476898 0 -0.1407632337354531 -0.0062954722561057112 0 -0.1512756197650294 0.0056731578998684452 0 -0.15151349162311381 -0.019500747414160909 0 -0.15153248104187231 -0.0090056197821476898 0 -0.13894539666599631 -0.01494174326127303 0 -0.15153248104187231 -0.0090056197821476898 0 -0.1407632337354531 -0.0062954722561057112 0 -0.13894539666599631 -0.01494174326127303 0 -0.1407632337354531 -0.0062954722561057112 0 -0.13894539666599631 -0.01494174326127303 0 -0.13014224810698979 -0.0065110860010838848 0 -0.1407632337354531 -0.0062954722561057112 0 -0.13014224810698979 -0.0065110860010838848 0 -0.13738713309425291 0.0028340066447267299 0 -0.13894539666599631 -0.01494174326127303 0 -0.13014224810698979 -0.0065110860010838848 0 -0.12914522075134161 -0.01421973006059481 0 -0.11838767799856049 -0.014653420144483009 0 -0.13014224810698979 -0.0065110860010838848 0 -0.12914522075134161 -0.01421973006059481 0 -0.13894539666599631 -0.01494174326127303 0 -0.12914522075134161 -0.01421973006059481 0 -0.12910556023381989 -0.020772670835539318 0 -0.11838767799856049 -0.014653420144483009 0 -0.12914522075134161 -0.01421973006059481 0 -0.12910556023381989 -0.020772670835539318 0 -0.14257607629543451 -0.025413497876927451 0 -0.13894539666599631 -0.01494174326127303 0 -0.12910556023381989 -0.020772670835539318 0 -0.14257607629543451 -0.025413497876927451 0 -0.12910556023381989 -0.020772670835539318 0 -0.1337307743900216 -0.029990751021739051 0 -0.14257607629543451 -0.025413497876927451 0 -0.1337307743900216 -0.029990751021739051 0 -0.14314941006805651 -0.035310448419446722 0 -0.1235787183220574 -0.031807717147688097 0 -0.12910556023381989 -0.020772670835539318 0 -0.1337307743900216 -0.029990751021739051 0 -0.1235787183220574 -0.031807717147688097 0 -0.1337307743900216 -0.029990751021739051 0 -0.1351759991741236 -0.037981611595519361 0 -0.1235787183220574 -0.031807717147688097 0 -0.1351759991741236 -0.037981611595519361 0 -0.12813714210876639 -0.048995969727079113 0 -0.1351759991741236 -0.037981611595519361 0 -0.12813714210876639 -0.048995969727079113 0 -0.14728395098171579 -0.043803171661643811 0 -0.1337307743900216 -0.029990751021739051 0 -0.1351759991741236 -0.037981611595519361 0 -0.14314941006805651 -0.035310448419446722 0 -0.1246261469092818 -0.068609811403624432 0 -0.1404974762897746 -0.069190110063151233 0 -0.12813714210876639 -0.048995969727079113 0 -0.1404974762897746 -0.069190110063151233 0 -0.12813714210876639 -0.048995969727079113 0 -0.1404974762897746 -0.069190110063151233 0 -0.12813714210876639 -0.048995969727079113 0 -0.1551614101539836 -0.057540024707909587 0 -0.12813714210876639 -0.048995969727079113 0 -0.1551614101539836 -0.057540024707909587 0 -0.14728395098171579 -0.043803171661643811 0 -0.1551614101539836 -0.057540024707909587 0 -0.14728395098171579 -0.043803171661643811 0 -0.1655062251760025 -0.048983723497490597 0 -0.12813714210876639 -0.048995969727079113 0 -0.1551614101539836 -0.057540024707909587 0 -0.14314941006805651 -0.035310448419446722 0 -0.14728395098171579 -0.043803171661643811 0 -0.15901182479159859 -0.031964626309405657 0 -0.1351759991741236 -0.037981611595519361 0 -0.14314941006805651 -0.035310448419446722 0 -0.14728395098171579 -0.043803171661643811 0 -0.14728395098171579 -0.043803171661643811 0 -0.15901182479159859 -0.031964626309405657 0 -0.1655062251760025 -0.048983723497490597 0 -0.15901182479159859 -0.031964626309405657 0 -0.1655062251760025 -0.048983723497490597 0 -0.17632337035293669 -0.043285692696818812 0 -0.1821856781992004 -0.06608407968874136 0 -0.1551614101539836 -0.057540024707909587 0 -0.1655062251760025 -0.048983723497490597 0 -0.1821856781992004 -0.06608407968874136 0 -0.1551614101539836 -0.057540024707909587 0 -0.1821856781992004 -0.06608407968874136 0 -0.17632337035293669 -0.043285692696818812 0 -0.1944734131399953 -0.046127491889098753 0 -0.1821856781992004 -0.06608407968874136 0 -0.1655062251760025 -0.048983723497490597 0 -0.17632337035293669 -0.043285692696818812 0 -0.15901182479159859 -0.031964626309405657 0 -0.17632337035293669 -0.043285692696818812 0 -0.18243438119538569 -0.024212284563514951 0 -0.17632337035293669 -0.043285692696818812 0 -0.18243438119538569 -0.024212284563514951 0 -0.1944734131399953 -0.046127491889098753 0 -0.15901182479159859 -0.031964626309405657 0 -0.18243438119538569 -0.024212284563514951 0 -0.16542808703925951 -0.01500545514443752 0 -0.15151349162311381 -0.019500747414160909 0 -0.15901182479159859 -0.031964626309405657 0 -0.16542808703925951 -0.01500545514443752 0 -0.15153248104187231 -0.0090056197821476898 0 -0.16542808703925951 -0.01500545514443752 0 -0.16935449430775329 0.0011091571161891639 0 -0.15153248104187231 -0.0090056197821476898 0 -0.1512756197650294 0.0056731578998684452 0 -0.16935449430775329 0.0011091571161891639 0 -0.18243438119538569 -0.024212284563514951 0 -0.16542808703925951 -0.01500545514443752 0 -0.18744015302908129 -0.0056952105517294538 0 -0.16542808703925951 -0.01500545514443752 0 -0.18744015302908129 -0.0056952105517294538 0 -0.16935449430775329 0.0011091571161891639 0 -0.18744015302908129 -0.0056952105517294538 0 -0.1947060962054866 -0.016897355158809611 0 -0.20866783305286071 -0.010096990736703891 0 -0.18243438119538569 -0.024212284563514951 0 -0.18744015302908129 -0.0056952105517294538 0 -0.1947060962054866 -0.016897355158809611 0 -0.18744015302908129 -0.0056952105517294538 0 -0.20866783305286071 -0.010096990736703891 0 -0.20698426585593729 0.0038329455032469241 0 -0.20028201754461891 -0.027584934783290171 0 -0.1947060962054866 -0.016897355158809611 0 -0.20866783305286071 -0.010096990736703891 0 -0.18243438119538569 -0.024212284563514951 0 -0.20028201754461891 -0.027584934783290171 0 -0.1947060962054866 -0.016897355158809611 0 -0.21715750950663909 -0.0265095412285976 0 -0.20866783305286071 -0.010096990736703891 0 -0.22891485352708191 -0.016488847525368611 0 -0.20028201754461891 -0.027584934783290171 0 -0.21715750950663909 -0.0265095412285976 0 -0.20925088168267719 -0.038435718136634593 0 -0.20028201754461891 -0.027584934783290171 0 -0.21715750950663909 -0.0265095412285976 0 -0.20866783305286071 -0.010096990736703891 0 -0.20866783305286071 -0.010096990736703891 0 -0.2280522312554305 -0.0031112600764061221 0 -0.20698426585593729 0.0038329455032469241 0 -0.2092099462444173 -0.07462813466957316 0 -0.1821856781992004 -0.06608407968874136 0 -0.1944734131399953 -0.046127491889098753 0 -0.18243438119538569 -0.024212284563514951 0 -0.20028201754461891 -0.027584934783290171 0 -0.1944734131399953 -0.046127491889098753 0 -0.20028201754461891 -0.027584934783290171 0 -0.1944734131399953 -0.046127491889098753 0 -0.20925088168267719 -0.038435718136634593 0 -0.1944734131399953 -0.046127491889098753 0 -0.20925088168267719 -0.038435718136634593 0 -0.212611179924063 -0.051771575971462203 0 -0.21715750950663909 -0.0265095412285976 0 -0.20925088168267719 -0.038435718136634593 0 -0.22173028829807009 -0.040185046810724219 0 -0.20925088168267719 -0.038435718136634593 0 -0.212611179924063 -0.051771575971462203 0 -0.22173028829807009 -0.040185046810724219 0 -0.2092099462444173 -0.07462813466957316 0 -0.1944734131399953 -0.046127491889098753 0 -0.212611179924063 -0.051771575971462203 0 -0.22889346362450511 -0.063245519250247739 0 -0.22173028829807009 -0.040185046810724219 0 -0.23536086576834911 -0.043594565218139002 0 -0.22889346362450511 -0.063245519250247739 0 -0.212611179924063 -0.051771575971462203 0 -0.22173028829807009 -0.040185046810724219 0 -0.21715750950663909 -0.0265095412285976 0 -0.22173028829807009 -0.040185046810724219 0 -0.23183591887136401 -0.030320104810242089 0 -0.22173028829807009 -0.040185046810724219 0 -0.23536086576834911 -0.043594565218139002 0 -0.23183591887136401 -0.030320104810242089 0 -0.24628989673006271 -0.033854785088842113 0 -0.23536086576834911 -0.043594565218139002 0 -0.25227076535724602 -0.049924408577229629 0 -0.24628989673006271 -0.033854785088842113 0 -0.23536086576834911 -0.043594565218139002 0 -0.23183591887136401 -0.030320104810242089 0 -0.23536086576834911 -0.043594565218139002 0 -0.23980447274095579 -0.056351413916028083 0 -0.25227076535724602 -0.049924408577229629 0 -0.24945893258419219 -0.068538939697580473 0 -0.23980447274095579 -0.056351413916028083 0 -0.25227076535724602 -0.049924408577229629 0 -0.22889346362450511 -0.063245519250247739 0 -0.23536086576834911 -0.043594565218139002 0 -0.23980447274095579 -0.056351413916028083 0 -0.2280522312554305 -0.0031112600764061221 0 -0.22891485352708191 -0.016488847525368611 0 -0.24530706110599959 -0.0074674868665740267 0 -0.20866783305286071 -0.010096990736703891 0 -0.2280522312554305 -0.0031112600764061221 0 -0.22891485352708191 -0.016488847525368611 0 -0.21715750950663909 -0.0265095412285976 0 -0.23183591887136401 -0.030320104810242089 0 -0.22891485352708191 -0.016488847525368611 0 -0.23183591887136401 -0.030320104810242089 0 -0.22891485352708191 -0.016488847525368611 0 -0.24156209939798151 -0.021287842989781001 0 -0.24628989673006271 -0.033854785088842113 0 -0.23183591887136401 -0.030320104810242089 0 -0.24156209939798151 -0.021287842989781001 0 -0.24628989673006271 -0.033854785088842113 0 -0.24156209939798151 -0.021287842989781001 0 -0.25601948592107798 -0.020333002577140449 0 -0.24156209939798151 -0.021287842989781001 0 -0.24530706110599959 -0.0074674868665740267 0 -0.25601948592107798 -0.020333002577140449 0 -0.2280522312554305 -0.0031112600764061221 0 -0.24530706110599959 -0.0074674868665740267 0 -0.24587491164738959 0.0043270520053787006 0 -0.22891485352708191 -0.016488847525368611 0 -0.24156209939798151 -0.021287842989781001 0 -0.24530706110599959 -0.0074674868665740267 0 -0.24530706110599959 -0.0074674868665740267 0 -0.26459100728072532 -0.0076913051556886537 0 -0.25565325530567518 0.0057868627586625384 0 -0.24530706110599959 -0.0074674868665740267 0 -0.26459100728072532 -0.0076913051556886537 0 -0.25601948592107798 -0.020333002577140449 0 -0.25601948592107798 -0.020333002577140449 0 -0.27683602599719959 -0.023370376694511062 0 -0.26126721698019789 -0.03461088845041517 0 -0.24628989673006271 -0.033854785088842113 0 -0.25601948592107798 -0.020333002577140449 0 -0.26126721698019789 -0.03461088845041517 0 -0.26459100728072532 -0.0076913051556886537 0 -0.25601948592107798 -0.020333002577140449 0 -0.27683602599719959 -0.023370376694511062 0 -0.27683602599719959 -0.023370376694511062 0 -0.27421282245848949 -0.035767503456506318 0 -0.26126721698019789 -0.03461088845041517 0 -0.26459100728072532 -0.0076913051556886537 0 -0.27683602599719959 -0.023370376694511062 0 -0.27992051617656483 -0.0083893463844954708 0 -0.26459100728072532 -0.0076913051556886537 0 -0.27992051617656483 -0.0083893463844954708 0 -0.26988253184571848 0.00021775334969518009 0 -0.26459100728072532 -0.0076913051556886537 0 -0.26464349856002789 0.0067420299064005181 0 -0.26988253184571848 0.00021775334969518009 0 -0.27992051617656483 -0.0083893463844954708 0 -0.27821046729409787 0.0010296311265635949 0 -0.26988253184571848 0.00021775334969518009 0 -0.29580347737785179 -0.016158389680931379 0 -0.29411671876251522 0.0087742633452138757 0 -0.27992051617656483 -0.0083893463844954708 0 -0.27821046729409787 0.0010296311265635949 0 -0.2863934749535309 0.0030748758827578979 0 -0.29580347737785179 -0.016158389680931379 0 -0.2863934749535309 0.0030748758827578979 0 -0.29411671876251522 0.0087742633452138757 0 -0.27992051617656483 -0.0083893463844954708 0 -0.29580347737785179 -0.016158389680931379 0 -0.2863934749535309 0.0030748758827578979 0 -0.27683602599719959 -0.023370376694511062 0 -0.29580347737785179 -0.016158389680931379 0 -0.28566087039391519 -0.041200011829871229 0 -0.29580347737785179 -0.016158389680931379 0 -0.2974902359931898 -0.041091042707076531 0 -0.27683602599719959 -0.023370376694511062 0 -0.27992051617656483 -0.0083893463844954708 0 -0.29580347737785179 -0.016158389680931379 0 -0.29580347737785179 -0.016158389680931379 0 -0.2974902359931898 -0.041091042707076531 0 -0.31658485342548542 -0.02752831003815898 0 -0.29580347737785179 -0.016158389680931379 0 -0.31489809481014508 -0.0025956570120114278 0 -0.29411671876251522 0.0087742633452138757 0 -0.29580347737785179 -0.016158389680931379 0 -0.31489809481014508 -0.0025956570120114278 0 -0.31658485342548542 -0.02752831003815898 0 -0.2974902359931898 -0.041091042707076531 0 -0.29917699460854319 -0.066023695733220603 0 -0.3182716120408331 -0.052460963064308121 0 -0.29917699460854319 -0.066023695733220603 0 -0.3182716120408331 -0.052460963064308121 0 -0.2974902359931898 -0.041091042707076531 0 -0.29917699460854319 -0.066023695733220603 0 -0.2974902359931898 -0.041091042707076531 0 -0.31658485342548542 -0.02752831003815898 0 -0.3182716120408331 -0.052460963064308121 0 -0.29580347737785179 -0.016158389680931379 0 -0.2974902359931898 -0.041091042707076531 0 -0.28566087039391519 -0.041200011829871229 0 -0.2974902359931898 -0.041091042707076531 0 -0.28578623915447338 -0.058834190884675043 0 -0.29917699460854319 -0.066023695733220603 0 -0.2974902359931898 -0.041091042707076531 0 -0.28566087039391519 -0.041200011829871229 0 -0.28578623915447338 -0.058834190884675043 0 -0.28566087039391519 -0.041200011829871229 0 -0.28578623915447338 -0.058834190884675043 0 -0.26879617265014832 -0.064653540775483867 0 -0.28566087039391519 -0.041200011829871229 0 -0.2683556330976602 -0.0453204410423554 0 -0.26879617265014832 -0.064653540775483867 0 -0.28566087039391519 -0.041200011829871229 0 -0.26879617265014832 -0.064653540775483867 0 -0.27683602599719959 -0.023370376694511062 0 -0.28566087039391519 -0.041200011829871229 0 -0.27421282245848949 -0.035767503456506318 0 -0.28566087039391519 -0.041200011829871229 0 -0.27421282245848949 -0.035767503456506318 0 -0.2683556330976602 -0.0453204410423554 0 -0.27421282245848949 -0.035767503456506318 0 -0.2683556330976602 -0.0453204410423554 0 -0.26126721698019789 -0.03461088845041517 0 -0.24628989673006271 -0.033854785088842113 0 -0.26126721698019789 -0.03461088845041517 0 -0.25227076535724602 -0.049924408577229629 0 -0.2683556330976602 -0.0453204410423554 0 -0.26126721698019789 -0.03461088845041517 0 -0.25227076535724602 -0.049924408577229629 0 -0.24945893258419219 -0.068538939697580473 0 -0.25227076535724602 -0.049924408577229629 0 -0.26879617265014832 -0.064653540775483867 0 -0.2683556330976602 -0.0453204410423554 0 -0.25227076535724602 -0.049924408577229629 0 -0.26879617265014832 -0.064653540775483867 0 -0.24945893258419219 -0.068538939697580473 0 -0.25193147490638151 -0.088107069721096498 0 -0.26879617265014832 -0.064653540775483867 0 -0.25193147490638151 -0.088107069721096498 0 -0.26879617265014832 -0.064653540775483867 0 -0.25193147490638151 -0.088107069721096498 0 -0.27780692212656533 -0.081202663377716325 0 -0.25643684964458258 -0.096381631022205455 0 -0.27780692212656533 -0.081202663377716325 0 -0.27141816080514708 -0.1020082091124203 0 -0.28643219180179719 -0.097190583892551127 0 -0.27780692212656533 -0.081202663377716325 0 -0.25643684964458258 -0.096381631022205455 0 -0.27780692212656533 -0.081202663377716325 0 -0.25643684964458258 -0.096381631022205455 0 -0.27141816080514708 -0.1020082091124203 0 -0.25193147490638151 -0.088107069721096498 0 -0.27780692212656533 -0.081202663377716325 0 -0.26879617265014832 -0.064653540775483867 0 -0.28578623915447338 -0.058834190884675043 0 -0.27780692212656533 -0.081202663377716325 0 -0.26879617265014832 -0.064653540775483867 0 -0.25744928274944862 -0.1228998484587389 0 -0.25643684964458258 -0.096381631022205455 0 -0.27141816080514708 -0.1020082091124203 0 -0.27141816080514708 -0.1020082091124203 0 -0.28494962776925681 -0.1059942752195239 0 -0.28643219180179719 -0.097190583892551127 0 -0.27141816080514708 -0.1020082091124203 0 -0.27999114879539899 -0.1159676796761938 0 -0.28494962776925681 -0.1059942752195239 0 -0.25744928274944862 -0.1228998484587389 0 -0.27141816080514708 -0.1020082091124203 0 -0.27999114879539899 -0.1159676796761938 0 -0.25744928274944862 -0.1228998484587389 0 -0.27999114879539899 -0.1159676796761938 0 -0.27999114879539899 -0.1159676796761938 0 -0.28494962776925681 -0.1059942752195239 0 -0.30209594849398291 -0.1091699193619996 0 -0.27999114879539899 -0.1159676796761938 0 -0.30209594849398291 -0.1091699193619996 0 -0.30246325796603601 -0.1145992674245349 0 -0.27999114879539899 -0.1159676796761938 0 -0.30246325796603601 -0.1145992674245349 0 -0.29598421799627023 -0.12613067230976621 0 -0.27999114879539899 -0.1159676796761938 0 -0.30209594849398291 -0.1091699193619996 0 -0.28494962776925681 -0.1059942752195239 0 -0.28643219180179719 -0.097190583892551127 0 -0.30209594849398291 -0.1091699193619996 0 -0.28643219180179719 -0.097190583892551127 0 -0.30209594849398291 -0.1091699193619996 0 -0.30063647155125067 -0.087596807547610983 0 -0.30209594849398291 -0.1091699193619996 0 -0.30063647155125067 -0.087596807547610983 0 -0.33022392994233379 -0.1005198850429784 0 -0.30209594849398291 -0.1091699193619996 0 -0.30063647155125067 -0.087596807547610983 0 -0.30209594849398291 -0.1091699193619996 0 -0.30246325796603601 -0.1145992674245349 0 -0.30209594849398291 -0.1091699193619996 0 -0.30246325796603601 -0.1145992674245349 0 -0.31549576752751518 -0.1166404176647701 0 -0.30246325796603601 -0.1145992674245349 0 -0.30843987467851308 -0.1231291328274262 0 -0.31549576752751518 -0.1166404176647701 0 -0.30246325796603601 -0.1145992674245349 0 -0.30843987467851308 -0.1231291328274262 0 -0.29598421799627023 -0.12613067230976621 0 -0.28578623915447338 -0.058834190884675043 0 -0.27780692212656533 -0.081202663377716325 0 -0.29917699460854319 -0.066023695733220603 0 -0.27780692212656533 -0.081202663377716325 0 -0.29917699460854319 -0.066023695733220603 0 -0.27780692212656533 -0.081202663377716325 0 -0.28643219180179719 -0.097190583892551127 0 -0.30063647155125067 -0.087596807547610983 0 -0.27780692212656533 -0.081202663377716325 0 -0.30063647155125067 -0.087596807547610983 0 -0.29917699460854319 -0.066023695733220603 0 -0.30063647155125067 -0.087596807547610983 0 -0.29917699460854319 -0.066023695733220603 0 -0.30063647155125067 -0.087596807547610983 0 -0.29917699460854319 -0.066023695733220603 0 -0.31710985092917721 -0.07634991946106795 0 -0.29917699460854319 -0.066023695733220603 0 -0.31710985092917721 -0.07634991946106795 0 -0.3182716120408331 -0.052460963064308121 0 -0.31710985092917721 -0.07634991946106795 0 -0.33724024650292039 -0.075148245917215042 0 -0.3182716120408331 -0.052460963064308121 0 -0.30063647155125067 -0.087596807547610983 0 -0.31710985092917721 -0.07634991946106795 0 -0.33022392994233379 -0.1005198850429784 0 -0.33724024650292039 -0.075148245917215042 0 -0.33022392994233379 -0.1005198850429784 0 -0.35835191139068412 -0.091869850723955093 0 -0.31710985092917721 -0.07634991946106795 0 -0.33724024650292039 -0.075148245917215042 0 -0.33022392994233379 -0.1005198850429784 0 -0.31549576752751518 -0.1166404176647701 0 -0.33022392994233379 -0.1005198850429784 0 -0.3306983753518199 -0.1216713716246501 0 -0.31549576752751518 -0.1166404176647701 0 -0.3306983753518199 -0.1216713716246501 0 -0.31813858570242581 -0.12889231435135959 0 -0.30843987467851308 -0.1231291328274262 0 -0.31549576752751518 -0.1166404176647701 0 -0.31813858570242581 -0.12889231435135959 0 -0.30209594849398291 -0.1091699193619996 0 -0.31549576752751518 -0.1166404176647701 0 -0.33022392994233379 -0.1005198850429784 0 -0.30209594849398291 -0.1091699193619996 0 -0.33022392994233379 -0.1005198850429784 0 -0.33022392994233379 -0.1005198850429784 0 -0.3306983753518199 -0.1216713716246501 0 -0.34398163300035761 -0.1116040649649489 0 -0.3306983753518199 -0.1216713716246501 0 -0.34398163300035761 -0.1116040649649489 0 -0.34374216755199921 -0.12604368672320199 0 -0.35846399609246499 -0.11895138935601959 0 -0.34398163300035761 -0.1116040649649489 0 -0.34374216755199921 -0.12604368672320199 0 -0.33022392994233379 -0.1005198850429784 0 -0.34398163300035761 -0.1116040649649489 0 -0.35835191139068412 -0.091869850723955093 0 -0.33022392994233379 -0.1005198850429784 0 -0.35835191139068412 -0.091869850723955093 0 -0.35846399609246499 -0.11895138935601959 0 -0.34398163300035761 -0.1116040649649489 0 -0.35835191139068412 -0.091869850723955093 0 -0.35846399609246499 -0.11895138935601959 0 -0.37302645453901068 -0.10584990596714999 0 -0.35835191139068412 -0.091869850723955093 0 -0.35846399609246499 -0.11895138935601959 0 -0.37302645453901068 -0.10584990596714999 0 -0.3755983752573494 -0.1234761312389257 0 -0.33724024650292039 -0.075148245917215042 0 -0.3593184346946332 -0.072715551718936844 0 -0.34307257882441511 -0.056122443551662737 0 -0.33724024650292039 -0.075148245917215042 0 -0.3593184346946332 -0.072715551718936844 0 -0.35835191139068412 -0.091869850723955093 0 -0.35835191139068412 -0.091869850723955093 0 -0.38647989283903711 -0.083219816404941443 0 -0.3593184346946332 -0.072715551718936844 0 -0.35835191139068412 -0.091869850723955093 0 -0.37800789920522332 -0.073602977778222875 0 -0.35835191139068412 -0.091869850723955093 0 -0.37800789920522332 -0.073602977778222875 0 -0.38647989283903711 -0.083219816404941443 0 -0.37302645453901068 -0.10584990596714999 0 -0.35835191139068412 -0.091869850723955093 0 -0.38647989283903711 -0.083219816404941443 0 -0.3593184346946332 -0.072715551718936844 0 -0.37163385757636791 -0.060243520992348462 0 -0.37800789920522332 -0.073602977778222875 0 -0.3593184346946332 -0.072715551718936844 0 -0.37163385757636791 -0.060243520992348462 0 -0.35849887975360678 -0.055704336690508491 0 -0.37163385757636791 -0.060243520992348462 0 -0.35849887975360678 -0.055704336690508491 0 -0.37021600903076901 -0.045777554712729457 0 -0.35849887975360678 -0.055704336690508491 0 -0.35497776392364461 -0.04130618889136016 0 -0.37021600903076901 -0.045777554712729457 0 -0.3593184346946332 -0.072715551718936844 0 -0.35849887975360678 -0.055704336690508491 0 -0.34307257882441511 -0.056122443551662737 0 -0.35849887975360678 -0.055704336690508491 0 -0.35497776392364461 -0.04130618889136016 0 -0.34307257882441511 -0.056122443551662737 0 -0.35497776392364461 -0.04130618889136016 0 -0.35646084690540197 -0.02533549772646804 0 -0.33736622947311817 -0.038898230395389061 0 -0.35497776392364461 -0.04130618889136016 0 -0.34307257882441511 -0.056122443551662737 0 -0.33736622947311817 -0.038898230395389061 0 -0.35646084690540197 -0.02533549772646804 0 -0.33736622947311817 -0.038898230395389061 0 -0.37021600903076901 -0.045777554712729457 0 -0.36754426152674963 -0.031399462944261228 0 -0.3851928172326089 -0.034082713966334603 0 -0.35497776392364461 -0.04130618889136016 0 -0.36754426152674963 -0.031399462944261228 0 -0.35646084690540197 -0.02533549772646804 0 -0.35497776392364461 -0.04130618889136016 0 -0.37021600903076901 -0.045777554712729457 0 -0.36754426152674963 -0.031399462944261228 0 -0.35646084690540197 -0.02533549772646804 0 -0.37680457973064141 -0.010885529782619099 0 -0.36754426152674963 -0.031399462944261228 0 -0.35646084690540197 -0.02533549772646804 0 -0.37680457973064141 -0.010885529782619099 0 -0.36754426152674963 -0.031399462944261228 0 -0.35646084690540197 -0.02533549772646804 0 -0.35579126489233509 -0.0098734726954904598 0 -0.35646084690540197 -0.02533549772646804 0 -0.37680457973064141 -0.010885529782619099 0 -0.35579126489233509 -0.0098734726954904598 0 -0.37680457973064141 -0.010885529782619099 0 -0.36106781508375252 0.0044918509726583379 0 -0.35579126489233509 -0.0098734726954904598 0 -0.34771651417275828 -0.004091168346160131 0 -0.33567947085777489 -0.013965577369237351 0 -0.35579126489233509 -0.0098734726954904598 0 -0.34771651417275828 -0.004091168346160131 0 -0.36106781508375252 0.0044918509726583379 0 -0.34771651417275828 -0.004091168346160131 0 -0.33898658532914527 -0.006438115471157857 0 -0.34705743470078337 0.005329472832426671 0 -0.35579126489233509 -0.0098734726954904598 0 -0.35646084690540197 -0.02533549772646804 0 -0.33567947085777489 -0.013965577369237351 0 -0.35646084690540197 -0.02533549772646804 0 -0.33567947085777489 -0.013965577369237351 0 -0.33567947085777489 -0.013965577369237351 0 -0.31658485342548542 -0.02752831003815898 0 -0.33736622947311817 -0.038898230395389061 0 -0.35646084690540197 -0.02533549772646804 0 -0.33567947085777489 -0.013965577369237351 0 -0.33736622947311817 -0.038898230395389061 0 -0.34771651417275828 -0.004091168346160131 0 -0.33898658532914527 -0.006438115471157857 0 -0.33567947085777489 -0.013965577369237351 0 -0.33898658532914527 -0.006438115471157857 0 -0.33567947085777489 -0.013965577369237351 0 -0.32763489955355413 -0.00017520948974483221 0 -0.33898658532914527 -0.006438115471157857 0 -0.32763489955355413 -0.00017520948974483221 0 -0.33520878750043359 0.0046069015736541364 0 -0.33567947085777489 -0.013965577369237351 0 -0.31489809481014508 -0.0025956570120114278 0 -0.33567947085777489 -0.013965577369237351 0 -0.31489809481014508 -0.0025956570120114278 0 -0.32763489955355413 -0.00017520948974483221 0 -0.33567947085777489 -0.013965577369237351 0 -0.31489809481014508 -0.0025956570120114278 0 -0.31658485342548542 -0.02752831003815898 0 -0.3182716120408331 -0.052460963064308121 0 -0.33736622947311817 -0.038898230395389061 0 -0.31658485342548542 -0.02752831003815898 0 -0.3182716120408331 -0.052460963064308121 0 -0.33736622947311817 -0.038898230395389061 0 -0.3182716120408331 -0.052460963064308121 0 -0.34307257882441511 -0.056122443551662737 0 -0.33736622947311817 -0.038898230395389061 0 -0.33724024650292039 -0.075148245917215042 0 -0.3182716120408331 -0.052460963064308121 0 -0.34307257882441511 -0.056122443551662737 0 -0.30637149853914691 -0.24889150081984651 0 -0.30833299335325992 -0.23248701941695879 0 -0.29450912117374239 -0.23999654607061649 0 -0.30833299335325992 -0.23248701941695879 0 -0.28918948606442851 -0.22416462495812139 0 -0.29450912117374239 -0.23999654607061649 0 -0.30833299335325992 -0.23248701941695879 0 -0.28918948606442851 -0.22416462495812139 0 -0.31790597669187032 -0.21401416342406601 0 -0.28853503480731579 -0.25197964871683892 0 -0.30637149853914691 -0.24889150081984651 0 -0.29450912117374239 -0.23999654607061649 0 -0.28918948606442851 -0.22416462495812139 0 -0.2817331578524272 -0.2402395994091617 0 -0.29450912117374239 -0.23999654607061649 0 -0.28853503480731579 -0.25197964871683892 0 -0.2817331578524272 -0.2402395994091617 0 -0.29450912117374239 -0.23999654607061649 0 -0.27246605345631281 -0.251197052221666 0 -0.28853503480731579 -0.25197964871683892 0 -0.2817331578524272 -0.2402395994091617 0 -0.27246605345631281 -0.251197052221666 0 -0.26016098104475471 -0.24521111095149681 0 -0.27014975989512058 -0.23220153517428219 0 -0.27246605345631281 -0.251197052221666 0 -0.2817331578524272 -0.2402395994091617 0 -0.27014975989512058 -0.23220153517428219 0 -0.26016098104475471 -0.24521111095149681 0 -0.25120040017981099 -0.23486924020649069 0 -0.27014975989512058 -0.23220153517428219 0 -0.24794684516777099 -0.24523412413146431 0 -0.26016098104475471 -0.24521111095149681 0 -0.25120040017981099 -0.23486924020649069 0 -0.25318276733537848 -0.25698187275224182 0 -0.24794684516777099 -0.24523412413146431 0 -0.26016098104475471 -0.24521111095149681 0 -0.24190295796283459 -0.22160586984363309 0 -0.25940115984308332 -0.2244864217363185 0 -0.25326563004319919 -0.2127641927454634 0 -0.24190295796283459 -0.22160586984363309 0 -0.25120040017981099 -0.23486924020649069 0 -0.25940115984308332 -0.2244864217363185 0 -0.25120040017981099 -0.23486924020649069 0 -0.25940115984308332 -0.2244864217363185 0 -0.27014975989512058 -0.23220153517428219 0 -0.28918948606442851 -0.22416462495812139 0 -0.2817331578524272 -0.2402395994091617 0 -0.27014975989512058 -0.23220153517428219 0 -0.25940115984308332 -0.2244864217363185 0 -0.27014975989512058 -0.23220153517428219 0 -0.2704095018917384 -0.2146587744721524 0 -0.28918948606442851 -0.22416462495812139 0 -0.27014975989512058 -0.23220153517428219 0 -0.2704095018917384 -0.2146587744721524 0 -0.2704095018917384 -0.2146587744721524 0 -0.27560321269839622 -0.19489769548305769 0 -0.29278439611392088 -0.20253297920742441 0 -0.25940115984308332 -0.2244864217363185 0 -0.2704095018917384 -0.2146587744721524 0 -0.25326563004319919 -0.2127641927454634 0 -0.2704095018917384 -0.2146587744721524 0 -0.25326563004319919 -0.2127641927454634 0 -0.25934213429751068 -0.19952645885465611 0 -0.24369663819963541 -0.20477989217108031 0 -0.25326563004319919 -0.2127641927454634 0 -0.25934213429751068 -0.19952645885465611 0 -0.24705882299678461 -0.18756482387501719 0 -0.24369663819963541 -0.20477989217108031 0 -0.25934213429751068 -0.19952645885465611 0 -0.24705882299678461 -0.18756482387501719 0 -0.25934213429751068 -0.19952645885465611 0 -0.26601899995531059 -0.1824933743811655 0 -0.2704095018917384 -0.2146587744721524 0 -0.25934213429751068 -0.19952645885465611 0 -0.27560321269839622 -0.19489769548305769 0 -0.25934213429751068 -0.19952645885465611 0 -0.27560321269839622 -0.19489769548305769 0 -0.26601899995531059 -0.1824933743811655 0 -0.29278439611392088 -0.20253297920742441 0 -0.30846976683154359 -0.18961243860974539 0 -0.28592383784381742 -0.1827639757711842 0 -0.27560321269839622 -0.19489769548305769 0 -0.29278439611392088 -0.20253297920742441 0 -0.28592383784381742 -0.1827639757711842 0 -0.28918948606442851 -0.22416462495812139 0 -0.2704095018917384 -0.2146587744721524 0 -0.29278439611392088 -0.20253297920742441 0 -0.28918948606442851 -0.22416462495812139 0 -0.29278439611392088 -0.20253297920742441 0 -0.31790597669187032 -0.21401416342406601 0 -0.29278439611392088 -0.20253297920742441 0 -0.30846976683154359 -0.18961243860974539 0 -0.31790597669187032 -0.21401416342406601 0 -0.30846976683154359 -0.18961243860974539 0 -0.2990335569712177 -0.1652107137954244 0 -0.28592383784381742 -0.1827639757711842 0 -0.30846976683154359 -0.18961243860974539 0 -0.30532325973195179 -0.17198653541662001 0 -0.2990335569712177 -0.1652107137954244 0 -0.30846976683154359 -0.18961243860974539 0 -0.2990335569712177 -0.1652107137954244 0 -0.2990335569712177 -0.1652107137954244 0 -0.31286602155318438 -0.15493275753175451 0 -0.31945148106490512 -0.16557444254739509 0 -0.30532325973195179 -0.17198653541662001 0 -0.2990335569712177 -0.1652107137954244 0 -0.31945148106490512 -0.16557444254739509 0 -0.2990335569712177 -0.1652107137954244 0 -0.31945148106490512 -0.16557444254739509 0 -0.2990335569712177 -0.1652107137954244 0 -0.27390820556698448 -0.16476312604520879 0 -0.28951235288330801 -0.14058919673580919 0 -0.2990335569712177 -0.1652107137954244 0 -0.27390820556698448 -0.16476312604520879 0 -0.2990335569712177 -0.1652107137954244 0 -0.28592383784381742 -0.1827639757711842 0 -0.27390820556698448 -0.16476312604520879 0 -0.28592383784381742 -0.1827639757711842 0 -0.26601899995531059 -0.1824933743811655 0 -0.27390820556698448 -0.16476312604520879 0 -0.27560321269839622 -0.19489769548305769 0 -0.28592383784381742 -0.1827639757711842 0 -0.26601899995531059 -0.1824933743811655 0 -0.26601899995531059 -0.1824933743811655 0 -0.25261735106438471 -0.17160910915532521 0 -0.27390820556698448 -0.16476312604520879 0 -0.24705882299678461 -0.18756482387501719 0 -0.26601899995531059 -0.1824933743811655 0 -0.25261735106438471 -0.17160910915532521 0 -0.2491348430240678 -0.15263443203168051 0 -0.25261735106438471 -0.17160910915532521 0 -0.27390820556698448 -0.16476312604520879 0 -0.27390820556698448 -0.16476312604520879 0 -0.26830320389031348 -0.14147174406982041 0 -0.28951235288330801 -0.14058919673580919 0 -0.2491348430240678 -0.15263443203168051 0 -0.27390820556698448 -0.16476312604520879 0 -0.26830320389031348 -0.14147174406982041 0 -0.2491348430240678 -0.15263443203168051 0 -0.25744928274944862 -0.1228998484587389 0 -0.26830320389031348 -0.14147174406982041 0 -0.25744928274944862 -0.1228998484587389 0 -0.27999114879539899 -0.1159676796761938 0 -0.26830320389031348 -0.14147174406982041 0 -0.27999114879539899 -0.1159676796761938 0 -0.26830320389031348 -0.14147174406982041 0 -0.28951235288330801 -0.14058919673580919 0 -0.27999114879539899 -0.1159676796761938 0 -0.28951235288330801 -0.14058919673580919 0 -0.29598421799627023 -0.12613067230976621 0 -0.27999114879539899 -0.1159676796761938 0 -0.28951235288330801 -0.14058919673580919 0 -0.2990335569712177 -0.1652107137954244 0 -0.28951235288330801 -0.14058919673580919 0 -0.2990335569712177 -0.1652107137954244 0 -0.28951235288330801 -0.14058919673580919 0 -0.30532370646059243 -0.14514575566968649 0 -0.2990335569712177 -0.1652107137954244 0 -0.30532370646059243 -0.14514575566968649 0 -0.31286602155318438 -0.15493275753175451 0 -0.30532370646059243 -0.14514575566968649 0 -0.30790067160354401 -0.13353046981664329 0 -0.31872597025473548 -0.14383232628700959 0 -0.30532370646059243 -0.14514575566968649 0 -0.31872597025473548 -0.14383232628700959 0 -0.31286602155318438 -0.15493275753175451 0 -0.28951235288330801 -0.14058919673580919 0 -0.29598421799627023 -0.12613067230976621 0 -0.30790067160354401 -0.13353046981664329 0 -0.28951235288330801 -0.14058919673580919 0 -0.30532370646059243 -0.14514575566968649 0 -0.30790067160354401 -0.13353046981664329 0 -0.30843987467851308 -0.1231291328274262 0 -0.30790067160354401 -0.13353046981664329 0 -0.31813858570242581 -0.12889231435135959 0 -0.30843987467851308 -0.1231291328274262 0 -0.29598421799627023 -0.12613067230976621 0 -0.30790067160354401 -0.13353046981664329 0 -0.32757085479842768 -0.13455016788765839 0 -0.31813858570242581 -0.12889231435135959 0 -0.31872597025473548 -0.14383232628700959 0 -0.32757085479842768 -0.13455016788765839 0 -0.31872597025473548 -0.14383232628700959 0 -0.3272655958866636 -0.14285661161083679 0 -0.3306983753518199 -0.1216713716246501 0 -0.32757085479842768 -0.13455016788765839 0 -0.31813858570242581 -0.12889231435135959 0 -0.30790067160354401 -0.13353046981664329 0 -0.31813858570242581 -0.12889231435135959 0 -0.31872597025473548 -0.14383232628700959 0 -0.31872597025473548 -0.14383232628700959 0 -0.31286602155318438 -0.15493275753175451 0 -0.32179539301447241 -0.15490054935925701 0 -0.32179539301447241 -0.15490054935925701 0 -0.32956087112788279 -0.15073896406118281 0 -0.33064617635957572 -0.15854374751310779 0 -0.31872597025473548 -0.14383232628700959 0 -0.32179539301447241 -0.15490054935925701 0 -0.32956087112788279 -0.15073896406118281 0 -0.31872597025473548 -0.14383232628700959 0 -0.3272655958866636 -0.14285661161083679 0 -0.32956087112788279 -0.15073896406118281 0 -0.3272655958866636 -0.14285661161083679 0 -0.33621816723800801 -0.1481437931281919 0 -0.33579551207108582 -0.14058098826627449 0 -0.3272655958866636 -0.14285661161083679 0 -0.32956087112788279 -0.15073896406118281 0 -0.33621816723800801 -0.1481437931281919 0 -0.32956087112788279 -0.15073896406118281 0 -0.33535538376394791 -0.1540163637420934 0 -0.33064617635957572 -0.15854374751310779 0 -0.32956087112788279 -0.15073896406118281 0 -0.33535538376394791 -0.1540163637420934 0 -0.33621816723800801 -0.1481437931281919 0 -0.34187213406060502 -0.15344031629259869 0 -0.33621816723800801 -0.1481437931281919 0 -0.34490987286693459 -0.14530472450432361 0 -0.33535538376394791 -0.1540163637420934 0 -0.34187213406060502 -0.15344031629259869 0 -0.33847957003366791 -0.1592149977153855 0 -0.33535538376394791 -0.1540163637420934 0 -0.34187213406060502 -0.15344031629259869 0 -0.33621816723800801 -0.1481437931281919 0 -0.34249677982782312 -0.1370455676560976 0 -0.33579551207108582 -0.14058098826627449 0 -0.34490987286693459 -0.14530472450432361 0 -0.33621816723800801 -0.1481437931281919 0 -0.33579551207108582 -0.14058098826627449 0 -0.34490987286693459 -0.14530472450432361 0 -0.34249677982782312 -0.1370455676560976 0 -0.33579551207108582 -0.14058098826627449 0 -0.33649898780899168 -0.13217400125522771 0 -0.32757085479842768 -0.13455016788765839 0 -0.33579551207108582 -0.14058098826627449 0 -0.33649898780899168 -0.13217400125522771 0 -0.32757085479842768 -0.13455016788765839 0 -0.3272655958866636 -0.14285661161083679 0 -0.33579551207108582 -0.14058098826627449 0 -0.3306983753518199 -0.1216713716246501 0 -0.32757085479842768 -0.13455016788765839 0 -0.33649898780899168 -0.13217400125522771 0 -0.3306983753518199 -0.1216713716246501 0 -0.33649898780899168 -0.13217400125522771 0 -0.34374216755199921 -0.12604368672320199 0 -0.34249677982782312 -0.1370455676560976 0 -0.33649898780899168 -0.13217400125522771 0 -0.34374216755199921 -0.12604368672320199 0 -0.34249677982782312 -0.1370455676560976 0 -0.34374216755199921 -0.12604368672320199 0 -0.35145061922001247 -0.13488086921581949 0 -0.35846399609246499 -0.11895138935601959 0 -0.34374216755199921 -0.12604368672320199 0 -0.35145061922001247 -0.13488086921581949 0 -0.35846399609246499 -0.11895138935601959 0 -0.35145061922001247 -0.13488086921581949 0 -0.36454697364598437 -0.13610716730180211 0 -0.34249677982782312 -0.1370455676560976 0 -0.35145061922001247 -0.13488086921581949 0 -0.34490987286693459 -0.14530472450432361 0 -0.35145061922001247 -0.13488086921581949 0 -0.36454697364598437 -0.13610716730180211 0 -0.35702949774905129 -0.1445178776034963 0 -0.35846399609246499 -0.11895138935601959 0 -0.36454697364598437 -0.13610716730180211 0 -0.3755983752573494 -0.1234761312389257 0 -0.36454697364598437 -0.13610716730180211 0 -0.37934944457236341 -0.1421645563447943 0 -0.3755983752573494 -0.1234761312389257 0 -0.36658385342608257 -0.15069325282889259 0 -0.37693862061980682 -0.15759813424529481 0 -0.37934944457236341 -0.1421645563447943 0 -0.36454697364598437 -0.13610716730180211 0 -0.36658385342608257 -0.15069325282889259 0 -0.37934944457236341 -0.1421645563447943 0 -0.36454697364598437 -0.13610716730180211 0 -0.36658385342608257 -0.15069325282889259 0 -0.35702949774905129 -0.1445178776034963 0 -0.36658385342608257 -0.15069325282889259 0 -0.35213057176028378 -0.15473459316563209 0 -0.36272172036988931 -0.16087151328898111 0 -0.36658385342608257 -0.15069325282889259 0 -0.35213057176028378 -0.15473459316563209 0 -0.35702949774905129 -0.1445178776034963 0 -0.35213057176028378 -0.15473459316563209 0 -0.35702949774905129 -0.1445178776034963 0 -0.34490987286693459 -0.14530472450432361 0 -0.35145061922001247 -0.13488086921581949 0 -0.35702949774905129 -0.1445178776034963 0 -0.34490987286693459 -0.14530472450432361 0 -0.34187213406060502 -0.15344031629259869 0 -0.35213057176028378 -0.15473459316563209 0 -0.34490987286693459 -0.14530472450432361 0 -0.34187213406060502 -0.15344031629259869 0 -0.35213057176028378 -0.15473459316563209 0 -0.34547433689920432 -0.15915792179166169 0 -0.34547433689920432 -0.15915792179166169 0 -0.35394781098641159 -0.16618896667690039 0 -0.33986940515859237 -0.16593817129936789 0 -0.35394781098641159 -0.16618896667690039 0 -0.35795550075928712 -0.17978278834758241 0 -0.33986940515859237 -0.16593817129936789 0 -0.35213057176028378 -0.15473459316563209 0 -0.34547433689920432 -0.15915792179166169 0 -0.35394781098641159 -0.16618896667690039 0 -0.35394781098641159 -0.16618896667690039 0 -0.33986940515859237 -0.16593817129936789 0 -0.35213057176028378 -0.15473459316563209 0 -0.35394781098641159 -0.16618896667690039 0 -0.36272172036988931 -0.16087151328898111 0 -0.35394781098641159 -0.16618896667690039 0 -0.36272172036988931 -0.16087151328898111 0 -0.36391110164389301 -0.171370255307012 0 -0.36272172036988931 -0.16087151328898111 0 -0.36391110164389301 -0.171370255307012 0 -0.37474830608056342 -0.16953654067464061 0 -0.36272172036988931 -0.16087151328898111 0 -0.37474830608056342 -0.16953654067464061 0 -0.37693862061980682 -0.15759813424529481 0 -0.36658385342608257 -0.15069325282889259 0 -0.36272172036988931 -0.16087151328898111 0 -0.37693862061980682 -0.15759813424529481 0 -0.37018217002331322 -0.18047146754695559 0 -0.35795550075928712 -0.17978278834758241 0 -0.37604159635998191 -0.19362740539579651 0 -0.35795550075928712 -0.17978278834758241 0 -0.37604159635998191 -0.19362740539579651 0 -0.37018217002331322 -0.18047146754695559 0 -0.37604159635998191 -0.19362740539579651 0 -0.37603330259022671 -0.18600829468832 0 -0.36391110164389301 -0.171370255307012 0 -0.37474830608056342 -0.16953654067464061 0 -0.37018217002331322 -0.18047146754695559 0 -0.37474830608056342 -0.16953654067464061 0 -0.37018217002331322 -0.18047146754695559 0 -0.37960103892725211 -0.1803015051391447 0 -0.36391110164389301 -0.171370255307012 0 -0.37018217002331322 -0.18047146754695559 0 -0.35795550075928712 -0.17978278834758241 0 -0.35795550075928712 -0.17978278834758241 0 -0.34436437643643952 -0.1788019187595431 0 -0.33986940515859237 -0.16593817129936789 0 -0.35795550075928712 -0.17978278834758241 0 -0.33986940515859237 -0.16593817129936789 0 -0.35394781098641159 -0.16618896667690039 0 -0.36391110164389301 -0.171370255307012 0 -0.35795550075928712 -0.17978278834758241 0 -0.35795550075928712 -0.17978278834758241 0 -0.34436437643643952 -0.1788019187595431 0 -0.34966465694433158 -0.19135531638908909 0 -0.34436437643643952 -0.1788019187595431 0 -0.32749395833814171 -0.18167092590285461 0 -0.34966465694433158 -0.19135531638908909 0 -0.34436437643643952 -0.1788019187595431 0 -0.33986940515859237 -0.16593817129936789 0 -0.32749395833814171 -0.18167092590285461 0 -0.32749395833814171 -0.18167092590285461 0 -0.34966465694433158 -0.19135531638908909 0 -0.33986940515859237 -0.16593817129936789 0 -0.33833073635580291 -0.16476034492882549 0 -0.31945148106490512 -0.16557444254739509 0 -0.33833073635580291 -0.16476034492882549 0 -0.33064617635957572 -0.15854374751310779 0 -0.31945148106490512 -0.16557444254739509 0 -0.33986940515859237 -0.16593817129936789 0 -0.31945148106490512 -0.16557444254739509 0 -0.33986940515859237 -0.16593817129936789 0 -0.31945148106490512 -0.16557444254739509 0 -0.32749395833814171 -0.18167092590285461 0 -0.33986940515859237 -0.16593817129936789 0 -0.33833073635580291 -0.16476034492882549 0 -0.34187213406060502 -0.15344031629259869 0 -0.34547433689920432 -0.15915792179166169 0 -0.33847957003366791 -0.1592149977153855 0 -0.34547433689920432 -0.15915792179166169 0 -0.33986940515859237 -0.16593817129936789 0 -0.33847957003366791 -0.1592149977153855 0 -0.33986940515859237 -0.16593817129936789 0 -0.33833073635580291 -0.16476034492882549 0 -0.33847957003366791 -0.1592149977153855 0 -0.33833073635580291 -0.16476034492882549 0 -0.33847957003366791 -0.1592149977153855 0 -0.33064617635957572 -0.15854374751310779 0 -0.33535538376394791 -0.1540163637420934 0 -0.33847957003366791 -0.1592149977153855 0 -0.33064617635957572 -0.15854374751310779 0 -0.32179539301447241 -0.15490054935925701 0 -0.33064617635957572 -0.15854374751310779 0 -0.31945148106490512 -0.16557444254739509 0 -0.31286602155318438 -0.15493275753175451 0 -0.32179539301447241 -0.15490054935925701 0 -0.31945148106490512 -0.16557444254739509 0 -0.30532325973195179 -0.17198653541662001 0 -0.31945148106490512 -0.16557444254739509 0 -0.32749395833814171 -0.18167092590285461 0 -0.30532325973195179 -0.17198653541662001 0 -0.32749395833814171 -0.18167092590285461 0 -0.30846976683154359 -0.18961243860974539 0 -0.30532325973195179 -0.17198653541662001 0 -0.32749395833814171 -0.18167092590285461 0 -0.30846976683154359 -0.18961243860974539 0 -0.31790597669187032 -0.21401416342406601 0 -0.30846976683154359 -0.18961243860974539 0 -0.32164159023113031 -0.19446572248254579 0 -0.31790597669187032 -0.21401416342406601 0 -0.32164159023113031 -0.19446572248254579 0 -0.31790597669187032 -0.21401416342406601 0 -0.33423268443919002 -0.1964639459401836 0 -0.30846976683154359 -0.18961243860974539 0 -0.32749395833814171 -0.18167092590285461 0 -0.32164159023113031 -0.19446572248254579 0 -0.32749395833814171 -0.18167092590285461 0 -0.32164159023113031 -0.19446572248254579 0 -0.33423268443919002 -0.1964639459401836 0 -0.31790597669187032 -0.21401416342406601 0 -0.34091569783752512 -0.21107681555884539 0 -0.33969272793571248 -0.22711261439043551 0 -0.31790597669187032 -0.21401416342406601 0 -0.34091569783752512 -0.21107681555884539 0 -0.33423268443919002 -0.1964639459401836 0 -0.32749395833814171 -0.18167092590285461 0 -0.33423268443919002 -0.1964639459401836 0 -0.34966465694433158 -0.19135531638908909 0 -0.34091569783752512 -0.21107681555884539 0 -0.33423268443919002 -0.1964639459401836 0 -0.34966465694433158 -0.19135531638908909 0 -0.34966465694433158 -0.19135531638908909 0 -0.37183535555052161 -0.2010397068753236 0 -0.3556413532092248 -0.20627604527276069 0 -0.34091569783752512 -0.21107681555884539 0 -0.34966465694433158 -0.19135531638908909 0 -0.3556413532092248 -0.20627604527276069 0 -0.35795550075928712 -0.17978278834758241 0 -0.34966465694433158 -0.19135531638908909 0 -0.36342817487863222 -0.1913693009807618 0 -0.34966465694433158 -0.19135531638908909 0 -0.36342817487863222 -0.1913693009807618 0 -0.37183535555052161 -0.2010397068753236 0 -0.35795550075928712 -0.17978278834758241 0 -0.36342817487863222 -0.1913693009807618 0 -0.37604159635998191 -0.19362740539579651 0 -0.34966465694433158 -0.19135531638908909 0 -0.37183535555052161 -0.2010397068753236 0 -0.36342817487863222 -0.1913693009807618 0 -0.37183535555052161 -0.2010397068753236 0 -0.37604159635998191 -0.19362740539579651 0 -0.37183535555052161 -0.2010397068753236 0 -0.37604159635998191 -0.19362740539579651 0 -0.37183535555052161 -0.2010397068753236 0 -0.36014970250452077 -0.2216323422677845 0 -0.37183535555052161 -0.2010397068753236 0 -0.3556413532092248 -0.20627604527276069 0 -0.36014970250452077 -0.2216323422677845 0 -0.37183535555052161 -0.2010397068753236 0 -0.36014970250452077 -0.2216323422677845 0 -0.37740344895386913 -0.22053597772899999 0 -0.34091569783752512 -0.21107681555884539 0 -0.3556413532092248 -0.20627604527276069 0 -0.36014970250452077 -0.2216323422677845 0 -0.34091569783752512 -0.21107681555884539 0 -0.36014970250452077 -0.2216323422677845 0 -0.33969272793571248 -0.22711261439043551 0 -0.36014970250452077 -0.2216323422677845 0 -0.34846404945852011 -0.24222497766024539 0 -0.33969272793571248 -0.22711261439043551 0 -0.36014970250452077 -0.2216323422677845 0 -0.34846404945852011 -0.24222497766024539 0 -0.36014970250452077 -0.2216323422677845 0 -0.37757705193378033 -0.23470310396408789 0 -0.37740344895386913 -0.22053597772899999 0 -0.36014970250452077 -0.2216323422677845 0 -0.36578396897160348 -0.24915970074255669 0 -0.37757705193378033 -0.23470310396408789 0 -0.36014970250452077 -0.2216323422677845 0 -0.36578396897160348 -0.24915970074255669 0 -0.34846404945852011 -0.24222497766024539 0 -0.34846404945852011 -0.24222497766024539 0 -0.33969272793571248 -0.22711261439043551 0 -0.32734218655219682 -0.23841588823838661 0 -0.33677839641252172 -0.26281761305270779 0 -0.34846404945852011 -0.24222497766024539 0 -0.32734218655219682 -0.23841588823838661 0 -0.31790597669187032 -0.21401416342406601 0 -0.33969272793571248 -0.22711261439043551 0 -0.32734218655219682 -0.23841588823838661 0 -0.31790597669187032 -0.21401416342406601 0 -0.32734218655219682 -0.23841588823838661 0 -0.30833299335325992 -0.23248701941695879 0 -0.31790597669187032 -0.21401416342406601 0 -0.32734218655219682 -0.23841588823838661 0 -0.31844113940909019 -0.26219706451962471 0 -0.30637149853914691 -0.24889150081984651 0 -0.32734218655219682 -0.23841588823838661 0 -0.30637149853914691 -0.24889150081984651 0 -0.30833299335325992 -0.23248701941695879 0 -0.32734218655219682 -0.23841588823838661 0 -0.43058913491078132 -0.24466833150301309 0 -0.44006728854894028 -0.22572854429926381 0 -0.43058913491078132 -0.24466833150301309 0 -0.42474635210027822 -0.23165791493267501 0 -0.41745980658338833 -0.2428671873123063 0 -0.43058913491078132 -0.24466833150301309 0 -0.42474635210027822 -0.23165791493267501 0 -0.44006728854894028 -0.22572854429926381 0 -0.42474635210027822 -0.23165791493267501 0 -0.42074082551290848 -0.21639673859785499 0 -0.44006728854894028 -0.22572854429926381 0 -0.42474635210027822 -0.23165791493267501 0 -0.41441080699719601 -0.22789473593791079 0 -0.41745980658338833 -0.2428671873123063 0 -0.41441080699719601 -0.22789473593791079 0 -0.4114370541173602 -0.21745473283560551 0 -0.42074082551290848 -0.21639673859785499 0 -0.42474635210027822 -0.23165791493267501 0 -0.41441080699719601 -0.22789473593791079 0 -0.42074082551290848 -0.21639673859785499 0 -0.41441080699719601 -0.22789473593791079 0 -0.40690628594943951 -0.22373593077276999 0 -0.4114370541173602 -0.21745473283560551 0 -0.41441080699719601 -0.22789473593791079 0 -0.40690628594943951 -0.22373593077276999 0 -0.40363865901856111 -0.23428317433166079 0 -0.40759085301938969 -0.25086279526678429 0 -0.41745980658338833 -0.2428671873123063 0 -0.40363865901856111 -0.23428317433166079 0 -0.41441080699719601 -0.22789473593791079 0 -0.41745980658338833 -0.2428671873123063 0 -0.40363865901856111 -0.23428317433166079 0 -0.39048754245709583 -0.24661174010262721 0 -0.38922290560902217 -0.2286593837462228 0 -0.40363865901856111 -0.23428317433166079 0 -0.40759085301938969 -0.25086279526678429 0 -0.39048754245709583 -0.24661174010262721 0 -0.40363865901856111 -0.23428317433166079 0 -0.39048754245709583 -0.24661174010262721 0 -0.37757705193378033 -0.23470310396408789 0 -0.38922290560902217 -0.2286593837462228 0 -0.36578396897160348 -0.24915970074255669 0 -0.39048754245709583 -0.24661174010262721 0 -0.37757705193378033 -0.23470310396408789 0 -0.37757705193378033 -0.23470310396408789 0 -0.37740344895386913 -0.22053597772899999 0 -0.38922290560902217 -0.2286593837462228 0 -0.37740344895386913 -0.22053597772899999 0 -0.38922290560902217 -0.2286593837462228 0 -0.38646510112668458 -0.21669227766935609 0 -0.38922290560902217 -0.2286593837462228 0 -0.39746102923667898 -0.2214553139860331 0 -0.38646510112668458 -0.21669227766935609 0 -0.38922290560902217 -0.2286593837462228 0 -0.39746102923667898 -0.2214553139860331 0 -0.40363865901856111 -0.23428317433166079 0 -0.40690628594943951 -0.22373593077276999 0 -0.39746102923667898 -0.2214553139860331 0 -0.40363865901856111 -0.23428317433166079 0 -0.40690628594943951 -0.22373593077276999 0 -0.39746102923667898 -0.2214553139860331 0 -0.40261922334521077 -0.21397215396865271 0 -0.39746102923667898 -0.2214553139860331 0 -0.40261922334521077 -0.21397215396865271 0 -0.3964027662833311 -0.21177100601020121 0 -0.40261922334521077 -0.21397215396865271 0 -0.40216632552587439 -0.2007976085865813 0 -0.41275492060459162 -0.20822820513876311 0 -0.40261922334521077 -0.21397215396865271 0 -0.38933040985259643 -0.2037997796822246 0 -0.40261922334521077 -0.21397215396865271 0 -0.38933040985259643 -0.2037997796822246 0 -0.40216632552587439 -0.2007976085865813 0 -0.40261922334521077 -0.21397215396865271 0 -0.3964027662833311 -0.21177100601020121 0 -0.38933040985259643 -0.2037997796822246 0 -0.39746102923667898 -0.2214553139860331 0 -0.3964027662833311 -0.21177100601020121 0 -0.38646510112668458 -0.21669227766935609 0 -0.37183535555052161 -0.2010397068753236 0 -0.3964027662833311 -0.21177100601020121 0 -0.38933040985259643 -0.2037997796822246 0 -0.37183535555052161 -0.2010397068753236 0 -0.3964027662833311 -0.21177100601020121 0 -0.38646510112668458 -0.21669227766935609 0 -0.37183535555052161 -0.2010397068753236 0 -0.37740344895386913 -0.22053597772899999 0 -0.38646510112668458 -0.21669227766935609 0 -0.37183535555052161 -0.2010397068753236 0 -0.3964027662833311 -0.21177100601020121 0 -0.37183535555052161 -0.2010397068753236 0 -0.38933040985259643 -0.2037997796822246 0 -0.37604159635998191 -0.19362740539579651 0 -0.37830840505035968 -0.18963280067138341 0 -0.37604159635998191 -0.19362740539579651 0 -0.38462589263659619 -0.19294554826952959 0 -0.37830840505035968 -0.18963280067138341 0 -0.38462589263659619 -0.19294554826952959 0 -0.38525630823178358 -0.18584009105492269 0 -0.37830840505035968 -0.18963280067138341 0 -0.37604159635998191 -0.19362740539579651 0 -0.37603330259022671 -0.18600829468832 0 -0.37830840505035968 -0.18963280067138341 0 -0.37604159635998191 -0.19362740539579651 0 -0.38933040985259643 -0.2037997796822246 0 -0.37604159635998191 -0.19362740539579651 0 -0.38933040985259643 -0.2037997796822246 0 -0.37604159635998191 -0.19362740539579651 0 -0.38462589263659619 -0.19294554826952959 0 -0.38933040985259643 -0.2037997796822246 0 -0.38462589263659619 -0.19294554826952959 0 -0.39355445622696139 -0.19058164951058371 0 -0.38462589263659619 -0.19294554826952959 0 -0.39355445622696139 -0.19058164951058371 0 -0.38525630823178358 -0.18584009105492269 0 -0.38933040985259643 -0.2037997796822246 0 -0.39355445622696139 -0.19058164951058371 0 -0.40216632552587439 -0.2007976085865813 0 -0.39355445622696139 -0.19058164951058371 0 -0.40216632552587439 -0.2007976085865813 0 -0.40575992268071143 -0.19088917197259861 0 -0.40575992268071143 -0.19088917197259861 0 -0.41504388898840378 -0.1979794315645399 0 -0.41551903514362187 -0.1847735934109154 0 -0.41504388898840378 -0.1979794315645399 0 -0.42417608808890439 -0.19239827421255479 0 -0.41551903514362187 -0.1847735934109154 0 -0.41504388898840378 -0.1979794315645399 0 -0.42474323106547079 -0.20556905802993089 0 -0.42417608808890439 -0.19239827421255479 0 -0.40216632552587439 -0.2007976085865813 0 -0.40575992268071143 -0.19088917197259861 0 -0.41504388898840378 -0.1979794315645399 0 -0.40216632552587439 -0.2007976085865813 0 -0.41504388898840378 -0.1979794315645399 0 -0.41275492060459162 -0.20822820513876311 0 -0.40690628594943951 -0.22373593077276999 0 -0.40261922334521077 -0.21397215396865271 0 -0.4114370541173602 -0.21745473283560551 0 -0.40261922334521077 -0.21397215396865271 0 -0.41275492060459162 -0.20822820513876311 0 -0.4114370541173602 -0.21745473283560551 0 -0.41275492060459162 -0.20822820513876311 0 -0.4114370541173602 -0.21745473283560551 0 -0.42074082551290848 -0.21639673859785499 0 -0.41504388898840378 -0.1979794315645399 0 -0.41275492060459162 -0.20822820513876311 0 -0.42474323106547079 -0.20556905802993089 0 -0.41275492060459162 -0.20822820513876311 0 -0.42074082551290848 -0.21639673859785499 0 -0.42474323106547079 -0.20556905802993089 0 -0.42074082551290848 -0.21639673859785499 0 -0.42474323106547079 -0.20556905802993089 0 -0.44006728854894028 -0.22572854429926381 0 -0.42474323106547079 -0.20556905802993089 0 -0.43521385793199069 -0.1997992774522169 0 -0.44006728854894028 -0.22572854429926381 0 -0.43521385793199069 -0.1997992774522169 0 -0.42417608808890439 -0.19239827421255479 0 -0.43036042731503471 -0.1738700106051711 0 -0.42474323106547079 -0.20556905802993089 0 -0.43521385793199069 -0.1997992774522169 0 -0.42417608808890439 -0.19239827421255479 0 -0.43521385793199069 -0.1997992774522169 0 -0.43036042731503471 -0.1738700106051711 0 -0.44484902490410999 -0.187318704566313 0 -0.42417608808890439 -0.19239827421255479 0 -0.43036042731503471 -0.1738700106051711 0 -0.41551903514362187 -0.1847735934109154 0 -0.43521385793199069 -0.1997992774522169 0 -0.43036042731503471 -0.1738700106051711 0 -0.43036042731503471 -0.1738700106051711 0 -0.42550699669807868 -0.14794074375812541 0 -0.43036042731503471 -0.1738700106051711 0 -0.42550699669807868 -0.14794074375812541 0 -0.45072107451550419 -0.1561420946877291 0 -0.43036042731503471 -0.1738700106051711 0 -0.41324819466948948 -0.16007058733925841 0 -0.42550699669807868 -0.14794074375812541 0 -0.43036042731503471 -0.1738700106051711 0 -0.41324819466948948 -0.16007058733925841 0 -0.41218250143607837 -0.1730703245509099 0 -0.41324819466948948 -0.16007058733925841 0 -0.41218250143607837 -0.1730703245509099 0 -0.39926894253355039 -0.16632385460883181 0 -0.41218250143607837 -0.1730703245509099 0 -0.41551903514362187 -0.1847735934109154 0 -0.40251590751869548 -0.18031357679037269 0 -0.43036042731503471 -0.1738700106051711 0 -0.41218250143607837 -0.1730703245509099 0 -0.41551903514362187 -0.1847735934109154 0 -0.40575992268071143 -0.19088917197259861 0 -0.41551903514362187 -0.1847735934109154 0 -0.40251590751869548 -0.18031357679037269 0 -0.39355445622696139 -0.19058164951058371 0 -0.40575992268071143 -0.19088917197259861 0 -0.40251590751869548 -0.18031357679037269 0 -0.41218250143607837 -0.1730703245509099 0 -0.40251590751869548 -0.18031357679037269 0 -0.39926894253355039 -0.16632385460883181 0 -0.40251590751869548 -0.18031357679037269 0 -0.3901211030196462 -0.17854328931086519 0 -0.39926894253355039 -0.16632385460883181 0 -0.39355445622696139 -0.19058164951058371 0 -0.40251590751869548 -0.18031357679037269 0 -0.3901211030196462 -0.17854328931086519 0 -0.39355445622696139 -0.19058164951058371 0 -0.38525630823178358 -0.18584009105492269 0 -0.3901211030196462 -0.17854328931086519 0 -0.38525630823178358 -0.18584009105492269 0 -0.3901211030196462 -0.17854328931086519 0 -0.37960103892725211 -0.1803015051391447 0 -0.3901211030196462 -0.17854328931086519 0 -0.37960103892725211 -0.1803015051391447 0 -0.38494405746809091 -0.16774368698562861 0 -0.37474830608056342 -0.16953654067464061 0 -0.37960103892725211 -0.1803015051391447 0 -0.38494405746809091 -0.16774368698562861 0 -0.37830840505035968 -0.18963280067138341 0 -0.37960103892725211 -0.1803015051391447 0 -0.37603330259022671 -0.18600829468832 0 -0.37830840505035968 -0.18963280067138341 0 -0.38525630823178358 -0.18584009105492269 0 -0.37960103892725211 -0.1803015051391447 0 -0.37018217002331322 -0.18047146754695559 0 -0.37960103892725211 -0.1803015051391447 0 -0.37603330259022671 -0.18600829468832 0 -0.37474830608056342 -0.16953654067464061 0 -0.37693862061980682 -0.15759813424529481 0 -0.38494405746809091 -0.16774368698562861 0 -0.37693862061980682 -0.15759813424529481 0 -0.38494405746809091 -0.16774368698562861 0 -0.38898633362772661 -0.1541587979349944 0 -0.38494405746809091 -0.16774368698562861 0 -0.39926894253355039 -0.16632385460883181 0 -0.38898633362772661 -0.1541587979349944 0 -0.39926894253355039 -0.16632385460883181 0 -0.40149288104848457 -0.15118744273620799 0 -0.38898633362772661 -0.1541587979349944 0 -0.3901211030196462 -0.17854328931086519 0 -0.38494405746809091 -0.16774368698562861 0 -0.39926894253355039 -0.16632385460883181 0 -0.41324819466948948 -0.16007058733925841 0 -0.39926894253355039 -0.16632385460883181 0 -0.40149288104848457 -0.15118744273620799 0 -0.40149288104848457 -0.15118744273620799 0 -0.39312511111887022 -0.14229259088309409 0 -0.40688040806868941 -0.13762821523186591 0 -0.40149288104848457 -0.15118744273620799 0 -0.39312511111887022 -0.14229259088309409 0 -0.38898633362772661 -0.1541587979349944 0 -0.39312511111887022 -0.14229259088309409 0 -0.38898633362772661 -0.1541587979349944 0 -0.37934944457236341 -0.1421645563447943 0 -0.37693862061980682 -0.15759813424529481 0 -0.38898633362772661 -0.1541587979349944 0 -0.37934944457236341 -0.1421645563447943 0 -0.37934944457236341 -0.1421645563447943 0 -0.39007800510737511 -0.12829943423534429 0 -0.3755983752573494 -0.1234761312389257 0 -0.39312511111887022 -0.14229259088309409 0 -0.37934944457236341 -0.1421645563447943 0 -0.39007800510737511 -0.12829943423534429 0 -0.39007800510737511 -0.12829943423534429 0 -0.40688040806868941 -0.13762821523186591 0 -0.40269799171412368 -0.12102532545777139 0 -0.39312511111887022 -0.14229259088309409 0 -0.39007800510737511 -0.12829943423534429 0 -0.40688040806868941 -0.13762821523186591 0 -0.40688040806868941 -0.13762821523186591 0 -0.42550699669807868 -0.14794074375812541 0 -0.42065356608112831 -0.1220114769110786 0 -0.40688040806868941 -0.13762821523186591 0 -0.40269799171412368 -0.12102532545777139 0 -0.42065356608112831 -0.1220114769110786 0 -0.40688040806868941 -0.13762821523186591 0 -0.41248216690218709 -0.14917517191509291 0 -0.42550699669807868 -0.14794074375812541 0 -0.40149288104848457 -0.15118744273620799 0 -0.40688040806868941 -0.13762821523186591 0 -0.41248216690218709 -0.14917517191509291 0 -0.41324819466948948 -0.16007058733925841 0 -0.40149288104848457 -0.15118744273620799 0 -0.41248216690218709 -0.14917517191509291 0 -0.41324819466948948 -0.16007058733925841 0 -0.41248216690218709 -0.14917517191509291 0 -0.42550699669807868 -0.14794074375812541 0 -0.42550699669807868 -0.14794074375812541 0 -0.4356873202983188 -0.13907678579940161 0 -0.45072107451550419 -0.1561420946877291 0 -0.4356873202983188 -0.13907678579940161 0 -0.42065356608112831 -0.1220114769110786 0 -0.42550699669807868 -0.14794074375812541 0 -0.4356873202983188 -0.13907678579940161 0 -0.42065356608112831 -0.1220114769110786 0 -0.4356873202983188 -0.13907678579940161 0 -0.42065356608112831 -0.1220114769110786 0 -0.43534218915082978 -0.1247334828339073 0 -0.42550699669807868 -0.14794074375812541 0 -0.42065356608112831 -0.1220114769110786 0 -0.44503951379584578 -0.13428661657737229 0 -0.45904643037939319 -0.13545648915358771 0 -0.44440055463518302 -0.1160242304122356 0 -0.44503951379584578 -0.13428661657737229 0 -0.43534218915082978 -0.1247334828339073 0 -0.44440055463518302 -0.1160242304122356 0 -0.4356873202983188 -0.13907678579940161 0 -0.44503951379584578 -0.13428661657737229 0 -0.43534218915082978 -0.1247334828339073 0 -0.4356873202983188 -0.13907678579940161 0 -0.45072107451550419 -0.1561420946877291 0 -0.44503951379584578 -0.13428661657737229 0 -0.45072107451550419 -0.1561420946877291 0 -0.45904643037939319 -0.13545648915358771 0 -0.4356873202983188 -0.13907678579940161 0 -0.44503951379584578 -0.13428661657737229 0 -0.45072107451550419 -0.1561420946877291 0 -0.45072107451550419 -0.1561420946877291 0 -0.46552536568494551 -0.14969568795152849 0 -0.45904643037939319 -0.13545648915358771 0 -0.46552536568494551 -0.14969568795152849 0 -0.45904643037939319 -0.13545648915358771 0 -0.48132407754722961 -0.14328687536570439 0 -0.48132407754722961 -0.14328687536570439 0 -0.46817272669139531 -0.1176381230686616 0 -0.48100288993688112 -0.1189990801504867 0 -0.48132407754722961 -0.14328687536570439 0 -0.46817272669139531 -0.1176381230686616 0 -0.45904643037939319 -0.13545648915358771 0 -0.48132407754722961 -0.14328687536570439 0 -0.46817272669139531 -0.1176381230686616 0 -0.48132407754722961 -0.14328687536570439 0 -0.49147076117957239 -0.12301119339671369 0 -0.4970721030995135 -0.12959401531916831 0 -0.48132407754722961 -0.14328687536570439 0 -0.49147076117957239 -0.12301119339671369 0 -0.4970721030995135 -0.12959401531916831 0 -0.5 -0.14297501315592279 0 -0.5 -0.1140566568472573 0 -0.4970721030995135 -0.12959401531916831 0 -0.49353450652085029 -0.14489764993877191 0 -0.48132407754722961 -0.14328687536570439 0 -0.48132407754722961 -0.14328687536570439 0 -0.48100288993688112 -0.1189990801504867 0 -0.49147076117957239 -0.12301119339671369 0 -0.4970721030995135 -0.12959401531916831 0 -0.5 -0.14297501315592279 0 -0.49353450652085029 -0.14489764993877191 0 -0.4970721030995135 -0.12959401531916831 0 -0.49353450652085029 -0.14489764993877191 0 -0.49353450652085029 -0.14489764993877191 0 -0.48132407754722961 -0.14328687536570439 0 -0.48999690994218598 -0.1602012845583754 0 -0.48132407754722961 -0.14328687536570439 0 -0.48999690994218598 -0.1602012845583754 0 -0.5 -0.14297501315592279 0 -0.49353450652085029 -0.14489764993877191 0 -0.48999690994218598 -0.1602012845583754 0 -0.49353450652085029 -0.14489764993877191 0 -0.48999690994218598 -0.1602012845583754 0 -0.46552536568494551 -0.14969568795152849 0 -0.48132407754722961 -0.14328687536570439 0 -0.471009880297655 -0.163897292599093 0 -0.48132407754722961 -0.14328687536570439 0 -0.471009880297655 -0.163897292599093 0 -0.48132407754722961 -0.14328687536570439 0 -0.471009880297655 -0.163897292599093 0 -0.48999690994218598 -0.1602012845583754 0 -0.471009880297655 -0.163897292599093 0 -0.48999690994218598 -0.1602012845583754 0 -0.48408818007125981 -0.18576243631773701 0 -0.5 -0.14297501315592279 0 -0.48999690994218598 -0.1602012845583754 0 -0.5 -0.17189336946458811 0 -0.48999690994218598 -0.1602012845583754 0 -0.49435283160172511 -0.16869653017196939 0 -0.49222709088232719 -0.17903785764516891 0 -0.48999690994218598 -0.1602012845583754 0 -0.49435283160172511 -0.16869653017196939 0 -0.48999690994218598 -0.1602012845583754 0 -0.49435283160172511 -0.16869653017196939 0 -0.5 -0.17189336946458811 0 -0.48999690994218598 -0.1602012845583754 0 -0.49222709088232719 -0.17903785764516891 0 -0.48408818007125981 -0.18576243631773701 0 -0.49222709088232719 -0.17903785764516891 0 -0.5 -0.17189336946458811 0 -0.5 -0.2008117257732536 0 -0.48999690994218598 -0.1602012845583754 0 -0.48408818007125981 -0.18576243631773701 0 -0.49435283160172511 -0.16869653017196939 0 -0.49222709088232719 -0.17903785764516891 0 -0.5 -0.17189336946458811 0 -0.471009880297655 -0.163897292599093 0 -0.48408818007125981 -0.18576243631773701 0 -0.46069568304808101 -0.18450770983248199 0 -0.471009880297655 -0.163897292599093 0 -0.46069568304808101 -0.18450770983248199 0 -0.44861760513881238 -0.17325903005573179 0 -0.471009880297655 -0.163897292599093 0 -0.46069568304808101 -0.18450770983248199 0 -0.45072107451550419 -0.1561420946877291 0 -0.471009880297655 -0.163897292599093 0 -0.44861760513881238 -0.17325903005573179 0 -0.45072107451550419 -0.1561420946877291 0 -0.46552536568494551 -0.14969568795152849 0 -0.471009880297655 -0.163897292599093 0 -0.43036042731503471 -0.1738700106051711 0 -0.45072107451550419 -0.1561420946877291 0 -0.44861760513881238 -0.17325903005573179 0 -0.43036042731503471 -0.1738700106051711 0 -0.44484902490410999 -0.187318704566313 0 -0.44861760513881238 -0.17325903005573179 0 -0.46069568304808101 -0.18450770983248199 0 -0.44484902490410999 -0.187318704566313 0 -0.44861760513881238 -0.17325903005573179 0 -0.43521385793199069 -0.1997992774522169 0 -0.44484902490410999 -0.187318704566313 0 -0.4503814857985069 -0.20511812706587099 0 -0.46069568304808101 -0.18450770983248199 0 -0.44484902490410999 -0.187318704566313 0 -0.4503814857985069 -0.20511812706587099 0 -0.43521385793199069 -0.1997992774522169 0 -0.44006728854894028 -0.22572854429926381 0 -0.43521385793199069 -0.1997992774522169 0 -0.4503814857985069 -0.20511812706587099 0 -0.44006728854894028 -0.22572854429926381 0 -0.4503814857985069 -0.20511812706587099 0 -0.44006728854894028 -0.22572854429926381 0 -0.4503814857985069 -0.20511812706587099 0 -0.45996733953096808 -0.21968476494759639 0 -0.44006728854894028 -0.22572854429926381 0 -0.46609434847663023 -0.20009540406473689 0 -0.47817945020033248 -0.21132358807709861 0 -0.45996733953096808 -0.21968476494759639 0 -0.4503814857985069 -0.20511812706587099 0 -0.46609434847663023 -0.20009540406473689 0 -0.45996733953096808 -0.21968476494759639 0 -0.46069568304808101 -0.18450770983248199 0 -0.4503814857985069 -0.20511812706587099 0 -0.46069568304808101 -0.18450770983248199 0 -0.4503814857985069 -0.20511812706587099 0 -0.46609434847663023 -0.20009540406473689 0 -0.48408818007125981 -0.18576243631773701 0 -0.46069568304808101 -0.18450770983248199 0 -0.46609434847663023 -0.20009540406473689 0 -0.48408818007125981 -0.18576243631773701 0 -0.46609434847663023 -0.20009540406473689 0 -0.47817945020033248 -0.21132358807709861 0 -0.48408818007125981 -0.18576243631773701 0 -0.47817945020033248 -0.21132358807709861 0 -0.48408818007125981 -0.18576243631773701 0 -0.5 -0.2008117257732536 0 -0.47817945020033248 -0.21132358807709861 0 -0.49222709088232719 -0.17903785764516891 0 -0.48408818007125981 -0.18576243631773701 0 -0.5 -0.2008117257732536 0 -0.5 -0.2008117257732536 0 -0.47817945020033248 -0.21132358807709861 0 -0.5 -0.229730082081919 0 -0.47817945020033248 -0.21132358807709861 0 -0.4765591913303131 -0.2294606581841091 0 -0.45996733953096808 -0.21968476494759639 0 -0.47817945020033248 -0.21132358807709861 0 -0.4765591913303131 -0.2294606581841091 0 -0.5 -0.229730082081919 0 -0.5 -0.25864843839058449 0 -0.5 -0.229730082081919 0 -0.4822966684656641 -0.24775196155403911 0 -0.4765591913303131 -0.2294606581841091 0 -0.5 -0.229730082081919 0 -0.4822966684656641 -0.24775196155403911 0 -0.4765591913303131 -0.2294606581841091 0 -0.4822966684656641 -0.24775196155403911 0 -0.4623524984546008 -0.23881289425989241 0 -0.46522431304776979 -0.2630536890213529 0 -0.4822966684656641 -0.24775196155403911 0 -0.4623524984546008 -0.23881289425989241 0 -0.4623524984546008 -0.23881289425989241 0 -0.45996733953096808 -0.21968476494759639 0 -0.44006728854894028 -0.22572854429926381 0 -0.4765591913303131 -0.2294606581841091 0 -0.4623524984546008 -0.23881289425989241 0 -0.45996733953096808 -0.21968476494759639 0 -0.4454815151046414 -0.25465384193152107 0 -0.43058913491078132 -0.24466833150301309 0 -0.44006728854894028 -0.22572854429926381 0 -0.4454815151046414 -0.25465384193152107 0 -0.44006728854894028 -0.22572854429926381 0 -0.4454815151046414 -0.25465384193152107 0 -0.4623524984546008 -0.23881289425989241 0 -0.44006728854894028 -0.22572854429926381 0 -0.41599476701117172 -0.033770307536937827 0 -0.40700125265669729 -0.049074516274471527 0 -0.42945379788780758 -0.0453442694077884 0 -0.41599476701117172 -0.033770307536937827 0 -0.40700125265669729 -0.049074516274471527 0 -0.40207478260627388 -0.022755039056617989 0 -0.40700125265669729 -0.049074516274471527 0 -0.41991062829183201 -0.05734007534722655 0 -0.42945379788780758 -0.0453442694077884 0 -0.40700125265669729 -0.049074516274471527 0 -0.41991062829183201 -0.05734007534722655 0 -0.41192772270712169 -0.075393993492324882 0 -0.40700125265669729 -0.049074516274471527 0 -0.41192772270712169 -0.075393993492324882 0 -0.42945379788780758 -0.0453442694077884 0 -0.42769504815960457 -0.070545159723947287 0 -0.42945379788780758 -0.0453442694077884 0 -0.42769504815960457 -0.070545159723947287 0 -0.444918318700324 -0.065248587641925954 0 -0.41991062829183201 -0.05734007534722655 0 -0.42945379788780758 -0.0453442694077884 0 -0.42769504815960457 -0.070545159723947287 0 -0.41599476701117172 -0.033770307536937827 0 -0.42945379788780758 -0.0453442694077884 0 -0.43121254761602312 -0.020143379091630401 0 -0.42945379788780758 -0.0453442694077884 0 -0.43121254761602312 -0.020143379091630401 0 -0.4442885840292467 -0.038123278018648933 0 -0.42945379788780758 -0.0453442694077884 0 -0.43121254761602312 -0.020143379091630401 0 -0.43121254761602312 -0.020143379091630401 0 -0.44216438479308012 -0.011100890656976651 0 -0.43297129734423873 0.0050575112245275994 0 -0.43121254761602312 -0.020143379091630401 0 -0.43297129734423873 0.0050575112245275994 0 -0.43121254761602312 -0.020143379091630401 0 -0.41576368089285531 -0.0064033991753112357 0 -0.43297129734423873 0.0050575112245275994 0 -0.41599476701117172 -0.033770307536937827 0 -0.41576368089285531 -0.0064033991753112357 0 -0.40207478260627388 -0.022755039056617989 0 -0.41599476701117172 -0.033770307536937827 0 -0.43121254761602312 -0.020143379091630401 0 -0.41576368089285531 -0.0064033991753112357 0 -0.40207478260627388 -0.022755039056617989 0 -0.39714831255587379 0.0035644381612400071 0 -0.41576368089285531 -0.0064033991753112357 0 -0.40207478260627388 -0.022755039056617989 0 -0.39714831255587379 0.0035644381612400071 0 -0.40207478260627388 -0.022755039056617989 0 -0.37680457973064141 -0.010885529782619099 0 -0.39714831255587379 0.0035644381612400071 0 -0.37680457973064141 -0.010885529782619099 0 -0.39714831255587379 0.0035644381612400071 0 -0.36754426152674963 -0.031399462944261228 0 -0.37680457973064141 -0.010885529782619099 0 -0.3851928172326089 -0.034082713966334603 0 -0.40207478260627388 -0.022755039056617989 0 -0.37680457973064141 -0.010885529782619099 0 -0.3851928172326089 -0.034082713966334603 0 -0.37021600903076901 -0.045777554712729457 0 -0.3851928172326089 -0.034082713966334603 0 -0.38344847417163608 -0.051929104791563853 0 -0.40700125265669729 -0.049074516274471527 0 -0.40207478260627388 -0.022755039056617989 0 -0.40700125265669729 -0.049074516274471527 0 -0.3851928172326089 -0.034082713966334603 0 -0.38344847417163608 -0.051929104791563853 0 -0.40700125265669729 -0.049074516274471527 0 -0.40207478260627388 -0.022755039056617989 0 -0.3851928172326089 -0.034082713966334603 0 -0.40700125265669729 -0.049074516274471527 0 -0.38344847417163608 -0.051929104791563853 0 -0.39235670125058691 -0.065275261321868935 0 -0.38344847417163608 -0.051929104791563853 0 -0.38136173305095361 -0.062762716221001033 0 -0.39235670125058691 -0.065275261321868935 0 -0.37163385757636791 -0.060243520992348462 0 -0.37021600903076901 -0.045777554712729457 0 -0.38344847417163608 -0.051929104791563853 0 -0.37163385757636791 -0.060243520992348462 0 -0.38344847417163608 -0.051929104791563853 0 -0.38136173305095361 -0.062762716221001033 0 -0.37800789920522332 -0.073602977778222875 0 -0.38647989283903711 -0.083219816404941443 0 -0.39235670125058691 -0.065275261321868935 0 -0.37163385757636791 -0.060243520992348462 0 -0.38136173305095361 -0.062762716221001033 0 -0.37800789920522332 -0.073602977778222875 0 -0.38136173305095361 -0.062762716221001033 0 -0.37800789920522332 -0.073602977778222875 0 -0.39235670125058691 -0.065275261321868935 0 -0.37800789920522332 -0.073602977778222875 0 -0.38647989283903711 -0.083219816404941443 0 -0.38647989283903711 -0.083219816404941443 0 -0.40577353118295312 -0.088907577122039325 0 -0.40356672946007599 -0.1026156466580158 0 -0.38647989283903711 -0.083219816404941443 0 -0.40356672946007599 -0.1026156466580158 0 -0.38647989283903711 -0.083219816404941443 0 -0.40577353118295312 -0.088907577122039325 0 -0.41192772270712169 -0.075393993492324882 0 -0.38647989283903711 -0.083219816404941443 0 -0.41192772270712169 -0.075393993492324882 0 -0.38647989283903711 -0.083219816404941443 0 -0.39235670125058691 -0.065275261321868935 0 -0.41192772270712169 -0.075393993492324882 0 -0.40700125265669729 -0.049074516274471527 0 -0.39235670125058691 -0.065275261321868935 0 -0.41192772270712169 -0.075393993492324882 0 -0.37302645453901068 -0.10584990596714999 0 -0.38857457481949481 -0.1107477099936898 0 -0.3755983752573494 -0.1234761312389257 0 -0.39007800510737511 -0.12829943423534429 0 -0.38857457481949481 -0.1107477099936898 0 -0.3755983752573494 -0.1234761312389257 0 -0.37302645453901068 -0.10584990596714999 0 -0.38647989283903711 -0.083219816404941443 0 -0.38857457481949481 -0.1107477099936898 0 -0.38647989283903711 -0.083219816404941443 0 -0.38857457481949481 -0.1107477099936898 0 -0.40356672946007599 -0.1026156466580158 0 -0.38857457481949481 -0.1107477099936898 0 -0.40356672946007599 -0.1026156466580158 0 -0.40269799171412368 -0.12102532545777139 0 -0.39007800510737511 -0.12829943423534429 0 -0.38857457481949481 -0.1107477099936898 0 -0.40269799171412368 -0.12102532545777139 0 -0.42065356608112831 -0.1220114769110786 0 -0.41629064439412172 -0.098702735201702363 0 -0.40356672946007599 -0.1026156466580158 0 -0.42065356608112831 -0.1220114769110786 0 -0.40356672946007599 -0.1026156466580158 0 -0.40269799171412368 -0.12102532545777139 0 -0.42065356608112831 -0.1220114769110786 0 -0.40356672946007599 -0.1026156466580158 0 -0.42065356608112831 -0.1220114769110786 0 -0.41629064439412172 -0.098702735201702363 0 -0.42065356608112831 -0.1220114769110786 0 -0.41629064439412172 -0.098702735201702363 0 -0.42535619717548789 -0.1040582435758752 0 -0.40577353118295312 -0.088907577122039325 0 -0.40356672946007599 -0.1026156466580158 0 -0.41629064439412172 -0.098702735201702363 0 -0.41629064439412172 -0.098702735201702363 0 -0.42327175957824942 -0.094566736086606623 0 -0.42535619717548789 -0.1040582435758752 0 -0.42327175957824942 -0.094566736086606623 0 -0.42535619717548789 -0.1040582435758752 0 -0.42630534421508071 -0.090458042219808119 0 -0.4326985220396769 -0.097823570316903349 0 -0.42535619717548789 -0.1040582435758752 0 -0.42630534421508071 -0.090458042219808119 0 -0.42535619717548789 -0.1040582435758752 0 -0.42630534421508071 -0.090458042219808119 0 -0.4326985220396769 -0.097823570316903349 0 -0.4343385370808206 -0.10650419922415751 0 -0.44028776056911523 -0.098267084514287131 0 -0.4326985220396769 -0.097823570316903349 0 -0.43720477115787931 -0.089830282050388316 0 -0.44028776056911523 -0.098267084514287131 0 -0.4343385370808206 -0.10650419922415751 0 -0.42535619717548789 -0.1040582435758752 0 -0.43169420384243812 -0.1151036258635718 0 -0.4326985220396769 -0.097823570316903349 0 -0.4343385370808206 -0.10650419922415751 0 -0.42535619717548789 -0.1040582435758752 0 -0.42065356608112831 -0.1220114769110786 0 -0.42535619717548789 -0.1040582435758752 0 -0.43169420384243812 -0.1151036258635718 0 -0.4343385370808206 -0.10650419922415751 0 -0.43169420384243812 -0.1151036258635718 0 -0.44440055463518302 -0.1160242304122356 0 -0.43169420384243812 -0.1151036258635718 0 -0.43534218915082978 -0.1247334828339073 0 -0.44440055463518302 -0.1160242304122356 0 -0.42065356608112831 -0.1220114769110786 0 -0.43169420384243812 -0.1151036258635718 0 -0.43534218915082978 -0.1247334828339073 0 -0.41192772270712169 -0.075393993492324882 0 -0.42769504815960457 -0.070545159723947287 0 -0.41991062829183201 -0.05734007534722655 0 -0.41192772270712169 -0.075393993492324882 0 -0.42769504815960457 -0.070545159723947287 0 -0.41629064439412172 -0.098702735201702363 0 -0.41192772270712169 -0.075393993492324882 0 -0.41629064439412172 -0.098702735201702363 0 -0.42327175957824942 -0.094566736086606623 0 -0.41192772270712169 -0.075393993492324882 0 -0.42327175957824942 -0.094566736086606623 0 -0.41192772270712169 -0.075393993492324882 0 -0.42630534421508071 -0.090458042219808119 0 -0.40577353118295312 -0.088907577122039325 0 -0.41629064439412172 -0.098702735201702363 0 -0.41192772270712169 -0.075393993492324882 0 -0.42630534421508071 -0.090458042219808119 0 -0.42769504815960457 -0.070545159723947287 0 -0.42630534421508071 -0.090458042219808119 0 -0.42769504815960457 -0.070545159723947287 0 -0.43561183145770199 -0.077853314930866863 0 -0.41192772270712169 -0.075393993492324882 0 -0.42630534421508071 -0.090458042219808119 0 -0.42769504815960457 -0.070545159723947287 0 -0.42327175957824942 -0.094566736086606623 0 -0.42630534421508071 -0.090458042219808119 0 -0.42630534421508071 -0.090458042219808119 0 -0.43720477115787931 -0.089830282050388316 0 -0.43561183145770199 -0.077853314930866863 0 -0.4326985220396769 -0.097823570316903349 0 -0.42630534421508071 -0.090458042219808119 0 -0.43720477115787931 -0.089830282050388316 0 -0.42630534421508071 -0.090458042219808119 0 -0.43561183145770199 -0.077853314930866863 0 -0.42769504815960457 -0.070545159723947287 0 -0.444918318700324 -0.065248587641925954 0 -0.42769504815960457 -0.070545159723947287 0 -0.43561183145770199 -0.077853314930866863 0 -0.444918318700324 -0.065248587641925954 0 -0.43561183145770199 -0.077853314930866863 0 -0.444918318700324 -0.065248587641925954 0 -0.4580591374266631 -0.073734962667290904 0 -0.43561183145770199 -0.077853314930866863 0 -0.444918318700324 -0.065248587641925954 0 -0.43720477115787931 -0.089830282050388316 0 -0.45502137583556063 -0.091989370771618784 0 -0.44028776056911523 -0.098267084514287131 0 -0.43720477115787931 -0.089830282050388316 0 -0.43561183145770199 -0.077853314930866863 0 -0.45502137583556063 -0.091989370771618784 0 -0.43561183145770199 -0.077853314930866863 0 -0.45502137583556063 -0.091989370771618784 0 -0.4580591374266631 -0.073734962667290904 0 -0.45502137583556063 -0.091989370771618784 0 -0.47846969329143019 -0.098191822464066256 0 -0.47142778139856428 -0.081601623750639216 0 -0.45502137583556063 -0.091989370771618784 0 -0.4580591374266631 -0.073734962667290904 0 -0.47142778139856428 -0.081601623750639216 0 -0.444918318700324 -0.065248587641925954 0 -0.4580591374266631 -0.073734962667290904 0 -0.46390152872987978 -0.059410791618689389 0 -0.4580591374266631 -0.073734962667290904 0 -0.47696060054539902 -0.067684684199822029 0 -0.46390152872987978 -0.059410791618689389 0 -0.45502137583556063 -0.091989370771618784 0 -0.44440055463518302 -0.1160242304122356 0 -0.44028776056911523 -0.098267084514287131 0 -0.4343385370808206 -0.10650419922415751 0 -0.44440055463518302 -0.1160242304122356 0 -0.44028776056911523 -0.098267084514287131 0 -0.45502137583556063 -0.091989370771618784 0 -0.44440055463518302 -0.1160242304122356 0 -0.46817272669139531 -0.1176381230686616 0 -0.45502137583556063 -0.091989370771618784 0 -0.46817272669139531 -0.1176381230686616 0 -0.47846969329143019 -0.098191822464066256 0 -0.45502137583556063 -0.091989370771618784 0 -0.46817272669139531 -0.1176381230686616 0 -0.45904643037939319 -0.13545648915358771 0 -0.44440055463518302 -0.1160242304122356 0 -0.46817272669139531 -0.1176381230686616 0 -0.48100288993688112 -0.1189990801504867 0 -0.47846969329143019 -0.098191822464066256 0 -0.48777080533408551 -0.11094762916083301 0 -0.46817272669139531 -0.1176381230686616 0 -0.48100288993688112 -0.1189990801504867 0 -0.47846969329143019 -0.098191822464066256 0 -0.48777080533408551 -0.11094762916083301 0 -0.5 -0.1140566568472573 0 -0.49999999999999989 -0.085138300538591949 0 -0.47846969329143019 -0.098191822464066256 0 -0.48777080533408551 -0.11094762916083301 0 -0.49999999999999989 -0.085138300538591949 0 -0.48777080533408551 -0.11094762916083301 0 -0.5 -0.1140566568472573 0 -0.49147076117957239 -0.12301119339671369 0 -0.4970721030995135 -0.12959401531916831 0 -0.5 -0.1140566568472573 0 -0.49147076117957239 -0.12301119339671369 0 -0.48100288993688112 -0.1189990801504867 0 -0.48777080533408551 -0.11094762916083301 0 -0.49147076117957239 -0.12301119339671369 0 -0.4580591374266631 -0.073734962667290904 0 -0.47696060054539902 -0.067684684199822029 0 -0.47142778139856428 -0.081601623750639216 0 -0.47696060054539902 -0.067684684199822029 0 -0.49144236937971741 -0.069355648067020742 0 -0.48288473875943472 -0.053572995595449667 0 -0.47696060054539902 -0.067684684199822029 0 -0.48448687433068982 -0.080817039634138499 0 -0.49144236937971741 -0.069355648067020742 0 -0.47696060054539902 -0.067684684199822029 0 -0.47142778139856428 -0.081601623750639216 0 -0.48448687433068982 -0.080817039634138499 0 -0.47846969329143019 -0.098191822464066256 0 -0.47142778139856428 -0.081601623750639216 0 -0.48448687433068982 -0.080817039634138499 0 -0.48448687433068982 -0.080817039634138499 0 -0.49999999999999989 -0.085138300538591949 0 -0.49144236937971741 -0.069355648067020742 0 -0.47846969329143019 -0.098191822464066256 0 -0.48448687433068982 -0.080817039634138499 0 -0.49999999999999989 -0.085138300538591949 0 -0.49999999999999989 -0.085138300538591949 0 -0.49144236937971741 -0.069355648067020742 0 -0.49999999999999989 -0.085138300538591949 0 -0.49144236937971741 -0.069355648067020742 0 -0.5 -0.066723969761526725 0 -0.49144236937971741 -0.069355648067020742 0 -0.5 -0.066723969761526725 0 -0.49276504317097231 -0.058427096324329783 0 -0.50000000000000289 -0.048309638984461507 0 -0.48288473875943472 -0.053572995595449667 0 -0.5 -0.066723969761526725 0 -0.50000000000000289 -0.048309638984461507 0 -0.49276504317097231 -0.058427096324329783 0 -0.50000000000000289 -0.048309638984461507 0 -0.49276504317097231 -0.058427096324329783 0 -0.48288473875943472 -0.053572995595449667 0 -0.49144236937971741 -0.069355648067020742 0 -0.48288473875943472 -0.053572995595449667 0 -0.49144236937971741 -0.069355648067020742 0 -0.49276504317097231 -0.058427096324329783 0 -0.48288473875943472 -0.053572995595449667 0 -0.50000000000000289 -0.048309638984461507 0 -0.48434176540503893 -0.037955892459763919 0 -0.48288473875943472 -0.053572995595449667 0 -0.50000000000000289 -0.048309638984461507 0 -0.48434176540503893 -0.037955892459763919 0 -0.5 -0.01965206211702519 0 -0.48288473875943472 -0.053572995595449667 0 -0.46933874407836168 -0.047992561506909462 0 -0.47045892376053561 -0.030656334605328951 0 -0.48434176540503893 -0.037955892459763919 0 -0.48288473875943472 -0.053572995595449667 0 -0.47045892376053561 -0.030656334605328951 0 -0.48288473875943472 -0.053572995595449667 0 -0.47045892376053561 -0.030656334605328951 0 -0.48434176540503893 -0.037955892459763919 0 -0.47045892376053561 -0.030656334605328951 0 -0.47876624345674301 -0.028405696316033881 0 -0.47696060054539902 -0.067684684199822029 0 -0.48288473875943472 -0.053572995595449667 0 -0.46390152872987978 -0.059410791618689389 0 -0.48288473875943472 -0.053572995595449667 0 -0.46933874407836168 -0.047992561506909462 0 -0.46390152872987978 -0.059410791618689389 0 -0.48288473875943472 -0.053572995595449667 0 -0.46390152872987978 -0.059410791618689389 0 -0.444918318700324 -0.065248587641925954 0 -0.46390152872987978 -0.059410791618689389 0 -0.45768862123043041 -0.04795246112362779 0 -0.444918318700324 -0.065248587641925954 0 -0.46390152872987978 -0.059410791618689389 0 -0.46933874407836168 -0.047992561506909462 0 -0.46390152872987978 -0.059410791618689389 0 -0.45768862123043041 -0.04795246112362779 0 -0.45768862123043041 -0.04795246112362779 0 -0.4442885840292467 -0.038123278018648933 0 -0.45763249765344999 -0.030916387171977151 0 -0.45768862123043041 -0.04795246112362779 0 -0.45763249765344999 -0.030916387171977151 0 -0.47045892376053561 -0.030656334605328951 0 -0.45768862123043041 -0.04795246112362779 0 -0.47045892376053561 -0.030656334605328951 0 -0.46933874407836168 -0.047992561506909462 0 -0.45768862123043041 -0.04795246112362779 0 -0.47045892376053561 -0.030656334605328951 0 -0.444918318700324 -0.065248587641925954 0 -0.45768862123043041 -0.04795246112362779 0 -0.4442885840292467 -0.038123278018648933 0 -0.42945379788780758 -0.0453442694077884 0 -0.444918318700324 -0.065248587641925954 0 -0.4442885840292467 -0.038123278018648933 0 -0.444918318700324 -0.065248587641925954 0 -0.45768862123043041 -0.04795246112362779 0 -0.44216438479308012 -0.011100890656976651 0 -0.45159866157654449 -0.0042609691431121106 0 -0.44935636649925159 -0.02147717771164168 0 -0.44216438479308012 -0.011100890656976651 0 -0.45159866157654449 -0.0042609691431121106 0 -0.43297129734423873 0.0050575112245275994 0 -0.43121254761602312 -0.020143379091630401 0 -0.4442885840292467 -0.038123278018648933 0 -0.44935636649925159 -0.02147717771164168 0 -0.43121254761602312 -0.020143379091630401 0 -0.44216438479308012 -0.011100890656976651 0 -0.44935636649925159 -0.02147717771164168 0 -0.4442885840292467 -0.038123278018648933 0 -0.44935636649925159 -0.02147717771164168 0 -0.45763249765344999 -0.030916387171977151 0 -0.44935636649925159 -0.02147717771164168 0 -0.45843923802838432 -0.02315622706938443 0 -0.46262900658981287 -0.014942147229355281 0 -0.44935636649925159 -0.02147717771164168 0 -0.45843923802838432 -0.02315622706938443 0 -0.45763249765344999 -0.030916387171977151 0 -0.45763249765344999 -0.030916387171977151 0 -0.46745102129443888 -0.02510892535185515 0 -0.47045892376053561 -0.030656334605328951 0 -0.45843923802838432 -0.02315622706938443 0 -0.45763249765344999 -0.030916387171977151 0 -0.46745102129443888 -0.02510892535185515 0 -0.46745102129443888 -0.02510892535185515 0 -0.46262900658981287 -0.014942147229355281 0 -0.47200389228162609 -0.020446064506896941 0 -0.45843923802838432 -0.02315622706938443 0 -0.46745102129443888 -0.02510892535185515 0 -0.46262900658981287 -0.014942147229355281 0 -0.45159866157654449 -0.0042609691431121106 0 -0.44935636649925159 -0.02147717771164168 0 -0.46262900658981287 -0.014942147229355281 0 -0.45159866157654449 -0.0042609691431121106 0 -0.46262900658981287 -0.014942147229355281 0 -0.46511874918702623 0.0032277527755949528 0 -0.46262900658981287 -0.014942147229355281 0 -0.47702927959282782 -0.00184026700388269 0 -0.46511874918702623 0.0032277527755949528 0 -0.46262900658981287 -0.014942147229355281 0 -0.47429190736687388 -0.0141928860429219 0 -0.47702927959282782 -0.00184026700388269 0 -0.47429190736687388 -0.0141928860429219 0 -0.47851413580643881 -0.020929097818546599 0 -0.48648639000102389 -0.011388281003203391 0 -0.47429190736687388 -0.0141928860429219 0 -0.47702927959282782 -0.00184026700388269 0 -0.48648639000102389 -0.011388281003203391 0 -0.47045892376053561 -0.030656334605328951 0 -0.47327877723091411 -0.026837118711916821 0 -0.47876624345674301 -0.028405696316033881 0 -0.46745102129443888 -0.02510892535185515 0 -0.47045892376053561 -0.030656334605328951 0 -0.46745102129443888 -0.02510892535185515 0 -0.47045892376053561 -0.030656334605328951 0 -0.47327877723091411 -0.026837118711916821 0 -0.47045892376053561 -0.030656334605328951 0 -0.47327877723091411 -0.026837118711916821 0 -0.46745102129443888 -0.02510892535185515 0 -0.47327877723091411 -0.026837118711916821 0 -0.47200389228162609 -0.020446064506896941 0 -0.46262900658981287 -0.014942147229355281 0 -0.47429190736687388 -0.0141928860429219 0 -0.47200389228162609 -0.020446064506896941 0 -0.47327877723091411 -0.026837118711916821 0 -0.47200389228162609 -0.020446064506896941 0 -0.47851413580643881 -0.020929097818546599 0 -0.47429190736687388 -0.0141928860429219 0 -0.47200389228162609 -0.020446064506896941 0 -0.47851413580643881 -0.020929097818546599 0 -0.47851413580643881 -0.020929097818546599 0 -0.486257604501452 -0.024304540330306681 0 -0.48648639000102389 -0.011388281003203391 0 -0.48434176540503893 -0.037955892459763919 0 -0.47876624345674301 -0.028405696316033881 0 -0.486257604501452 -0.024304540330306681 0 -0.47327877723091411 -0.026837118711916821 0 -0.47851413580643881 -0.020929097818546599 0 -0.47876624345674301 -0.028405696316033881 0 -0.47851413580643881 -0.020929097818546599 0 -0.47876624345674301 -0.028405696316033881 0 -0.486257604501452 -0.024304540330306681 0 -0.48434176540503893 -0.037955892459763919 0 -0.486257604501452 -0.024304540330306681 0 -0.5 -0.01965206211702519 0 -0.486257604501452 -0.024304540330306681 0 -0.5 -0.01965206211702519 0 -0.48648639000102389 -0.011388281003203391 0 -0.5 -0.01965206211702519 0 -0.48648639000102389 -0.011388281003203391 0 -0.5 0.0090055147504111144 0 -0.47702927959282782 -0.00184026700388269 0 -0.48648639000102389 -0.011388281003203391 0 -0.5 0.0090055147504111144 0 -0.47702927959282782 -0.00184026700388269 0 -0.5 0.0090055147504111144 0 -0.47801662412771578 0.01618560597914976 0 -0.47801662412771578 0.01618560597914976 0 -0.5 0.037663091617847477 0 -0.46846544006187568 0.033440092879323723 0 -0.5 0.0090055147504111144 0 -0.47801662412771578 0.01618560597914976 0 -0.5 0.037663091617847477 0 -0.47702927959282782 -0.00184026700388269 0 -0.47801662412771578 0.01618560597914976 0 -0.46511874918702623 0.0032277527755949528 0 -0.5 0.037663091617847477 0 -0.48270549026770831 0.05106463314347786 0 -0.46846544006187568 0.033440092879323723 0 -0.48270549026770831 0.05106463314347786 0 -0.47289808241916598 0.067176081973455329 0 -0.5 0.066320668485283785 0 -0.5 0.037663091617847477 0 -0.48270549026770831 0.05106463314347786 0 -0.5 0.066320668485283785 0 -0.48270549026770831 0.05106463314347786 0 -0.46608655205500871 0.05048128908830727 0 -0.46846544006187568 0.033440092879323723 0 -0.48270549026770831 0.05106463314347786 0 -0.46608655205500871 0.05048128908830727 0 -0.47289808241916598 0.067176081973455329 0 -0.45516212519319238 0.059616535270629149 0 -0.46608655205500871 0.05048128908830727 0 -0.44993550216591571 0.041058697659406167 0 -0.45516212519319238 0.059616535270629149 0 -0.46608655205500871 0.05048128908830727 0 -0.47289808241916598 0.067176081973455329 0 -0.46608655205500871 0.05048128908830727 0 -0.46846544006187568 0.033440092879323723 0 -0.44993550216591571 0.041058697659406167 0 -0.46846544006187568 0.033440092879323723 0 -0.44993550216591571 0.041058697659406167 0 -0.44851056766827962 0.02605301903327422 0 -0.44993550216591571 0.041058697659406167 0 -0.43473004707243768 0.030258401540686739 0 -0.4364537652831823 0.054957329914420788 0 -0.44993550216591571 0.041058697659406167 0 -0.43473004707243768 0.030258401540686739 0 -0.44993550216591571 0.041058697659406167 0 -0.44851056766827962 0.02605301903327422 0 -0.43473004707243768 0.030258401540686739 0 -0.45516212519319238 0.059616535270629149 0 -0.44993550216591571 0.041058697659406167 0 -0.4364537652831823 0.054957329914420788 0 -0.45159866157654449 -0.0042609691431121106 0 -0.46511874918702623 0.0032277527755949528 0 -0.45779314483939049 0.014201900745190571 0 -0.47801662412771578 0.01618560597914976 0 -0.46511874918702623 0.0032277527755949528 0 -0.45779314483939049 0.014201900745190571 0 -0.47801662412771578 0.01618560597914976 0 -0.46846544006187568 0.033440092879323723 0 -0.45779314483939049 0.014201900745190571 0 -0.46846544006187568 0.033440092879323723 0 -0.45779314483939049 0.014201900745190571 0 -0.44851056766827962 0.02605301903327422 0 -0.44851056766827962 0.02605301903327422 0 -0.43297129734423873 0.0050575112245275994 0 -0.43473004707243768 0.030258401540686739 0 -0.45779314483939049 0.014201900745190571 0 -0.44851056766827962 0.02605301903327422 0 -0.43297129734423873 0.0050575112245275994 0 -0.45159866157654449 -0.0042609691431121106 0 -0.45779314483939049 0.014201900745190571 0 -0.43297129734423873 0.0050575112245275994 0 -0.41576368089285531 -0.0064033991753112357 0 -0.43297129734423873 0.0050575112245275994 0 -0.42145783733966002 0.0074044513256876906 0 -0.43297129734423873 0.0050575112245275994 0 -0.43216375682501962 0.012247092866052521 0 -0.42145783733966002 0.0074044513256876906 0 -0.43216375682501962 0.012247092866052521 0 -0.42284596617319398 0.014413418039956371 0 -0.42145783733966002 0.0074044513256876906 0 -0.41576368089285531 -0.0064033991753112357 0 -0.41163686102799202 0.0138555220431057 0 -0.39714831255587379 0.0035644381612400071 0 -0.41576368089285531 -0.0064033991753112357 0 -0.42145783733966002 0.0074044513256876906 0 -0.41163686102799202 0.0138555220431057 0 -0.42284596617319398 0.014413418039956371 0 -0.42145783733966002 0.0074044513256876906 0 -0.41163686102799202 0.0138555220431057 0 -0.41163686102799202 0.0138555220431057 0 -0.409886597297691 0.030621495578751389 0 -0.42612540950010241 0.02414660592498237 0 -0.42284596617319398 0.014413418039956371 0 -0.41163686102799202 0.0138555220431057 0 -0.42612540950010241 0.02414660592498237 0 -0.41163686102799202 0.0138555220431057 0 -0.42612540950010241 0.02414660592498237 0 -0.43297129734423873 0.0050575112245275994 0 -0.43216375682501962 0.012247092866052521 0 -0.43473004707243768 0.030258401540686739 0 -0.43297129734423873 0.0050575112245275994 0 -0.43473004707243768 0.030258401540686739 0 -0.43216375682501962 0.012247092866052521 0 -0.42612540950010241 0.02414660592498237 0 -0.43473004707243768 0.030258401540686739 0 -0.43216375682501962 0.012247092866052521 0 -0.42612540950010241 0.02414660592498237 0 -0.43216375682501962 0.012247092866052521 0 -0.42284596617319398 0.014413418039956371 0 -0.42612540950010241 0.02414660592498237 0 -0.42612540950010241 0.02414660592498237 0 -0.43473004707243768 0.030258401540686739 0 -0.42612540950010241 0.02414660592498237 0 -0.41766774620100072 0.040813761598461701 0 -0.42612540950010241 0.02414660592498237 0 -0.43473004707243768 0.030258401540686739 0 -0.41766774620100072 0.040813761598461701 0 -0.43473004707243768 0.030258401540686739 0 -0.42868053819127722 0.045715137872723813 0 -0.4364537652831823 0.054957329914420788 0 -0.43473004707243768 0.030258401540686739 0 -0.42868053819127722 0.045715137872723813 0 -0.41766774620100072 0.040813761598461701 0 -0.43473004707243768 0.030258401540686739 0 -0.4364537652831823 0.054957329914420788 0 -0.42868053819127722 0.045715137872723813 0 -0.42587059420849399 0.056831058437317443 0 -0.41766774620100072 0.040813761598461701 0 -0.42868053819127722 0.045715137872723813 0 -0.4364537652831823 0.054957329914420788 0 -0.42587059420849399 0.056831058437317443 0 -0.42587059420849399 0.056831058437317443 0 -0.40921008290191968 0.057480917271951509 0 -0.40921008290191968 0.057480917271951509 0 -0.41766774620100072 0.040813761598461701 0 -0.40921008290191968 0.057480917271951509 0 -0.41766774620100072 0.040813761598461701 0 -0.40313570908048652 0.043645099888708273 0 -0.42587059420849399 0.056831058437317443 0 -0.40921008290191968 0.057480917271951509 0 -0.41766774620100072 0.040813761598461701 0 -0.42587059420849399 0.056831058437317443 0 -0.40921008290191968 0.057480917271951509 0 -0.41787691356151269 0.065784802912958892 0 -0.409886597297691 0.030621495578751389 0 -0.42612540950010241 0.02414660592498237 0 -0.41766774620100072 0.040813761598461701 0 -0.409886597297691 0.030621495578751389 0 -0.41766774620100072 0.040813761598461701 0 -0.40313570908048652 0.043645099888708273 0 -0.40313570908048652 0.043645099888708273 0 -0.38689330848259551 0.058351403942505521 0 -0.39202081051922361 0.03095792105187074 0 -0.409886597297691 0.030621495578751389 0 -0.40313570908048652 0.043645099888708273 0 -0.39202081051922361 0.03095792105187074 0 -0.40921008290191968 0.057480917271951509 0 -0.38689330848259551 0.058351403942505521 0 -0.40921008290191968 0.057480917271951509 0 -0.40313570908048652 0.043645099888708273 0 -0.38689330848259551 0.058351403942505521 0 -0.38689330848259551 0.058351403942505521 0 -0.37641060981459201 0.058760291413889797 0 -0.37972654167708059 0.041310718130240148 0 -0.38689330848259551 0.058351403942505521 0 -0.37641060981459201 0.058760291413889797 0 -0.38689330848259551 0.058351403942505521 0 -0.37972654167708059 0.041310718130240148 0 -0.39202081051922361 0.03095792105187074 0 -0.38689330848259551 0.058351403942505521 0 -0.39202081051922361 0.03095792105187074 0 -0.37972654167708059 0.041310718130240148 0 -0.37670227458156769 0.017870872175230611 0 -0.39202081051922361 0.03095792105187074 0 -0.37670227458156769 0.017870872175230611 0 -0.39714831255587379 0.0035644381612400071 0 -0.39202081051922361 0.03095792105187074 0 -0.37680457973064141 -0.010885529782619099 0 -0.37670227458156769 0.017870872175230611 0 -0.39714831255587379 0.0035644381612400071 0 -0.41163686102799202 0.0138555220431057 0 -0.39714831255587379 0.0035644381612400071 0 -0.41163686102799202 0.0138555220431057 0 -0.39714831255587379 0.0035644381612400071 0 -0.39202081051922361 0.03095792105187074 0 -0.41163686102799202 0.0138555220431057 0 -0.409886597297691 0.030621495578751389 0 -0.39202081051922361 0.03095792105187074 0 -0.39714831255587379 0.0035644381612400071 0 -0.39202081051922361 0.03095792105187074 0 -0.39108781369954959 0.10469441822031531 0 -0.3980315829831147 0.09249695297617104 0 -0.39080199896331769 0.088975505674328229 0 -0.39108781369954959 0.10469441822031531 0 -0.40381009182465538 0.097338483771248263 0 -0.3980315829831147 0.09249695297617104 0 -0.39108781369954959 0.10469441822031531 0 -0.40381009182465538 0.097338483771248263 0 -0.40244680538266658 0.10761675598182879 0 -0.39108781369954959 0.10469441822031531 0 -0.40244680538266658 0.10761675598182879 0 -0.39612406895995139 0.1218652036024494 0 -0.40244680538266658 0.10761675598182879 0 -0.39612406895995139 0.1218652036024494 0 -0.41024132891748583 0.1147595890253716 0 -0.39108781369954959 0.10469441822031531 0 -0.39612406895995139 0.1218652036024494 0 -0.37634952072849392 0.11468118545817341 0 -0.39612406895995139 0.1218652036024494 0 -0.37634952072849392 0.11468118545817341 0 -0.39612406895995139 0.1218652036024494 0 -0.37863235143846391 0.1247954975790455 0 -0.37634952072849392 0.11468118545817341 0 -0.39108781369954959 0.10469441822031531 0 -0.3791950319581644 0.099479150894731611 0 -0.38204054318783121 0.084277116331289134 0 -0.37634952072849392 0.11468118545817341 0 -0.3791950319581644 0.099479150894731611 0 -0.39108781369954959 0.10469441822031531 0 -0.37634952072849392 0.11468118545817341 0 -0.3791950319581644 0.099479150894731611 0 -0.39108781369954959 0.10469441822031531 0 -0.38204054318783121 0.084277116331289134 0 -0.3791950319581644 0.099479150894731611 0 -0.38204054318783121 0.084277116331289134 0 -0.36821368684113193 0.09156808840626364 0 -0.39108781369954959 0.10469441822031531 0 -0.38204054318783121 0.084277116331289134 0 -0.39080199896331769 0.088975505674328229 0 -0.3791950319581644 0.099479150894731611 0 -0.38204054318783121 0.084277116331289134 0 -0.38845900165551922 0.07975044317752128 0 -0.38425782867980629 0.072431353666665976 0 -0.39592932834344929 0.083652732803022989 0 -0.38204054318783121 0.084277116331289134 0 -0.38425782867980629 0.072431353666665976 0 -0.38204054318783121 0.084277116331289134 0 -0.38845900165551922 0.07975044317752128 0 -0.39080199896331769 0.088975505674328229 0 -0.38204054318783121 0.084277116331289134 0 -0.38845900165551922 0.07975044317752128 0 -0.38425782867980629 0.072431353666665976 0 -0.38204054318783121 0.084277116331289134 0 -0.38425782867980629 0.072431353666665976 0 -0.37083003894286581 0.058977966803111147 0 -0.38204054318783121 0.084277116331289134 0 -0.37083003894286581 0.058977966803111147 0 -0.37641060981459201 0.058760291413889797 0 -0.38425782867980629 0.072431353666665976 0 -0.38689330848259551 0.058351403942505521 0 -0.37641060981459201 0.058760291413889797 0 -0.38425782867980629 0.072431353666665976 0 -0.37641060981459201 0.058760291413889797 0 -0.38425782867980629 0.072431353666665976 0 -0.37083003894286581 0.058977966803111147 0 -0.38845900165551922 0.07975044317752128 0 -0.38425782867980629 0.072431353666665976 0 -0.38689330848259551 0.058351403942505521 0 -0.38425782867980629 0.072431353666665976 0 -0.40921008290191968 0.057480917271951509 0 -0.38689330848259551 0.058351403942505521 0 -0.38425782867980629 0.072431353666665976 0 -0.40921008290191968 0.057480917271951509 0 -0.39592932834344929 0.083652732803022989 0 -0.40921008290191968 0.057480917271951509 0 -0.38425782867980629 0.072431353666665976 0 -0.39592932834344929 0.083652732803022989 0 -0.3980315829831147 0.09249695297617104 0 -0.39080199896331769 0.088975505674328229 0 -0.39592932834344929 0.083652732803022989 0 -0.38845900165551922 0.07975044317752128 0 -0.39080199896331769 0.088975505674328229 0 -0.39592932834344929 0.083652732803022989 0 -0.3980315829831147 0.09249695297617104 0 -0.39592932834344929 0.083652732803022989 0 -0.40852868208460108 0.087823624411940387 0 -0.40381009182465538 0.097338483771248263 0 -0.3980315829831147 0.09249695297617104 0 -0.40852868208460108 0.087823624411940387 0 -0.40852868208460108 0.087823624411940387 0 -0.41589762626960952 0.0767036521743856 0 -0.42519728412086738 0.088879300820579432 0 -0.39592932834344929 0.083652732803022989 0 -0.40852868208460108 0.087823624411940387 0 -0.41589762626960952 0.0767036521743856 0 -0.40852868208460108 0.087823624411940387 0 -0.42519728412086738 0.088879300820579432 0 -0.41767179359494472 0.10284854033842671 0 -0.40921008290191968 0.057480917271951509 0 -0.39592932834344929 0.083652732803022989 0 -0.41589762626960952 0.0767036521743856 0 -0.40921008290191968 0.057480917271951509 0 -0.41787691356151269 0.065784802912958892 0 -0.41589762626960952 0.0767036521743856 0 -0.42587059420849399 0.056831058437317443 0 -0.41787691356151269 0.065784802912958892 0 -0.43817748349391028 0.079656258288155896 0 -0.4364537652831823 0.054957329914420788 0 -0.42587059420849399 0.056831058437317443 0 -0.43817748349391028 0.079656258288155896 0 -0.4364537652831823 0.054957329914420788 0 -0.43817748349391028 0.079656258288155896 0 -0.41787691356151269 0.065784802912958892 0 -0.41589762626960952 0.0767036521743856 0 -0.43817748349391028 0.079656258288155896 0 -0.42519728412086738 0.088879300820579432 0 -0.43378238389303031 0.1021589374536324 0 -0.43817748349391028 0.079656258288155896 0 -0.41589762626960952 0.0767036521743856 0 -0.42519728412086738 0.088879300820579432 0 -0.43817748349391028 0.079656258288155896 0 -0.43378238389303031 0.1021589374536324 0 -0.41767179359494472 0.10284854033842671 0 -0.43161251351793828 0.1166030166022461 0 -0.42519728412086738 0.088879300820579432 0 -0.43378238389303031 0.1021589374536324 0 -0.41767179359494472 0.10284854033842671 0 -0.40381009182465538 0.097338483771248263 0 -0.40244680538266658 0.10761675598182879 0 -0.41767179359494472 0.10284854033842671 0 -0.40244680538266658 0.10761675598182879 0 -0.41767179359494472 0.10284854033842671 0 -0.41024132891748583 0.1147595890253716 0 -0.40381009182465538 0.097338483771248263 0 -0.40852868208460108 0.087823624411940387 0 -0.41767179359494472 0.10284854033842671 0 -0.39612406895995139 0.1218652036024494 0 -0.41024132891748583 0.1147595890253716 0 -0.41589861719140919 0.12904922174672459 0 -0.41767179359494472 0.10284854033842671 0 -0.41024132891748583 0.1147595890253716 0 -0.42062651305357063 0.1188755492707232 0 -0.41024132891748583 0.1147595890253716 0 -0.42062651305357063 0.1188755492707232 0 -0.41589861719140919 0.12904922174672459 0 -0.42062651305357063 0.1188755492707232 0 -0.41589861719140919 0.12904922174672459 0 -0.42809814333956359 0.12558989502910911 0 -0.41767179359494472 0.10284854033842671 0 -0.42062651305357063 0.1188755492707232 0 -0.43161251351793828 0.1166030166022461 0 -0.42062651305357063 0.1188755492707232 0 -0.43161251351793828 0.1166030166022461 0 -0.42809814333956359 0.12558989502910911 0 -0.43378238389303031 0.1021589374536324 0 -0.43161251351793828 0.1166030166022461 0 -0.44275194232342208 0.11503560454355061 0 -0.43161251351793828 0.1166030166022461 0 -0.42809814333956359 0.12558989502910911 0 -0.4366799075120335 0.12718844763485179 0 -0.43161251351793828 0.1166030166022461 0 -0.44275194232342208 0.11503560454355061 0 -0.4366799075120335 0.12718844763485179 0 -0.44275194232342208 0.11503560454355061 0 -0.45957427442716842 0.1207120767966972 0 -0.44559154131117079 0.1253432973371604 0 -0.44275194232342208 0.11503560454355061 0 -0.44829637331204991 0.1037971898886054 0 -0.45957427442716842 0.1207120767966972 0 -0.44275194232342208 0.11503560454355061 0 -0.44559154131117079 0.1253432973371604 0 -0.4366799075120335 0.12718844763485179 0 -0.43378238389303031 0.1021589374536324 0 -0.44829637331204991 0.1037971898886054 0 -0.43817748349391028 0.079656258288155896 0 -0.43378238389303031 0.1021589374536324 0 -0.44275194232342208 0.11503560454355061 0 -0.44829637331204991 0.1037971898886054 0 -0.4616586910563194 0.1076429168644442 0 -0.47221611346020659 0.090659709217233111 0 -0.47153414450124731 0.11414333646101089 0 -0.44829637331204991 0.1037971898886054 0 -0.4616586910563194 0.1076429168644442 0 -0.47221611346020659 0.090659709217233111 0 -0.45957427442716842 0.1207120767966972 0 -0.47153414450124731 0.11414333646101089 0 -0.47085217554228731 0.13762696370478869 0 -0.4616586910563194 0.1076429168644442 0 -0.45957427442716842 0.1207120767966972 0 -0.47153414450124731 0.11414333646101089 0 -0.44829637331204991 0.1037971898886054 0 -0.4616586910563194 0.1076429168644442 0 -0.45957427442716842 0.1207120767966972 0 -0.44829637331204991 0.1037971898886054 0 -0.45957427442716842 0.1207120767966972 0 -0.45516212519319238 0.059616535270629149 0 -0.4364537652831823 0.054957329914420788 0 -0.43817748349391028 0.079656258288155896 0 -0.45516212519319238 0.059616535270629149 0 -0.43817748349391028 0.079656258288155896 0 -0.45759952248722918 0.078483524786525705 0 -0.44829637331204991 0.1037971898886054 0 -0.43817748349391028 0.079656258288155896 0 -0.45759952248722918 0.078483524786525705 0 -0.45759952248722918 0.078483524786525705 0 -0.47289808241916598 0.067176081973455329 0 -0.47221611346020659 0.090659709217233111 0 -0.44829637331204991 0.1037971898886054 0 -0.45759952248722918 0.078483524786525705 0 -0.47221611346020659 0.090659709217233111 0 -0.45516212519319238 0.059616535270629149 0 -0.45759952248722918 0.078483524786525705 0 -0.47289808241916598 0.067176081973455329 0 -0.47289808241916598 0.067176081973455329 0 -0.47221611346020659 0.090659709217233111 0 -0.4866984676844579 0.079450207519177016 0 -0.47289808241916598 0.067176081973455329 0 -0.47221611346020659 0.090659709217233111 0 -0.4866984676844579 0.079450207519177016 0 -0.5 0.066320668485283785 0 -0.5 0.094978245352720148 0 -0.47221611346020659 0.090659709217233111 0 -0.4866984676844579 0.079450207519177016 0 -0.5 0.094978245352720148 0 -0.47289808241916598 0.067176081973455329 0 -0.4866984676844579 0.079450207519177016 0 -0.5 0.066320668485283785 0 -0.48286677009101608 0.1246091695987487 0 -0.47153414450124731 0.11414333646101089 0 -0.487544093876354 0.109278710108765 0 -0.47221611346020659 0.090659709217233111 0 -0.47153414450124731 0.11414333646101089 0 -0.487544093876354 0.109278710108765 0 -0.47221611346020659 0.090659709217233111 0 -0.47153414450124731 0.11414333646101089 0 -0.47221611346020659 0.090659709217233111 0 -0.5 0.094978245352720148 0 -0.487544093876354 0.109278710108765 0 -0.5 0.094978245352720148 0 -0.487544093876354 0.109278710108765 0 -0.5 0.12363582222015659 0 -0.48286677009101608 0.1246091695987487 0 -0.487544093876354 0.109278710108765 0 -0.5 0.12363582222015659 0 -0.48286677009101608 0.1246091695987487 0 -0.5 0.12363582222015659 0 -0.48659568941039127 0.13768036849190121 0 -0.5 0.12363582222015659 0 -0.48659568941039127 0.13768036849190121 0 -0.49999999999999589 0.15229339908759301 0 -0.47153414450124731 0.11414333646101089 0 -0.47085217554228731 0.13762696370478869 0 -0.48286677009101608 0.1246091695987487 0 -0.47153414450124731 0.11414333646101089 0 -0.47085217554228731 0.13762696370478869 0 -0.48286677009101608 0.1246091695987487 0 -0.48659568941039127 0.13768036849190121 0 -0.47085217554228731 0.13762696370478869 0 -0.48659568941039127 0.13768036849190121 0 -0.47085217554228731 0.13762696370478869 0 -0.47925950141865831 0.150236487848218 0 -0.47051118792015573 0.1493688855439578 0 -0.47925950141865831 0.150236487848218 0 -0.47085217554228731 0.13762696370478869 0 -0.47051118792015573 0.1493688855439578 0 -0.47085217554228731 0.13762696370478869 0 -0.47925950141865831 0.150236487848218 0 -0.47085217554228731 0.13762696370478869 0 -0.47051118792015573 0.1493688855439578 0 -0.47925950141865831 0.150236487848218 0 -0.47085217554228731 0.13762696370478869 0 -0.47051118792015573 0.1493688855439578 0 -0.46541622630185608 0.1421972758529633 0 -0.47925950141865831 0.150236487848218 0 -0.49999999999999589 0.15229339908759301 0 -0.48939719504447632 0.16544126216209551 0 -0.47925950141865831 0.150236487848218 0 -0.49999999999999589 0.15229339908759301 0 -0.48659568941039127 0.13768036849190121 0 -0.47925950141865831 0.150236487848218 0 -0.49999999999999589 0.15229339908759301 0 -0.49999999999999589 0.15229339908759301 0 -0.48939719504447632 0.16544126216209551 0 -0.5 0.17895499673123849 0 -0.5 0.1806460364759728 0 -0.48621194539795037 0.17965784180851341 0 -0.49036743030762148 0.19198496351040159 0 -0.48939719504447632 0.16544126216209551 0 -0.5 0.1806460364759728 0 -0.5 0.17895499673123849 0 -0.48939719504447632 0.16544126216209551 0 -0.5 0.1806460364759728 0 -0.48939719504447632 0.16544126216209551 0 -0.5 0.1806460364759728 0 -0.48621194539795037 0.17965784180851341 0 -0.48621194539795037 0.17965784180851341 0 -0.49036743030762148 0.19198496351040159 0 -0.48060320726483652 0.18961233940413491 0 -0.48621194539795037 0.17965784180851341 0 -0.46973109129992491 0.17623154256524531 0 -0.48060320726483652 0.18961233940413491 0 -0.48939719504447632 0.16544126216209551 0 -0.48621194539795037 0.17965784180851341 0 -0.46973109129992491 0.17623154256524531 0 -0.47051118792015573 0.1493688855439578 0 -0.46973109129992491 0.17623154256524531 0 -0.47051118792015573 0.1493688855439578 0 -0.47925950141865831 0.150236487848218 0 -0.46973109129992491 0.17623154256524531 0 -0.47925950141865831 0.150236487848218 0 -0.48939719504447632 0.16544126216209551 0 -0.46973109129992491 0.17623154256524531 0 -0.47925950141865831 0.150236487848218 0 -0.48939719504447632 0.16544126216209551 0 -0.47051118792015573 0.1493688855439578 0 -0.46973109129992491 0.17623154256524531 0 -0.45462446801052958 0.1634699000867639 0 -0.46973109129992491 0.17623154256524531 0 -0.44806223964989 0.180016588270034 0 -0.45865708023715079 0.18950917324998209 0 -0.46973109129992491 0.17623154256524531 0 -0.45462446801052958 0.1634699000867639 0 -0.44806223964989 0.180016588270034 0 -0.44806223964989 0.180016588270034 0 -0.43901165137794051 0.1648136856785534 0 -0.43383103322149991 0.17654068605565121 0 -0.44806223964989 0.180016588270034 0 -0.43399015118779932 0.18853240979561611 0 -0.43383103322149991 0.17654068605565121 0 -0.45462446801052958 0.1634699000867639 0 -0.43901165137794051 0.1648136856785534 0 -0.44580616980473731 0.14691879837602859 0 -0.45462446801052958 0.1634699000867639 0 -0.44806223964989 0.180016588270034 0 -0.43901165137794051 0.1648136856785534 0 -0.44580616980473731 0.14691879837602859 0 -0.44513128408748881 0.1396693384203839 0 -0.45054469586236151 0.13921525787198161 0 -0.44580616980473731 0.14691879837602859 0 -0.44513128408748881 0.1396693384203839 0 -0.43567316542286688 0.13623323989099981 0 -0.45054469586236151 0.13921525787198161 0 -0.43567316542286688 0.13623323989099981 0 -0.44513128408748881 0.1396693384203839 0 -0.43567316542286688 0.13623323989099981 0 -0.44402004480309348 0.13182455524923009 0 -0.45054469586236151 0.13921525787198161 0 -0.43567316542286688 0.13623323989099981 0 -0.44513128408748881 0.1396693384203839 0 -0.45054469586236151 0.13921525787198161 0 -0.43567316542286688 0.13623323989099981 0 -0.44402004480309348 0.13182455524923009 0 -0.4366799075120335 0.12718844763485179 0 -0.43567316542286688 0.13623323989099981 0 -0.44402004480309348 0.13182455524923009 0 -0.44559154131117079 0.1253432973371604 0 -0.4366799075120335 0.12718844763485179 0 -0.45957427442716842 0.1207120767966972 0 -0.44559154131117079 0.1253432973371604 0 -0.45149328873053429 0.13018050441112891 0 -0.44402004480309348 0.13182455524923009 0 -0.44559154131117079 0.1253432973371604 0 -0.45149328873053429 0.13018050441112891 0 -0.44402004480309348 0.13182455524923009 0 -0.45149328873053429 0.13018050441112891 0 -0.45054469586236151 0.13921525787198161 0 -0.45054469586236151 0.13921525787198161 0 -0.45750063689587678 0.13188327660051979 0 -0.46273901665128042 0.13510976888954271 0 -0.45054469586236151 0.13921525787198161 0 -0.46273901665128042 0.13510976888954271 0 -0.46541622630185608 0.1421972758529633 0 -0.45957427442716842 0.1207120767966972 0 -0.47085217554228731 0.13762696370478869 0 -0.45149328873053429 0.13018050441112891 0 -0.45054469586236151 0.13921525787198161 0 -0.45750063689587678 0.13188327660051979 0 -0.45957427442716842 0.1207120767966972 0 -0.47085217554228731 0.13762696370478869 0 -0.46273901665128042 0.13510976888954271 0 -0.45957427442716842 0.1207120767966972 0 -0.45149328873053429 0.13018050441112891 0 -0.45750063689587678 0.13188327660051979 0 -0.45957427442716842 0.1207120767966972 0 -0.45750063689587678 0.13188327660051979 0 -0.46273901665128042 0.13510976888954271 0 -0.47085217554228731 0.13762696370478869 0 -0.46273901665128042 0.13510976888954271 0 -0.46541622630185608 0.1421972758529633 0 -0.47051118792015573 0.1493688855439578 0 -0.45462446801052958 0.1634699000867639 0 -0.44580616980473731 0.14691879837602859 0 -0.44580616980473731 0.14691879837602859 0 -0.45054469586236151 0.13921525787198161 0 -0.46541622630185608 0.1421972758529633 0 -0.47051118792015573 0.1493688855439578 0 -0.44580616980473731 0.14691879837602859 0 -0.46541622630185608 0.1421972758529633 0 -0.47051118792015573 0.1493688855439578 0 -0.44580616980473731 0.14691879837602859 0 -0.45054469586236151 0.13921525787198161 0 -0.46541622630185608 0.1421972758529633 0 -0.47070542970230489 0.24241145122953339 0 -0.48316287282803921 0.2423242544277307 0 -0.47217714811362088 0.25635722781140657 0 -0.47070542970230489 0.24241145122953339 0 -0.48316287282803921 0.2423242544277307 0 -0.46817089805945827 0.22995685660781981 0 -0.48316287282803921 0.2423242544277307 0 -0.5 0.2322781920185297 0 -0.49999999999999428 0.25893978966217518 0 -0.5 0.2322781920185297 0 -0.4842953126287024 0.21961035041733329 0 -0.5 0.20561659437488411 0 -0.48316287282803921 0.2423242544277307 0 -0.5 0.2322781920185297 0 -0.4842953126287024 0.21961035041733329 0 -0.48316287282803921 0.2423242544277307 0 -0.4842953126287024 0.21961035041733329 0 -0.46817089805945827 0.22995685660781981 0 -0.4842953126287024 0.21961035041733329 0 -0.48502730932727189 0.20267177975289891 0 -0.46895099467969159 0.2030941995865326 0 -0.4842953126287024 0.21961035041733329 0 -0.46895099467969159 0.2030941995865326 0 -0.46817089805945827 0.22995685660781981 0 -0.4842953126287024 0.21961035041733329 0 -0.5 0.20561659437488411 0 -0.48502730932727189 0.20267177975289891 0 -0.5 0.20561659437488411 0 -0.48502730932727189 0.20267177975289891 0 -0.49036743030762148 0.19198496351040159 0 -0.5 0.1806460364759728 0 -0.5 0.20561659437488411 0 -0.49036743030762148 0.19198496351040159 0 -0.48502730932727189 0.20267177975289891 0 -0.49036743030762148 0.19198496351040159 0 -0.48060320726483652 0.18961233940413491 0 -0.48502730932727189 0.20267177975289891 0 -0.46895099467969159 0.2030941995865326 0 -0.48060320726483652 0.18961233940413491 0 -0.46973109129992491 0.17623154256524531 0 -0.46895099467969159 0.2030941995865326 0 -0.46973109129992491 0.17623154256524531 0 -0.46895099467969159 0.2030941995865326 0 -0.48060320726483652 0.18961233940413491 0 -0.46895099467969159 0.2030941995865326 0 -0.45865708023715079 0.18950917324998209 0 -0.44788399531909717 0.1986943625781166 0 -0.46973109129992491 0.17623154256524531 0 -0.46895099467969159 0.2030941995865326 0 -0.45865708023715079 0.18950917324998209 0 -0.44806223964989 0.180016588270034 0 -0.44788399531909717 0.1986943625781166 0 -0.43399015118779932 0.18853240979561611 0 -0.44806223964989 0.180016588270034 0 -0.45865708023715079 0.18950917324998209 0 -0.44788399531909717 0.1986943625781166 0 -0.44788399531909717 0.1986943625781166 0 -0.43759163321167782 0.2127495999534201 0 -0.42880383211730722 0.201943948561464 0 -0.43759163321167782 0.2127495999534201 0 -0.4561613204083389 0.21546955820715361 0 -0.44390057645080688 0.2263691559789329 0 -0.44788399531909717 0.1986943625781166 0 -0.43759163321167782 0.2127495999534201 0 -0.4561613204083389 0.21546955820715361 0 -0.46895099467969159 0.2030941995865326 0 -0.44788399531909717 0.1986943625781166 0 -0.4561613204083389 0.21546955820715361 0 -0.46895099467969159 0.2030941995865326 0 -0.4561613204083389 0.21546955820715361 0 -0.46817089805945827 0.22995685660781981 0 -0.46895099467969159 0.2030941995865326 0 -0.46817089805945827 0.22995685660781981 0 -0.4561613204083389 0.21546955820715361 0 -0.46817089805945827 0.22995685660781981 0 -0.44390057645080688 0.2263691559789329 0 -0.46817089805945827 0.22995685660781981 0 -0.44390057645080688 0.2263691559789329 0 -0.45803886228221391 0.24136319189516969 0 -0.44390057645080688 0.2263691559789329 0 -0.45803886228221391 0.24136319189516969 0 -0.43754238098675741 0.24413038644236809 0 -0.45803886228221391 0.24136319189516969 0 -0.45105835632369212 0.25948660813246921 0 -0.44390057645080688 0.2263691559789329 0 -0.43754238098675741 0.24413038644236809 0 -0.45803886228221391 0.24136319189516969 0 -0.47070542970230489 0.24241145122953339 0 -0.46817089805945827 0.22995685660781981 0 -0.45803886228221391 0.24136319189516969 0 -0.47070542970230489 0.24241145122953339 0 -0.45803886228221391 0.24136319189516969 0 -0.47217714811362088 0.25635722781140657 0 -0.45803886228221391 0.24136319189516969 0 -0.47217714811362088 0.25635722781140657 0 -0.4186537209775133 0.24549186410775281 0 -0.42434167763679842 0.22865186905117019 0 -0.41130010243545462 0.23399165661639551 0 -0.4186537209775133 0.24549186410775281 0 -0.41130010243545462 0.23399165661639551 0 -0.40539954279161461 0.2435382908113044 0 -0.43754238098675741 0.24413038644236809 0 -0.4186537209775133 0.24549186410775281 0 -0.42434167763679842 0.22865186905117019 0 -0.44390057645080688 0.2263691559789329 0 -0.43754238098675741 0.24413038644236809 0 -0.42434167763679842 0.22865186905117019 0 -0.43759163321167782 0.2127495999534201 0 -0.44390057645080688 0.2263691559789329 0 -0.42434167763679842 0.22865186905117019 0 -0.42434167763679842 0.22865186905117019 0 -0.40944796563708058 0.22157419918983581 0 -0.42220849266509319 0.2134363402350507 0 -0.42434167763679842 0.22865186905117019 0 -0.41130010243545462 0.23399165661639551 0 -0.40944796563708058 0.22157419918983581 0 -0.41130010243545462 0.23399165661639551 0 -0.40944796563708058 0.22157419918983581 0 -0.39865760513426579 0.2307020599219142 0 -0.40944796563708058 0.22157419918983581 0 -0.40999593938051099 0.2122930901640521 0 -0.42220849266509319 0.2134363402350507 0 -0.40944796563708058 0.22157419918983581 0 -0.40999593938051099 0.2122930901640521 0 -0.400820853853184 0.21199851196870911 0 -0.40999593938051099 0.2122930901640521 0 -0.41078608493545898 0.2031473457575585 0 -0.40262129844323552 0.2027377720830679 0 -0.40999593938051099 0.2122930901640521 0 -0.41078608493545898 0.2031473457575585 0 -0.41758635305998959 0.2065849339383625 0 -0.40999593938051099 0.2122930901640521 0 -0.41758635305998959 0.2065849339383625 0 -0.42220849266509319 0.2134363402350507 0 -0.43759163321167782 0.2127495999534201 0 -0.42434167763679842 0.22865186905117019 0 -0.42220849266509319 0.2134363402350507 0 -0.43759163321167782 0.2127495999534201 0 -0.42220849266509319 0.2134363402350507 0 -0.42880383211730722 0.201943948561464 0 -0.41758635305998959 0.2065849339383625 0 -0.42220849266509319 0.2134363402350507 0 -0.42880383211730722 0.201943948561464 0 -0.42880383211730722 0.201943948561464 0 -0.42390081817227793 0.1925322098430976 0 -0.41824187650015959 0.19877191020962201 0 -0.44788399531909717 0.1986943625781166 0 -0.42880383211730722 0.201943948561464 0 -0.43399015118779932 0.18853240979561611 0 -0.43399015118779932 0.18853240979561611 0 -0.42390081817227793 0.1925322098430976 0 -0.42267704643043441 0.18275430127399239 0 -0.42880383211730722 0.201943948561464 0 -0.43399015118779932 0.18853240979561611 0 -0.42390081817227793 0.1925322098430976 0 -0.42390081817227793 0.1925322098430976 0 -0.4157911846256892 0.19065847937479349 0 -0.41824187650015959 0.19877191020962201 0 -0.4157911846256892 0.19065847937479349 0 -0.41824187650015959 0.19877191020962201 0 -0.41218472471872708 0.19648228569530621 0 -0.42390081817227793 0.1925322098430976 0 -0.4157911846256892 0.19065847937479349 0 -0.42267704643043441 0.18275430127399239 0 -0.41758635305998959 0.2065849339383625 0 -0.42880383211730722 0.201943948561464 0 -0.41824187650015959 0.19877191020962201 0 -0.41078608493545898 0.2031473457575585 0 -0.41758635305998959 0.2065849339383625 0 -0.41824187650015959 0.19877191020962201 0 -0.41078608493545898 0.2031473457575585 0 -0.40651384518699007 0.1963156514662048 0 -0.40262129844323552 0.2027377720830679 0 -0.41078608493545898 0.2031473457575585 0 -0.41824187650015959 0.19877191020962201 0 -0.41218472471872708 0.19648228569530621 0 -0.41078608493545898 0.2031473457575585 0 -0.41218472471872708 0.19648228569530621 0 -0.40651384518699007 0.1963156514662048 0 -0.41218472471872708 0.19648228569530621 0 -0.40651384518699007 0.1963156514662048 0 -0.40862676493032912 0.18940220565588509 0 -0.40651384518699007 0.1963156514662048 0 -0.40862676493032912 0.18940220565588509 0 -0.40403957187313722 0.19086890344106949 0 -0.4157911846256892 0.19065847937479349 0 -0.40862676493032912 0.18940220565588509 0 -0.41268455651674191 0.18446175340108761 0 -0.4157911846256892 0.19065847937479349 0 -0.41218472471872708 0.19648228569530621 0 -0.40862676493032912 0.18940220565588509 0 -0.39848371935291571 0.19141982109054631 0 -0.401621065382406 0.19569624726700269 0 -0.39644689205575168 0.19713908825412471 0 -0.39848371935291571 0.19141982109054631 0 -0.40403957187313722 0.19086890344106949 0 -0.401621065382406 0.19569624726700269 0 -0.39848371935291571 0.19141982109054631 0 -0.40403957187313722 0.19086890344106949 0 -0.40216771548556868 0.18693678401649411 0 -0.39848371935291571 0.19141982109054631 0 -0.39968165551180268 0.18504117860218211 0 -0.40216771548556868 0.18693678401649411 0 -0.40403957187313722 0.19086890344106949 0 -0.40216771548556868 0.18693678401649411 0 -0.405088525017062 0.1869214753305721 0 -0.40862676493032912 0.18940220565588509 0 -0.40403957187313722 0.19086890344106949 0 -0.405088525017062 0.1869214753305721 0 -0.40651384518699007 0.1963156514662048 0 -0.40403957187313722 0.19086890344106949 0 -0.401621065382406 0.19569624726700269 0 -0.40651384518699007 0.1963156514662048 0 -0.40262129844323552 0.2027377720830679 0 -0.401621065382406 0.19569624726700269 0 -0.40262129844323552 0.2027377720830679 0 -0.401621065382406 0.19569624726700269 0 -0.39644689205575168 0.19713908825412471 0 -0.40262129844323552 0.2027377720830679 0 -0.39644689205575168 0.19713908825412471 0 -0.39205660845836132 0.20347517362277601 0 -0.39644689205575168 0.19713908825412471 0 -0.38926682752651048 0.19455263385438951 0 -0.39205660845836132 0.20347517362277601 0 -0.39848371935291571 0.19141982109054631 0 -0.38926682752651048 0.19455263385438951 0 -0.39968165551180268 0.18504117860218211 0 -0.39848371935291571 0.19141982109054631 0 -0.39644689205575168 0.19713908825412471 0 -0.38926682752651048 0.19455263385438951 0 -0.37553447807688389 0.20565766350914741 0 -0.37922771946575129 0.18653936998283649 0 -0.38926682752651048 0.19455263385438951 0 -0.37553447807688389 0.20565766350914741 0 -0.39205660845836132 0.20347517362277601 0 -0.38926682752651048 0.19455263385438951 0 -0.39968165551180268 0.18504117860218211 0 -0.37922771946575129 0.18653936998283649 0 -0.38926682752651048 0.19455263385438951 0 -0.37553447807688389 0.20565766350914741 0 -0.37922771946575129 0.18653936998283649 0 -0.37553447807688389 0.20565766350914741 0 -0.38299178364681652 0.21643172299498881 0 -0.39205660845836132 0.20347517362277601 0 -0.37553447807688389 0.20565766350914741 0 -0.38299178364681652 0.21643172299498881 0 -0.37184123668801322 0.2247759570354575 0 -0.38299178364681652 0.21643172299498881 0 -0.39306852495476208 0.21366287860963989 0 -0.39120760878373889 0.2200361474349164 0 -0.38299178364681652 0.21643172299498881 0 -0.39306852495476208 0.21366287860963989 0 -0.39205660845836132 0.20347517362277601 0 -0.39306852495476208 0.21366287860963989 0 -0.400820853853184 0.21199851196870911 0 -0.40012545653445142 0.22093447426543031 0 -0.39306852495476208 0.21366287860963989 0 -0.40012545653445142 0.22093447426543031 0 -0.39120760878373889 0.2200361474349164 0 -0.39306852495476208 0.21366287860963989 0 -0.39205660845836132 0.20347517362277601 0 -0.400820853853184 0.21199851196870911 0 -0.40999593938051099 0.2122930901640521 0 -0.40262129844323552 0.2027377720830679 0 -0.400820853853184 0.21199851196870911 0 -0.40262129844323552 0.2027377720830679 0 -0.39205660845836132 0.20347517362277601 0 -0.400820853853184 0.21199851196870911 0 -0.40944796563708058 0.22157419918983581 0 -0.400820853853184 0.21199851196870911 0 -0.40012545653445142 0.22093447426543031 0 -0.40944796563708058 0.22157419918983581 0 -0.40012545653445142 0.22093447426543031 0 -0.39865760513426579 0.2307020599219142 0 -0.39865760513426579 0.2307020599219142 0 -0.39484471594247589 0.2244654779156692 0 -0.38938819331744751 0.22618923004041611 0 -0.39865760513426579 0.2307020599219142 0 -0.38938819331744751 0.22618923004041611 0 -0.38688695435379622 0.231922761994176 0 -0.39484471594247589 0.2244654779156692 0 -0.39120760878373889 0.2200361474349164 0 -0.38938819331744751 0.22618923004041611 0 -0.40012545653445142 0.22093447426543031 0 -0.39865760513426579 0.2307020599219142 0 -0.39484471594247589 0.2244654779156692 0 -0.40012545653445142 0.22093447426543031 0 -0.39484471594247589 0.2244654779156692 0 -0.39120760878373889 0.2200361474349164 0 -0.38299178364681652 0.21643172299498881 0 -0.39120760878373889 0.2200361474349164 0 -0.3840284146103406 0.22420770782354349 0 -0.39120760878373889 0.2200361474349164 0 -0.38938819331744751 0.22618923004041611 0 -0.3840284146103406 0.22420770782354349 0 -0.38299178364681652 0.21643172299498881 0 -0.37413545720698699 0.2254873515487518 0 -0.37184123668801322 0.2247759570354575 0 -0.38299178364681652 0.21643172299498881 0 -0.3840284146103406 0.22420770782354349 0 -0.37413545720698699 0.2254873515487518 0 -0.3840284146103406 0.22420770782354349 0 -0.38080443457090479 0.23033905121260531 0 -0.37413545720698699 0.2254873515487518 0 -0.37909103135598249 0.23744224334221059 0 -0.37413545720698699 0.2254873515487518 0 -0.37184123668801322 0.2247759570354575 0 -0.38080443457090479 0.23033905121260531 0 -0.37909103135598249 0.23744224334221059 0 -0.37413545720698699 0.2254873515487518 0 -0.38080443457090479 0.23033905121260531 0 -0.38688695435379622 0.231922761994176 0 -0.37909103135598249 0.23744224334221059 0 -0.3840284146103406 0.22420770782354349 0 -0.38080443457090479 0.23033905121260531 0 -0.38688695435379622 0.231922761994176 0 -0.38938819331744751 0.22618923004041611 0 -0.3840284146103406 0.22420770782354349 0 -0.38688695435379622 0.231922761994176 0 -0.37909103135598249 0.23744224334221059 0 -0.36815520962458398 0.24385690515785929 0 -0.38189756379396927 0.25613332880158979 0 -0.37909103135598249 0.23744224334221059 0 -0.39250389713538669 0.24315115524816419 0 -0.38189756379396927 0.25613332880158979 0 -0.38688695435379622 0.231922761994176 0 -0.37909103135598249 0.23744224334221059 0 -0.39250389713538669 0.24315115524816419 0 -0.39250389713538669 0.24315115524816419 0 -0.40539954279161461 0.2435382908113044 0 -0.40495453681686527 0.26140270371834828 0 -0.39865760513426579 0.2307020599219142 0 -0.38688695435379622 0.231922761994176 0 -0.39250389713538669 0.24315115524816419 0 -0.39865760513426579 0.2307020599219142 0 -0.39250389713538669 0.24315115524816419 0 -0.40539954279161461 0.2435382908113044 0 -0.41130010243545462 0.23399165661639551 0 -0.39865760513426579 0.2307020599219142 0 -0.40539954279161461 0.2435382908113044 0 -0.42110115168931878 0.1444687112080992 0 -0.42377186758662211 0.15807013444708309 0 -0.40193132490458139 0.1550719783299277 0 -0.42110115168931878 0.1444687112080992 0 -0.39639613357390041 0.14201862404016979 0 -0.40193132490458139 0.1550719783299277 0 -0.42110115168931878 0.1444687112080992 0 -0.39639613357390041 0.14201862404016979 0 -0.42110115168931878 0.1444687112080992 0 -0.40715275843066528 0.13051436873502259 0 -0.39639613357390041 0.14201862404016979 0 -0.40715275843066528 0.13051436873502259 0 -0.43567316542286688 0.13623323989099981 0 -0.39612406895995139 0.1218652036024494 0 -0.40715275843066528 0.13051436873502259 0 -0.41589861719140919 0.12904922174672459 0 -0.42110115168931878 0.1444687112080992 0 -0.40715275843066528 0.13051436873502259 0 -0.43567316542286688 0.13623323989099981 0 -0.40715275843066528 0.13051436873502259 0 -0.41589861719140919 0.12904922174672459 0 -0.43567316542286688 0.13623323989099981 0 -0.41589861719140919 0.12904922174672459 0 -0.42809814333956359 0.12558989502910911 0 -0.43567316542286688 0.13623323989099981 0 -0.41589861719140919 0.12904922174672459 0 -0.43567316542286688 0.13623323989099981 0 -0.42809814333956359 0.12558989502910911 0 -0.4366799075120335 0.12718844763485179 0 -0.43567316542286688 0.13623323989099981 0 -0.44580616980473731 0.14691879837602859 0 -0.42110115168931878 0.1444687112080992 0 -0.44580616980473731 0.14691879837602859 0 -0.42110115168931878 0.1444687112080992 0 -0.43567316542286688 0.13623323989099981 0 -0.44580616980473731 0.14691879837602859 0 -0.42110115168931878 0.1444687112080992 0 -0.42377186758662211 0.15807013444708309 0 -0.43901165137794051 0.1648136856785534 0 -0.44580616980473731 0.14691879837602859 0 -0.42377186758662211 0.15807013444708309 0 -0.43901165137794051 0.1648136856785534 0 -0.42341864886829628 0.17076487114440739 0 -0.43383103322149991 0.17654068605565121 0 -0.43901165137794051 0.1648136856785534 0 -0.42341864886829628 0.17076487114440739 0 -0.42377186758662211 0.15807013444708309 0 -0.43399015118779932 0.18853240979561611 0 -0.43383103322149991 0.17654068605565121 0 -0.42267704643043441 0.18275430127399239 0 -0.42341864886829628 0.17076487114440739 0 -0.43383103322149991 0.17654068605565121 0 -0.42267704643043441 0.18275430127399239 0 -0.4157911846256892 0.19065847937479349 0 -0.42267704643043441 0.18275430127399239 0 -0.41268455651674191 0.18446175340108761 0 -0.42267704643043441 0.18275430127399239 0 -0.41397295963119829 0.1770434157027696 0 -0.41268455651674191 0.18446175340108761 0 -0.42341864886829628 0.17076487114440739 0 -0.42267704643043441 0.18275430127399239 0 -0.41397295963119829 0.1770434157027696 0 -0.40656025209228702 0.17622653981487241 0 -0.41397295963119829 0.1770434157027696 0 -0.41136225887485839 0.16638276194548249 0 -0.40656025209228702 0.17622653981487241 0 -0.41397295963119829 0.1770434157027696 0 -0.40785007151988167 0.1816406342525714 0 -0.41397295963119829 0.1770434157027696 0 -0.40785007151988167 0.1816406342525714 0 -0.41268455651674191 0.18446175340108761 0 -0.40785007151988167 0.1816406342525714 0 -0.40818143837917192 0.1852739499443691 0 -0.40452374788746848 0.18385231910767191 0 -0.40862676493032912 0.18940220565588509 0 -0.40818143837917192 0.1852739499443691 0 -0.41268455651674191 0.18446175340108761 0 -0.40785007151988167 0.1816406342525714 0 -0.40818143837917192 0.1852739499443691 0 -0.41268455651674191 0.18446175340108761 0 -0.40862676493032912 0.18940220565588509 0 -0.40818143837917192 0.1852739499443691 0 -0.405088525017062 0.1869214753305721 0 -0.42377186758662211 0.15807013444708309 0 -0.41136225887485839 0.16638276194548249 0 -0.40193132490458139 0.1550719783299277 0 -0.42341864886829628 0.17076487114440739 0 -0.41397295963119829 0.1770434157027696 0 -0.41136225887485839 0.16638276194548249 0 -0.42341864886829628 0.17076487114440739 0 -0.42377186758662211 0.15807013444708309 0 -0.41136225887485839 0.16638276194548249 0 -0.40656025209228702 0.17622653981487241 0 -0.41136225887485839 0.16638276194548249 0 -0.40205427320616582 0.1679974182952412 0 -0.3929421722865063 0.16589709445266421 0 -0.38475226945401592 0.1579411937047811 0 -0.40193132490458139 0.1550719783299277 0 -0.41136225887485839 0.16638276194548249 0 -0.40205427320616582 0.1679974182952412 0 -0.40193132490458139 0.1550719783299277 0 -0.3929421722865063 0.16589709445266421 0 -0.39995075351425008 0.17654801708839621 0 -0.38210598693496017 0.17163983958948609 0 -0.40205427320616582 0.1679974182952412 0 -0.3929421722865063 0.16589709445266421 0 -0.40193132490458139 0.1550719783299277 0 -0.40205427320616582 0.1679974182952412 0 -0.3929421722865063 0.16589709445266421 0 -0.39995075351425008 0.17654801708839621 0 -0.39968165551180268 0.18504117860218211 0 -0.39995075351425008 0.17654801708839621 0 -0.38210598693496017 0.17163983958948609 0 -0.39968165551180268 0.18504117860218211 0 -0.38210598693496017 0.17163983958948609 0 -0.39968165551180268 0.18504117860218211 0 -0.40193284079177821 0.18283100785364059 0 -0.39995075351425008 0.17654801708839621 0 -0.39968165551180268 0.18504117860218211 0 -0.40289426734857531 0.18510077772541081 0 -0.40193284079177821 0.18283100785364059 0 -0.39968165551180268 0.18504117860218211 0 -0.40216771548556868 0.18693678401649411 0 -0.39968165551180268 0.18504117860218211 0 -0.40216771548556868 0.18693678401649411 0 -0.40289426734857531 0.18510077772541081 0 -0.40216771548556868 0.18693678401649411 0 -0.405088525017062 0.1869214753305721 0 -0.40289426734857531 0.18510077772541081 0 -0.40818143837917192 0.1852739499443691 0 -0.405088525017062 0.1869214753305721 0 -0.40452374788746848 0.18385231910767191 0 -0.40452374788746848 0.18385231910767191 0 -0.40289426734857531 0.18510077772541081 0 -0.40193284079177821 0.18283100785364059 0 -0.405088525017062 0.1869214753305721 0 -0.40452374788746848 0.18385231910767191 0 -0.40289426734857531 0.18510077772541081 0 -0.40452374788746848 0.18385231910767191 0 -0.40416353316113313 0.18021970362343051 0 -0.40193284079177821 0.18283100785364059 0 -0.40785007151988167 0.1816406342525714 0 -0.40452374788746848 0.18385231910767191 0 -0.40416353316113313 0.18021970362343051 0 -0.40416353316113313 0.18021970362343051 0 -0.40193284079177821 0.18283100785364059 0 -0.39995075351425008 0.17654801708839621 0 -0.40656025209228702 0.17622653981487241 0 -0.40205427320616582 0.1679974182952412 0 -0.39995075351425008 0.17654801708839621 0 -0.40656025209228702 0.17622653981487241 0 -0.40785007151988167 0.1816406342525714 0 -0.40416353316113313 0.18021970362343051 0 -0.40656025209228702 0.17622653981487241 0 -0.40416353316113313 0.18021970362343051 0 -0.39995075351425008 0.17654801708839621 0 -0.39968165551180268 0.18504117860218211 0 -0.37922771946575129 0.18653936998283649 0 -0.39968165551180268 0.18504117860218211 0 -0.37922771946575129 0.18653936998283649 0 -0.38210598693496017 0.17163983958948609 0 -0.37922771946575129 0.18653936998283649 0 -0.38210598693496017 0.17163983958948609 0 -0.38475226945401592 0.1579411937047811 0 -0.38210598693496017 0.17163983958948609 0 -0.36773858419139599 0.16068478350973189 0 -0.3929421722865063 0.16589709445266421 0 -0.38475226945401592 0.1579411937047811 0 -0.38210598693496017 0.17163983958948609 0 -0.38475226945401592 0.1579411937047811 0 -0.38210598693496017 0.17163983958948609 0 -0.38475226945401592 0.1579411937047811 0 -0.39639613357390041 0.14201862404016979 0 -0.37169111545848149 0.13956853687224269 0 -0.39639613357390041 0.14201862404016979 0 -0.37169111545848149 0.13956853687224269 0 -0.38475226945401592 0.1579411937047811 0 -0.39639613357390041 0.14201862404016979 0 -0.40193132490458139 0.1550719783299277 0 -0.37863235143846391 0.1247954975790455 0 -0.40715275843066528 0.13051436873502259 0 -0.39639613357390041 0.14201862404016979 0 -0.37863235143846391 0.1247954975790455 0 -0.40715275843066528 0.13051436873502259 0 -0.39612406895995139 0.1218652036024494 0 -0.41589861719140919 0.12904922174672459 0 -0.39612406895995139 0.1218652036024494 0 -0.37863235143846391 0.1247954975790455 0 -0.40715275843066528 0.13051436873502259 0 -0.37863235143846391 0.1247954975790455 0 -0.39639613357390041 0.14201862404016979 0 -0.37169111545848149 0.13956853687224269 0 -0.37863235143846391 0.1247954975790455 0 -0.37634952072849392 0.11468118545817341 0 -0.37169111545848149 0.13956853687224269 0 -0.37169111545848149 0.13956853687224269 0 -0.36471420233860008 0.12609105434405241 0 -0.35546912121105639 0.13126224560557631 0 -0.37634952072849392 0.11468118545817341 0 -0.37169111545848149 0.13956853687224269 0 -0.37634952072849392 0.11468118545817341 0 -0.37169111545848149 0.13956853687224269 0 -0.36471420233860008 0.12609105434405241 0 -0.37169111545848149 0.13956853687224269 0 -0.35546912121105639 0.13126224560557631 0 -0.34552683712605098 0.13697372952172829 0 -0.37169111545848149 0.13956853687224269 0 -0.34552683712605098 0.13697372952172829 0 -0.36471420233860008 0.12609105434405241 0 -0.35550820933415173 0.12545554851567231 0 -0.35546912121105639 0.13126224560557631 0 -0.35550820933415173 0.12545554851567231 0 -0.35546912121105639 0.13126224560557631 0 -0.34940120172174149 0.12678534185060569 0 -0.35546912121105639 0.13126224560557631 0 -0.34552683712605098 0.13697372952172829 0 -0.34720402367436481 0.1315171898841406 0 -0.34552683712605098 0.13697372952172829 0 -0.34720402367436481 0.1315171898841406 0 -0.34199044850765592 0.1343142771551796 0 -0.35546912121105639 0.13126224560557631 0 -0.34720402367436481 0.1315171898841406 0 -0.34940120172174149 0.12678534185060569 0 -0.34720402367436481 0.1315171898841406 0 -0.34402472653001642 0.1285490095131531 0 -0.34199044850765592 0.1343142771551796 0 -0.34720402367436481 0.1315171898841406 0 -0.34402472653001642 0.1285490095131531 0 -0.34940120172174149 0.12678534185060569 0 -0.34402472653001642 0.1285490095131531 0 -0.34940120172174149 0.12678534185060569 0 -0.3448004361286286 0.1235292688654986 0 -0.37169111545848149 0.13956853687224269 0 -0.34552683712605098 0.13697372952172829 0 -0.35326100622503298 0.1496457195013377 0 -0.35326100622503298 0.1496457195013377 0 -0.3404523565860319 0.15768038112187471 0 -0.33878342825867008 0.13860665549294349 0 -0.34552683712605098 0.13697372952172829 0 -0.35326100622503298 0.1496457195013377 0 -0.33878342825867008 0.13860665549294349 0 -0.35326100622503298 0.1496457195013377 0 -0.33878342825867008 0.13860665549294349 0 -0.37169111545848149 0.13956853687224269 0 -0.36773858419139599 0.16068478350973189 0 -0.37169111545848149 0.13956853687224269 0 -0.35326100622503298 0.1496457195013377 0 -0.36773858419139599 0.16068478350973189 0 -0.35326100622503298 0.1496457195013377 0 -0.36773858419139599 0.16068478350973189 0 -0.38475226945401592 0.1579411937047811 0 -0.37169111545848149 0.13956853687224269 0 -0.36773858419139599 0.16068478350973189 0 -0.38210598693496017 0.17163983958948609 0 -0.36773858419139599 0.16068478350973189 0 -0.38210598693496017 0.17163983958948609 0 -0.36773858419139599 0.16068478350973189 0 -0.36267214932457559 0.18775201738876909 0 -0.37922771946575129 0.18653936998283649 0 -0.38210598693496017 0.17163983958948609 0 -0.36267214932457559 0.18775201738876909 0 -0.36773858419139599 0.16068478350973189 0 -0.36267214932457559 0.18775201738876909 0 -0.37922771946575129 0.18653936998283649 0 -0.36267214932457559 0.18775201738876909 0 -0.36773858419139599 0.16068478350973189 0 -0.34916833733860431 0.1701904272978321 0 -0.36267214932457559 0.18775201738876909 0 -0.34916833733860431 0.1701904272978321 0 -0.36267214932457559 0.18775201738876909 0 -0.3413000972768353 0.18931745809870079 0 -0.35326100622503298 0.1496457195013377 0 -0.36773858419139599 0.16068478350973189 0 -0.34916833733860431 0.1701904272978321 0 -0.35326100622503298 0.1496457195013377 0 -0.34916833733860431 0.1701904272978321 0 -0.3404523565860319 0.15768038112187471 0 -0.3404523565860319 0.15768038112187471 0 -0.33136470964509868 0.1731876933897587 0 -0.32537428323289858 0.1565538835014848 0 -0.34916833733860431 0.1701904272978321 0 -0.3404523565860319 0.15768038112187471 0 -0.33136470964509868 0.1731876933897587 0 -0.33136470964509868 0.1731876933897587 0 -0.3413000972768353 0.18931745809870079 0 -0.31992804522909513 0.19088289880863371 0 -0.34916833733860431 0.1701904272978321 0 -0.33136470964509868 0.1731876933897587 0 -0.3413000972768353 0.18931745809870079 0 -0.33136470964509868 0.1731876933897587 0 -0.31992804522909513 0.19088289880863371 0 -0.31196513820712701 0.1745011115100262 0 -0.32537428323289858 0.1565538835014848 0 -0.30082410817268601 0.15215325880089869 0 -0.31196513820712701 0.1745011115100262 0 -0.33136470964509868 0.1731876933897587 0 -0.32537428323289858 0.1565538835014848 0 -0.31196513820712701 0.1745011115100262 0 -0.32537428323289858 0.1565538835014848 0 -0.31196513820712701 0.1745011115100262 0 -0.32537428323289858 0.1565538835014848 0 -0.3179958287831508 0.14266376060252159 0 -0.33047773784868451 0.14008444288813371 0 -0.32537428323289858 0.1565538835014848 0 -0.3179958287831508 0.14266376060252159 0 -0.30082410817268601 0.15215325880089869 0 -0.3179958287831508 0.14266376060252159 0 -0.32454994390718278 0.13281934000293691 0 -0.30875307075430208 0.13170787781915369 0 -0.32454994390718278 0.13281934000293691 0 -0.30875307075430208 0.13170787781915369 0 -0.31802497141950509 0.1225801459084155 0 -0.32454994390718278 0.13281934000293691 0 -0.32858158075522742 0.1256294334427312 0 -0.31802497141950509 0.1225801459084155 0 -0.32454994390718278 0.13281934000293691 0 -0.33086824908566298 0.1334202177591767 0 -0.32858158075522742 0.1256294334427312 0 -0.3179958287831508 0.14266376060252159 0 -0.32454994390718278 0.13281934000293691 0 -0.33047773784868451 0.14008444288813371 0 -0.33047773784868451 0.14008444288813371 0 -0.33479703813596939 0.13593907033035649 0 -0.33878342825867008 0.13860665549294349 0 -0.32454994390718278 0.13281934000293691 0 -0.33047773784868451 0.14008444288813371 0 -0.33086824908566298 0.1334202177591767 0 -0.33086824908566298 0.1334202177591767 0 -0.33479703813596939 0.13593907033035649 0 -0.33593494478125119 0.13262880213172529 0 -0.33047773784868451 0.14008444288813371 0 -0.33086824908566298 0.1334202177591767 0 -0.33479703813596939 0.13593907033035649 0 -0.32858158075522742 0.1256294334427312 0 -0.33593494478125119 0.13262880213172529 0 -0.33861016289623658 0.1280325100929339 0 -0.33086824908566298 0.1334202177591767 0 -0.32858158075522742 0.1256294334427312 0 -0.33593494478125119 0.13262880213172529 0 -0.33593494478125119 0.13262880213172529 0 -0.33861016289623658 0.1280325100929339 0 -0.34199044850765592 0.1343142771551796 0 -0.34402472653001642 0.1285490095131531 0 -0.33861016289623658 0.1280325100929339 0 -0.34199044850765592 0.1343142771551796 0 -0.34402472653001642 0.1285490095131531 0 -0.33861016289623658 0.1280325100929339 0 -0.3448004361286286 0.1235292688654986 0 -0.33479703813596939 0.13593907033035649 0 -0.33878342825867008 0.13860665549294349 0 -0.33749997152520722 0.13562003528403499 0 -0.33878342825867008 0.13860665549294349 0 -0.33749997152520722 0.13562003528403499 0 -0.34199044850765592 0.1343142771551796 0 -0.33593494478125119 0.13262880213172529 0 -0.33749997152520722 0.13562003528403499 0 -0.34199044850765592 0.1343142771551796 0 -0.33479703813596939 0.13593907033035649 0 -0.33593494478125119 0.13262880213172529 0 -0.33749997152520722 0.13562003528403499 0 -0.33878342825867008 0.13860665549294349 0 -0.34199044850765592 0.1343142771551796 0 -0.34552683712605098 0.13697372952172829 0 -0.33878342825867008 0.13860665549294349 0 -0.34199044850765592 0.1343142771551796 0 -0.3404523565860319 0.15768038112187471 0 -0.32537428323289858 0.1565538835014848 0 -0.33878342825867008 0.13860665549294349 0 -0.32537428323289858 0.1565538835014848 0 -0.33047773784868451 0.14008444288813371 0 -0.33878342825867008 0.13860665549294349 0 -0.32537428323289858 0.1565538835014848 0 -0.33878342825867008 0.13860665549294349 0 -0.36009457670685252 0.24135745491585769 0 -0.34145397378521541 0.22867266258684901 0 -0.34560710140531692 0.25366746611407021 0 -0.36009457670685252 0.24135745491585769 0 -0.36815520962458398 0.24385690515785929 0 -0.37184123668801322 0.2247759570354575 0 -0.37909103135598249 0.23744224334221059 0 -0.36815520962458398 0.24385690515785929 0 -0.37184123668801322 0.2247759570354575 0 -0.36009457670685252 0.24135745491585769 0 -0.36815520962458398 0.24385690515785929 0 -0.36446918256115629 0.26293785328026142 0 -0.37184123668801322 0.2247759570354575 0 -0.35571997085254792 0.21977705655145419 0 -0.36009457670685252 0.24135745491585769 0 -0.37184123668801322 0.2247759570354575 0 -0.35571997085254792 0.21977705655145419 0 -0.37184123668801322 0.2247759570354575 0 -0.35571997085254792 0.21977705655145419 0 -0.35780953017635769 0.21373037361154401 0 -0.36815520962458398 0.24385690515785929 0 -0.37184123668801322 0.2247759570354575 0 -0.37413545720698699 0.2254873515487518 0 -0.37184123668801322 0.2247759570354575 0 -0.36009457670685252 0.24135745491585769 0 -0.35571997085254792 0.21977705655145419 0 -0.34145397378521541 0.22867266258684901 0 -0.35571997085254792 0.21977705655145419 0 -0.33472351211749618 0.21326645069678779 0 -0.34145397378521541 0.22867266258684901 0 -0.36009457670685252 0.24135745491585769 0 -0.35571997085254792 0.21977705655145419 0 -0.35571997085254792 0.21977705655145419 0 -0.35525908255996053 0.21750344533097599 0 -0.33472351211749618 0.21326645069678779 0 -0.35571997085254792 0.21977705655145419 0 -0.33472351211749618 0.21326645069678779 0 -0.34636212496186541 0.20874091618238871 0 -0.35525908255996053 0.21750344533097599 0 -0.33472351211749618 0.21326645069678779 0 -0.34636212496186541 0.20874091618238871 0 -0.35780953017635769 0.21373037361154401 0 -0.35452075046069392 0.202007469917099 0 -0.34636212496186541 0.20874091618238871 0 -0.35780953017635769 0.21373037361154401 0 -0.35525908255996053 0.21750344533097599 0 -0.35571997085254792 0.21977705655145419 0 -0.35780953017635769 0.21373037361154401 0 -0.35525908255996053 0.21750344533097599 0 -0.35571997085254792 0.21977705655145419 0 -0.35525908255996053 0.21750344533097599 0 -0.37553447807688389 0.20565766350914741 0 -0.37184123668801322 0.2247759570354575 0 -0.35780953017635769 0.21373037361154401 0 -0.37553447807688389 0.20565766350914741 0 -0.37184123668801322 0.2247759570354575 0 -0.37553447807688389 0.20565766350914741 0 -0.37922771946575129 0.18653936998283649 0 -0.36267214932457559 0.18775201738876909 0 -0.37553447807688389 0.20565766350914741 0 -0.35780953017635769 0.21373037361154401 0 -0.36267214932457559 0.18775201738876909 0 -0.35780953017635769 0.21373037361154401 0 -0.36267214932457559 0.18775201738876909 0 -0.36267214932457559 0.18775201738876909 0 -0.35123919737997689 0.1978065724856953 0 -0.3413000972768353 0.18931745809870079 0 -0.34636212496186541 0.20874091618238871 0 -0.35123919737997689 0.1978065724856953 0 -0.3413000972768353 0.18931745809870079 0 -0.35780953017635769 0.21373037361154401 0 -0.36267214932457559 0.18775201738876909 0 -0.35452075046069392 0.202007469917099 0 -0.36267214932457559 0.18775201738876909 0 -0.3413000972768353 0.18931745809870079 0 -0.36267214932457559 0.18775201738876909 0 -0.35452075046069392 0.202007469917099 0 -0.35123919737997689 0.1978065724856953 0 -0.34636212496186541 0.20874091618238871 0 -0.35452075046069392 0.202007469917099 0 -0.35123919737997689 0.1978065724856953 0 -0.3413000972768353 0.18931745809870079 0 -0.31992804522909513 0.19088289880863371 0 -0.34636212496186541 0.20874091618238871 0 -0.3413000972768353 0.18931745809870079 0 -0.32652135679650968 0.20260639542428971 0 -0.3413000972768353 0.18931745809870079 0 -0.31992804522909513 0.19088289880863371 0 -0.32652135679650968 0.20260639542428971 0 -0.31992804522909513 0.19088289880863371 0 -0.32652135679650968 0.20260639542428971 0 -0.31372705338244439 0.2067558448421217 0 -0.32652135679650968 0.20260639542428971 0 -0.31372705338244439 0.2067558448421217 0 -0.33472351211749618 0.21326645069678779 0 -0.31372705338244439 0.2067558448421217 0 -0.33472351211749618 0.21326645069678779 0 -0.3202754102086916 0.22889213911387379 0 -0.31372705338244439 0.2067558448421217 0 -0.33472351211749618 0.21326645069678779 0 -0.34636212496186541 0.20874091618238871 0 -0.32652135679650968 0.20260639542428971 0 -0.33472351211749618 0.21326645069678779 0 -0.33472351211749618 0.21326645069678779 0 -0.34145397378521541 0.22867266258684901 0 -0.3202754102086916 0.22889213911387379 0 -0.34145397378521541 0.22867266258684901 0 -0.3202754102086916 0.22889213911387379 0 -0.33160565992797192 0.24238809607023731 0 -0.3202754102086916 0.22889213911387379 0 -0.31800361967524648 0.24524988558073299 0 -0.30254072293902062 0.24316617339739741 0 -0.3202754102086916 0.22889213911387379 0 -0.31800361967524648 0.24524988558073299 0 -0.33160565992797192 0.24238809607023731 0 -0.31800361967524648 0.24524988558073299 0 -0.33160565992797192 0.24238809607023731 0 -0.33110768137146013 0.25690774615755291 0 -0.34145397378521541 0.22867266258684901 0 -0.33160565992797192 0.24238809607023731 0 -0.34560710140531692 0.25366746611407021 0 -0.28318876919926878 0.2452977502543644 0 -0.30254072293902062 0.24316617339739741 0 -0.29356281679667923 0.2529040710590405 0 -0.28318876919926878 0.2452977502543644 0 -0.30254072293902062 0.24316617339739741 0 -0.2870221960277175 0.23057809653294531 0 -0.31800361967524648 0.24524988558073299 0 -0.30254072293902062 0.24316617339739741 0 -0.31637666675272252 0.25968463195712088 0 -0.3202754102086916 0.22889213911387379 0 -0.30254072293902062 0.24316617339739741 0 -0.30071004435920878 0.22308294950196839 0 -0.31372705338244439 0.2067558448421217 0 -0.3202754102086916 0.22889213911387379 0 -0.30071004435920878 0.22308294950196839 0 -0.30254072293902062 0.24316617339739741 0 -0.30071004435920878 0.22308294950196839 0 -0.2870221960277175 0.23057809653294531 0 -0.30071004435920878 0.22308294950196839 0 -0.2870221960277175 0.23057809653294531 0 -0.28117177706321389 0.21571592964623049 0 -0.30071004435920878 0.22308294950196839 0 -0.29273059464739298 0.20024523898745389 0 -0.28117177706321389 0.21571592964623049 0 -0.29273059464739298 0.20024523898745389 0 -0.27747034898076878 0.2052069317594897 0 -0.28117177706321389 0.21571592964623049 0 -0.29273059464739298 0.20024523898745389 0 -0.28117177706321389 0.21571592964623049 0 -0.31372705338244439 0.2067558448421217 0 -0.30071004435920878 0.22308294950196839 0 -0.29273059464739298 0.20024523898745389 0 -0.31372705338244439 0.2067558448421217 0 -0.29273059464739298 0.20024523898745389 0 -0.31992804522909513 0.19088289880863371 0 -0.31372705338244439 0.2067558448421217 0 -0.29855599318135501 0.1924483395185673 0 -0.31992804522909513 0.19088289880863371 0 -0.29855599318135501 0.1924483395185673 0 -0.31372705338244439 0.2067558448421217 0 -0.29855599318135501 0.1924483395185673 0 -0.29273059464739298 0.20024523898745389 0 -0.29273059464739298 0.20024523898745389 0 -0.2735037146497214 0.1942833461245019 0 -0.29855599318135501 0.1924483395185673 0 -0.29273059464739298 0.20024523898745389 0 -0.2735037146497214 0.1942833461245019 0 -0.29855599318135501 0.1924483395185673 0 -0.2735037146497214 0.1942833461245019 0 -0.29855599318135501 0.1924483395185673 0 -0.2735037146497214 0.1942833461245019 0 -0.28528523181997961 0.18428031343015619 0 -0.29855599318135501 0.1924483395185673 0 -0.29273059464739298 0.20024523898745389 0 -0.29273059464739298 0.20024523898745389 0 -0.2735037146497214 0.1942833461245019 0 -0.27747034898076878 0.2052069317594897 0 -0.2735037146497214 0.1942833461245019 0 -0.26566427231866291 0.1918524829117117 0 -0.2735037146497214 0.1942833461245019 0 -0.26566427231866291 0.1918524829117117 0 -0.26657009795248687 0.18308434203209761 0 -0.2735037146497214 0.1942833461245019 0 -0.25590979458900298 0.19557204964482031 0 -0.2735037146497214 0.1942833461245019 0 -0.25590979458900298 0.19557204964482031 0 -0.26621142983743612 0.21022470493532311 0 -0.2735037146497214 0.1942833461245019 0 -0.26566427231866291 0.1918524829117117 0 -0.25590979458900298 0.19557204964482031 0 -0.26566427231866291 0.1918524829117117 0 -0.25590979458900298 0.19557204964482031 0 -0.25439980846308041 0.18291948599303731 0 -0.25590979458900298 0.19557204964482031 0 -0.25439980846308041 0.18291948599303731 0 -0.24685674409102309 0.1927201471117356 0 -0.25590979458900298 0.19557204964482031 0 -0.25274632867820113 0.20926577990401499 0 -0.26621142983743612 0.21022470493532311 0 -0.25274632867820113 0.20926577990401499 0 -0.25882341008639659 0.22171943991565601 0 -0.2444711343498851 0.22195195185913669 0 -0.25274632867820113 0.20926577990401499 0 -0.26621142983743612 0.21022470493532311 0 -0.25882341008639659 0.22171943991565601 0 -0.2735037146497214 0.1942833461245019 0 -0.26621142983743612 0.21022470493532311 0 -0.27747034898076878 0.2052069317594897 0 -0.26621142983743612 0.21022470493532311 0 -0.27747034898076878 0.2052069317594897 0 -0.28117177706321389 0.21571592964623049 0 -0.26621142983743612 0.21022470493532311 0 -0.28117177706321389 0.21571592964623049 0 -0.26961295947903541 0.23118662030500761 0 -0.2870221960277175 0.23057809653294531 0 -0.28117177706321389 0.21571592964623049 0 -0.26961295947903541 0.23118662030500761 0 -0.28117177706321389 0.21571592964623049 0 -0.26961295947903541 0.23118662030500761 0 -0.26621142983743612 0.21022470493532311 0 -0.26961295947903541 0.23118662030500761 0 -0.25882341008639659 0.22171943991565601 0 -0.25882341008639659 0.22171943991565601 0 -0.2506263941714858 0.24704315055313489 0 -0.2444711343498851 0.22195195185913669 0 -0.26961295947903541 0.23118662030500761 0 -0.25882341008639659 0.22171943991565601 0 -0.2506263941714858 0.24704315055313489 0 -0.26961295947903541 0.23118662030500761 0 -0.2506263941714858 0.24704315055313489 0 -0.26798285056354498 0.25567168971821908 0 -0.28318876919926878 0.2452977502543644 0 -0.26961295947903541 0.23118662030500761 0 -0.26798285056354498 0.25567168971821908 0 -0.28318876919926878 0.2452977502543644 0 -0.2870221960277175 0.23057809653294531 0 -0.26961295947903541 0.23118662030500761 0 -0.29028894980755438 0.13254887810666879 0 -0.30082410817268601 0.15215325880089869 0 -0.27903658171763962 0.1437352725217195 0 -0.30082410817268601 0.15215325880089869 0 -0.27831707162653058 0.16046362281025581 0 -0.27903658171763962 0.1437352725217195 0 -0.29028894980755438 0.13254887810666879 0 -0.28272190828206012 0.11976546827052641 0 -0.29743530773278087 0.1226893879988567 0 -0.29028894980755438 0.13254887810666879 0 -0.30875307075430208 0.13170787781915369 0 -0.30082410817268601 0.15215325880089869 0 -0.29028894980755438 0.13254887810666879 0 -0.30875307075430208 0.13170787781915369 0 -0.29743530773278087 0.1226893879988567 0 -0.3179958287831508 0.14266376060252159 0 -0.30875307075430208 0.13170787781915369 0 -0.30082410817268601 0.15215325880089869 0 -0.30082410817268601 0.15215325880089869 0 -0.31196513820712701 0.1745011115100262 0 -0.29255902140418721 0.17339408800354969 0 -0.31992804522909513 0.19088289880863371 0 -0.29855599318135501 0.1924483395185673 0 -0.31196513820712701 0.1745011115100262 0 -0.29855599318135501 0.1924483395185673 0 -0.31196513820712701 0.1745011115100262 0 -0.29855599318135501 0.1924483395185673 0 -0.31196513820712701 0.1745011115100262 0 -0.29255902140418721 0.17339408800354969 0 -0.29855599318135501 0.1924483395185673 0 -0.29255902140418721 0.17339408800354969 0 -0.28528523181997961 0.18428031343015619 0 -0.29255902140418721 0.17339408800354969 0 -0.28528523181997961 0.18428031343015619 0 -0.27652219804465428 0.1769954800740059 0 -0.30082410817268601 0.15215325880089869 0 -0.29255902140418721 0.17339408800354969 0 -0.27831707162653058 0.16046362281025581 0 -0.29255902140418721 0.17339408800354969 0 -0.27831707162653058 0.16046362281025581 0 -0.27652219804465428 0.1769954800740059 0 -0.27831707162653058 0.16046362281025581 0 -0.2627604962863157 0.1693709150572312 0 -0.2595055321116313 0.15109420390976111 0 -0.27831707162653058 0.16046362281025581 0 -0.27652219804465428 0.1769954800740059 0 -0.2627604962863157 0.1693709150572312 0 -0.2735037146497214 0.1942833461245019 0 -0.27652219804465428 0.1769954800740059 0 -0.26657009795248687 0.18308434203209761 0 -0.2735037146497214 0.1942833461245019 0 -0.28528523181997961 0.18428031343015619 0 -0.27652219804465428 0.1769954800740059 0 -0.27652219804465428 0.1769954800740059 0 -0.26657009795248687 0.18308434203209761 0 -0.2627604962863157 0.1693709150572312 0 -0.25439980846308041 0.18291948599303731 0 -0.2627604962863157 0.1693709150572312 0 -0.24196394172506869 0.17020394477746961 0 -0.26566427231866291 0.1918524829117117 0 -0.26657009795248687 0.18308434203209761 0 -0.25439980846308041 0.18291948599303731 0 -0.26657009795248687 0.18308434203209761 0 -0.25439980846308041 0.18291948599303731 0 -0.2627604962863157 0.1693709150572312 0 -0.2627604962863157 0.1693709150572312 0 -0.2595055321116313 0.15109420390976111 0 -0.24196394172506869 0.17020394477746961 0 -0.2595055321116313 0.15109420390976111 0 -0.25438616355168048 0.1367677488002505 0 -0.23907993130390179 0.14252150892863319 0 -0.2595055321116313 0.15109420390976111 0 -0.27903658171763962 0.1437352725217195 0 -0.26905540646309961 0.1315506043898714 0 -0.27831707162653058 0.16046362281025581 0 -0.2595055321116313 0.15109420390976111 0 -0.27903658171763962 0.1437352725217195 0 -0.29028894980755438 0.13254887810666879 0 -0.26905540646309961 0.1315506043898714 0 -0.28272190828206012 0.11976546827052641 0 -0.29028894980755438 0.13254887810666879 0 -0.27903658171763962 0.1437352725217195 0 -0.26905540646309961 0.1315506043898714 0 -0.2595055321116313 0.15109420390976111 0 -0.26905540646309961 0.1315506043898714 0 -0.25438616355168048 0.1367677488002505 0 -0.26905540646309961 0.1315506043898714 0 -0.25438616355168048 0.1367677488002505 0 -0.24990378432808949 0.12190467797273639 0 -0.26095043766452553 0.1031403768044838 0 -0.2453855617984193 0.10654566054510189 0 -0.24990378432808949 0.12190467797273639 0 -0.26095043766452553 0.1031403768044838 0 -0.26786468664880791 0.116577327729898 0 -0.24990378432808949 0.12190467797273639 0 -0.26905540646309961 0.1315506043898714 0 -0.26786468664880791 0.116577327729898 0 -0.24990378432808949 0.12190467797273639 0 -0.26095043766452553 0.1031403768044838 0 -0.26287364277428621 0.086783831548154083 0 -0.25146419328691488 0.092293369550659005 0 -0.26095043766452553 0.1031403768044838 0 -0.27193407042371393 0.093412043865112926 0 -0.26287364277428621 0.086783831548154083 0 -0.26095043766452553 0.1031403768044838 0 -0.25146419328691488 0.092293369550659005 0 -0.2453855617984193 0.10654566054510189 0 -0.26095043766452553 0.1031403768044838 0 -0.27816004442722603 0.10522253069533739 0 -0.26786468664880791 0.116577327729898 0 -0.26095043766452553 0.1031403768044838 0 -0.27816004442722603 0.10522253069533739 0 -0.27193407042371393 0.093412043865112926 0 -0.27816004442722603 0.10522253069533739 0 -0.28142606250607599 0.092959785231833444 0 -0.27193407042371393 0.093412043865112926 0 -0.26905540646309961 0.1315506043898714 0 -0.26786468664880791 0.116577327729898 0 -0.28272190828206012 0.11976546827052641 0 -0.27816004442722603 0.10522253069533739 0 -0.26786468664880791 0.116577327729898 0 -0.28272190828206012 0.11976546827052641 0 -0.28272190828206012 0.11976546827052641 0 -0.29352705461289202 0.11000408070252581 0 -0.29743530773278087 0.1226893879988567 0 -0.27816004442722603 0.10522253069533739 0 -0.28272190828206012 0.11976546827052641 0 -0.29352705461289202 0.11000408070252581 0 -0.27816004442722603 0.10522253069533739 0 -0.29352705461289202 0.11000408070252581 0 -0.2920735110404718 0.096336691719666329 0 -0.27816004442722603 0.10522253069533739 0 -0.2920735110404718 0.096336691719666329 0 -0.28142606250607599 0.092959785231833444 0 -0.29352705461289202 0.11000408070252581 0 -0.2920735110404718 0.096336691719666329 0 -0.30325423220033582 0.1028401726362774 0 -0.30243033366750172 0.085116012481939091 0 -0.32052024828186909 0.10657426128743649 0 -0.31197305676109988 0.09129346100587539 0 -0.30243033366750172 0.085116012481939091 0 -0.32052024828186909 0.10657426128743649 0 -0.2920735110404718 0.096336691719666329 0 -0.30325423220033582 0.1028401726362774 0 -0.30243033366750172 0.085116012481939091 0 -0.30325423220033582 0.1028401726362774 0 -0.30243033366750172 0.085116012481939091 0 -0.32052024828186909 0.10657426128743649 0 -0.30325423220033582 0.1028401726362774 0 -0.30772001339894411 0.1161698169898194 0 -0.32052024828186909 0.10657426128743649 0 -0.30875307075430208 0.13170787781915369 0 -0.30772001339894411 0.1161698169898194 0 -0.31802497141950509 0.1225801459084155 0 -0.30875307075430208 0.13170787781915369 0 -0.30772001339894411 0.1161698169898194 0 -0.29743530773278087 0.1226893879988567 0 -0.29352705461289202 0.11000408070252581 0 -0.30772001339894411 0.1161698169898194 0 -0.29743530773278087 0.1226893879988567 0 -0.29352705461289202 0.11000408070252581 0 -0.30325423220033582 0.1028401726362774 0 -0.30772001339894411 0.1161698169898194 0 -0.31122464103957181 0.071665053985238328 0 -0.30243033366750172 0.085116012481939091 0 -0.29668324162484422 0.06934277864292758 0 -0.31122464103957181 0.071665053985238328 0 -0.28873757273916911 0.056932284428091312 0 -0.31122464103957181 0.071665053985238328 0 -0.29668324162484422 0.06934277864292758 0 -0.28873757273916911 0.056932284428091312 0 -0.31122464103957181 0.071665053985238328 0 -0.31183990620008489 0.082926140627745781 0 -0.30243033366750172 0.085116012481939091 0 -0.31183990620008489 0.082926140627745781 0 -0.31197305676109988 0.09129346100587539 0 -0.30243033366750172 0.085116012481939091 0 -0.2920735110404718 0.096336691719666329 0 -0.30243033366750172 0.085116012481939091 0 -0.28623136931576271 0.083683119568297631 0 -0.2920735110404718 0.096336691719666329 0 -0.28142606250607599 0.092959785231833444 0 -0.28623136931576271 0.083683119568297631 0 -0.28142606250607599 0.092959785231833444 0 -0.28623136931576271 0.083683119568297631 0 -0.27873131732320527 0.086144540310752832 0 -0.30243033366750172 0.085116012481939091 0 -0.28434041905313417 0.063657763676441603 0 -0.30243033366750172 0.085116012481939091 0 -0.28623136931576271 0.083683119568297631 0 -0.28434041905313417 0.063657763676441603 0 -0.30243033366750172 0.085116012481939091 0 -0.29668324162484422 0.06934277864292758 0 -0.28434041905313417 0.063657763676441603 0 -0.28623136931576271 0.083683119568297631 0 -0.28434041905313417 0.063657763676441603 0 -0.27794934564154622 0.075182905701082062 0 -0.29668324162484422 0.06934277864292758 0 -0.28434041905313417 0.063657763676441603 0 -0.28873757273916911 0.056932284428091312 0 -0.28434041905313417 0.063657763676441603 0 -0.27794934564154622 0.075182905701082062 0 -0.27309286211923578 0.067231236344428777 0 -0.28434041905313417 0.063657763676441603 0 -0.27309286211923578 0.067231236344428777 0 -0.2638061236428817 0.059025097310115619 0 -0.27794934564154622 0.075182905701082062 0 -0.26696527239630652 0.072828530487527285 0 -0.27309286211923578 0.067231236344428777 0 -0.27794934564154622 0.075182905701082062 0 -0.26696527239630652 0.072828530487527285 0 -0.27178532513823611 0.082116967979595806 0 -0.26696527239630652 0.072828530487527285 0 -0.27309286211923578 0.067231236344428777 0 -0.2638061236428817 0.059025097310115619 0 -0.28142606250607599 0.092959785231833444 0 -0.27873131732320527 0.086144540310752832 0 -0.27193407042371393 0.093412043865112926 0 -0.27873131732320527 0.086144540310752832 0 -0.27178532513823611 0.082116967979595806 0 -0.27193407042371393 0.093412043865112926 0 -0.27794934564154622 0.075182905701082062 0 -0.27873131732320527 0.086144540310752832 0 -0.27178532513823611 0.082116967979595806 0 -0.28623136931576271 0.083683119568297631 0 -0.27794934564154622 0.075182905701082062 0 -0.27873131732320527 0.086144540310752832 0 -0.26696527239630652 0.072828530487527285 0 -0.27178532513823611 0.082116967979595806 0 -0.26287364277428621 0.086783831548154083 0 -0.27178532513823611 0.082116967979595806 0 -0.27193407042371393 0.093412043865112926 0 -0.26287364277428621 0.086783831548154083 0 -0.26287364277428621 0.086783831548154083 0 -0.25146419328691488 0.092293369550659005 0 -0.24873223389209739 0.071440771527455052 0 -0.26696527239630652 0.072828530487527285 0 -0.2638061236428817 0.059025097310115619 0 -0.24873223389209739 0.071440771527455052 0 -0.26696527239630652 0.072828530487527285 0 -0.26287364277428621 0.086783831548154083 0 -0.24873223389209739 0.071440771527455052 0 -0.2638061236428817 0.059025097310115619 0 -0.24742819255764029 0.046984233307217217 0 -0.24873223389209739 0.071440771527455052 0 -0.2638061236428817 0.059025097310115619 0 -0.26625050443876652 0.042199514870944213 0 -0.24742819255764029 0.046984233307217217 0 -0.26625050443876652 0.042199514870944213 0 -0.2431054019094851 0.027035623456324601 0 -0.26625050443876652 0.042199514870944213 0 -0.2431054019094851 0.027035623456324601 0 -0.24742819255764029 0.046984233307217217 0 -0.26625050443876652 0.042199514870944213 0 -0.27800111668733207 0.030141747693546422 0 -0.28411516839793111 0.041030101733908898 0 -0.26625050443876652 0.042199514870944213 0 -0.28873757273916911 0.056932284428091312 0 -0.28411516839793111 0.041030101733908898 0 -0.26625050443876652 0.042199514870944213 0 -0.2655731782542774 0.02389943583344005 0 -0.27800111668733207 0.030141747693546422 0 -0.28434041905313417 0.063657763676441603 0 -0.26625050443876652 0.042199514870944213 0 -0.28873757273916911 0.056932284428091312 0 -0.28434041905313417 0.063657763676441603 0 -0.2638061236428817 0.059025097310115619 0 -0.26625050443876652 0.042199514870944213 0 -0.28434041905313417 0.063657763676441603 0 -0.26625050443876652 0.042199514870944213 0 -0.26625050443876652 0.042199514870944213 0 -0.28873757273916911 0.056932284428091312 0 -0.26459100728072532 -0.0076913051556886537 0 -0.26464349856002789 0.0067420299064005181 0 -0.25565325530567518 0.0057868627586625384 0 -0.25565325530567518 0.0057868627586625384 0 -0.2513162794641734 0.011637224375976311 0 -0.24587491164738959 0.0043270520053787006 0 -0.25565325530567518 0.0057868627586625384 0 -0.25662406410266042 0.01535447075145701 0 -0.2513162794641734 0.011637224375976311 0 -0.25662406410266042 0.01535447075145701 0 -0.2513162794641734 0.011637224375976311 0 -0.24715136784709851 0.019544127397268959 0 -0.25565325530567518 0.0057868627586625384 0 -0.25662406410266042 0.01535447075145701 0 -0.26313686523927088 0.0129027772085312 0 -0.26464349856002789 0.0067420299064005181 0 -0.25565325530567518 0.0057868627586625384 0 -0.26313686523927088 0.0129027772085312 0 -0.26625050443876652 0.042199514870944213 0 -0.2655731782542774 0.02389943583344005 0 -0.24715136784709851 0.019544127397268959 0 -0.26625050443876652 0.042199514870944213 0 -0.2431054019094851 0.027035623456324601 0 -0.24715136784709851 0.019544127397268959 0 -0.25662406410266042 0.01535447075145701 0 -0.2655731782542774 0.02389943583344005 0 -0.24715136784709851 0.019544127397268959 0 -0.26625050443876652 0.042199514870944213 0 -0.24715136784709851 0.019544127397268959 0 -0.25662406410266042 0.01535447075145701 0 -0.26313686523927088 0.0129027772085312 0 -0.2655731782542774 0.02389943583344005 0 -0.2655731782542774 0.02389943583344005 0 -0.27800111668733207 0.030141747693546422 0 -0.27670778226064341 0.018475138681567398 0 -0.27800111668733207 0.030141747693546422 0 -0.27670778226064341 0.018475138681567398 0 -0.2849217802937567 0.0207047852607905 0 -0.26313686523927088 0.0129027772085312 0 -0.2655731782542774 0.02389943583344005 0 -0.26969247008518649 0.01428068636307102 0 -0.2655731782542774 0.02389943583344005 0 -0.27670778226064341 0.018475138681567398 0 -0.26969247008518649 0.01428068636307102 0 -0.26464349856002789 0.0067420299064005181 0 -0.26969247008518649 0.01428068636307102 0 -0.27309033148892881 0.0077743384499039114 0 -0.26464349856002789 0.0067420299064005181 0 -0.26313686523927088 0.0129027772085312 0 -0.26969247008518649 0.01428068636307102 0 -0.26969247008518649 0.01428068636307102 0 -0.27487373790367808 0.012960709578913191 0 -0.27309033148892881 0.0077743384499039114 0 -0.27670778226064341 0.018475138681567398 0 -0.27487373790367808 0.012960709578913191 0 -0.28000436777995391 0.01131267482111043 0 -0.27670778226064341 0.018475138681567398 0 -0.26969247008518649 0.01428068636307102 0 -0.27487373790367808 0.012960709578913191 0 -0.27670778226064341 0.018475138681567398 0 -0.28000436777995391 0.01131267482111043 0 -0.28382800583608159 0.014674518224595191 0 -0.27487373790367808 0.012960709578913191 0 -0.28000436777995391 0.01131267482111043 0 -0.27309033148892881 0.0077743384499039114 0 -0.27821046729409787 0.0010296311265635949 0 -0.26988253184571848 0.00021775334969518009 0 -0.27309033148892881 0.0077743384499039114 0 -0.28000436777995391 0.01131267482111043 0 -0.27821046729409787 0.0010296311265635949 0 -0.27309033148892881 0.0077743384499039114 0 -0.26464349856002789 0.0067420299064005181 0 -0.26988253184571848 0.00021775334969518009 0 -0.27309033148892881 0.0077743384499039114 0 -0.2863934749535309 0.0030748758827578979 0 -0.29154389181567131 0.010181910144516771 0 -0.29411671876251522 0.0087742633452138757 0 -0.28000436777995391 0.01131267482111043 0 -0.27821046729409787 0.0010296311265635949 0 -0.2863934749535309 0.0030748758827578979 0 -0.28000436777995391 0.01131267482111043 0 -0.2863934749535309 0.0030748758827578979 0 -0.28570403042955589 0.010570626030989161 0 -0.28382800583608159 0.014674518224595191 0 -0.29154389181567131 0.010181910144516771 0 -0.2849217802937567 0.0207047852607905 0 -0.2863934749535309 0.0030748758827578979 0 -0.28570403042955589 0.010570626030989161 0 -0.29154389181567131 0.010181910144516771 0 -0.28000436777995391 0.01131267482111043 0 -0.28570403042955589 0.010570626030989161 0 -0.28382800583608159 0.014674518224595191 0 -0.28570403042955589 0.010570626030989161 0 -0.28382800583608159 0.014674518224595191 0 -0.29154389181567131 0.010181910144516771 0 -0.29154389181567131 0.010181910144516771 0 -0.29411671876251522 0.0087742633452138757 0 -0.29154389181567131 0.010181910144516771 0 -0.2849217802937567 0.0207047852607905 0 -0.29265215121543697 0.030422621416475861 0 -0.29154389181567131 0.010181910144516771 0 -0.29411671876251522 0.0087742633452138757 0 -0.29265215121543697 0.030422621416475861 0 -0.29411671876251522 0.0087742633452138757 0 -0.29265215121543697 0.030422621416475861 0 -0.27670778226064341 0.018475138681567398 0 -0.28382800583608159 0.014674518224595191 0 -0.2849217802937567 0.0207047852607905 0 -0.27800111668733207 0.030141747693546422 0 -0.2849217802937567 0.0207047852607905 0 -0.29265215121543697 0.030422621416475861 0 -0.29411671876251522 0.0087742633452138757 0 -0.29265215121543697 0.030422621416475861 0 -0.30798806058355988 0.020586415512345631 0 -0.29265215121543697 0.030422621416475861 0 -0.30798806058355988 0.020586415512345631 0 -0.31015329293274407 0.03435068548119391 0 -0.31489809481014508 -0.0025956570120114278 0 -0.29411671876251522 0.0087742633452138757 0 -0.31489809481014508 -0.0025956570120114278 0 -0.29411671876251522 0.0087742633452138757 0 -0.30798806058355988 0.020586415512345631 0 -0.28873757273916911 0.056932284428091312 0 -0.29582993578403488 0.045160454555755528 0 -0.30484904689438957 0.057324924460980448 0 -0.28873757273916911 0.056932284428091312 0 -0.28411516839793111 0.041030101733908898 0 -0.29582993578403488 0.045160454555755528 0 -0.27800111668733207 0.030141747693546422 0 -0.29265215121543697 0.030422621416475861 0 -0.28411516839793111 0.041030101733908898 0 -0.29265215121543697 0.030422621416475861 0 -0.28411516839793111 0.041030101733908898 0 -0.29582993578403488 0.045160454555755528 0 -0.29265215121543697 0.030422621416475861 0 -0.29582993578403488 0.045160454555755528 0 -0.31015329293274407 0.03435068548119391 0 -0.29582993578403488 0.045160454555755528 0 -0.31015329293274407 0.03435068548119391 0 -0.30874621754368442 0.046831795582213662 0 -0.31122464103957181 0.071665053985238328 0 -0.28873757273916911 0.056932284428091312 0 -0.30484904689438957 0.057324924460980448 0 -0.29582993578403488 0.045160454555755528 0 -0.30874621754368442 0.046831795582213662 0 -0.30484904689438957 0.057324924460980448 0 -0.30874621754368442 0.046831795582213662 0 -0.32444590560593223 0.060787223330784533 0 -0.32151016879927319 0.043308340235639488 0 -0.30874621754368442 0.046831795582213662 0 -0.30484904689438957 0.057324924460980448 0 -0.32444590560593223 0.060787223330784533 0 -0.32444590560593223 0.060787223330784533 0 -0.32151016879927319 0.043308340235639488 0 -0.33527409432906963 0.044980164916862422 0 -0.31015329293274407 0.03435068548119391 0 -0.30874621754368442 0.046831795582213662 0 -0.32151016879927319 0.043308340235639488 0 -0.31015329293274407 0.03435068548119391 0 -0.32151016879927319 0.043308340235639488 0 -0.32380205702939152 0.029633988620474741 0 -0.32151016879927319 0.043308340235639488 0 -0.33527409432906963 0.044980164916862422 0 -0.32380205702939152 0.029633988620474741 0 -0.33527409432906963 0.044980164916862422 0 -0.33894737315888113 0.025731168617540628 0 -0.34690897708731377 0.03663235279435486 0 -0.33527409432906963 0.044980164916862422 0 -0.32380205702939152 0.029633988620474741 0 -0.33894737315888113 0.025731168617540628 0 -0.32444590560593223 0.060787223330784533 0 -0.34763797227439908 0.059882595066947597 0 -0.33527409432906963 0.044980164916862422 0 -0.34763797227439908 0.059882595066947597 0 -0.34690897708731377 0.03663235279435486 0 -0.32444590560593223 0.060787223330784533 0 -0.33527409432906963 0.044980164916862422 0 -0.34763797227439908 0.059882595066947597 0 -0.31489809481014508 -0.0025956570120114278 0 -0.32763489955355413 -0.00017520948974483221 0 -0.32102617340883072 0.01359074513245051 0 -0.31489809481014508 -0.0025956570120114278 0 -0.30798806058355988 0.020586415512345631 0 -0.32102617340883072 0.01359074513245051 0 -0.32763489955355413 -0.00017520948974483221 0 -0.32102617340883072 0.01359074513245051 0 -0.33199474124098172 0.013327634082968399 0 -0.30798806058355988 0.020586415512345631 0 -0.32102617340883072 0.01359074513245051 0 -0.32380205702939152 0.029633988620474741 0 -0.32102617340883072 0.01359074513245051 0 -0.32380205702939152 0.029633988620474741 0 -0.33199474124098172 0.013327634082968399 0 -0.30798806058355988 0.020586415512345631 0 -0.31015329293274407 0.03435068548119391 0 -0.32380205702939152 0.029633988620474741 0 -0.32380205702939152 0.029633988620474741 0 -0.33894737315888113 0.025731168617540628 0 -0.33199474124098172 0.013327634082968399 0 -0.33894737315888113 0.025731168617540628 0 -0.34074509584822671 0.011105848626921209 0 -0.35151361746852472 0.015385901312578569 0 -0.33894737315888113 0.025731168617540628 0 -0.33199474124098172 0.013327634082968399 0 -0.34074509584822671 0.011105848626921209 0 -0.33898658532914527 -0.006438115471157857 0 -0.34074509584822671 0.011105848626921209 0 -0.35151361746852472 0.015385901312578569 0 -0.33898658532914527 -0.006438115471157857 0 -0.34074509584822671 0.011105848626921209 0 -0.33520878750043359 0.0046069015736541364 0 -0.33199474124098172 0.013327634082968399 0 -0.34074509584822671 0.011105848626921209 0 -0.33520878750043359 0.0046069015736541364 0 -0.32763489955355413 -0.00017520948974483221 0 -0.33199474124098172 0.013327634082968399 0 -0.33520878750043359 0.0046069015736541364 0 -0.33898658532914527 -0.006438115471157857 0 -0.34705743470078337 0.005329472832426671 0 -0.35151361746852472 0.015385901312578569 0 -0.33898658532914527 -0.006438115471157857 0 -0.35151361746852472 0.015385901312578569 0 -0.34771651417275828 -0.004091168346160131 0 -0.34705743470078337 0.005329472832426671 0 -0.36106781508375252 0.0044918509726583379 0 -0.34705743470078337 0.005329472832426671 0 -0.35151361746852472 0.015385901312578569 0 -0.34705743470078337 0.005329472832426671 0 -0.35151361746852472 0.015385901312578569 0 -0.36106781508375252 0.0044918509726583379 0 -0.35151361746852472 0.015385901312578569 0 -0.36363556989787121 0.016713032253080001 0 -0.36106781508375252 0.0044918509726583379 0 -0.33894737315888113 0.025731168617540628 0 -0.35151361746852472 0.015385901312578569 0 -0.34690897708731377 0.03663235279435486 0 -0.35151361746852472 0.015385901312578569 0 -0.36396211364155773 0.037073096363234491 0 -0.35151361746852472 0.015385901312578569 0 -0.36117182820569471 0.037181934057845083 0 -0.36396211364155773 0.037073096363234491 0 -0.35151361746852472 0.015385901312578569 0 -0.36117182820569471 0.037181934057845083 0 -0.35151361746852472 0.015385901312578569 0 -0.34690897708731377 0.03663235279435486 0 -0.36117182820569471 0.037181934057845083 0 -0.35151361746852472 0.015385901312578569 0 -0.36363556989787121 0.016713032253080001 0 -0.36396211364155773 0.037073096363234491 0 -0.37670227458156769 0.017870872175230611 0 -0.36363556989787121 0.016713032253080001 0 -0.36396211364155773 0.037073096363234491 0 -0.37680457973064141 -0.010885529782619099 0 -0.37670227458156769 0.017870872175230611 0 -0.36106781508375252 0.0044918509726583379 0 -0.37670227458156769 0.017870872175230611 0 -0.36363556989787121 0.016713032253080001 0 -0.36106781508375252 0.0044918509726583379 0 -0.34763797227439908 0.059882595066947597 0 -0.37083003894286581 0.058977966803111147 0 -0.34763797227439908 0.059882595066947597 0 -0.34690897708731377 0.03663235279435486 0 -0.36117182820569471 0.037181934057845083 0 -0.37972654167708059 0.041310718130240148 0 -0.37670227458156769 0.017870872175230611 0 -0.36396211364155773 0.037073096363234491 0 -0.37641060981459201 0.058760291413889797 0 -0.37972654167708059 0.041310718130240148 0 -0.36396211364155773 0.037073096363234491 0 -0.36117182820569471 0.037181934057845083 0 -0.36396211364155773 0.037073096363234491 0 -0.37083003894286581 0.058977966803111147 0 -0.36117182820569471 0.037181934057845083 0 -0.37083003894286581 0.058977966803111147 0 -0.37641060981459201 0.058760291413889797 0 -0.36396211364155773 0.037073096363234491 0 -0.37083003894286581 0.058977966803111147 0 -0.34763797227439908 0.059882595066947597 0 -0.36117182820569471 0.037181934057845083 0 -0.37083003894286581 0.058977966803111147 0 -0.37641060981459201 0.058760291413889797 0 -0.36396211364155773 0.037073096363234491 0 -0.37641060981459201 0.058760291413889797 0 -0.37083003894286581 0.058977966803111147 0 -0.37083003894286581 0.058977966803111147 0 -0.35792652539267839 0.078321483732027311 0 -0.36975269859112592 0.078286163818172827 0 -0.38204054318783121 0.084277116331289134 0 -0.37083003894286581 0.058977966803111147 0 -0.36975269859112592 0.078286163818172827 0 -0.34763797227439908 0.059882595066947597 0 -0.35792652539267839 0.078321483732027311 0 -0.3436284840846805 0.076896802800055647 0 -0.34763797227439908 0.059882595066947597 0 -0.37083003894286581 0.058977966803111147 0 -0.35792652539267839 0.078321483732027311 0 -0.34965264561791032 0.086338343921800217 0 -0.35619877764037711 0.1011305930995324 0 -0.3337117093399744 0.086397823542385371 0 -0.34965264561791032 0.086338343921800217 0 -0.35792652539267839 0.078321483732027311 0 -0.3436284840846805 0.076896802800055647 0 -0.34965264561791032 0.086338343921800217 0 -0.35792652539267839 0.078321483732027311 0 -0.358289217849735 0.091361811391447112 0 -0.34965264561791032 0.086338343921800217 0 -0.358289217849735 0.091361811391447112 0 -0.35619877764037711 0.1011305930995324 0 -0.35792652539267839 0.078321483732027311 0 -0.358289217849735 0.091361811391447112 0 -0.36821368684113193 0.09156808840626364 0 -0.35792652539267839 0.078321483732027311 0 -0.36975269859112592 0.078286163818172827 0 -0.36821368684113193 0.09156808840626364 0 -0.38204054318783121 0.084277116331289134 0 -0.36975269859112592 0.078286163818172827 0 -0.36821368684113193 0.09156808840626364 0 -0.3791950319581644 0.099479150894731611 0 -0.36821368684113193 0.09156808840626364 0 -0.36712523589663421 0.1066402597602862 0 -0.37634952072849392 0.11468118545817341 0 -0.3791950319581644 0.099479150894731611 0 -0.36712523589663421 0.1066402597602862 0 -0.36712523589663421 0.1066402597602862 0 -0.3602284031210567 0.1032664618302654 0 -0.36244823071050158 0.098549558897174677 0 -0.36712523589663421 0.1066402597602862 0 -0.3602284031210567 0.1032664618302654 0 -0.35489069940602902 0.106885277307408 0 -0.36821368684113193 0.09156808840626364 0 -0.36712523589663421 0.1066402597602862 0 -0.36244823071050158 0.098549558897174677 0 -0.358289217849735 0.091361811391447112 0 -0.36821368684113193 0.09156808840626364 0 -0.36244823071050158 0.098549558897174677 0 -0.3602284031210567 0.1032664618302654 0 -0.36244823071050158 0.098549558897174677 0 -0.35619877764037711 0.1011305930995324 0 -0.37634952072849392 0.11468118545817341 0 -0.35489069940602902 0.106885277307408 0 -0.37634952072849392 0.11468118545817341 0 -0.36712523589663421 0.1066402597602862 0 -0.35489069940602902 0.106885277307408 0 -0.37634952072849392 0.11468118545817341 0 -0.36392529763468617 0.1154483295936039 0 -0.35489069940602902 0.106885277307408 0 -0.37634952072849392 0.11468118545817341 0 -0.36471420233860008 0.12609105434405241 0 -0.36392529763468617 0.1154483295936039 0 -0.36471420233860008 0.12609105434405241 0 -0.36392529763468617 0.1154483295936039 0 -0.35675888619678647 0.1187415346939204 0 -0.36471420233860008 0.12609105434405241 0 -0.35550820933415173 0.12545554851567231 0 -0.35675888619678647 0.1187415346939204 0 -0.35550820933415173 0.12545554851567231 0 -0.34940120172174149 0.12678534185060569 0 -0.35002109853553698 0.1202898066080313 0 -0.35550820933415173 0.12545554851567231 0 -0.35675888619678647 0.1187415346939204 0 -0.35002109853553698 0.1202898066080313 0 -0.35675888619678647 0.1187415346939204 0 -0.35144630528255189 0.1134651689212257 0 -0.35002109853553698 0.1202898066080313 0 -0.36392529763468617 0.1154483295936039 0 -0.35658387325503033 0.1134524571150675 0 -0.35489069940602902 0.106885277307408 0 -0.35675888619678647 0.1187415346939204 0 -0.35658387325503033 0.1134524571150675 0 -0.35144630528255189 0.1134651689212257 0 -0.36392529763468617 0.1154483295936039 0 -0.35675888619678647 0.1187415346939204 0 -0.35658387325503033 0.1134524571150675 0 -0.35658387325503033 0.1134524571150675 0 -0.35144630528255189 0.1134651689212257 0 -0.35489069940602902 0.106885277307408 0 -0.35144630528255189 0.1134651689212257 0 -0.34590301606745361 0.1083249337955189 0 -0.34289724804929439 0.1144924588571527 0 -0.35144630528255189 0.1134651689212257 0 -0.35002109853553698 0.1202898066080313 0 -0.34289724804929439 0.1144924588571527 0 -0.35144630528255189 0.1134651689212257 0 -0.35489069940602902 0.106885277307408 0 -0.34590301606745361 0.1083249337955189 0 -0.35002109853553698 0.1202898066080313 0 -0.3448004361286286 0.1235292688654986 0 -0.34289724804929439 0.1144924588571527 0 -0.34940120172174149 0.12678534185060569 0 -0.35002109853553698 0.1202898066080313 0 -0.3448004361286286 0.1235292688654986 0 -0.35619877764037711 0.1011305930995324 0 -0.35489069940602902 0.106885277307408 0 -0.3334318780835645 0.099089369156641696 0 -0.35489069940602902 0.106885277307408 0 -0.3334318780835645 0.099089369156641696 0 -0.35489069940602902 0.106885277307408 0 -0.34590301606745361 0.1083249337955189 0 -0.3334318780835645 0.099089369156641696 0 -0.35619877764037711 0.1011305930995324 0 -0.3337117093399744 0.086397823542385371 0 -0.358289217849735 0.091361811391447112 0 -0.36244823071050158 0.098549558897174677 0 -0.35619877764037711 0.1011305930995324 0 -0.3602284031210567 0.1032664618302654 0 -0.35619877764037711 0.1011305930995324 0 -0.35489069940602902 0.106885277307408 0 -0.35619877764037711 0.1011305930995324 0 -0.3334318780835645 0.099089369156641696 0 -0.3337117093399744 0.086397823542385371 0 -0.34590301606745361 0.1083249337955189 0 -0.3392882904670923 0.1082278669799957 0 -0.3334318780835645 0.099089369156641696 0 -0.3392882904670923 0.1082278669799957 0 -0.3334318780835645 0.099089369156641696 0 -0.33492101966805687 0.1110047061106693 0 -0.3334318780835645 0.099089369156641696 0 -0.33492101966805687 0.1110047061106693 0 -0.32052024828186909 0.10657426128743649 0 -0.33861016289623658 0.1280325100929339 0 -0.33492101966805687 0.1110047061106693 0 -0.32052024828186909 0.10657426128743649 0 -0.33861016289623658 0.1280325100929339 0 -0.32052024828186909 0.10657426128743649 0 -0.33861016289623658 0.1280325100929339 0 -0.34289724804929439 0.1144924588571527 0 -0.33492101966805687 0.1110047061106693 0 -0.32858158075522742 0.1256294334427312 0 -0.33861016289623658 0.1280325100929339 0 -0.32052024828186909 0.10657426128743649 0 -0.33861016289623658 0.1280325100929339 0 -0.3448004361286286 0.1235292688654986 0 -0.34289724804929439 0.1144924588571527 0 -0.3392882904670923 0.1082278669799957 0 -0.34289724804929439 0.1144924588571527 0 -0.33492101966805687 0.1110047061106693 0 -0.34590301606745361 0.1083249337955189 0 -0.3392882904670923 0.1082278669799957 0 -0.34289724804929439 0.1144924588571527 0 -0.30772001339894411 0.1161698169898194 0 -0.31802497141950509 0.1225801459084155 0 -0.32052024828186909 0.10657426128743649 0 -0.32858158075522742 0.1256294334427312 0 -0.31802497141950509 0.1225801459084155 0 -0.32052024828186909 0.10657426128743649 0 -0.31197305676109988 0.09129346100587539 0 -0.3334318780835645 0.099089369156641696 0 -0.31197305676109988 0.09129346100587539 0 -0.3334318780835645 0.099089369156641696 0 -0.32052024828186909 0.10657426128743649 0 -0.31122464103957181 0.071665053985238328 0 -0.32043623828485912 0.086274369663577322 0 -0.3337117093399744 0.086397823542385371 0 -0.31183990620008489 0.082926140627745781 0 -0.31197305676109988 0.09129346100587539 0 -0.32043623828485912 0.086274369663577322 0 -0.31197305676109988 0.09129346100587539 0 -0.3334318780835645 0.099089369156641696 0 -0.32043623828485912 0.086274369663577322 0 -0.31122464103957181 0.071665053985238328 0 -0.3337117093399744 0.086397823542385371 0 -0.31122464103957181 0.071665053985238328 0 -0.31183990620008489 0.082926140627745781 0 -0.32043623828485912 0.086274369663577322 0 -0.31122464103957181 0.071665053985238328 0 -0.32444590560593223 0.060787223330784533 0 -0.33212974246891158 0.071125899745082294 0 -0.31122464103957181 0.071665053985238328 0 -0.33212974246891158 0.071125899745082294 0 -0.3337117093399744 0.086397823542385371 0 -0.31122464103957181 0.071665053985238328 0 -0.30484904689438957 0.057324924460980448 0 -0.32444590560593223 0.060787223330784533 0 -0.34763797227439908 0.059882595066947597 0 -0.33212974246891158 0.071125899745082294 0 -0.3436284840846805 0.076896802800055647 0 -0.32444590560593223 0.060787223330784533 0 -0.34763797227439908 0.059882595066947597 0 -0.33212974246891158 0.071125899745082294 0 -0.34965264561791032 0.086338343921800217 0 -0.3436284840846805 0.076896802800055647 0 -0.3337117093399744 0.086397823542385371 0 -0.33212974246891158 0.071125899745082294 0 -0.3436284840846805 0.076896802800055647 0 -0.3337117093399744 0.086397823542385371 0 -0.3334318780835645 0.099089369156641696 0 -0.32043623828485912 0.086274369663577322 0 -0.3337117093399744 0.086397823542385371 0 -0.41017546880518518 0.47223699177790018 0 -0.43194638560201942 0.5 0 -0.36695274867881322 0.48289203838421862 0 -0.43194638560201942 0.5 0 -0.36695274867881322 0.48289203838421862 0 -0.34836629395863022 0.49999999999999739 0 -0.38553920339899761 0.46578407676844108 0 -0.41017546880518518 0.47223699177790018 0 -0.36695274867881322 0.48289203838421862 0 -0.38553920339899761 0.46578407676844108 0 -0.36695274867881322 0.48289203838421862 0 -0.38553920339899761 0.46578407676844108 0 -0.39167357613950537 0.43901744335211729 0 -0.37489403839079338 0.43950072697020498 0 -0.38553920339899761 0.46578407676844108 0 -0.404125658119182 0.44867611515266359 0 -0.39167357613950537 0.43901744335211729 0 -0.404125658119182 0.44867611515266359 0 -0.39167357613950537 0.43901744335211729 0 -0.40786414943874633 0.43642791948229431 0 -0.38553920339899761 0.46578407676844108 0 -0.404125658119182 0.44867611515266359 0 -0.41017546880518518 0.47223699177790018 0 -0.38553920339899761 0.46578407676844108 0 -0.404125658119182 0.44867611515266359 0 -0.4205827461513868 0.44655037431391548 0 -0.43026008178051472 0.45899904956721049 0 -0.41017546880518518 0.47223699177790018 0 -0.404125658119182 0.44867611515266359 0 -0.4205827461513868 0.44655037431391548 0 -0.41017546880518518 0.47223699177790018 0 -0.404125658119182 0.44867611515266359 0 -0.42271211283936672 0.43156815353688638 0 -0.404125658119182 0.44867611515266359 0 -0.42271211283936672 0.43156815353688638 0 -0.40786414943874633 0.43642791948229431 0 -0.404125658119182 0.44867611515266359 0 -0.4205827461513868 0.44655037431391548 0 -0.42271211283936672 0.43156815353688638 0 -0.4205827461513868 0.44655037431391548 0 -0.43566449629350512 0.44326945779849758 0 -0.43026008178051472 0.45899904956721049 0 -0.43566449629350512 0.44326945779849758 0 -0.43026008178051472 0.45899904956721049 0 -0.44479717516137163 0.45521016349818733 0 -0.4205827461513868 0.44655037431391548 0 -0.43566449629350512 0.44326945779849758 0 -0.42271211283936672 0.43156815353688638 0 -0.43026008178051472 0.45899904956721049 0 -0.41017546880518518 0.47223699177790018 0 -0.44062663004984121 0.47457474796451421 0 -0.41017546880518518 0.47223699177790018 0 -0.43194638560201942 0.5 0 -0.44062663004984121 0.47457474796451421 0 -0.43194638560201942 0.5 0 -0.44062663004984121 0.47457474796451421 0 -0.47114118754307233 0.47465206708022067 0 -0.43194638560201942 0.5 0 -0.5 0.5 0 -0.47114118754307233 0.47465206708022067 0 -0.44062663004984121 0.47457474796451421 0 -0.47114118754307233 0.47465206708022067 0 -0.45731941838252849 0.4637699100472068 0 -0.5 0.5 0 -0.47114118754307233 0.47465206708022067 0 -0.5 0.44461734168107059 0 -0.5 0.44461734168107059 0 -0.47519644091628022 0.4483515572218944 0 -0.48851523315612749 0.42852604588868931 0 -0.47114118754307233 0.47465206708022067 0 -0.5 0.44461734168107059 0 -0.47519644091628022 0.4483515572218944 0 -0.45604530474179122 0.44242253391979558 0 -0.45731941838252849 0.4637699100472068 0 -0.47519644091628022 0.4483515572218944 0 -0.45604530474179122 0.44242253391979558 0 -0.46889423750570408 0.43094393741274639 0 -0.47519644091628022 0.4483515572218944 0 -0.45604530474179122 0.44242253391979558 0 -0.45731941838252849 0.4637699100472068 0 -0.47114118754307233 0.47465206708022067 0 -0.47519644091628022 0.4483515572218944 0 -0.45731941838252849 0.4637699100472068 0 -0.44062663004984121 0.47457474796451421 0 -0.45731941838252849 0.4637699100472068 0 -0.44479717516137163 0.45521016349818733 0 -0.45604530474179122 0.44242253391979558 0 -0.45731941838252849 0.4637699100472068 0 -0.44479717516137163 0.45521016349818733 0 -0.43026008178051472 0.45899904956721049 0 -0.44062663004984121 0.47457474796451421 0 -0.44479717516137163 0.45521016349818733 0 -0.43566449629350512 0.44326945779849758 0 -0.45604530474179122 0.44242253391979558 0 -0.44479717516137163 0.45521016349818733 0 -0.43874165197020931 0.42632165566463393 0 -0.4547711911010528 0.42107515779238458 0 -0.43566449629350512 0.44326945779849758 0 -0.45604530474179122 0.44242253391979558 0 -0.43874165197020931 0.42632165566463393 0 -0.45604530474179122 0.44242253391979558 0 -0.43874165197020931 0.42632165566463393 0 -0.4547711911010528 0.42107515779238458 0 -0.43820372456774598 0.41730885003841778 0 -0.4547711911010528 0.42107515779238458 0 -0.45369533629612468 0.4030495465399484 0 -0.43874165197020931 0.42632165566463393 0 -0.43820372456774598 0.41730885003841778 0 -0.4547711911010528 0.42107515779238458 0 -0.43820372456774598 0.41730885003841778 0 -0.45369533629612468 0.4030495465399484 0 -0.4547711911010528 0.42107515779238458 0 -0.47444911680612939 0.41463453623119112 0 -0.4547711911010528 0.42107515779238458 0 -0.46762090114355398 0.40248481401157271 0 -0.45369533629612468 0.4030495465399484 0 -0.4547711911010528 0.42107515779238458 0 -0.45369533629612468 0.4030495465399484 0 -0.4547711911010528 0.42107515779238458 0 -0.47444911680612939 0.41463453623119112 0 -0.46762090114355398 0.40248481401157271 0 -0.45604530474179122 0.44242253391979558 0 -0.4547711911010528 0.42107515779238458 0 -0.46889423750570408 0.43094393741274639 0 -0.4547711911010528 0.42107515779238458 0 -0.46889423750570408 0.43094393741274639 0 -0.47444911680612939 0.41463453623119112 0 -0.45604530474179122 0.44242253391979558 0 -0.4547711911010528 0.42107515779238458 0 -0.47519644091628022 0.4483515572218944 0 -0.46889423750570408 0.43094393741274639 0 -0.48851523315612749 0.42852604588868931 0 -0.46889423750570408 0.43094393741274639 0 -0.47444911680612939 0.41463453623119112 0 -0.48851523315612749 0.42852604588868931 0 -0.5 0.44461734168107059 0 -0.48851523315612749 0.42852604588868931 0 -0.5 0.40351420445517611 0 -0.47444911680612939 0.41463453623119112 0 -0.4941270425112072 0.40819391467000121 0 -0.47444911680612939 0.41463453623119112 0 -0.4941270425112072 0.40819391467000121 0 -0.48241846226147728 0.40057919801001279 0 -0.47444911680612939 0.41463453623119112 0 -0.4941270425112072 0.40819391467000121 0 -0.48851523315612749 0.42852604588868931 0 -0.4941270425112072 0.40819391467000121 0 -0.48851523315612749 0.42852604588868931 0 -0.5 0.40351420445517611 0 -0.48780147899447779 0.38707733946447542 0 -0.5 0.40351420445517611 0 -0.50000000000000044 0.37300782390716669 0 -0.48780147899447779 0.38707733946447542 0 -0.50000000000000044 0.37300782390716669 0 -0.48732913193086508 0.37209121191537181 0 -0.48780147899447779 0.38707733946447542 0 -0.47818941725821479 0.38050389147975672 0 -0.48732913193086508 0.37209121191537181 0 -0.4941270425112072 0.40819391467000121 0 -0.5 0.40351420445517611 0 -0.48241846226147728 0.40057919801001279 0 -0.48780147899447779 0.38707733946447542 0 -0.5 0.40351420445517611 0 -0.48241846226147728 0.40057919801001279 0 -0.48780147899447779 0.38707733946447542 0 -0.48241846226147728 0.40057919801001279 0 -0.47051223411349552 0.38757037922766069 0 -0.47444911680612939 0.41463453623119112 0 -0.48241846226147728 0.40057919801001279 0 -0.46762090114355398 0.40248481401157271 0 -0.48241846226147728 0.40057919801001279 0 -0.47051223411349552 0.38757037922766069 0 -0.46762090114355398 0.40248481401157271 0 -0.47051223411349552 0.38757037922766069 0 -0.47818941725821479 0.38050389147975672 0 -0.46249119819474799 0.37709510689763709 0 -0.48780147899447779 0.38707733946447542 0 -0.47051223411349552 0.38757037922766069 0 -0.47818941725821479 0.38050389147975672 0 -0.47818941725821479 0.38050389147975672 0 -0.46249119819474799 0.37709510689763709 0 -0.47426746213969129 0.37114632928395891 0 -0.47051223411349552 0.38757037922766069 0 -0.47818941725821479 0.38050389147975672 0 -0.47818941725821479 0.38050389147975672 0 -0.48732913193086508 0.37209121191537181 0 -0.47818941725821479 0.38050389147975672 0 -0.47426746213969129 0.37114632928395891 0 -0.47051223411349552 0.38757037922766069 0 -0.46249119819474799 0.37709510689763709 0 -0.45269453569077961 0.38628144496117228 0 -0.46249119819474799 0.37709510689763709 0 -0.45269453569077961 0.38628144496117228 0 -0.45169373508543692 0.36951334338239589 0 -0.45369533629612468 0.4030495465399484 0 -0.45269453569077961 0.38628144496117228 0 -0.47051223411349552 0.38757037922766069 0 -0.45369533629612468 0.4030495465399484 0 -0.47051223411349552 0.38757037922766069 0 -0.45369533629612468 0.4030495465399484 0 -0.45269453569077961 0.38628144496117228 0 -0.47051223411349552 0.38757037922766069 0 -0.46762090114355398 0.40248481401157271 0 -0.45369533629612468 0.4030495465399484 0 -0.45369533629612468 0.4030495465399484 0 -0.4389809581139319 0.39811779886728699 0 -0.45269453569077961 0.38628144496117228 0 -0.43820372456774598 0.41730885003841778 0 -0.45369533629612468 0.4030495465399484 0 -0.4389809581139319 0.39811779886728699 0 -0.4389809581139319 0.39811779886728699 0 -0.45269453569077961 0.38628144496117228 0 -0.43676063751979022 0.38190245296253023 0 -0.45269453569077961 0.38628144496117228 0 -0.45169373508543692 0.36951334338239589 0 -0.45269453569077961 0.38628144496117228 0 -0.43676063751979022 0.38190245296253023 0 -0.45169373508543692 0.36951334338239589 0 -0.43676063751979022 0.38190245296253023 0 -0.41866443856766988 0.38064131890388531 0 -0.4281686986060162 0.39193912095867589 0 -0.43676063751979022 0.38190245296253023 0 -0.41866443856766988 0.38064131890388531 0 -0.42699445298222172 0.36772659459446722 0 -0.41866443856766988 0.38064131890388531 0 -0.40255935561568967 0.3813213787607308 0 -0.41079554283267211 0.36744057180204892 0 -0.41866443856766988 0.38064131890388531 0 -0.40255935561568967 0.3813213787607308 0 -0.40501869238235982 0.39612042268651848 0 -0.41866443856766988 0.38064131890388531 0 -0.4281686986060162 0.39193912095867589 0 -0.40501869238235982 0.39612042268651848 0 -0.4281686986060162 0.39193912095867589 0 -0.42436281600313391 0.40822537774297663 0 -0.40501869238235982 0.39612042268651848 0 -0.4389809581139319 0.39811779886728699 0 -0.4281686986060162 0.39193912095867589 0 -0.42436281600313391 0.40822537774297663 0 -0.4389809581139319 0.39811779886728699 0 -0.43676063751979022 0.38190245296253023 0 -0.4281686986060162 0.39193912095867589 0 -0.43820372456774598 0.41730885003841778 0 -0.4389809581139319 0.39811779886728699 0 -0.42436281600313391 0.40822537774297663 0 -0.43820372456774598 0.41730885003841778 0 -0.42436281600313391 0.40822537774297663 0 -0.42271211283936672 0.43156815353688638 0 -0.43566449629350512 0.44326945779849758 0 -0.43874165197020931 0.42632165566463393 0 -0.42271211283936672 0.43156815353688638 0 -0.43874165197020931 0.42632165566463393 0 -0.43820372456774598 0.41730885003841778 0 -0.42271211283936672 0.43156815353688638 0 -0.43874165197020931 0.42632165566463393 0 -0.42271211283936672 0.43156815353688638 0 -0.43820372456774598 0.41730885003841778 0 -0.42271211283936672 0.43156815353688638 0 -0.42271211283936672 0.43156815353688638 0 -0.40786414943874633 0.43642791948229431 0 -0.40972570343669762 0.41710282426277651 0 -0.42271211283936672 0.43156815353688638 0 -0.40786414943874633 0.43642791948229431 0 -0.42436281600313391 0.40822537774297663 0 -0.40972570343669762 0.41710282426277651 0 -0.40501869238235982 0.39612042268651848 0 -0.42436281600313391 0.40822537774297663 0 -0.42271211283936672 0.43156815353688638 0 -0.40972570343669762 0.41710282426277651 0 -0.38995636538657652 0.41781057482836181 0 -0.40501869238235982 0.39612042268651848 0 -0.40972570343669762 0.41710282426277651 0 -0.38995636538657652 0.41781057482836181 0 -0.40501869238235982 0.39612042268651848 0 -0.40786414943874633 0.43642791948229431 0 -0.40972570343669762 0.41710282426277651 0 -0.38995636538657652 0.41781057482836181 0 -0.39167357613950537 0.43901744335211729 0 -0.40786414943874633 0.43642791948229431 0 -0.38995636538657652 0.41781057482836181 0 -0.38995636538657652 0.41781057482836181 0 -0.36466678474742198 0.4157551233830028 0 -0.37489403839079338 0.43950072697020498 0 -0.39167357613950537 0.43901744335211729 0 -0.38995636538657652 0.41781057482836181 0 -0.37489403839079338 0.43950072697020498 0 -0.38995636538657652 0.41781057482836181 0 -0.37489403839079338 0.43950072697020498 0 -0.38995636538657652 0.41781057482836181 0 -0.38230352942524232 0.40006750756218012 0 -0.36466678474742198 0.4157551233830028 0 -0.38230352942524232 0.40006750756218012 0 -0.37795126944273227 0.38869796090037589 0 -0.36488006030871478 0.39899955111130941 0 -0.38230352942524232 0.40006750756218012 0 -0.37795126944273227 0.38869796090037589 0 -0.39113675536391379 0.38730582006748449 0 -0.37795126944273227 0.38869796090037589 0 -0.3874105149828217 0.37485249918765312 0 -0.36402548713297039 0.38226442657325449 0 -0.3874105149828217 0.37485249918765312 0 -0.3778121930349515 0.36976031485619387 0 -0.36402548713297039 0.38226442657325449 0 -0.3874105149828217 0.37485249918765312 0 -0.36402548713297039 0.38226442657325449 0 -0.37795126944273227 0.38869796090037589 0 -0.39113675536391379 0.38730582006748449 0 -0.3874105149828217 0.37485249918765312 0 -0.39113675536391379 0.38730582006748449 0 -0.40255935561568967 0.3813213787607308 0 -0.3874105149828217 0.37485249918765312 0 -0.39113675536391379 0.38730582006748449 0 -0.40255935561568967 0.3813213787607308 0 -0.40501869238235982 0.39612042268651848 0 -0.38995636538657652 0.41781057482836181 0 -0.38230352942524232 0.40006750756218012 0 -0.40501869238235982 0.39612042268651848 0 -0.38230352942524232 0.40006750756218012 0 -0.39113675536391379 0.38730582006748449 0 -0.40501869238235982 0.39612042268651848 0 -0.39159889893694061 0.35725620313914208 0 -0.40288260232940898 0.34702223653356901 0 -0.4171647138193707 0.35686122770646278 0 -0.39159889893694061 0.35725620313914208 0 -0.4171647138193707 0.35686122770646278 0 -0.39159889893694061 0.35725620313914208 0 -0.40288260232940898 0.34702223653356901 0 -0.39214273638916508 0.34851583692239341 0 -0.40288260232940898 0.34702223653356901 0 -0.39933419285648442 0.34159450801172031 0 -0.39159889893694061 0.35725620313914208 0 -0.39214273638916508 0.34851583692239341 0 -0.40288260232940898 0.34702223653356901 0 -0.38450207999108599 0.34640074609543958 0 -0.39933419285648442 0.34159450801172031 0 -0.39214273638916508 0.34851583692239341 0 -0.38450207999108599 0.34640074609543958 0 -0.39933419285648442 0.34159450801172031 0 -0.40255935561568967 0.3813213787607308 0 -0.3874105149828217 0.37485249918765312 0 -0.41079554283267211 0.36744057180204892 0 -0.3874105149828217 0.37485249918765312 0 -0.41079554283267211 0.36744057180204892 0 -0.39159889893694061 0.35725620313914208 0 -0.3874105149828217 0.37485249918765312 0 -0.41079554283267211 0.36744057180204892 0 -0.39159889893694061 0.35725620313914208 0 -0.3778121930349515 0.36976031485619387 0 -0.39159889893694061 0.35725620313914208 0 -0.37560295708841512 0.36347687736651962 0 -0.36680601236246901 0.35763923732552599 0 -0.39159889893694061 0.35725620313914208 0 -0.3778121930349515 0.36976031485619387 0 -0.37560295708841512 0.36347687736651962 0 -0.39159889893694061 0.35725620313914208 0 -0.3874105149828217 0.37485249918765312 0 -0.3778121930349515 0.36976031485619387 0 -0.38450207999108599 0.34640074609543958 0 -0.38239590783191191 0.35030549083210277 0 -0.36651054570844788 0.35223077166485373 0 -0.39159889893694061 0.35725620313914208 0 -0.38239590783191191 0.35030549083210277 0 -0.36680601236246901 0.35763923732552599 0 -0.39159889893694061 0.35725620313914208 0 -0.36680601236246901 0.35763923732552599 0 -0.38450207999108599 0.34640074609543958 0 -0.36651054570844788 0.35223077166485373 0 -0.39159889893694061 0.35725620313914208 0 -0.39214273638916508 0.34851583692239341 0 -0.38239590783191191 0.35030549083210277 0 -0.39214273638916508 0.34851583692239341 0 -0.38450207999108599 0.34640074609543958 0 -0.38239590783191191 0.35030549083210277 0 -0.38450207999108599 0.34640074609543958 0 -0.38239590783191191 0.35030549083210277 0 -0.38450207999108599 0.34640074609543958 0 -0.39569183305569511 0.32565546694375852 0 -0.38450207999108599 0.34640074609543958 0 -0.38258740805919411 0.33269469629040488 0 -0.39569183305569511 0.32565546694375852 0 -0.38450207999108599 0.34640074609543958 0 -0.37787177660565591 0.33953263411458812 0 -0.37000680540163938 0.34267015738598688 0 -0.38450207999108599 0.34640074609543958 0 -0.37787177660565591 0.33953263411458812 0 -0.38258740805919411 0.33269469629040488 0 -0.37787177660565591 0.33953263411458812 0 -0.38258740805919411 0.33269469629040488 0 -0.37120103559905632 0.33363194383592409 0 -0.38258740805919411 0.33269469629040488 0 -0.37548767588134829 0.31729325880581949 0 -0.37120103559905632 0.33363194383592409 0 -0.37548767588134829 0.31729325880581949 0 -0.39569183305569511 0.32565546694375852 0 -0.39019792111759388 0.30886495612411741 0 -0.38258740805919411 0.33269469629040488 0 -0.37548767588134829 0.31729325880581949 0 -0.39569183305569511 0.32565546694375852 0 -0.39569183305569511 0.32565546694375852 0 -0.40688158612030317 0.3049101877920769 0 -0.39019792111759388 0.30886495612411741 0 -0.39569183305569511 0.32565546694375852 0 -0.40688158612030317 0.3049101877920769 0 -0.39569183305569511 0.32565546694375852 0 -0.41128438758936492 0.32067545415480209 0 -0.40688158612030317 0.3049101877920769 0 -0.39569183305569511 0.32565546694375852 0 -0.40461235854322669 0.33181825190116099 0 -0.41128438758936492 0.32067545415480209 0 -0.39569183305569511 0.32565546694375852 0 -0.40461235854322669 0.33181825190116099 0 -0.39933419285648442 0.34159450801172031 0 -0.38450207999108599 0.34640074609543958 0 -0.39569183305569511 0.32565546694375852 0 -0.39933419285648442 0.34159450801172031 0 -0.40288260232940898 0.34702223653356901 0 -0.39933419285648442 0.34159450801172031 0 -0.4141663057218834 0.33678826992800248 0 -0.40461235854322669 0.33181825190116099 0 -0.39933419285648442 0.34159450801172031 0 -0.4141663057218834 0.33678826992800248 0 -0.39933419285648442 0.34159450801172031 0 -0.4141663057218834 0.33678826992800248 0 -0.40461235854322669 0.33181825190116099 0 -0.4141663057218834 0.33678826992800248 0 -0.41128438758936492 0.32067545415480209 0 -0.40288260232940898 0.34702223653356901 0 -0.4141663057218834 0.33678826992800248 0 -0.4141663057218834 0.33678826992800248 0 -0.42894267000095909 0.33200009676740949 0 -0.4141663057218834 0.33678826992800248 0 -0.41128438758936492 0.32067545415480209 0 -0.43126852887684641 0.32127708760061552 0 -0.41128438758936492 0.32067545415480209 0 -0.43126852887684641 0.32127708760061552 0 -0.42588780920991898 0.30308862629257799 0 -0.43126852887684641 0.32127708760061552 0 -0.42894267000095909 0.33200009676740949 0 -0.44371903428003501 0.32721192360681678 0 -0.4141663057218834 0.33678826992800248 0 -0.43126852887684641 0.32127708760061552 0 -0.4141663057218834 0.33678826992800248 0 -0.43126852887684641 0.32127708760061552 0 -0.42894267000095909 0.33200009676740949 0 -0.4141663057218834 0.33678826992800248 0 -0.42894267000095909 0.33200009676740949 0 -0.42865333486517287 0.34477096749136482 0 -0.42894267000095909 0.33200009676740949 0 -0.44371903428003501 0.32721192360681678 0 -0.42894267000095909 0.33200009676740949 0 -0.42865333486517287 0.34477096749136482 0 -0.44124992895357379 0.34098235398046661 0 -0.4171647138193707 0.35686122770646278 0 -0.44273052870180069 0.35646625227377132 0 -0.42865333486517287 0.34477096749136482 0 -0.4171647138193707 0.35686122770646278 0 -0.44273052870180069 0.35646625227377132 0 -0.4141663057218834 0.33678826992800248 0 -0.42865333486517287 0.34477096749136482 0 -0.4171647138193707 0.35686122770646278 0 -0.40288260232940898 0.34702223653356901 0 -0.4141663057218834 0.33678826992800248 0 -0.4171647138193707 0.35686122770646278 0 -0.39159889893694061 0.35725620313914208 0 -0.4171647138193707 0.35686122770646278 0 -0.41079554283267211 0.36744057180204892 0 -0.4171647138193707 0.35686122770646278 0 -0.41079554283267211 0.36744057180204892 0 -0.42699445298222172 0.36772659459446722 0 -0.41866443856766988 0.38064131890388531 0 -0.41079554283267211 0.36744057180204892 0 -0.42699445298222172 0.36772659459446722 0 -0.4171647138193707 0.35686122770646278 0 -0.42699445298222172 0.36772659459446722 0 -0.44273052870180069 0.35646625227377132 0 -0.42699445298222172 0.36772659459446722 0 -0.45169373508543692 0.36951334338239589 0 -0.44273052870180069 0.35646625227377132 0 -0.42699445298222172 0.36772659459446722 0 -0.45169373508543692 0.36951334338239589 0 -0.43676063751979022 0.38190245296253023 0 -0.42699445298222172 0.36772659459446722 0 -0.45169373508543692 0.36951334338239589 0 -0.42865333486517287 0.34477096749136482 0 -0.44273052870180069 0.35646625227377132 0 -0.44124992895357379 0.34098235398046661 0 -0.44273052870180069 0.35646625227377132 0 -0.45345281209998151 0.34625225472826782 0 -0.44124992895357379 0.34098235398046661 0 -0.44273052870180069 0.35646625227377132 0 -0.45345281209998151 0.34625225472826782 0 -0.46829634358423072 0.35607127684108009 0 -0.45345281209998151 0.34625225472826782 0 -0.46829634358423072 0.35607127684108009 0 -0.45833354780802033 0.33091859105715421 0 -0.44273052870180069 0.35646625227377132 0 -0.46829634358423072 0.35607127684108009 0 -0.45169373508543692 0.36951334338239589 0 -0.46829634358423072 0.35607127684108009 0 -0.47426746213969129 0.37114632928395891 0 -0.45169373508543692 0.36951334338239589 0 -0.44273052870180069 0.35646625227377132 0 -0.46829634358423072 0.35607127684108009 0 -0.45169373508543692 0.36951334338239589 0 -0.47426746213969129 0.37114632928395891 0 -0.46249119819474799 0.37709510689763709 0 -0.45169373508543692 0.36951334338239589 0 -0.47426746213969129 0.37114632928395891 0 -0.47818941725821479 0.38050389147975672 0 -0.47426746213969129 0.37114632928395891 0 -0.48732913193086508 0.37209121191537181 0 -0.47426746213969129 0.37114632928395891 0 -0.48732913193086508 0.37209121191537181 0 -0.47426746213969129 0.37114632928395891 0 -0.48128947468440419 0.36482893231878599 0 -0.48732913193086508 0.37209121191537181 0 -0.46829634358423072 0.35607127684108009 0 -0.47426746213969129 0.37114632928395891 0 -0.48128947468440419 0.36482893231878599 0 -0.46829634358423072 0.35607127684108009 0 -0.47426746213969129 0.37114632928395891 0 -0.46829634358423072 0.35607127684108009 0 -0.48414817179211628 0.35582637626841451 0 -0.47827299266082041 0.33901170729059138 0 -0.46829634358423072 0.35607127684108009 0 -0.48414817179211628 0.35582637626841451 0 -0.46829634358423072 0.35607127684108009 0 -0.48128947468440419 0.36482893231878599 0 -0.48414817179211628 0.35582637626841451 0 -0.48414817179211628 0.35582637626841451 0 -0.50000000000000189 0.35558147569574922 0 -0.48414817179211628 0.35582637626841451 0 -0.50000000000000189 0.35558147569574922 0 -0.49481679436015602 0.36519916911534872 0 -0.48414817179211628 0.35582637626841451 0 -0.49188556261422162 0.34350126494155231 0 -0.47827299266082041 0.33901170729059138 0 -0.48414817179211628 0.35582637626841451 0 -0.50000000000000189 0.35558147569574922 0 -0.49188556261422162 0.34350126494155231 0 -0.50000000000000189 0.35558147569574922 0 -0.49481679436015602 0.36519916911534872 0 -0.50000000000000044 0.37300782390716669 0 -0.49481679436015602 0.36519916911534872 0 -0.50000000000000044 0.37300782390716669 0 -0.48732913193086508 0.37209121191537181 0 -0.50000000000000044 0.37300782390716669 0 -0.48732913193086508 0.37209121191537181 0 -0.48128947468440419 0.36482893231878599 0 -0.49481679436015602 0.36519916911534872 0 -0.48732913193086508 0.37209121191537181 0 -0.49481679436015602 0.36519916911534872 0 -0.48732913193086508 0.37209121191537181 0 -0.48128947468440419 0.36482893231878599 0 -0.48414817179211628 0.35582637626841451 0 -0.49481679436015602 0.36519916911534872 0 -0.5 0.33142105418735568 0 -0.48034025875411412 0.31934084343315888 0 -0.5 0.3072606326789622 0 -0.49188556261422162 0.34350126494155231 0 -0.5 0.33142105418735568 0 -0.47827299266082041 0.33901170729059138 0 -0.5 0.33142105418735568 0 -0.47827299266082041 0.33901170729059138 0 -0.48034025875411412 0.31934084343315888 0 -0.50000000000000189 0.35558147569574922 0 -0.49188556261422162 0.34350126494155231 0 -0.5 0.33142105418735568 0 -0.47827299266082041 0.33901170729059138 0 -0.48034025875411412 0.31934084343315888 0 -0.45833354780802033 0.33091859105715421 0 -0.45833354780802033 0.33091859105715421 0 -0.44837075203180948 0.30576590527322839 0 -0.46708369434456048 0.30747408766105128 0 -0.48034025875411412 0.31934084343315888 0 -0.45833354780802033 0.33091859105715421 0 -0.46708369434456048 0.30747408766105128 0 -0.45833354780802033 0.33091859105715421 0 -0.44837075203180948 0.30576590527322839 0 -0.46829634358423072 0.35607127684108009 0 -0.47827299266082041 0.33901170729059138 0 -0.45833354780802033 0.33091859105715421 0 -0.46829634358423072 0.35607127684108009 0 -0.45833354780802033 0.33091859105715421 0 -0.45345281209998151 0.34625225472826782 0 -0.45833354780802033 0.33091859105715421 0 -0.44124992895357379 0.34098235398046661 0 -0.45833354780802033 0.33091859105715421 0 -0.44124992895357379 0.34098235398046661 0 -0.44371903428003501 0.32721192360681678 0 -0.42894267000095909 0.33200009676740949 0 -0.44124992895357379 0.34098235398046661 0 -0.44371903428003501 0.32721192360681678 0 -0.43126852887684641 0.32127708760061552 0 -0.44837075203180948 0.30576590527322839 0 -0.45833354780802033 0.33091859105715421 0 -0.44371903428003501 0.32721192360681678 0 -0.44837075203180948 0.30576590527322839 0 -0.43126852887684641 0.32127708760061552 0 -0.44371903428003501 0.32721192360681678 0 -0.44837075203180948 0.30576590527322839 0 -0.43126852887684641 0.32127708760061552 0 -0.43964289784085597 0.30396001235700892 0 -0.44837075203180948 0.30576590527322839 0 -0.43964289784085597 0.30396001235700892 0 -0.44766465833861357 0.30398325779174579 0 -0.44575125435359209 0.29655821934933141 0 -0.43964289784085597 0.30396001235700892 0 -0.43891438423435569 0.29308697783455478 0 -0.44575125435359209 0.29655821934933141 0 -0.43964289784085597 0.30396001235700892 0 -0.44766465833861357 0.30398325779174579 0 -0.44837075203180948 0.30576590527322839 0 -0.44766465833861357 0.30398325779174579 0 -0.44837075203180948 0.30576590527322839 0 -0.45172974571179109 0.29175718281946011 0 -0.44766465833861357 0.30398325779174579 0 -0.45172974571179109 0.29175718281946011 0 -0.44575125435359209 0.29655821934933141 0 -0.44766465833861357 0.30398325779174579 0 -0.44837075203180948 0.30576590527322839 0 -0.43891438423435569 0.29308697783455478 0 -0.45172974571179109 0.29175718281946011 0 -0.44254906139927841 0.27755779569979511 0 -0.43891438423435569 0.29308697783455478 0 -0.45172974571179109 0.29175718281946011 0 -0.44575125435359209 0.29655821934933141 0 -0.45172974571179109 0.29175718281946011 0 -0.46734309298841892 0.28855858450043559 0 -0.46523267051325867 0.27177824711948712 0 -0.44837075203180948 0.30576590527322839 0 -0.45172974571179109 0.29175718281946011 0 -0.46734309298841892 0.28855858450043559 0 -0.44837075203180948 0.30576590527322839 0 -0.46734309298841892 0.28855858450043559 0 -0.44837075203180948 0.30576590527322839 0 -0.46734309298841892 0.28855858450043559 0 -0.46708369434456048 0.30747408766105128 0 -0.48034025875411412 0.31934084343315888 0 -0.46708369434456048 0.30747408766105128 0 -0.48407498665988941 0.29735192488821299 0 -0.46734309298841892 0.28855858450043559 0 -0.46708369434456048 0.30747408766105128 0 -0.48407498665988941 0.29735192488821299 0 -0.46734309298841892 0.28855858450043559 0 -0.48434182238362022 0.28568437501624788 0 -0.48631543394502841 0.27135126372764312 0 -0.46734309298841892 0.28855858450043559 0 -0.48407498665988941 0.29735192488821299 0 -0.48434182238362022 0.28568437501624788 0 -0.48407498665988941 0.29735192488821299 0 -0.5 0.28547572694869983 0 -0.5 0.3072606326789622 0 -0.48407498665988941 0.29735192488821299 0 -0.48434182238362022 0.28568437501624788 0 -0.5 0.28547572694869983 0 -0.48034025875411412 0.31934084343315888 0 -0.48407498665988941 0.29735192488821299 0 -0.5 0.3072606326789622 0 -0.48316287282803921 0.2423242544277307 0 -0.48541386372167011 0.25724313390723808 0 -0.49999999999999428 0.25893978966217518 0 -0.48541386372167011 0.25724313390723808 0 -0.49999999999999428 0.25893978966217518 0 -0.48631543394502841 0.27135126372764312 0 -0.49999999999999428 0.25893978966217518 0 -0.48631543394502841 0.27135126372764312 0 -0.5 0.28310021117056872 0 -0.49999999999999428 0.25893978966217518 0 -0.48631543394502841 0.27135126372764312 0 -0.48434182238362022 0.28568437501624788 0 -0.5 0.28547572694869983 0 -0.48631543394502841 0.27135126372764312 0 -0.5 0.28310021117056872 0 -0.5 0.28547572694869983 0 -0.48631543394502841 0.27135126372764312 0 -0.5 0.28547572694869983 0 -0.48631543394502841 0.27135126372764312 0 -0.46734309298841892 0.28855858450043559 0 -0.48631543394502841 0.27135126372764312 0 -0.46734309298841892 0.28855858450043559 0 -0.48631543394502841 0.27135126372764312 0 -0.46523267051325867 0.27177824711948712 0 -0.48631543394502841 0.27135126372764312 0 -0.47217714811362088 0.25635722781140657 0 -0.46523267051325867 0.27177824711948712 0 -0.48631543394502841 0.27135126372764312 0 -0.47217714811362088 0.25635722781140657 0 -0.48541386372167011 0.25724313390723808 0 -0.48631543394502841 0.27135126372764312 0 -0.47217714811362088 0.25635722781140657 0 -0.48316287282803921 0.2423242544277307 0 -0.48541386372167011 0.25724313390723808 0 -0.47217714811362088 0.25635722781140657 0 -0.47217714811362088 0.25635722781140657 0 -0.46523267051325867 0.27177824711948712 0 -0.45105835632369212 0.25948660813246921 0 -0.45803886228221391 0.24136319189516969 0 -0.47217714811362088 0.25635722781140657 0 -0.45105835632369212 0.25948660813246921 0 -0.45172974571179109 0.29175718281946011 0 -0.46523267051325867 0.27177824711948712 0 -0.44254906139927841 0.27755779569979511 0 -0.46523267051325867 0.27177824711948712 0 -0.44254906139927841 0.27755779569979511 0 -0.45105835632369212 0.25948660813246921 0 -0.44254906139927841 0.27755779569979511 0 -0.45105835632369212 0.25948660813246921 0 -0.42926109224951953 0.26341962948871389 0 -0.43754238098675741 0.24413038644236809 0 -0.45105835632369212 0.25948660813246921 0 -0.42926109224951953 0.26341962948871389 0 -0.43754238098675741 0.24413038644236809 0 -0.4186537209775133 0.24549186410775281 0 -0.42926109224951953 0.26341962948871389 0 -0.4186537209775133 0.24549186410775281 0 -0.40539954279161461 0.2435382908113044 0 -0.40495453681686527 0.26140270371834828 0 -0.4186537209775133 0.24549186410775281 0 -0.42926109224951953 0.26341962948871389 0 -0.40495453681686527 0.26140270371834828 0 -0.42926109224951953 0.26341962948871389 0 -0.41807133918491141 0.2841649086403954 0 -0.40495453681686527 0.26140270371834828 0 -0.41807133918491141 0.2841649086403954 0 -0.40258691557852783 0.28316551483187868 0 -0.40495453681686527 0.26140270371834828 0 -0.44254906139927841 0.27755779569979511 0 -0.42926109224951953 0.26341962948871389 0 -0.41807133918491141 0.2841649086403954 0 -0.42926109224951953 0.26341962948871389 0 -0.41807133918491141 0.2841649086403954 0 -0.43891438423435569 0.29308697783455478 0 -0.44254906139927841 0.27755779569979511 0 -0.41807133918491141 0.2841649086403954 0 -0.43891438423435569 0.29308697783455478 0 -0.42588780920991898 0.30308862629257799 0 -0.41807133918491141 0.2841649086403954 0 -0.43126852887684641 0.32127708760061552 0 -0.43964289784085597 0.30396001235700892 0 -0.42588780920991898 0.30308862629257799 0 -0.43964289784085597 0.30396001235700892 0 -0.43891438423435569 0.29308697783455478 0 -0.42588780920991898 0.30308862629257799 0 -0.41128438758936492 0.32067545415480209 0 -0.42588780920991898 0.30308862629257799 0 -0.40688158612030317 0.3049101877920769 0 -0.42588780920991898 0.30308862629257799 0 -0.40688158612030317 0.3049101877920769 0 -0.41807133918491141 0.2841649086403954 0 -0.40688158612030317 0.3049101877920769 0 -0.41807133918491141 0.2841649086403954 0 -0.40258691557852783 0.28316551483187868 0 -0.40688158612030317 0.3049101877920769 0 -0.41807133918491141 0.2841649086403954 0 -0.40688158612030317 0.3049101877920769 0 -0.40258691557852783 0.28316551483187868 0 -0.39190797153046841 0.29266843325495301 0 -0.40258691557852783 0.28316551483187868 0 -0.39190797153046841 0.29266843325495301 0 -0.39111914424009042 0.27268134075361988 0 -0.40688158612030317 0.3049101877920769 0 -0.39190797153046841 0.29266843325495301 0 -0.39019792111759388 0.30886495612411741 0 -0.39190797153046841 0.29266843325495301 0 -0.39019792111759388 0.30886495612411741 0 -0.38168124648869278 0.29888753652420252 0 -0.37548767588134829 0.31729325880581949 0 -0.39019792111759388 0.30886495612411741 0 -0.38168124648869278 0.29888753652420252 0 -0.37548767588134829 0.31729325880581949 0 -0.38168124648869278 0.29888753652420252 0 -0.36997842922125301 0.29011555604304029 0 -0.39190797153046841 0.29266843325495301 0 -0.38125985573186538 0.28551360553097888 0 -0.39111914424009042 0.27268134075361988 0 -0.38125985573186538 0.28551360553097888 0 -0.37765971090185368 0.27347271145431867 0 -0.36997842922125301 0.29011555604304029 0 -0.39190797153046841 0.29266843325495301 0 -0.38168124648869278 0.29888753652420252 0 -0.38125985573186538 0.28551360553097888 0 -0.38168124648869278 0.29888753652420252 0 -0.38125985573186538 0.28551360553097888 0 -0.36997842922125301 0.29011555604304029 0 -0.37765971090185368 0.27347271145431867 0 -0.38189756379396927 0.25613332880158979 0 -0.39111914424009042 0.27268134075361988 0 -0.38125985573186538 0.28551360553097888 0 -0.37765971090185368 0.27347271145431867 0 -0.39111914424009042 0.27268134075361988 0 -0.38189756379396927 0.25613332880158979 0 -0.40495453681686527 0.26140270371834828 0 -0.39111914424009042 0.27268134075361988 0 -0.39250389713538669 0.24315115524816419 0 -0.38189756379396927 0.25613332880158979 0 -0.40495453681686527 0.26140270371834828 0 -0.40258691557852783 0.28316551483187868 0 -0.40495453681686527 0.26140270371834828 0 -0.39111914424009042 0.27268134075361988 0 -0.35155618225579982 0.27246760856575719 0 -0.36446918256115629 0.26293785328026142 0 -0.35965065415215802 0.2878812649851305 0 -0.35155618225579982 0.27246760856575719 0 -0.34560710140531692 0.25366746611407021 0 -0.33811465067575253 0.27123642451732849 0 -0.35155618225579982 0.27246760856575719 0 -0.34443685097763849 0.28388372244517113 0 -0.33811465067575253 0.27123642451732849 0 -0.35155618225579982 0.27246760856575719 0 -0.34560710140531692 0.25366746611407021 0 -0.36446918256115629 0.26293785328026142 0 -0.36009457670685252 0.24135745491585769 0 -0.34560710140531692 0.25366746611407021 0 -0.36446918256115629 0.26293785328026142 0 -0.36815520962458398 0.24385690515785929 0 -0.36446918256115629 0.26293785328026142 0 -0.36815520962458398 0.24385690515785929 0 -0.38189756379396927 0.25613332880158979 0 -0.36446918256115629 0.26293785328026142 0 -0.37765971090185368 0.27347271145431867 0 -0.38189756379396927 0.25613332880158979 0 -0.36446918256115629 0.26293785328026142 0 -0.36009457670685252 0.24135745491585769 0 -0.36446918256115629 0.26293785328026142 0 -0.36446918256115629 0.26293785328026142 0 -0.35965065415215802 0.2878812649851305 0 -0.36446918256115629 0.26293785328026142 0 -0.36997842922125301 0.29011555604304029 0 -0.37765971090185368 0.27347271145431867 0 -0.36446918256115629 0.26293785328026142 0 -0.36997842922125301 0.29011555604304029 0 -0.36446918256115629 0.26293785328026142 0 -0.36997842922125301 0.29011555604304029 0 -0.35965065415215802 0.2878812649851305 0 -0.37548767588134829 0.31729325880581949 0 -0.36997842922125301 0.29011555604304029 0 -0.37548767588134829 0.31729325880581949 0 -0.36997842922125301 0.29011555604304029 0 -0.3548321257431607 0.31282467668999991 0 -0.36997842922125301 0.29011555604304029 0 -0.35965065415215802 0.2878812649851305 0 -0.3548321257431607 0.31282467668999991 0 -0.35965065415215802 0.2878812649851305 0 -0.3548321257431607 0.31282467668999991 0 -0.34062564998608541 0.3055750743447756 0 -0.33766417792679471 0.3178814729102199 0 -0.3548321257431607 0.31282467668999991 0 -0.35965065415215802 0.2878812649851305 0 -0.34803945143057718 0.29642993949327401 0 -0.3548321257431607 0.31282467668999991 0 -0.34803945143057718 0.29642993949327401 0 -0.34062564998608541 0.3055750743447756 0 -0.3548321257431607 0.31282467668999991 0 -0.35155618225579982 0.27246760856575719 0 -0.35965065415215802 0.2878812649851305 0 -0.34443685097763849 0.28388372244517113 0 -0.35965065415215802 0.2878812649851305 0 -0.34803945143057718 0.29642993949327401 0 -0.34443685097763849 0.28388372244517113 0 -0.33851026430877551 0.29182370703504962 0 -0.33138555569225803 0.28314305009532242 0 -0.32157695523336849 0.2896233675178459 0 -0.34443685097763849 0.28388372244517113 0 -0.33851026430877551 0.29182370703504962 0 -0.33138555569225803 0.28314305009532242 0 -0.34803945143057718 0.29642993949327401 0 -0.34443685097763849 0.28388372244517113 0 -0.33851026430877551 0.29182370703504962 0 -0.33851026430877551 0.29182370703504962 0 -0.34062564998608541 0.3055750743447756 0 -0.32408223052111867 0.30891557559533461 0 -0.34062564998608541 0.3055750743447756 0 -0.32408223052111867 0.30891557559533461 0 -0.33766417792679471 0.3178814729102199 0 -0.34803945143057718 0.29642993949327401 0 -0.33851026430877551 0.29182370703504962 0 -0.34062564998608541 0.3055750743447756 0 -0.32408223052111867 0.30891557559533461 0 -0.30846403182940269 0.29690073923379068 0 -0.3065030489063536 0.31440067394774729 0 -0.32408223052111867 0.30891557559533461 0 -0.32157695523336849 0.2896233675178459 0 -0.30846403182940269 0.29690073923379068 0 -0.32157695523336849 0.2896233675178459 0 -0.30870879567407578 0.27766980528234031 0 -0.30846403182940269 0.29690073923379068 0 -0.33851026430877551 0.29182370703504962 0 -0.32408223052111867 0.30891557559533461 0 -0.32157695523336849 0.2896233675178459 0 -0.33138555569225803 0.28314305009532242 0 -0.32157695523336849 0.2896233675178459 0 -0.32332041010970419 0.27459663853724248 0 -0.32332041010970419 0.27459663853724248 0 -0.31637666675272252 0.25968463195712088 0 -0.30870879567407578 0.27766980528234031 0 -0.32157695523336849 0.2896233675178459 0 -0.32332041010970419 0.27459663853724248 0 -0.30870879567407578 0.27766980528234031 0 -0.33138555569225803 0.28314305009532242 0 -0.32332041010970419 0.27459663853724248 0 -0.33811465067575253 0.27123642451732849 0 -0.32332041010970419 0.27459663853724248 0 -0.33811465067575253 0.27123642451732849 0 -0.33110768137146013 0.25690774615755291 0 -0.34443685097763849 0.28388372244517113 0 -0.33138555569225803 0.28314305009532242 0 -0.33811465067575253 0.27123642451732849 0 -0.34560710140531692 0.25366746611407021 0 -0.33811465067575253 0.27123642451732849 0 -0.33110768137146013 0.25690774615755291 0 -0.33160565992797192 0.24238809607023731 0 -0.34560710140531692 0.25366746611407021 0 -0.33110768137146013 0.25690774615755291 0 -0.31800361967524648 0.24524988558073299 0 -0.33110768137146013 0.25690774615755291 0 -0.31637666675272252 0.25968463195712088 0 -0.32332041010970419 0.27459663853724248 0 -0.33110768137146013 0.25690774615755291 0 -0.31637666675272252 0.25968463195712088 0 -0.30254072293902062 0.24316617339739741 0 -0.31637666675272252 0.25968463195712088 0 -0.30105506464618842 0.2633608010401825 0 -0.30254072293902062 0.24316617339739741 0 -0.30105506464618842 0.2633608010401825 0 -0.29356281679667923 0.2529040710590405 0 -0.31637666675272252 0.25968463195712088 0 -0.30105506464618842 0.2633608010401825 0 -0.30870879567407578 0.27766980528234031 0 -0.30105506464618842 0.2633608010401825 0 -0.30870879567407578 0.27766980528234031 0 -0.29565017245961661 0.27436037186335022 0 -0.30870879567407578 0.27766980528234031 0 -0.29565017245961661 0.27436037186335022 0 -0.29422281284794488 0.28716423906191257 0 -0.30105506464618842 0.2633608010401825 0 -0.29565017245961661 0.27436037186335022 0 -0.28542884849019928 0.26337595747430209 0 -0.29565017245961661 0.27436037186335022 0 -0.28509658426683088 0.27817841517336389 0 -0.29422281284794488 0.28716423906191257 0 -0.29565017245961661 0.27436037186335022 0 -0.28509658426683088 0.27817841517336389 0 -0.28542884849019928 0.26337595747430209 0 -0.28318876919926878 0.2452977502543644 0 -0.29356281679667923 0.2529040710590405 0 -0.28542884849019928 0.26337595747430209 0 -0.30105506464618842 0.2633608010401825 0 -0.29356281679667923 0.2529040710590405 0 -0.28542884849019928 0.26337595747430209 0 -0.28318876919926878 0.2452977502543644 0 -0.28542884849019928 0.26337595747430209 0 -0.26798285056354498 0.25567168971821908 0 -0.28542884849019928 0.26337595747430209 0 -0.26798285056354498 0.25567168971821908 0 -0.27073582510327399 0.27792478960800437 0 -0.28509658426683088 0.27817841517336389 0 -0.28542884849019928 0.26337595747430209 0 -0.27073582510327399 0.27792478960800437 0 -0.26798285056354498 0.25567168971821908 0 -0.27073582510327399 0.27792478960800437 0 -0.25678165399308639 0.27213434924713281 0 -0.27073582510327399 0.27792478960800437 0 -0.25678165399308639 0.27213434924713281 0 -0.25410965780550582 0.29135548743402079 0 -0.2506263941714858 0.24704315055313489 0 -0.25678165399308639 0.27213434924713281 0 -0.2506263941714858 0.24704315055313489 0 -0.26798285056354498 0.25567168971821908 0 -0.25678165399308639 0.27213434924713281 0 -0.26216976785831142 0.31189163922273999 0 -0.25410965780550582 0.29135548743402079 0 -0.26216976785831142 0.31189163922273999 0 -0.25410965780550582 0.29135548743402079 0 -0.26822482528149438 0.29592999154039867 0 -0.26216976785831142 0.31189163922273999 0 -0.25410965780550582 0.29135548743402079 0 -0.2403963738835129 0.30026618568843771 0 -0.25678165399308639 0.27213434924713281 0 -0.25410965780550582 0.29135548743402079 0 -0.24480223757237099 0.28026534034078038 0 -0.27073582510327399 0.27792478960800437 0 -0.25410965780550582 0.29135548743402079 0 -0.26822482528149438 0.29592999154039867 0 -0.27073582510327399 0.27792478960800437 0 -0.26822482528149438 0.29592999154039867 0 -0.27944526243311968 0.2880667178592502 0 -0.28509658426683088 0.27817841517336389 0 -0.27073582510327399 0.27792478960800437 0 -0.27944526243311968 0.2880667178592502 0 -0.26822482528149438 0.29592999154039867 0 -0.27944526243311968 0.2880667178592502 0 -0.28019330538728332 0.30277047495676568 0 -0.26216976785831142 0.31189163922273999 0 -0.28019330538728332 0.30277047495676568 0 -0.28514605616366112 0.31972457542020799 0 -0.26216976785831142 0.31189163922273999 0 -0.26822482528149438 0.29592999154039867 0 -0.28019330538728332 0.30277047495676568 0 -0.28019330538728332 0.30277047495676568 0 -0.29569034779355519 0.30363077399756361 0 -0.29422281284794488 0.28716423906191257 0 -0.28019330538728332 0.30277047495676568 0 -0.29569034779355519 0.30363077399756361 0 -0.28514605616366112 0.31972457542020799 0 -0.28509658426683088 0.27817841517336389 0 -0.27944526243311968 0.2880667178592502 0 -0.29422281284794488 0.28716423906191257 0 -0.27944526243311968 0.2880667178592502 0 -0.28019330538728332 0.30277047495676568 0 -0.29422281284794488 0.28716423906191257 0 -0.29569034779355519 0.30363077399756361 0 -0.29422281284794488 0.28716423906191257 0 -0.30846403182940269 0.29690073923379068 0 -0.30870879567407578 0.27766980528234031 0 -0.29422281284794488 0.28716423906191257 0 -0.30846403182940269 0.29690073923379068 0 -0.29569034779355519 0.30363077399756361 0 -0.30846403182940269 0.29690073923379068 0 -0.3065030489063536 0.31440067394774729 0 -0.3065030489063536 0.31440067394774729 0 -0.30153944655167431 0.33045401210652431 0 -0.31379761246554788 0.32555169327753503 0 -0.3065030489063536 0.31440067394774729 0 -0.30153944655167431 0.33045401210652431 0 -0.28514605616366112 0.31972457542020799 0 -0.31070627036827397 0.34239921582787392 0 -0.30153944655167431 0.33045401210652431 0 -0.31379761246554788 0.32555169327753503 0 -0.31070627036827397 0.34239921582787392 0 -0.30153944655167431 0.33045401210652431 0 -0.28991471725779688 0.34170897745335138 0 -0.30153944655167431 0.33045401210652431 0 -0.28991471725779688 0.34170897745335138 0 -0.28514605616366112 0.31972457542020799 0 -0.28991471725779688 0.34170897745335138 0 -0.28514605616366112 0.31972457542020799 0 -0.27022987791111708 0.33242779101145919 0 -0.30153944655167431 0.33045401210652431 0 -0.28991471725779688 0.34170897745335138 0 -0.29569034779355519 0.30363077399756361 0 -0.3065030489063536 0.31440067394774729 0 -0.28514605616366112 0.31972457542020799 0 -0.26216976785831142 0.31189163922273999 0 -0.27022987791111708 0.33242779101145919 0 -0.26216976785831142 0.31189163922273999 0 -0.28514605616366112 0.31972457542020799 0 -0.27022987791111708 0.33242779101145919 0 -0.27022987791111708 0.33242779101145919 0 -0.27828998796392018 0.35296394280017929 0 -0.28991471725779688 0.34170897745335138 0 -0.27022987791111708 0.33242779101145919 0 -0.27828998796392018 0.35296394280017929 0 -0.27022987791111708 0.33242779101145919 0 -0.26015707253085008 0.3482310133201299 0 -0.2496340209974976 0.3365858346038833 0 -0.27022987791111708 0.33242779101145919 0 -0.25493623926510711 0.324844285727664 0 -0.2496340209974976 0.3365858346038833 0 -0.26216976785831142 0.31189163922273999 0 -0.25493623926510711 0.324844285727664 0 -0.23960472737181199 0.31969587710757658 0 -0.26216976785831142 0.31189163922273999 0 -0.27022987791111708 0.33242779101145919 0 -0.25493623926510711 0.324844285727664 0 -0.26177118778713282 0.36895730650446878 0 -0.26015707253085008 0.3482310133201299 0 -0.24384427060529501 0.3545231238359528 0 -0.26015707253085008 0.3482310133201299 0 -0.24384427060529501 0.3545231238359528 0 -0.2496340209974976 0.3365858346038833 0 -0.27022987791111708 0.33242779101145919 0 -0.26015707253085008 0.3482310133201299 0 -0.27828998796392018 0.35296394280017929 0 -0.26177118778713282 0.36895730650446878 0 -0.26015707253085008 0.3482310133201299 0 -0.27828998796392018 0.35296394280017929 0 -0.26177118778713282 0.36895730650446878 0 -0.27828998796392018 0.35296394280017929 0 -0.26177118778713282 0.36895730650446878 0 -0.27828998796392018 0.35296394280017929 0 -0.2881465191333894 0.37807715079365362 0 -0.27828998796392018 0.35296394280017929 0 -0.2881465191333894 0.37807715079365362 0 -0.27828998796392018 0.35296394280017929 0 -0.2966166474541157 0.36026189218041671 0 -0.2881465191333894 0.37807715079365362 0 -0.28991471725779688 0.34170897745335138 0 -0.27828998796392018 0.35296394280017929 0 -0.2966166474541157 0.36026189218041671 0 -0.28991471725779688 0.34170897745335138 0 -0.27828998796392018 0.35296394280017929 0 -0.31070627036827397 0.34239921582787392 0 -0.2966166474541157 0.36026189218041671 0 -0.31722023921352549 0.35840530569826973 0 -0.31070627036827397 0.34239921582787392 0 -0.28991471725779688 0.34170897745335138 0 -0.2966166474541157 0.36026189218041671 0 -0.2966166474541157 0.36026189218041671 0 -0.30829917162348691 0.37875986182356408 0 -0.2881465191333894 0.37807715079365362 0 -0.2966166474541157 0.36026189218041671 0 -0.31722023921352549 0.35840530569826973 0 -0.30829917162348691 0.37875986182356408 0 -0.31722023921352549 0.35840530569826973 0 -0.32979804439080401 0.3764094154327462 0 -0.30829917162348691 0.37875986182356408 0 -0.34201312578799731 0.35802227151189792 0 -0.35283862782198983 0.37049827230514087 0 -0.32979804439080401 0.3764094154327462 0 -0.34201312578799731 0.35802227151189792 0 -0.31722023921352549 0.35840530569826973 0 -0.32979804439080401 0.3764094154327462 0 -0.34201312578799731 0.35802227151189792 0 -0.31722023921352549 0.35840530569826973 0 -0.34201312578799731 0.35802227151189792 0 -0.32945246715682119 0.34758452223419217 0 -0.35001359733416337 0.33776808839486921 0 -0.34201312578799731 0.35802227151189792 0 -0.32945246715682119 0.34758452223419217 0 -0.31722023921352549 0.35840530569826973 0 -0.31070627036827397 0.34239921582787392 0 -0.32945246715682119 0.34758452223419217 0 -0.31722023921352549 0.35840530569826973 0 -0.31070627036827397 0.34239921582787392 0 -0.32945246715682119 0.34758452223419217 0 -0.32615706598031913 0.33158898891019478 0 -0.31070627036827397 0.34239921582787392 0 -0.32615706598031913 0.33158898891019478 0 -0.31379761246554788 0.32555169327753503 0 -0.32408223052111867 0.30891557559533461 0 -0.32615706598031913 0.33158898891019478 0 -0.31379761246554788 0.32555169327753503 0 -0.32408223052111867 0.30891557559533461 0 -0.3065030489063536 0.31440067394774729 0 -0.31379761246554788 0.32555169327753503 0 -0.32408223052111867 0.30891557559533461 0 -0.32615706598031913 0.33158898891019478 0 -0.33766417792679471 0.3178814729102199 0 -0.32945246715682119 0.34758452223419217 0 -0.32615706598031913 0.33158898891019478 0 -0.35001359733416337 0.33776808839486921 0 -0.32615706598031913 0.33158898891019478 0 -0.33766417792679471 0.3178814729102199 0 -0.35001359733416337 0.33776808839486921 0 -0.35001359733416337 0.33776808839486921 0 -0.36336551129260752 0.3233533442928318 0 -0.36276959204203318 0.33687904189209722 0 -0.35001359733416337 0.33776808839486921 0 -0.36276959204203318 0.33687904189209722 0 -0.35926101058269921 0.34697167555087421 0 -0.35001359733416337 0.33776808839486921 0 -0.3548321257431607 0.31282467668999991 0 -0.35001359733416337 0.33776808839486921 0 -0.3548321257431607 0.31282467668999991 0 -0.36336551129260752 0.3233533442928318 0 -0.33766417792679471 0.3178814729102199 0 -0.35001359733416337 0.33776808839486921 0 -0.3548321257431607 0.31282467668999991 0 -0.37548767588134829 0.31729325880581949 0 -0.3548321257431607 0.31282467668999991 0 -0.36336551129260752 0.3233533442928318 0 -0.37548767588134829 0.31729325880581949 0 -0.36336551129260752 0.3233533442928318 0 -0.37120103559905632 0.33363194383592409 0 -0.36276959204203318 0.33687904189209722 0 -0.37000680540163938 0.34267015738598688 0 -0.35926101058269921 0.34697167555087421 0 -0.36336551129260752 0.3233533442928318 0 -0.36276959204203318 0.33687904189209722 0 -0.37120103559905632 0.33363194383592409 0 -0.37787177660565591 0.33953263411458812 0 -0.37120103559905632 0.33363194383592409 0 -0.37000680540163938 0.34267015738598688 0 -0.36276959204203318 0.33687904189209722 0 -0.37120103559905632 0.33363194383592409 0 -0.37000680540163938 0.34267015738598688 0 -0.38239590783191191 0.35030549083210277 0 -0.36651054570844788 0.35223077166485373 0 -0.36680601236246901 0.35763923732552599 0 -0.38450207999108599 0.34640074609543958 0 -0.37000680540163938 0.34267015738598688 0 -0.36651054570844788 0.35223077166485373 0 -0.37000680540163938 0.34267015738598688 0 -0.36651054570844788 0.35223077166485373 0 -0.35926101058269921 0.34697167555087421 0 -0.36651054570844788 0.35223077166485373 0 -0.36680601236246901 0.35763923732552599 0 -0.35926101058269921 0.34697167555087421 0 -0.37560295708841512 0.36347687736651962 0 -0.36680601236246901 0.35763923732552599 0 -0.36619472401930508 0.3692517541452231 0 -0.3778121930349515 0.36976031485619387 0 -0.37560295708841512 0.36347687736651962 0 -0.36619472401930508 0.3692517541452231 0 -0.3778121930349515 0.36976031485619387 0 -0.36619472401930508 0.3692517541452231 0 -0.36402548713297039 0.38226442657325449 0 -0.36619472401930508 0.3692517541452231 0 -0.35283862782198983 0.37049827230514087 0 -0.36402548713297039 0.38226442657325449 0 -0.36680601236246901 0.35763923732552599 0 -0.36619472401930508 0.3692517541452231 0 -0.35283862782198983 0.37049827230514087 0 -0.34201312578799731 0.35802227151189792 0 -0.36680601236246901 0.35763923732552599 0 -0.35283862782198983 0.37049827230514087 0 -0.34201312578799731 0.35802227151189792 0 -0.36680601236246901 0.35763923732552599 0 -0.34201312578799731 0.35802227151189792 0 -0.35001359733416337 0.33776808839486921 0 -0.35926101058269921 0.34697167555087421 0 -0.34201312578799731 0.35802227151189792 0 -0.36680601236246901 0.35763923732552599 0 -0.35926101058269921 0.34697167555087421 0 -0.34577643745102371 0.39881574474711551 0 -0.36488006030871478 0.39899955111130941 0 -0.36466678474742198 0.4157551233830028 0 -0.34577643745102371 0.39881574474711551 0 -0.36402548713297039 0.38226442657325449 0 -0.36488006030871478 0.39899955111130941 0 -0.34577643745102371 0.39881574474711551 0 -0.36402548713297039 0.38226442657325449 0 -0.34201800818960021 0.38923973731121408 0 -0.35283862782198983 0.37049827230514087 0 -0.36402548713297039 0.38226442657325449 0 -0.34201800818960021 0.38923973731121408 0 -0.36402548713297039 0.38226442657325449 0 -0.34201800818960021 0.38923973731121408 0 -0.34577643745102371 0.39881574474711551 0 -0.36402548713297039 0.38226442657325449 0 -0.37795126944273227 0.38869796090037589 0 -0.36402548713297039 0.38226442657325449 0 -0.36488006030871478 0.39899955111130941 0 -0.3778121930349515 0.36976031485619387 0 -0.36402548713297039 0.38226442657325449 0 -0.38230352942524232 0.40006750756218012 0 -0.36488006030871478 0.39899955111130941 0 -0.36466678474742198 0.4157551233830028 0 -0.36466678474742198 0.4157551233830028 0 -0.35361369848635799 0.43800335192403661 0 -0.37489403839079338 0.43950072697020498 0 -0.36466678474742198 0.4157551233830028 0 -0.34581086175325138 0.42048999828850048 0 -0.35361369848635799 0.43800335192403661 0 -0.34581086175325138 0.42048999828850048 0 -0.33633629923941899 0.43518131269639948 0 -0.35361369848635799 0.43800335192403661 0 -0.34577643745102371 0.39881574474711551 0 -0.36466678474742198 0.4157551233830028 0 -0.34581086175325138 0.42048999828850048 0 -0.34577643745102371 0.39881574474711551 0 -0.34581086175325138 0.42048999828850048 0 -0.32752738776907891 0.41536706292097841 0 -0.34577643745102371 0.39881574474711551 0 -0.32752738776907891 0.41536706292097841 0 -0.34581086175325138 0.42048999828850048 0 -0.33633629923941899 0.43518131269639948 0 -0.32752738776907891 0.41536706292097841 0 -0.33633629923941899 0.43518131269639948 0 -0.32093095930391929 0.43642167085478178 0 -0.32752738776907891 0.41536706292097841 0 -0.32752738776907891 0.41536706292097841 0 -0.30927833808713578 0.43191838109484337 0 -0.32093095930391929 0.43642167085478178 0 -0.32752738776907891 0.41536706292097841 0 -0.30927833808713578 0.43191838109484337 0 -0.32752738776907891 0.41536706292097841 0 -0.31408333007682843 0.41019589745571011 0 -0.32001052924622908 0.39621504804917101 0 -0.32752738776907891 0.41536706292097841 0 -0.31408333007682843 0.41019589745571011 0 -0.30927833808713578 0.43191838109484337 0 -0.32001052924622908 0.39621504804917101 0 -0.34201800818960021 0.38923973731121408 0 -0.34577643745102371 0.39881574474711551 0 -0.32752738776907891 0.41536706292097841 0 -0.32001052924622908 0.39621504804917101 0 -0.34577643745102371 0.39881574474711551 0 -0.32001052924622908 0.39621504804917101 0 -0.34201800818960021 0.38923973731121408 0 -0.32001052924622908 0.39621504804917101 0 -0.32979804439080401 0.3764094154327462 0 -0.34201800818960021 0.38923973731121408 0 -0.35283862782198983 0.37049827230514087 0 -0.32979804439080401 0.3764094154327462 0 -0.34201800818960021 0.38923973731121408 0 -0.32001052924622908 0.39621504804917101 0 -0.32979804439080401 0.3764094154327462 0 -0.30829917162348691 0.37875986182356408 0 -0.30829917162348691 0.37875986182356408 0 -0.29800305030285801 0.403190358787128 0 -0.2881465191333894 0.37807715079365362 0 -0.32001052924622908 0.39621504804917101 0 -0.29800305030285801 0.403190358787128 0 -0.32001052924622908 0.39621504804917101 0 -0.30829917162348691 0.37875986182356408 0 -0.29800305030285801 0.403190358787128 0 -0.31408333007682843 0.41019589745571011 0 -0.32001052924622908 0.39621504804917101 0 -0.29800305030285801 0.403190358787128 0 -0.29800305030285801 0.403190358787128 0 -0.28196331471143682 0.39543458625834299 0 -0.27498503610567288 0.41048596052366509 0 -0.29800305030285801 0.403190358787128 0 -0.2881465191333894 0.37807715079365362 0 -0.29800305030285801 0.403190358787128 0 -0.28196331471143682 0.39543458625834299 0 -0.2881465191333894 0.37807715079365362 0 -0.26177118778713282 0.36895730650446878 0 -0.2881465191333894 0.37807715079365362 0 -0.26671865330382699 0.3899848749289257 0 -0.28196331471143682 0.39543458625834299 0 -0.2881465191333894 0.37807715079365362 0 -0.26671865330382699 0.3899848749289257 0 -0.28196331471143682 0.39543458625834299 0 -0.26671865330382699 0.3899848749289257 0 -0.27498503610567288 0.41048596052366509 0 -0.26671865330382699 0.3899848749289257 0 -0.27498503610567288 0.41048596052366509 0 -0.24732343066571391 0.4021496581134385 0 -0.26671865330382699 0.3899848749289257 0 -0.24525238761034601 0.38495067020875889 0 -0.24732343066571391 0.4021496581134385 0 -0.26177118778713282 0.36895730650446878 0 -0.26671865330382699 0.3899848749289257 0 -0.24525238761034601 0.38495067020875889 0 -0.26177118778713282 0.36895730650446878 0 -0.24525238761034601 0.38495067020875889 0 -0.26508290707246279 0.42532826309325211 0 -0.252666784821232 0.43355797749915848 0 -0.25196702190848791 0.41778156226020252 0 -0.26508290707246279 0.42532826309325211 0 -0.252666784821232 0.43355797749915848 0 -0.26690113126654152 0.43989758352936309 0 -0.25196702190848791 0.41778156226020252 0 -0.27498503610567288 0.41048596052366509 0 -0.24732343066571391 0.4021496581134385 0 -0.26508290707246279 0.42532826309325211 0 -0.25196702190848791 0.41778156226020252 0 -0.27498503610567288 0.41048596052366509 0 -0.25196702190848791 0.41778156226020252 0 -0.27498503610567288 0.41048596052366509 0 -0.26508290707246279 0.42532826309325211 0 -0.27498503610567288 0.41048596052366509 0 -0.27889456126037959 0.42491823165387133 0 -0.27498503610567288 0.41048596052366509 0 -0.27889456126037959 0.42491823165387133 0 -0.28950866315753709 0.41731051700922372 0 -0.26508290707246279 0.42532826309325211 0 -0.27889456126037959 0.42491823165387133 0 -0.26690113126654152 0.43989758352936309 0 -0.27889456126037959 0.42491823165387133 0 -0.28111042499822858 0.43899771606925192 0 -0.26690113126654152 0.43989758352936309 0 -0.27889456126037959 0.42491823165387133 0 -0.2920199739237756 0.43040366414046971 0 -0.28111042499822858 0.43899771606925192 0 -0.27889456126037959 0.42491823165387133 0 -0.2920199739237756 0.43040366414046971 0 -0.28950866315753709 0.41731051700922372 0 -0.29800305030285801 0.403190358787128 0 -0.27498503610567288 0.41048596052366509 0 -0.28950866315753709 0.41731051700922372 0 -0.29800305030285801 0.403190358787128 0 -0.27498503610567288 0.41048596052366509 0 -0.2920199739237756 0.43040366414046971 0 -0.28950866315753709 0.41731051700922372 0 -0.30364069419499962 0.41755436994098472 0 -0.31408333007682843 0.41019589745571011 0 -0.30364069419499962 0.41755436994098472 0 -0.30927833808713578 0.43191838109484337 0 -0.31408333007682843 0.41019589745571011 0 -0.29800305030285801 0.403190358787128 0 -0.30364069419499962 0.41755436994098472 0 -0.29800305030285801 0.403190358787128 0 -0.28950866315753709 0.41731051700922372 0 -0.30364069419499962 0.41755436994098472 0 -0.29800305030285801 0.403190358787128 0 -0.30364069419499962 0.41755436994098472 0 -0.2920199739237756 0.43040366414046971 0 -0.30364069419499962 0.41755436994098472 0 -0.30927833808713578 0.43191838109484337 0 -0.2920199739237756 0.43040366414046971 0 -0.30927833808713578 0.43191838109484337 0 -0.29184760195587012 0.44772751443281622 0 -0.30364069419499962 0.41755436994098472 0 -0.30927833808713578 0.43191838109484337 0 -0.30927833808713578 0.43191838109484337 0 -0.3044534986841862 0.44411254271382311 0 -0.31628461876079678 0.44976950749954431 0 -0.3044534986841862 0.44411254271382311 0 -0.28902047517829588 0.46066970970938181 0 -0.31628461876079678 0.44976950749954431 0 -0.30927833808713578 0.43191838109484337 0 -0.29184760195587012 0.44772751443281622 0 -0.30927833808713578 0.43191838109484337 0 -0.3044534986841862 0.44411254271382311 0 -0.29184760195587012 0.44772751443281622 0 -0.28902047517829588 0.46066970970938181 0 -0.31898737378121678 0.45665578907429988 0 -0.31628461876079678 0.44976950749954431 0 -0.28902047517829588 0.46066970970938181 0 -0.31628461876079678 0.44976950749954431 0 -0.28902047517829588 0.46066970970938181 0 -0.29226531035387632 0.47080386312685568 0 -0.31898737378121678 0.45665578907429988 0 -0.28902047517829588 0.46066970970938181 0 -0.31898737378121678 0.45665578907429988 0 -0.29226531035387632 0.47080386312685568 0 -0.31393845744994608 0.47357037905696658 0 -0.31898737378121678 0.45665578907429988 0 -0.28902047517829588 0.46066970970938181 0 -0.27059216325780638 0.46803734719674528 0 -0.29226531035387632 0.47080386312685568 0 -0.28902047517829588 0.46066970970938181 0 -0.29184760195587012 0.44772751443281622 0 -0.27486650676654267 0.45259716300598879 0 -0.29184760195587012 0.44772751443281622 0 -0.28111042499822858 0.43899771606925192 0 -0.27486650676654267 0.45259716300598879 0 -0.2920199739237756 0.43040366414046971 0 -0.29184760195587012 0.44772751443281622 0 -0.28111042499822858 0.43899771606925192 0 -0.3044534986841862 0.44411254271382311 0 -0.28902047517829588 0.46066970970938181 0 -0.29184760195587012 0.44772751443281622 0 -0.28111042499822858 0.43899771606925192 0 -0.26690113126654152 0.43989758352936309 0 -0.27486650676654267 0.45259716300598879 0 -0.26690113126654152 0.43989758352936309 0 -0.27486650676654267 0.45259716300598879 0 -0.26230016254644561 0.45259107837812018 0 -0.28902047517829588 0.46066970970938181 0 -0.27486650676654267 0.45259716300598879 0 -0.26202312081644152 0.4642858743049077 0 -0.28902047517829588 0.46066970970938181 0 -0.27059216325780638 0.46803734719674528 0 -0.26202312081644152 0.4642858743049077 0 -0.28902047517829588 0.46066970970938181 0 -0.26202312081644152 0.4642858743049077 0 -0.28902047517829588 0.46066970970938181 0 -0.27059216325780638 0.46803734719674528 0 -0.27486650676654267 0.45259716300598879 0 -0.26202312081644152 0.4642858743049077 0 -0.26230016254644561 0.45259107837812018 0 -0.26202312081644152 0.4642858743049077 0 -0.25440886012655822 0.45798953383452051 0 -0.26230016254644561 0.45259107837812018 0 -0.27059216325780638 0.46803734719674528 0 -0.249519752518849 0.46534751356359688 0 -0.27059216325780638 0.46803734719674528 0 -0.26202312081644152 0.4642858743049077 0 -0.249519752518849 0.46534751356359688 0 -0.26202312081644152 0.4642858743049077 0 -0.25440886012655822 0.45798953383452051 0 -0.249519752518849 0.46534751356359688 0 -0.25440886012655822 0.45798953383452051 0 -0.25248591198242182 0.44780379583617902 0 -0.26230016254644561 0.45259107837812018 0 -0.252666784821232 0.43355797749915848 0 -0.26690113126654152 0.43989758352936309 0 -0.25248591198242182 0.44780379583617902 0 -0.26690113126654152 0.43989758352936309 0 -0.25248591198242182 0.44780379583617902 0 -0.26230016254644561 0.45259107837812018 0 -0.26398732074883702 0.5 0 -0.26496372408343338 0.482822707195115 0 -0.24587816425209749 0.47791800182874661 0 -0.27059216325780638 0.46803734719674528 0 -0.24587816425209749 0.47791800182874661 0 -0.27059216325780638 0.46803734719674528 0 -0.24587816425209749 0.47791800182874661 0 -0.249519752518849 0.46534751356359688 0 -0.27059216325780638 0.46803734719674528 0 -0.26496372408343338 0.482822707195115 0 -0.24587816425209749 0.47791800182874661 0 -0.27059216325780638 0.46803734719674528 0 -0.27939724807499239 0.48533547975496788 0 -0.29226531035387632 0.47080386312685568 0 -0.27059216325780638 0.46803734719674528 0 -0.26496372408343338 0.482822707195115 0 -0.27939724807499239 0.48533547975496788 0 -0.26398732074883702 0.5 0 -0.26496372408343338 0.482822707195115 0 -0.27939724807499239 0.48533547975496788 0 -0.26398732074883702 0.5 0 -0.27939724807499239 0.48533547975496788 0 -0.29211364515210148 0.5 0 -0.27939724807499239 0.48533547975496788 0 -0.29211364515210148 0.5 0 -0.30356887440646818 0.48582937992445469 0 -0.27059216325780638 0.46803734719674528 0 -0.29226531035387632 0.47080386312685568 0 -0.27939724807499239 0.48533547975496788 0 -0.29226531035387632 0.47080386312685568 0 -0.30356887440646818 0.48582937992445469 0 -0.29226531035387632 0.47080386312685568 0 -0.30356887440646818 0.48582937992445469 0 -0.31393845744994608 0.47357037905696658 0 -0.29226531035387632 0.47080386312685568 0 -0.31393845744994608 0.47357037905696658 0 -0.29211364515210148 0.5 0 -0.30356887440646818 0.48582937992445469 0 -0.32023996955536582 0.5 0 -0.30356887440646818 0.48582937992445469 0 -0.32351970576273442 0.48453839243129748 0 -0.32023996955536582 0.5 0 -0.32023996955536582 0.5 0 -0.34113012699848438 0.48658622732227919 0 -0.34836629395863022 0.49999999999999739 0 -0.32351970576273442 0.48453839243129748 0 -0.32023996955536582 0.5 0 -0.34113012699848438 0.48658622732227919 0 -0.34113012699848438 0.48658622732227919 0 -0.33561160454601602 0.47633689498707771 0 -0.35209043948934848 0.4757500381310853 0 -0.32351970576273442 0.48453839243129748 0 -0.34113012699848438 0.48658622732227919 0 -0.33561160454601602 0.47633689498707771 0 -0.33561160454601602 0.47633689498707771 0 -0.33321689701389767 0.46500314322185282 0 -0.34380111098019239 0.46763201471608229 0 -0.33561160454601602 0.47633689498707771 0 -0.32558829652960369 0.47347411421109997 0 -0.33321689701389767 0.46500314322185282 0 -0.33561160454601602 0.47633689498707771 0 -0.31393845744994608 0.47357037905696658 0 -0.30356887440646818 0.48582937992445469 0 -0.32351970576273442 0.48453839243129748 0 -0.31393845744994608 0.47357037905696658 0 -0.33561160454601602 0.47633689498707771 0 -0.32558829652960369 0.47347411421109997 0 -0.31393845744994608 0.47357037905696658 0 -0.32351970576273442 0.48453839243129748 0 -0.33561160454601602 0.47633689498707771 0 -0.31393845744994608 0.47357037905696658 0 -0.32558829652960369 0.47347411421109997 0 -0.31898737378121678 0.45665578907429988 0 -0.33321689701389767 0.46500314322185282 0 -0.32558829652960369 0.47347411421109997 0 -0.31898737378121678 0.45665578907429988 0 -0.32558829652960369 0.47347411421109997 0 -0.31393845744994608 0.47357037905696658 0 -0.31898737378121678 0.45665578907429988 0 -0.31898737378121678 0.45665578907429988 0 -0.31628461876079678 0.44976950749954431 0 -0.32093095930391929 0.43642167085478178 0 -0.30927833808713578 0.43191838109484337 0 -0.31628461876079678 0.44976950749954431 0 -0.30927833808713578 0.43191838109484337 0 -0.31628461876079678 0.44976950749954431 0 -0.32093095930391929 0.43642167085478178 0 -0.31885740686897651 0.4487409070398467 0 -0.31628461876079678 0.44976950749954431 0 -0.31898737378121678 0.45665578907429988 0 -0.31885740686897651 0.4487409070398467 0 -0.31628461876079678 0.44976950749954431 0 -0.31885740686897651 0.4487409070398467 0 -0.31628461876079678 0.44976950749954431 0 -0.31898737378121678 0.45665578907429988 0 -0.31885740686897651 0.4487409070398467 0 -0.3268707649042577 0.44618849772198849 0 -0.32093095930391929 0.43642167085478178 0 -0.31885740686897651 0.4487409070398467 0 -0.3268707649042577 0.44618849772198849 0 -0.33633629923941899 0.43518131269639948 0 -0.32093095930391929 0.43642167085478178 0 -0.3268707649042577 0.44618849772198849 0 -0.33633629923941899 0.43518131269639948 0 -0.33924178532775667 0.45394280894461492 0 -0.35361369848635799 0.43800335192403661 0 -0.31898737378121678 0.45665578907429988 0 -0.3268707649042577 0.44618849772198849 0 -0.33924178532775667 0.45394280894461492 0 -0.33633629923941899 0.43518131269639948 0 -0.3268707649042577 0.44618849772198849 0 -0.33924178532775667 0.45394280894461492 0 -0.31898737378121678 0.45665578907429988 0 -0.33924178532775667 0.45394280894461492 0 -0.31898737378121678 0.45665578907429988 0 -0.33321689701389767 0.46500314322185282 0 -0.33924178532775667 0.45394280894461492 0 -0.33321689701389767 0.46500314322185282 0 -0.33924178532775667 0.45394280894461492 0 -0.34380111098019239 0.46763201471608229 0 -0.33924178532775667 0.45394280894461492 0 -0.34380111098019239 0.46763201471608229 0 -0.35983171139501019 0.4611908791120482 0 -0.34380111098019239 0.46763201471608229 0 -0.35983171139501019 0.4611908791120482 0 -0.35209043948934848 0.4757500381310853 0 -0.33924178532775667 0.45394280894461492 0 -0.35361369848635799 0.43800335192403661 0 -0.35983171139501019 0.4611908791120482 0 -0.35361369848635799 0.43800335192403661 0 -0.37489403839079338 0.43950072697020498 0 -0.35983171139501019 0.4611908791120482 0 -0.37489403839079338 0.43950072697020498 0 -0.35983171139501019 0.4611908791120482 0 -0.38553920339899761 0.46578407676844108 0 -0.37489403839079338 0.43950072697020498 0 -0.35983171139501019 0.4611908791120482 0 -0.35983171139501019 0.4611908791120482 0 -0.36695274867881322 0.48289203838421862 0 -0.35209043948934848 0.4757500381310853 0 -0.38553920339899761 0.46578407676844108 0 -0.35983171139501019 0.4611908791120482 0 -0.36695274867881322 0.48289203838421862 0 -0.34113012699848438 0.48658622732227919 0 -0.36695274867881322 0.48289203838421862 0 -0.34836629395863022 0.49999999999999739 0 -0.36695274867881322 0.48289203838421862 0 -0.34836629395863022 0.49999999999999739 0 -0.34113012699848438 0.48658622732227919 0 -0.36695274867881322 0.48289203838421862 0 -0.35209043948934848 0.4757500381310853 0 -0.33561160454601602 0.47633689498707771 0 -0.34380111098019239 0.46763201471608229 0 -0.35209043948934848 0.4757500381310853 0 -0.1486542777455184 0.47240210439658142 0 -0.1514820231357796 0.5 0 -0.13342404496474669 0.48359689433772451 0 -0.1486542777455184 0.47240210439658142 0 -0.1514820231357796 0.5 0 -0.16850886781212809 0.48147889855977322 0 -0.1514820231357796 0.5 0 -0.13342404496474669 0.48359689433772451 0 -0.1233556987325153 0.500000000000002 0 -0.13342404496474669 0.48359689433772451 0 -0.1284912810098896 0.46061049792051179 0 -0.1160513369047796 0.47779819563788761 0 -0.1486542777455184 0.47240210439658142 0 -0.13342404496474669 0.48359689433772451 0 -0.1284912810098896 0.46061049792051179 0 -0.1284912810098896 0.46061049792051179 0 -0.13504435329859041 0.44177423840871038 0 -0.14897406679607569 0.45302239944375561 0 -0.1284912810098896 0.46061049792051179 0 -0.13504435329859041 0.44177423840871038 0 -0.11882193292102521 0.44007033405516061 0 -0.14897406679607569 0.45302239944375561 0 -0.1646982177268998 0.44481709262172131 0 -0.1478396422629667 0.42919514168036049 0 -0.13504435329859041 0.44177423840871038 0 -0.14897406679607569 0.45302239944375561 0 -0.1478396422629667 0.42919514168036049 0 -0.1486542777455184 0.47240210439658142 0 -0.1284912810098896 0.46061049792051179 0 -0.14897406679607569 0.45302239944375561 0 -0.1486542777455184 0.47240210439658142 0 -0.14897406679607569 0.45302239944375561 0 -0.16894914511477571 0.4640155562020144 0 -0.14897406679607569 0.45302239944375561 0 -0.16894914511477571 0.4640155562020144 0 -0.1646982177268998 0.44481709262172131 0 -0.16894914511477571 0.4640155562020144 0 -0.1646982177268998 0.44481709262172131 0 -0.18137008131297891 0.45105696666730871 0 -0.1646982177268998 0.44481709262172131 0 -0.18137008131297891 0.45105696666730871 0 -0.18615861049797031 0.4297530366275425 0 -0.16894914511477571 0.4640155562020144 0 -0.18137008131297891 0.45105696666730871 0 -0.18904954508157901 0.465706314989911 0 -0.18092062201081349 0.47663675777843117 0 -0.16850886781212809 0.48147889855977322 0 -0.18435272034412839 0.48741376599942893 0 -0.16894914511477571 0.4640155562020144 0 -0.18092062201081349 0.47663675777843117 0 -0.18904954508157901 0.465706314989911 0 -0.16894914511477571 0.4640155562020144 0 -0.18092062201081349 0.47663675777843117 0 -0.16850886781212809 0.48147889855977322 0 -0.18092062201081349 0.47663675777843117 0 -0.18435272034412839 0.48741376599942893 0 -0.19694211559600891 0.48040665452018277 0 -0.1486542777455184 0.47240210439658142 0 -0.16894914511477571 0.4640155562020144 0 -0.16850886781212809 0.48147889855977322 0 -0.1514820231357796 0.5 0 -0.16850886781212809 0.48147889855977322 0 -0.17960834753904401 0.5 0 -0.16850886781212809 0.48147889855977322 0 -0.18435272034412839 0.48741376599942893 0 -0.17960834753904401 0.5 0 -0.18435272034412839 0.48741376599942893 0 -0.17960834753904401 0.5 0 -0.19645016624067921 0.49767931109274749 0 -0.17960834753904401 0.5 0 -0.19645016624067921 0.49767931109274749 0 -0.2077346719423083 0.5 0 -0.19645016624067921 0.49767931109274749 0 -0.19694211559600891 0.48040665452018277 0 -0.20931070740636079 0.48242048470588722 0 -0.18435272034412839 0.48741376599942893 0 -0.19645016624067921 0.49767931109274749 0 -0.19694211559600891 0.48040665452018277 0 -0.18092062201081349 0.47663675777843117 0 -0.19694211559600891 0.48040665452018277 0 -0.18904954508157901 0.465706314989911 0 -0.19694211559600891 0.48040665452018277 0 -0.19986988424721019 0.46947961047108339 0 -0.18904954508157901 0.465706314989911 0 -0.19694211559600891 0.48040665452018277 0 -0.19986988424721019 0.46947961047108339 0 -0.21104254055199781 0.47118144991886468 0 -0.19694211559600891 0.48040665452018277 0 -0.20931070740636079 0.48242048470588722 0 -0.21104254055199781 0.47118144991886468 0 -0.20931070740636079 0.48242048470588722 0 -0.22116416524638849 0.48779865646074699 0 -0.22095454939672951 0.47503635153689422 0 -0.21104254055199781 0.47118144991886468 0 -0.22095454939672951 0.47503635153689422 0 -0.21871804100350259 0.46320891291945582 0 -0.20931070740636079 0.48242048470588722 0 -0.21104254055199781 0.47118144991886468 0 -0.22095454939672951 0.47503635153689422 0 -0.19645016624067921 0.49767931109274749 0 -0.2077346719423083 0.5 0 -0.22116416524638849 0.48779865646074699 0 -0.19645016624067921 0.49767931109274749 0 -0.22116416524638849 0.48779865646074699 0 -0.19645016624067921 0.49767931109274749 0 -0.20931070740636079 0.48242048470588722 0 -0.22116416524638849 0.48779865646074699 0 -0.2077346719423083 0.5 0 -0.22116416524638849 0.48779865646074699 0 -0.2358609963455727 0.5 0 -0.22116416524638849 0.48779865646074699 0 -0.24587816425209749 0.47791800182874661 0 -0.2358609963455727 0.5 0 -0.22116416524638849 0.48779865646074699 0 -0.24587816425209749 0.47791800182874661 0 -0.22116416524638849 0.48779865646074699 0 -0.2315641190659406 0.47528156196728882 0 -0.24587816425209749 0.47791800182874661 0 -0.22116416524638849 0.48779865646074699 0 -0.22095454939672951 0.47503635153689422 0 -0.2315641190659406 0.47528156196728882 0 -0.2315641190659406 0.47528156196728882 0 -0.23992268638202019 0.46938002253668337 0 -0.22990103005246729 0.4662747774733732 0 -0.22095454939672951 0.47503635153689422 0 -0.2315641190659406 0.47528156196728882 0 -0.22990103005246729 0.4662747774733732 0 -0.2315641190659406 0.47528156196728882 0 -0.23992268638202019 0.46938002253668337 0 -0.24587816425209749 0.47791800182874661 0 -0.23992268638202019 0.46938002253668337 0 -0.24587816425209749 0.47791800182874661 0 -0.249519752518849 0.46534751356359688 0 -0.26398732074883702 0.5 0 -0.24587816425209749 0.47791800182874661 0 -0.2358609963455727 0.5 0 -0.23867550124788989 0.44370174137903828 0 -0.24180200025476681 0.45808848846751771 0 -0.22842307364671191 0.45465167448107768 0 -0.252666784821232 0.43355797749915848 0 -0.25248591198242182 0.44780379583617902 0 -0.23867550124788989 0.44370174137903828 0 -0.25248591198242182 0.44780379583617902 0 -0.23867550124788989 0.44370174137903828 0 -0.24180200025476681 0.45808848846751771 0 -0.25440886012655822 0.45798953383452051 0 -0.249519752518849 0.46534751356359688 0 -0.24180200025476681 0.45808848846751771 0 -0.25440886012655822 0.45798953383452051 0 -0.25248591198242182 0.44780379583617902 0 -0.24180200025476681 0.45808848846751771 0 -0.23992268638202019 0.46938002253668337 0 -0.249519752518849 0.46534751356359688 0 -0.24180200025476681 0.45808848846751771 0 -0.23992268638202019 0.46938002253668337 0 -0.24180200025476681 0.45808848846751771 0 -0.22990103005246729 0.4662747774733732 0 -0.24180200025476681 0.45808848846751771 0 -0.22842307364671191 0.45465167448107768 0 -0.22990103005246729 0.4662747774733732 0 -0.22095454939672951 0.47503635153689422 0 -0.22990103005246729 0.4662747774733732 0 -0.21871804100350259 0.46320891291945582 0 -0.22842307364671191 0.45465167448107768 0 -0.22990103005246729 0.4662747774733732 0 -0.21871804100350259 0.46320891291945582 0 -0.22842307364671191 0.45465167448107768 0 -0.2162236656790166 0.45242685629149321 0 -0.21871804100350259 0.46320891291945582 0 -0.22842307364671191 0.45465167448107768 0 -0.22521820364262851 0.44420927035558838 0 -0.2162236656790166 0.45242685629149321 0 -0.23867550124788989 0.44370174137903828 0 -0.22842307364671191 0.45465167448107768 0 -0.22521820364262851 0.44420927035558838 0 -0.23867550124788989 0.44370174137903828 0 -0.22521820364262851 0.44420927035558838 0 -0.230015903436289 0.43239789259540812 0 -0.22521820364262851 0.44420927035558838 0 -0.20880363166666341 0.44188824805370353 0 -0.21993873049804619 0.43400585271975051 0 -0.2162236656790166 0.45242685629149321 0 -0.20880363166666341 0.44188824805370353 0 -0.20511563780807951 0.45945112672670202 0 -0.22521820364262851 0.44420927035558838 0 -0.2162236656790166 0.45242685629149321 0 -0.20880363166666341 0.44188824805370353 0 -0.20880363166666341 0.44188824805370353 0 -0.20511563780807951 0.45945112672670202 0 -0.1957251785527335 0.44675053107413693 0 -0.21104254055199781 0.47118144991886468 0 -0.21871804100350259 0.46320891291945582 0 -0.20511563780807951 0.45945112672670202 0 -0.2162236656790166 0.45242685629149321 0 -0.21871804100350259 0.46320891291945582 0 -0.20511563780807951 0.45945112672670202 0 -0.19986988424721019 0.46947961047108339 0 -0.21104254055199781 0.47118144991886468 0 -0.20511563780807951 0.45945112672670202 0 -0.19986988424721019 0.46947961047108339 0 -0.20511563780807951 0.45945112672670202 0 -0.18904954508157901 0.465706314989911 0 -0.20511563780807951 0.45945112672670202 0 -0.18904954508157901 0.465706314989911 0 -0.1957251785527335 0.44675053107413693 0 -0.18137008131297891 0.45105696666730871 0 -0.18904954508157901 0.465706314989911 0 -0.1957251785527335 0.44675053107413693 0 -0.18137008131297891 0.45105696666730871 0 -0.1957251785527335 0.44675053107413693 0 -0.18615861049797031 0.4297530366275425 0 -0.20880363166666341 0.44188824805370353 0 -0.1957251785527335 0.44675053107413693 0 -0.202718710153662 0.43052634246904509 0 -0.202718710153662 0.43052634246904509 0 -0.20761900326904081 0.41468898063336379 0 -0.18615861049797031 0.4297530366275425 0 -0.20761900326904081 0.41468898063336379 0 -0.18615861049797031 0.4297530366275425 0 -0.1957251785527335 0.44675053107413693 0 -0.202718710153662 0.43052634246904509 0 -0.18615861049797031 0.4297530366275425 0 -0.1912411771321943 0.40764097305946151 0 -0.2031699306857607 0.40663902225089887 0 -0.20761900326904081 0.41468898063336379 0 -0.1912411771321943 0.40764097305946151 0 -0.20761900326904081 0.41468898063336379 0 -0.18615861049797031 0.4297530366275425 0 -0.20761900326904081 0.41468898063336379 0 -0.21221478725677259 0.41693739761733911 0 -0.22907939604011121 0.39962492463918509 0 -0.20761900326904081 0.41468898063336379 0 -0.22907939604011121 0.39962492463918509 0 -0.20761900326904081 0.41468898063336379 0 -0.22907939604011121 0.39962492463918509 0 -0.21416507487557659 0.40619365823146142 0 -0.20827604180770079 0.40817117323669472 0 -0.20761900326904081 0.41468898063336379 0 -0.21416507487557659 0.40619365823146142 0 -0.20827604180770079 0.40817117323669472 0 -0.2031699306857607 0.40663902225089887 0 -0.20761900326904081 0.41468898063336379 0 -0.20761900326904081 0.41468898063336379 0 -0.21221478725677259 0.41693739761733911 0 -0.21196781097747 0.42687725291505291 0 -0.2158933205783313 0.42164640507190038 0 -0.21221478725677259 0.41693739761733911 0 -0.21196781097747 0.42687725291505291 0 -0.21221478725677259 0.41693739761733911 0 -0.2197822332329025 0.41846346371071041 0 -0.2235524525851825 0.41224325125742362 0 -0.2158933205783313 0.42164640507190038 0 -0.21221478725677259 0.41693739761733911 0 -0.2197822332329025 0.41846346371071041 0 -0.202718710153662 0.43052634246904509 0 -0.20761900326904081 0.41468898063336379 0 -0.21196781097747 0.42687725291505291 0 -0.20880363166666341 0.44188824805370353 0 -0.202718710153662 0.43052634246904509 0 -0.21196781097747 0.42687725291505291 0 -0.2158933205783313 0.42164640507190038 0 -0.21196781097747 0.42687725291505291 0 -0.22167959173927421 0.42375302754423338 0 -0.21196781097747 0.42687725291505291 0 -0.21993873049804619 0.43400585271975051 0 -0.22167959173927421 0.42375302754423338 0 -0.20880363166666341 0.44188824805370353 0 -0.21196781097747 0.42687725291505291 0 -0.21993873049804619 0.43400585271975051 0 -0.21993873049804619 0.43400585271975051 0 -0.230015903436289 0.43239789259540812 0 -0.22167959173927421 0.42375302754423338 0 -0.22521820364262851 0.44420927035558838 0 -0.21993873049804619 0.43400585271975051 0 -0.230015903436289 0.43239789259540812 0 -0.230015903436289 0.43239789259540812 0 -0.22167959173927421 0.42375302754423338 0 -0.23315118619161379 0.42126926327747938 0 -0.2158933205783313 0.42164640507190038 0 -0.22167959173927421 0.42375302754423338 0 -0.2197822332329025 0.41846346371071041 0 -0.21221478725677259 0.41693739761733911 0 -0.2235524525851825 0.41224325125742362 0 -0.22907939604011121 0.39962492463918509 0 -0.21221478725677259 0.41693739761733911 0 -0.22907939604011121 0.39962492463918509 0 -0.22167959173927421 0.42375302754423338 0 -0.2197822332329025 0.41846346371071041 0 -0.22586790920178329 0.41765775333268612 0 -0.2197822332329025 0.41846346371071041 0 -0.22586790920178329 0.41765775333268612 0 -0.2235524525851825 0.41224325125742362 0 -0.22586790920178329 0.41765775333268612 0 -0.2235524525851825 0.41224325125742362 0 -0.23335105074650639 0.4104126384881091 0 -0.2235524525851825 0.41224325125742362 0 -0.23335105074650639 0.4104126384881091 0 -0.22907939604011121 0.39962492463918509 0 -0.22167959173927421 0.42375302754423338 0 -0.22586790920178329 0.41765775333268612 0 -0.23315118619161379 0.42126926327747938 0 -0.22586790920178329 0.41765775333268612 0 -0.23335105074650639 0.4104126384881091 0 -0.23315118619161379 0.42126926327747938 0 -0.25196702190848791 0.41778156226020252 0 -0.23335105074650639 0.4104126384881091 0 -0.24732343066571391 0.4021496581134385 0 -0.25196702190848791 0.41778156226020252 0 -0.23335105074650639 0.4104126384881091 0 -0.23315118619161379 0.42126926327747938 0 -0.252666784821232 0.43355797749915848 0 -0.25196702190848791 0.41778156226020252 0 -0.2412952795211025 0.42974168740225738 0 -0.25196702190848791 0.41778156226020252 0 -0.23315118619161379 0.42126926327747938 0 -0.2412952795211025 0.42974168740225738 0 -0.252666784821232 0.43355797749915848 0 -0.23867550124788989 0.44370174137903828 0 -0.2412952795211025 0.42974168740225738 0 -0.23867550124788989 0.44370174137903828 0 -0.230015903436289 0.43239789259540812 0 -0.2412952795211025 0.42974168740225738 0 -0.230015903436289 0.43239789259540812 0 -0.23315118619161379 0.42126926327747938 0 -0.2412952795211025 0.42974168740225738 0 -0.24525238761034601 0.38495067020875889 0 -0.22907939604011121 0.39962492463918509 0 -0.2307581695802714 0.38471055770831808 0 -0.26177118778713282 0.36895730650446878 0 -0.24525238761034601 0.38495067020875889 0 -0.23563538281485019 0.37254807472806067 0 -0.24525238761034601 0.38495067020875889 0 -0.2307581695802714 0.38471055770831808 0 -0.23563538281485019 0.37254807472806067 0 -0.23335105074650639 0.4104126384881091 0 -0.24732343066571391 0.4021496581134385 0 -0.22907939604011121 0.39962492463918509 0 -0.24525238761034601 0.38495067020875889 0 -0.22907939604011121 0.39962492463918509 0 -0.24525238761034601 0.38495067020875889 0 -0.24732343066571391 0.4021496581134385 0 -0.22907939604011121 0.39962492463918509 0 -0.22907939604011121 0.39962492463918509 0 -0.22584720065269609 0.39183327614616481 0 -0.2307581695802714 0.38471055770831808 0 -0.22907939604011121 0.39962492463918509 0 -0.21881815653723249 0.40192460209078967 0 -0.22128773641503219 0.39834629595024451 0 -0.22907939604011121 0.39962492463918509 0 -0.21881815653723249 0.40192460209078967 0 -0.21416507487557659 0.40619365823146142 0 -0.21881815653723249 0.40192460209078967 0 -0.22128773641503219 0.39834629595024451 0 -0.21717657646183061 0.39936022037307278 0 -0.22584720065269609 0.39183327614616481 0 -0.22370196988197399 0.39621773066840238 0 -0.22150664664027189 0.39261667777796638 0 -0.22907939604011121 0.39962492463918509 0 -0.22584720065269609 0.39183327614616481 0 -0.22370196988197399 0.39621773066840238 0 -0.22907939604011121 0.39962492463918509 0 -0.22370196988197399 0.39621773066840238 0 -0.22128773641503219 0.39834629595024451 0 -0.22370196988197399 0.39621773066840238 0 -0.22114606226096009 0.39568691764726982 0 -0.22150664664027189 0.39261667777796638 0 -0.22128773641503219 0.39834629595024451 0 -0.21717657646183061 0.39936022037307278 0 -0.2180878961065626 0.39556696619246612 0 -0.22370196988197399 0.39621773066840238 0 -0.22114606226096009 0.39568691764726982 0 -0.22128773641503219 0.39834629595024451 0 -0.22114606226096009 0.39568691764726982 0 -0.22128773641503219 0.39834629595024451 0 -0.2180878961065626 0.39556696619246612 0 -0.22114606226096009 0.39568691764726982 0 -0.22150664664027189 0.39261667777796638 0 -0.2180878961065626 0.39556696619246612 0 -0.22150664664027189 0.39261667777796638 0 -0.2184725223795605 0.39001607106668768 0 -0.2180878961065626 0.39556696619246612 0 -0.22150664664027189 0.39261667777796638 0 -0.22194732128342931 0.38575672364325803 0 -0.2184725223795605 0.39001607106668768 0 -0.22584720065269609 0.39183327614616481 0 -0.22194732128342931 0.38575672364325803 0 -0.2307581695802714 0.38471055770831808 0 -0.22584720065269609 0.39183327614616481 0 -0.22150664664027189 0.39261667777796638 0 -0.22194732128342931 0.38575672364325803 0 -0.2307581695802714 0.38471055770831808 0 -0.22509377782666529 0.37782239867652229 0 -0.23563538281485019 0.37254807472806067 0 -0.22194732128342931 0.38575672364325803 0 -0.2307581695802714 0.38471055770831808 0 -0.22509377782666529 0.37782239867652229 0 -0.22194732128342931 0.38575672364325803 0 -0.22509377782666529 0.37782239867652229 0 -0.2163421519410437 0.37909580593752468 0 -0.2163421519410437 0.37909580593752468 0 -0.20773233722505699 0.38354872020042691 0 -0.20919161478380979 0.37588158656744669 0 -0.22194732128342931 0.38575672364325803 0 -0.2163421519410437 0.37909580593752468 0 -0.21467459712679479 0.38711515491820597 0 -0.2163421519410437 0.37909580593752468 0 -0.21467459712679479 0.38711515491820597 0 -0.20773233722505699 0.38354872020042691 0 -0.2184725223795605 0.39001607106668768 0 -0.21467459712679479 0.38711515491820597 0 -0.2134244908464917 0.39338078761941592 0 -0.22194732128342931 0.38575672364325803 0 -0.2184725223795605 0.39001607106668768 0 -0.21467459712679479 0.38711515491820597 0 -0.21467459712679479 0.38711515491820597 0 -0.2134244908464917 0.39338078761941592 0 -0.207245332172632 0.39133828085674049 0 -0.21467459712679479 0.38711515491820597 0 -0.20773233722505699 0.38354872020042691 0 -0.207245332172632 0.39133828085674049 0 -0.20773233722505699 0.38354872020042691 0 -0.207245332172632 0.39133828085674049 0 -0.2001371827169747 0.38988682412030751 0 -0.20773233722505699 0.38354872020042691 0 -0.20919161478380979 0.37588158656744669 0 -0.20010226131178371 0.38186666766672778 0 -0.20919161478380979 0.37588158656744669 0 -0.20010226131178371 0.38186666766672778 0 -0.20308038864897479 0.36745576381125611 0 -0.21416507487557659 0.40619365823146142 0 -0.2144175763134131 0.40211497069208768 0 -0.2087771028304394 0.40317407303860747 0 -0.21881815653723249 0.40192460209078967 0 -0.21416507487557659 0.40619365823146142 0 -0.2144175763134131 0.40211497069208768 0 -0.21881815653723249 0.40192460209078967 0 -0.21717657646183061 0.39936022037307278 0 -0.2144175763134131 0.40211497069208768 0 -0.21717657646183061 0.39936022037307278 0 -0.21327151693691271 0.39884826693977599 0 -0.2144175763134131 0.40211497069208768 0 -0.21327151693691271 0.39884826693977599 0 -0.2144175763134131 0.40211497069208768 0 -0.2087771028304394 0.40317407303860747 0 -0.21327151693691271 0.39884826693977599 0 -0.2134244908464917 0.39338078761941592 0 -0.20873686896265811 0.39733303202405462 0 -0.21717657646183061 0.39936022037307278 0 -0.21327151693691271 0.39884826693977599 0 -0.2180878961065626 0.39556696619246612 0 -0.21327151693691271 0.39884826693977599 0 -0.2180878961065626 0.39556696619246612 0 -0.2134244908464917 0.39338078761941592 0 -0.2184725223795605 0.39001607106668768 0 -0.2180878961065626 0.39556696619246612 0 -0.2134244908464917 0.39338078761941592 0 -0.207245332172632 0.39133828085674049 0 -0.20873686896265811 0.39733303202405462 0 -0.20013883454328549 0.39897247323236368 0 -0.2134244908464917 0.39338078761941592 0 -0.207245332172632 0.39133828085674049 0 -0.20873686896265811 0.39733303202405462 0 -0.20873686896265811 0.39733303202405462 0 -0.2087771028304394 0.40317407303860747 0 -0.20013883454328549 0.39897247323236368 0 -0.2031699306857607 0.40663902225089887 0 -0.2087771028304394 0.40317407303860747 0 -0.20013883454328549 0.39897247323236368 0 -0.21327151693691271 0.39884826693977599 0 -0.20873686896265811 0.39733303202405462 0 -0.2087771028304394 0.40317407303860747 0 -0.20827604180770079 0.40817117323669472 0 -0.2031699306857607 0.40663902225089887 0 -0.2087771028304394 0.40317407303860747 0 -0.20827604180770079 0.40817117323669472 0 -0.21416507487557659 0.40619365823146142 0 -0.2087771028304394 0.40317407303860747 0 -0.1912411771321943 0.40764097305946151 0 -0.20013883454328549 0.39897247323236368 0 -0.1909519446552185 0.38940864696280869 0 -0.1912411771321943 0.40764097305946151 0 -0.2031699306857607 0.40663902225089887 0 -0.20013883454328549 0.39897247323236368 0 -0.207245332172632 0.39133828085674049 0 -0.20013883454328549 0.39897247323236368 0 -0.2001371827169747 0.38988682412030751 0 -0.20013883454328549 0.39897247323236368 0 -0.2001371827169747 0.38988682412030751 0 -0.1909519446552185 0.38940864696280869 0 -0.20010226131178371 0.38186666766672778 0 -0.1909519446552185 0.38940864696280869 0 -0.19382790623449039 0.37222369241385778 0 -0.1909519446552185 0.38940864696280869 0 -0.18029902899573891 0.37880666828367082 0 -0.19382790623449039 0.37222369241385778 0 -0.20010226131178371 0.38186666766672778 0 -0.2001371827169747 0.38988682412030751 0 -0.1909519446552185 0.38940864696280869 0 -0.20773233722505699 0.38354872020042691 0 -0.20010226131178371 0.38186666766672778 0 -0.2001371827169747 0.38988682412030751 0 -0.18029902899573891 0.37880666828367082 0 -0.16390522358975629 0.37594239741644858 0 -0.17329665880778761 0.39843491040071449 0 -0.1909519446552185 0.38940864696280869 0 -0.18029902899573891 0.37880666828367082 0 -0.17329665880778761 0.39843491040071449 0 -0.16390522358975629 0.37594239741644858 0 -0.17329665880778761 0.39843491040071449 0 -0.1540603086334571 0.39084145582231972 0 -0.17329665880778761 0.39843491040071449 0 -0.15219927838888611 0.40774036780412942 0 -0.1540603086334571 0.39084145582231972 0 -0.1912411771321943 0.40764097305946151 0 -0.1909519446552185 0.38940864696280869 0 -0.17329665880778761 0.39843491040071449 0 -0.1788918795213624 0.41510304088369471 0 -0.18615861049797031 0.4297530366275425 0 -0.16451359946343 0.42046892505399192 0 -0.17329665880778761 0.39843491040071449 0 -0.1788918795213624 0.41510304088369471 0 -0.16451359946343 0.42046892505399192 0 -0.1912411771321943 0.40764097305946151 0 -0.17329665880778761 0.39843491040071449 0 -0.1788918795213624 0.41510304088369471 0 -0.1912411771321943 0.40764097305946151 0 -0.1788918795213624 0.41510304088369471 0 -0.18615861049797031 0.4297530366275425 0 -0.1646982177268998 0.44481709262172131 0 -0.18615861049797031 0.4297530366275425 0 -0.1646982177268998 0.44481709262172131 0 -0.18615861049797031 0.4297530366275425 0 -0.16451359946343 0.42046892505399192 0 -0.1646982177268998 0.44481709262172131 0 -0.16451359946343 0.42046892505399192 0 -0.1478396422629667 0.42919514168036049 0 -0.17329665880778761 0.39843491040071449 0 -0.16451359946343 0.42046892505399192 0 -0.15219927838888611 0.40774036780412942 0 -0.15219927838888611 0.40774036780412942 0 -0.1478396422629667 0.42919514168036049 0 -0.1374626360326773 0.41342560658211253 0 -0.16451359946343 0.42046892505399192 0 -0.15219927838888611 0.40774036780412942 0 -0.1478396422629667 0.42919514168036049 0 -0.13504435329859041 0.44177423840871038 0 -0.1478396422629667 0.42919514168036049 0 -0.1320167165840177 0.42802155391055707 0 -0.1478396422629667 0.42919514168036049 0 -0.1320167165840177 0.42802155391055707 0 -0.1374626360326773 0.41342560658211253 0 -0.13504435329859041 0.44177423840871038 0 -0.1320167165840177 0.42802155391055707 0 -0.11882193292102521 0.44007033405516061 0 -0.1320167165840177 0.42802155391055707 0 -0.1374626360326773 0.41342560658211253 0 -0.11909820816040161 0.41987908030122828 0 -0.1374626360326773 0.41342560658211253 0 -0.1201439459440314 0.40447665194619031 0 -0.11909820816040161 0.41987908030122828 0 -0.1374626360326773 0.41342560658211253 0 -0.13602282513299799 0.39407616728527761 0 -0.1201439459440314 0.40447665194619031 0 -0.13602282513299799 0.39407616728527761 0 -0.1198287386442226 0.39066800155138681 0 -0.1201439459440314 0.40447665194619031 0 -0.13602282513299799 0.39407616728527761 0 -0.12503067725984579 0.37635245263907119 0 -0.1198287386442226 0.39066800155138681 0 -0.13602282513299799 0.39407616728527761 0 -0.12503067725984579 0.37635245263907119 0 -0.14117286914067359 0.37445053662241468 0 -0.16390522358975629 0.37594239741644858 0 -0.1540603086334571 0.39084145582231972 0 -0.14117286914067359 0.37445053662241468 0 -0.13602282513299799 0.39407616728527761 0 -0.1540603086334571 0.39084145582231972 0 -0.14117286914067359 0.37445053662241468 0 -0.15219927838888611 0.40774036780412942 0 -0.13602282513299799 0.39407616728527761 0 -0.1540603086334571 0.39084145582231972 0 -0.15219927838888611 0.40774036780412942 0 -0.1374626360326773 0.41342560658211253 0 -0.13602282513299799 0.39407616728527761 0 -0.15328455126395649 0.35352258472700221 0 -0.13121264691085971 0.35844226380569461 0 -0.13913742663331341 0.33597117898434109 0 -0.15328455126395649 0.35352258472700221 0 -0.14117286914067359 0.37445053662241468 0 -0.13121264691085971 0.35844226380569461 0 -0.16390522358975629 0.37594239741644858 0 -0.15328455126395649 0.35352258472700221 0 -0.14117286914067359 0.37445053662241468 0 -0.15328455126395649 0.35352258472700221 0 -0.14117286914067359 0.37445053662241468 0 -0.12503067725984579 0.37635245263907119 0 -0.14117286914067359 0.37445053662241468 0 -0.13121264691085971 0.35844226380569461 0 -0.13121264691085971 0.35844226380569461 0 -0.13913742663331341 0.33597117898434109 0 -0.11693281717161021 0.34615147868587898 0 -0.13913742663331341 0.33597117898434109 0 -0.12043594297386789 0.32433371256458959 0 -0.11693281717161021 0.34615147868587898 0 -0.13850833171452731 0.31083178105233822 0 -0.12009488052038909 0.30461566268099483 0 -0.12043594297386789 0.32433371256458959 0 -0.13913742663331341 0.33597117898434109 0 -0.13850833171452731 0.31083178105233822 0 -0.12043594297386789 0.32433371256458959 0 -0.13913742663331341 0.33597117898434109 0 -0.15050285696000959 0.32248176339904611 0 -0.13850833171452731 0.31083178105233822 0 -0.15050285696000959 0.32248176339904611 0 -0.15898130908500299 0.30716427775997152 0 -0.13850833171452731 0.31083178105233822 0 -0.13913742663331341 0.33597117898434109 0 -0.15050285696000959 0.32248176339904611 0 -0.16539623338723941 0.33259463283158969 0 -0.15328455126395649 0.35352258472700221 0 -0.13913742663331341 0.33597117898434109 0 -0.16539623338723941 0.33259463283158969 0 -0.15328455126395649 0.35352258472700221 0 -0.16539623338723941 0.33259463283158969 0 -0.1760132987023294 0.34254150302947722 0 -0.15328455126395649 0.35352258472700221 0 -0.16539623338723941 0.33259463283158969 0 -0.16539623338723941 0.33259463283158969 0 -0.1775079155105222 0.31166668093617711 0 -0.15050285696000959 0.32248176339904611 0 -0.16539623338723941 0.33259463283158969 0 -0.15898130908500299 0.30716427775997152 0 -0.16539623338723941 0.33259463283158969 0 -0.1775079155105222 0.31166668093617711 0 -0.15898130908500299 0.30716427775997152 0 -0.16539623338723941 0.33259463283158969 0 -0.18726212899320741 0.3261536251732618 0 -0.1775079155105222 0.31166668093617711 0 -0.16539623338723941 0.33259463283158969 0 -0.18726212899320741 0.3261536251732618 0 -0.1760132987023294 0.34254150302947722 0 -0.18726212899320741 0.3261536251732618 0 -0.1760132987023294 0.34254150302947722 0 -0.19461016817580229 0.34241297819100808 0 -0.1760132987023294 0.34254150302947722 0 -0.1795134116914415 0.35802369422452429 0 -0.19461016817580229 0.34241297819100808 0 -0.15328455126395649 0.35352258472700221 0 -0.1760132987023294 0.34254150302947722 0 -0.1795134116914415 0.35802369422452429 0 -0.16390522358975629 0.37594239741644858 0 -0.15328455126395649 0.35352258472700221 0 -0.1795134116914415 0.35802369422452429 0 -0.18029902899573891 0.37880666828367082 0 -0.1795134116914415 0.35802369422452429 0 -0.19382790623449039 0.37222369241385778 0 -0.18029902899573891 0.37880666828367082 0 -0.16390522358975629 0.37594239741644858 0 -0.1795134116914415 0.35802369422452429 0 -0.1795134116914415 0.35802369422452429 0 -0.19382790623449039 0.37222369241385778 0 -0.1946178761994268 0.35899196353740259 0 -0.19382790623449039 0.37222369241385778 0 -0.20308038864897479 0.36745576381125611 0 -0.1946178761994268 0.35899196353740259 0 -0.20308038864897479 0.36745576381125611 0 -0.1946178761994268 0.35899196353740259 0 -0.2066438113321438 0.35476172650118099 0 -0.20010226131178371 0.38186666766672778 0 -0.19382790623449039 0.37222369241385778 0 -0.20308038864897479 0.36745576381125611 0 -0.1795134116914415 0.35802369422452429 0 -0.1946178761994268 0.35899196353740259 0 -0.19461016817580229 0.34241297819100808 0 -0.1946178761994268 0.35899196353740259 0 -0.2066438113321438 0.35476172650118099 0 -0.19461016817580229 0.34241297819100808 0 -0.2066438113321438 0.35476172650118099 0 -0.21249779437028191 0.33956793292835452 0 -0.19461016817580229 0.34241297819100808 0 -0.2066438113321438 0.35476172650118099 0 -0.22078586351373169 0.36700083136544992 0 -0.21943480651162869 0.35218725576586529 0 -0.2066438113321438 0.35476172650118099 0 -0.21943480651162869 0.35218725576586529 0 -0.21249779437028191 0.33956793292835452 0 -0.20308038864897479 0.36745576381125611 0 -0.2066438113321438 0.35476172650118099 0 -0.22078586351373169 0.36700083136544992 0 -0.20919161478380979 0.37588158656744669 0 -0.20308038864897479 0.36745576381125611 0 -0.22078586351373169 0.36700083136544992 0 -0.2163421519410437 0.37909580593752468 0 -0.20919161478380979 0.37588158656744669 0 -0.22078586351373169 0.36700083136544992 0 -0.22509377782666529 0.37782239867652229 0 -0.2163421519410437 0.37909580593752468 0 -0.22078586351373169 0.36700083136544992 0 -0.22509377782666529 0.37782239867652229 0 -0.22078586351373169 0.36700083136544992 0 -0.23563538281485019 0.37254807472806067 0 -0.22078586351373169 0.36700083136544992 0 -0.2305021344843296 0.35784100900791621 0 -0.23563538281485019 0.37254807472806067 0 -0.21943480651162869 0.35218725576586529 0 -0.2305021344843296 0.35784100900791621 0 -0.23021533647474809 0.34055791601739482 0 -0.22078586351373169 0.36700083136544992 0 -0.21943480651162869 0.35218725576586529 0 -0.2305021344843296 0.35784100900791621 0 -0.21943480651162869 0.35218725576586529 0 -0.23021533647474809 0.34055791601739482 0 -0.21249779437028191 0.33956793292835452 0 -0.24384427060529501 0.3545231238359528 0 -0.2496340209974976 0.3365858346038833 0 -0.23021533647474809 0.34055791601739482 0 -0.2305021344843296 0.35784100900791621 0 -0.24384427060529501 0.3545231238359528 0 -0.23021533647474809 0.34055791601739482 0 -0.26177118778713282 0.36895730650446878 0 -0.24384427060529501 0.3545231238359528 0 -0.23563538281485019 0.37254807472806067 0 -0.2305021344843296 0.35784100900791621 0 -0.24384427060529501 0.3545231238359528 0 -0.23563538281485019 0.37254807472806067 0 -0.25493623926510711 0.324844285727664 0 -0.23960472737181199 0.31969587710757658 0 -0.2496340209974976 0.3365858346038833 0 -0.23960472737181199 0.31969587710757658 0 -0.2496340209974976 0.3365858346038833 0 -0.23021533647474809 0.34055791601739482 0 -0.23021533647474809 0.34055791601739482 0 -0.22336612372189479 0.32314892354533648 0 -0.21249779437028191 0.33956793292835452 0 -0.23960472737181199 0.31969587710757658 0 -0.22336612372189479 0.32314892354533648 0 -0.22174216284358689 0.3038523936018741 0 -0.23960472737181199 0.31969587710757658 0 -0.23021533647474809 0.34055791601739482 0 -0.22336612372189479 0.32314892354533648 0 -0.22336612372189479 0.32314892354533648 0 -0.20709836610833199 0.32296895793500868 0 -0.22174216284358689 0.3038523936018741 0 -0.22336612372189479 0.32314892354533648 0 -0.20709836610833199 0.32296895793500868 0 -0.21249779437028191 0.33956793292835452 0 -0.20709836610833199 0.32296895793500868 0 -0.21249779437028191 0.33956793292835452 0 -0.19461016817580229 0.34241297819100808 0 -0.18726212899320741 0.3261536251732618 0 -0.20709836610833199 0.32296895793500868 0 -0.19461016817580229 0.34241297819100808 0 -0.18726212899320741 0.3261536251732618 0 -0.20709836610833199 0.32296895793500868 0 -0.20020569435277219 0.30634943792769148 0 -0.18726212899320741 0.3261536251732618 0 -0.20020569435277219 0.30634943792769148 0 -0.1775079155105222 0.31166668093617711 0 -0.20020569435277219 0.30634943792769148 0 -0.18961959763380509 0.29073872904076459 0 -0.1775079155105222 0.31166668093617711 0 -0.20020569435277219 0.30634943792769148 0 -0.18961959763380509 0.29073872904076459 0 -0.20897400402717889 0.2894676610062612 0 -0.18961959763380509 0.29073872904076459 0 -0.20897400402717889 0.2894676610062612 0 -0.20173127975708799 0.26981077714535212 0 -0.20709836610833199 0.32296895793500868 0 -0.20020569435277219 0.30634943792769148 0 -0.22174216284358689 0.3038523936018741 0 -0.20020569435277219 0.30634943792769148 0 -0.20897400402717889 0.2894676610062612 0 -0.22174216284358689 0.3038523936018741 0 -0.23960472737181199 0.31969587710757658 0 -0.22174216284358689 0.3038523936018741 0 -0.2403963738835129 0.30026618568843771 0 -0.22174216284358689 0.3038523936018741 0 -0.2403963738835129 0.30026618568843771 0 -0.22893010893051219 0.27869879907361572 0 -0.20897400402717889 0.2894676610062612 0 -0.22174216284358689 0.3038523936018741 0 -0.22893010893051219 0.27869879907361572 0 -0.2403963738835129 0.30026618568843771 0 -0.24480223757237099 0.28026534034078038 0 -0.22893010893051219 0.27869879907361572 0 -0.25410965780550582 0.29135548743402079 0 -0.2403963738835129 0.30026618568843771 0 -0.24480223757237099 0.28026534034078038 0 -0.26216976785831142 0.31189163922273999 0 -0.23960472737181199 0.31969587710757658 0 -0.2403963738835129 0.30026618568843771 0 -0.2506263941714858 0.24704315055313489 0 -0.25678165399308639 0.27213434924713281 0 -0.24044006788963049 0.26248568527812322 0 -0.25678165399308639 0.27213434924713281 0 -0.24044006788963049 0.26248568527812322 0 -0.24480223757237099 0.28026534034078038 0 -0.24044006788963049 0.26248568527812322 0 -0.24480223757237099 0.28026534034078038 0 -0.22893010893051219 0.27869879907361572 0 -0.24044006788963049 0.26248568527812322 0 -0.22168090821336769 0.25429339660362582 0 -0.2339593849407943 0.23807094887472571 0 -0.24044006788963049 0.26248568527812322 0 -0.22893010893051219 0.27869879907361572 0 -0.22168090821336769 0.25429339660362582 0 -0.22168090821336769 0.25429339660362582 0 -0.20173127975708799 0.26981077714535212 0 -0.2043428464604839 0.2486692865158838 0 -0.22893010893051219 0.27869879907361572 0 -0.22168090821336769 0.25429339660362582 0 -0.20173127975708799 0.26981077714535212 0 -0.20897400402717889 0.2894676610062612 0 -0.22893010893051219 0.27869879907361572 0 -0.20173127975708799 0.26981077714535212 0 -0.20173127975708799 0.26981077714535212 0 -0.18678621132647921 0.25345374768324042 0 -0.17963830189200281 0.27459401336657491 0 -0.18961959763380509 0.29073872904076459 0 -0.20173127975708799 0.26981077714535212 0 -0.17963830189200281 0.27459401336657491 0 -0.18961959763380509 0.29073872904076459 0 -0.20173127975708799 0.26981077714535212 0 -0.20173127975708799 0.26981077714535212 0 -0.18678621132647921 0.25345374768324042 0 -0.2043428464604839 0.2486692865158838 0 -0.18678621132647921 0.25345374768324042 0 -0.16349777408373389 0.25975841557579682 0 -0.17963830189200281 0.27459401336657491 0 -0.16349777408373389 0.25975841557579682 0 -0.16211162543810101 0.28396719947374238 0 -0.1491001401688421 0.27457856191288821 0 -0.16349777408373389 0.25975841557579682 0 -0.17963830189200281 0.27459401336657491 0 -0.16211162543810101 0.28396719947374238 0 -0.18961959763380509 0.29073872904076459 0 -0.17963830189200281 0.27459401336657491 0 -0.17384136812262571 0.29557604457906439 0 -0.18961959763380509 0.29073872904076459 0 -0.17384136812262571 0.29557604457906439 0 -0.1775079155105222 0.31166668093617711 0 -0.18961959763380509 0.29073872904076459 0 -0.1775079155105222 0.31166668093617711 0 -0.17384136812262571 0.29557604457906439 0 -0.1775079155105222 0.31166668093617711 0 -0.15898130908500299 0.30716427775997152 0 -0.17963830189200281 0.27459401336657491 0 -0.17384136812262571 0.29557604457906439 0 -0.16211162543810101 0.28396719947374238 0 -0.17384136812262571 0.29557604457906439 0 -0.15898130908500299 0.30716427775997152 0 -0.16211162543810101 0.28396719947374238 0 -0.16211162543810101 0.28396719947374238 0 -0.14500187703020101 0.29273577794945288 0 -0.1491001401688421 0.27457856191288821 0 -0.14500187703020101 0.29273577794945288 0 -0.1332186436843924 0.27645937602541809 0 -0.1491001401688421 0.27457856191288821 0 -0.15898130908500299 0.30716427775997152 0 -0.16211162543810101 0.28396719947374238 0 -0.14500187703020101 0.29273577794945288 0 -0.15898130908500299 0.30716427775997152 0 -0.14500187703020101 0.29273577794945288 0 -0.13850833171452731 0.31083178105233822 0 -0.14500187703020101 0.29273577794945288 0 -0.13850833171452731 0.31083178105233822 0 -0.1304530098171893 0.29339356679302903 0 -0.13850833171452731 0.31083178105233822 0 -0.1304530098171893 0.29339356679302903 0 -0.12009488052038909 0.30461566268099483 0 -0.1304530098171893 0.29339356679302903 0 -0.1332186436843924 0.27645937602541809 0 -0.1175599114204943 0.28771657237298298 0 -0.14500187703020101 0.29273577794945288 0 -0.1304530098171893 0.29339356679302903 0 -0.1332186436843924 0.27645937602541809 0 -0.1332186436843924 0.27645937602541809 0 -0.125387250601978 0.26109826892817622 0 -0.14167078060778221 0.2599720405400307 0 -0.1332186436843924 0.27645937602541809 0 -0.125387250601978 0.26109826892817622 0 -0.1189793283741782 0.27318785505663079 0 -0.125387250601978 0.26109826892817622 0 -0.14167078060778221 0.2599720405400307 0 -0.13137022556456901 0.2463301261102 0 -0.16349777408373389 0.25975841557579682 0 -0.14167078060778221 0.2599720405400307 0 -0.1491001401688421 0.27457856191288821 0 -0.16349777408373389 0.25975841557579682 0 -0.14167078060778221 0.2599720405400307 0 -0.14903113098341919 0.24309704453464831 0 -0.1332186436843924 0.27645937602541809 0 -0.14167078060778221 0.2599720405400307 0 -0.1491001401688421 0.27457856191288821 0 -0.10576052444776091 0.27908418271051982 0 -0.098703444315331082 0.26883767395262398 0 -0.10982514746817849 0.26416070056389029 0 -0.10576052444776091 0.27908418271051982 0 -0.098703444315331082 0.26883767395262398 0 -0.093675107474045283 0.2769102627679082 0 -0.098703444315331082 0.26883767395262398 0 -0.1005049910363125 0.2603257435182087 0 -0.093024393108069245 0.260646105125237 0 -0.1005049910363125 0.2603257435182087 0 -0.097254329417332905 0.25217657764012291 0 -0.093024393108069245 0.260646105125237 0 -0.1005049910363125 0.2603257435182087 0 -0.097254329417332905 0.25217657764012291 0 -0.1047489070558071 0.2520418779122241 0 -0.098703444315331082 0.26883767395262398 0 -0.1005049910363125 0.2603257435182087 0 -0.10982514746817849 0.26416070056389029 0 -0.1005049910363125 0.2603257435182087 0 -0.1047489070558071 0.2520418779122241 0 -0.10982514746817849 0.26416070056389029 0 -0.1047489070558071 0.2520418779122241 0 -0.10982514746817849 0.26416070056389029 0 -0.11667465663438301 0.25100537099451209 0 -0.125387250601978 0.26109826892817622 0 -0.11667465663438301 0.25100537099451209 0 -0.13137022556456901 0.2463301261102 0 -0.125387250601978 0.26109826892817622 0 -0.10982514746817849 0.26416070056389029 0 -0.11667465663438301 0.25100537099451209 0 -0.1332186436843924 0.27645937602541809 0 -0.1189793283741782 0.27318785505663079 0 -0.1175599114204943 0.28771657237298298 0 -0.125387250601978 0.26109826892817622 0 -0.10982514746817849 0.26416070056389029 0 -0.1189793283741782 0.27318785505663079 0 -0.10576052444776091 0.27908418271051982 0 -0.10982514746817849 0.26416070056389029 0 -0.1189793283741782 0.27318785505663079 0 -0.10576052444776091 0.27908418271051982 0 -0.1189793283741782 0.27318785505663079 0 -0.1175599114204943 0.28771657237298298 0 -0.1304530098171893 0.29339356679302903 0 -0.1175599114204943 0.28771657237298298 0 -0.12009488052038909 0.30461566268099483 0 -0.1175599114204943 0.28771657237298298 0 -0.10726601675431149 0.29936073383071399 0 -0.10703441714689341 0.28885007158794163 0 -0.10576052444776091 0.27908418271051982 0 -0.1175599114204943 0.28771657237298298 0 -0.10703441714689341 0.28885007158794163 0 -0.1175599114204943 0.28771657237298298 0 -0.12009488052038909 0.30461566268099483 0 -0.10726601675431149 0.29936073383071399 0 -0.12009488052038909 0.30461566268099483 0 -0.10726601675431149 0.29936073383071399 0 -0.10474811973487751 0.3146450532891224 0 -0.10726601675431149 0.29936073383071399 0 -0.093669635033332685 0.30344534605596069 0 -0.10474811973487751 0.3146450532891224 0 -0.10726601675431149 0.29936073383071399 0 -0.097551215965006738 0.28923879743754988 0 -0.093669635033332685 0.30344534605596069 0 -0.10576052444776091 0.27908418271051982 0 -0.10703441714689341 0.28885007158794163 0 -0.097551215965006738 0.28923879743754988 0 -0.10726601675431149 0.29936073383071399 0 -0.10703441714689341 0.28885007158794163 0 -0.097551215965006738 0.28923879743754988 0 -0.10576052444776091 0.27908418271051982 0 -0.097551215965006738 0.28923879743754988 0 -0.093675107474045283 0.2769102627679082 0 -0.097551215965006738 0.28923879743754988 0 -0.087433197423308129 0.28323951122057189 0 -0.093675107474045283 0.2769102627679082 0 -0.097551215965006738 0.28923879743754988 0 -0.087433197423308129 0.28323951122057189 0 -0.086606548153152149 0.29335907781335668 0 -0.097551215965006738 0.28923879743754988 0 -0.086606548153152149 0.29335907781335668 0 -0.093669635033332685 0.30344534605596069 0 -0.086606548153152149 0.29335907781335668 0 -0.081303150464956161 0.28622432219529881 0 -0.074211865840387595 0.2929867941723171 0 -0.086606548153152149 0.29335907781335668 0 -0.080454567465957805 0.30309618959804457 0 -0.074211865840387595 0.2929867941723171 0 -0.087433197423308129 0.28323951122057189 0 -0.086606548153152149 0.29335907781335668 0 -0.081303150464956161 0.28622432219529881 0 -0.081303150464956161 0.28622432219529881 0 -0.075177716480424955 0.28347157668996747 0 -0.079912708722918543 0.27851264029756262 0 -0.087433197423308129 0.28323951122057189 0 -0.081303150464956161 0.28622432219529881 0 -0.079912708722918543 0.27851264029756262 0 -0.093669635033332685 0.30344534605596069 0 -0.080454567465957805 0.30309618959804457 0 -0.083685148938595466 0.31958244669401492 0 -0.086606548153152149 0.29335907781335668 0 -0.093669635033332685 0.30344534605596069 0 -0.080454567465957805 0.30309618959804457 0 -0.080454567465957805 0.30309618959804457 0 -0.067938368652182848 0.3092804404367776 0 -0.074211865840387595 0.2929867941723171 0 -0.067938368652182848 0.3092804404367776 0 -0.074211865840387595 0.2929867941723171 0 -0.057894501256292967 0.2955458600686135 0 -0.080454567465957805 0.30309618959804457 0 -0.067938368652182848 0.3092804404367776 0 -0.083685148938595466 0.31958244669401492 0 -0.074211865840387595 0.2929867941723171 0 -0.067991247761471557 0.28406866294690969 0 -0.057894501256292967 0.2955458600686135 0 -0.075177716480424955 0.28347157668996747 0 -0.074211865840387595 0.2929867941723171 0 -0.067991247761471557 0.28406866294690969 0 -0.081303150464956161 0.28622432219529881 0 -0.075177716480424955 0.28347157668996747 0 -0.074211865840387595 0.2929867941723171 0 -0.075177716480424955 0.28347157668996747 0 -0.067991247761471557 0.28406866294690969 0 -0.072944414580108433 0.27797671006922442 0 -0.06826029305020459 0.27251733449545479 0 -0.076275862475158565 0.26944113625245669 0 -0.054838047287206912 0.26471015464085829 0 -0.076275862475158565 0.26944113625245669 0 -0.054838047287206912 0.26471015464085829 0 -0.067991247761471557 0.28406866294690969 0 -0.066081101710302612 0.2775831059816613 0 -0.059404005769743598 0.28025605239346763 0 -0.066081101710302612 0.2775831059816613 0 -0.06826029305020459 0.27251733449545479 0 -0.061805547389984873 0.27309677000325039 0 -0.066081101710302612 0.2775831059816613 0 -0.06826029305020459 0.27251733449545479 0 -0.072944414580108433 0.27797671006922442 0 -0.067991247761471557 0.28406866294690969 0 -0.066081101710302612 0.2775831059816613 0 -0.072944414580108433 0.27797671006922442 0 -0.06826029305020459 0.27251733449545479 0 -0.076275862475158565 0.26944113625245669 0 -0.07540365283337111 0.27407269637812109 0 -0.076275862475158565 0.26944113625245669 0 -0.079624985338465404 0.27191566077590701 0 -0.078249493375542517 0.26137405605153752 0 -0.076275862475158565 0.26944113625245669 0 -0.07540365283337111 0.27407269637812109 0 -0.079624985338465404 0.27191566077590701 0 -0.06826029305020459 0.27251733449545479 0 -0.072944414580108433 0.27797671006922442 0 -0.07540365283337111 0.27407269637812109 0 -0.072944414580108433 0.27797671006922442 0 -0.07540365283337111 0.27407269637812109 0 -0.079912708722918543 0.27851264029756262 0 -0.075177716480424955 0.28347157668996747 0 -0.072944414580108433 0.27797671006922442 0 -0.079912708722918543 0.27851264029756262 0 -0.087433197423308129 0.28323951122057189 0 -0.079912708722918543 0.27851264029756262 0 -0.085550453759769912 0.27519196681175551 0 -0.07540365283337111 0.27407269637812109 0 -0.079912708722918543 0.27851264029756262 0 -0.079624985338465404 0.27191566077590701 0 -0.079912708722918543 0.27851264029756262 0 -0.085550453759769912 0.27519196681175551 0 -0.079624985338465404 0.27191566077590701 0 -0.085550453759769912 0.27519196681175551 0 -0.079624985338465404 0.27191566077590701 0 -0.087933187642185953 0.26678014976145581 0 -0.085550453759769912 0.27519196681175551 0 -0.087933187642185953 0.26678014976145581 0 -0.093675107474045283 0.2769102627679082 0 -0.098703444315331082 0.26883767395262398 0 -0.087933187642185953 0.26678014976145581 0 -0.093675107474045283 0.2769102627679082 0 -0.087433197423308129 0.28323951122057189 0 -0.085550453759769912 0.27519196681175551 0 -0.093675107474045283 0.2769102627679082 0 -0.079624985338465404 0.27191566077590701 0 -0.078249493375542517 0.26137405605153752 0 -0.088273985997677717 0.24643785558725831 0 -0.079624985338465404 0.27191566077590701 0 -0.088273985997677717 0.24643785558725831 0 -0.087933187642185953 0.26678014976145581 0 -0.093024393108069245 0.260646105125237 0 -0.088273985997677717 0.24643785558725831 0 -0.079624985338465404 0.27191566077590701 0 -0.087933187642185953 0.26678014976145581 0 -0.088273985997677717 0.24643785558725831 0 -0.097254329417332905 0.25217657764012291 0 -0.093024393108069245 0.260646105125237 0 -0.088273985997677717 0.24643785558725831 0 -0.098703444315331082 0.26883767395262398 0 -0.087933187642185953 0.26678014976145581 0 -0.093024393108069245 0.260646105125237 0 -0.076536014048780784 0.25641747022396161 0 -0.076844330228939689 0.24902911725631471 0 -0.088273985997677717 0.24643785558725831 0 -0.078249493375542517 0.26137405605153752 0 -0.076536014048780784 0.25641747022396161 0 -0.088273985997677717 0.24643785558725831 0 -0.067336168784189673 0.25827976557489252 0 -0.05512228116409737 0.25450414514278707 0 -0.076844330228939689 0.24902911725631471 0 -0.076275862475158565 0.26944113625245669 0 -0.070536619017630156 0.26265815741810361 0 -0.054838047287206912 0.26471015464085829 0 -0.076536014048780784 0.25641747022396161 0 -0.067336168784189673 0.25827976557489252 0 -0.076844330228939689 0.24902911725631471 0 -0.05512228116409737 0.25450414514278707 0 -0.076844330228939689 0.24902911725631471 0 -0.070536619017630156 0.26265815741810361 0 -0.067336168784189673 0.25827976557489252 0 -0.054838047287206912 0.26471015464085829 0 -0.076536014048780784 0.25641747022396161 0 -0.070536619017630156 0.26265815741810361 0 -0.067336168784189673 0.25827976557489252 0 -0.076275862475158565 0.26944113625245669 0 -0.078249493375542517 0.26137405605153752 0 -0.070536619017630156 0.26265815741810361 0 -0.078249493375542517 0.26137405605153752 0 -0.076536014048780784 0.25641747022396161 0 -0.070536619017630156 0.26265815741810361 0 -0.05512228116409737 0.25450414514278707 0 -0.054838047287206912 0.26471015464085829 0 -0.033400232099255182 0.25997917302925971 0 -0.067336168784189673 0.25827976557489252 0 -0.05512228116409737 0.25450414514278707 0 -0.054838047287206912 0.26471015464085829 0 -0.059404005769743598 0.28025605239346763 0 -0.061805547389984873 0.27309677000325039 0 -0.053559683468440263 0.27429017530334032 0 -0.066081101710302612 0.2775831059816613 0 -0.059404005769743598 0.28025605239346763 0 -0.061805547389984873 0.27309677000325039 0 -0.054838047287206912 0.26471015464085829 0 -0.061805547389984873 0.27309677000325039 0 -0.053559683468440263 0.27429017530334032 0 -0.06826029305020459 0.27251733449545479 0 -0.054838047287206912 0.26471015464085829 0 -0.061805547389984873 0.27309677000325039 0 -0.054838047287206912 0.26471015464085829 0 -0.053559683468440263 0.27429017530334032 0 -0.042415761089138117 0.27006329787500721 0 -0.059404005769743598 0.28025605239346763 0 -0.053559683468440263 0.27429017530334032 0 -0.04933505580612782 0.28332460160411821 0 -0.053559683468440263 0.27429017530334032 0 -0.042415761089138117 0.27006329787500721 0 -0.04933505580612782 0.28332460160411821 0 -0.042415761089138117 0.27006329787500721 0 -0.028479976915000111 0.27345018551326089 0 -0.033288497660146167 0.28763431309213577 0 -0.042415761089138117 0.27006329787500721 0 -0.033288497660146167 0.28763431309213577 0 -0.04933505580612782 0.28332460160411821 0 -0.042415761089138117 0.27006329787500721 0 -0.033400232099255182 0.25997917302925971 0 -0.028479976915000111 0.27345018551326089 0 -0.05512228116409737 0.25450414514278707 0 -0.033400232099255182 0.25997917302925971 0 -0.054838047287206912 0.26471015464085829 0 -0.033400232099255182 0.25997917302925971 0 -0.05512228116409737 0.25450414514278707 0 -0.033400232099255182 0.25997917302925971 0 -0.048730387742958223 0.24087062929249631 0 -0.054838047287206912 0.26471015464085829 0 -0.042415761089138117 0.27006329787500721 0 -0.033400232099255182 0.25997917302925971 0 -0.033400232099255182 0.25997917302925971 0 -0.017762452779462468 0.26392066481038889 0 -0.033400232099255182 0.25997917302925971 0 -0.017762452779462468 0.26392066481038889 0 -0.0071567094876491466 0.25418764894853862 0 -0.033400232099255182 0.25997917302925971 0 -0.0071567094876491466 0.25418764894853862 0 -0.02211123597793023 0.24877847883455881 0 -0.033400232099255182 0.25997917302925971 0 -0.0071567094876491466 0.25418764894853862 0 -0.028479976915000111 0.27345018551326089 0 -0.01412269588266918 0.28247202523132059 0 -0.033288497660146167 0.28763431309213577 0 -0.033400232099255182 0.25997917302925971 0 -0.017762452779462468 0.26392066481038889 0 -0.028479976915000111 0.27345018551326089 0 -0.017762452779462468 0.26392066481038889 0 -0.028479976915000111 0.27345018551326089 0 -0.01412269588266918 0.28247202523132059 0 -0.017762452779462468 0.26392066481038889 0 -0.0021246734596698032 0.2678621565915183 0 -0.017762452779462468 0.26392066481038889 0 -0.0021246734596698032 0.2678621565915183 0 -0.01412269588266918 0.28247202523132059 0 -0.0021246734596698032 0.2678621565915183 0 -0.00037429794597245607 0.28153109855486308 0 -0.01412269588266918 0.28247202523132059 0 -0.0021246734596698032 0.2678621565915183 0 -0.0071567094876491466 0.25418764894853862 0 0.0053239463120198539 0.26124186962637419 0 -0.017762452779462468 0.26392066481038889 0 -0.0021246734596698032 0.2678621565915183 0 -0.0071567094876491466 0.25418764894853862 0 -0.021485523674755262 0.30322223929596342 0 -0.01159083203207256 0.31838565977644612 0 0.0038938970189251951 0.30064697132742468 0 -0.00037429794597245607 0.28153109855486308 0 -0.01412269588266918 0.28247202523132059 0 0.0038938970189251951 0.30064697132742468 0 -0.01412269588266918 0.28247202523132059 0 -0.021485523674755262 0.30322223929596342 0 0.0038938970189251951 0.30064697132742468 0 -0.01412269588266918 0.28247202523132059 0 -0.021485523674755262 0.30322223929596342 0 -0.033288497660146167 0.28763431309213577 0 -0.021485523674755262 0.30322223929596342 0 -0.041682896330951603 0.30546126272039309 0 -0.030817598113671778 0.32201231777682338 0 -0.021485523674755262 0.30322223929596342 0 -0.041682896330951603 0.30546126272039309 0 -0.033288497660146167 0.28763431309213577 0 -0.041682896330951603 0.30546126272039309 0 -0.033288497660146167 0.28763431309213577 0 -0.045862997763213079 0.29320600597608698 0 -0.033288497660146167 0.28763431309213577 0 -0.045862997763213079 0.29320600597608698 0 -0.04933505580612782 0.28332460160411821 0 -0.045862997763213079 0.29320600597608698 0 -0.04933505580612782 0.28332460160411821 0 -0.057894501256292967 0.2955458600686135 0 -0.059404005769743598 0.28025605239346763 0 -0.04933505580612782 0.28332460160411821 0 -0.057894501256292967 0.2955458600686135 0 -0.067991247761471557 0.28406866294690969 0 -0.059404005769743598 0.28025605239346763 0 -0.057894501256292967 0.2955458600686135 0 -0.041682896330951603 0.30546126272039309 0 -0.045862997763213079 0.29320600597608698 0 -0.057894501256292967 0.2955458600686135 0 -0.067938368652182848 0.3092804404367776 0 -0.057894501256292967 0.2955458600686135 0 -0.052444598404092962 0.31544831031497872 0 -0.041682896330951603 0.30546126272039309 0 -0.057894501256292967 0.2955458600686135 0 -0.052444598404092962 0.31544831031497872 0 -0.052444598404092962 0.31544831031497872 0 -0.048197079178587517 0.33226309246871649 0 -0.062755719005923499 0.3265666619591423 0 -0.067938368652182848 0.3092804404367776 0 -0.052444598404092962 0.31544831031497872 0 -0.062755719005923499 0.3265666619591423 0 -0.048197079178587517 0.33226309246871649 0 -0.039293815857810367 0.34993799625286232 0 -0.060968124462924732 0.34859284091101261 0 -0.048197079178587517 0.33226309246871649 0 -0.060968124462924732 0.34859284091101261 0 -0.062755719005923499 0.3265666619591423 0 -0.048197079178587517 0.33226309246871649 0 -0.030817598113671778 0.32201231777682338 0 -0.039293815857810367 0.34993799625286232 0 -0.030817598113671778 0.32201231777682338 0 -0.039293815857810367 0.34993799625286232 0 -0.052444598404092962 0.31544831031497872 0 -0.048197079178587517 0.33226309246871649 0 -0.030817598113671778 0.32201231777682338 0 -0.041682896330951603 0.30546126272039309 0 -0.052444598404092962 0.31544831031497872 0 -0.030817598113671778 0.32201231777682338 0 -0.030817598113671778 0.32201231777682338 0 -0.014085858099766179 0.34069714598644091 0 -0.01159083203207256 0.31838565977644612 0 -0.021485523674755262 0.30322223929596342 0 -0.030817598113671778 0.32201231777682338 0 -0.01159083203207256 0.31838565977644612 0 -0.030817598113671778 0.32201231777682338 0 -0.014085858099766179 0.34069714598644091 0 -0.039293815857810367 0.34993799625286232 0 -0.014085858099766179 0.34069714598644091 0 -0.01159083203207256 0.31838565977644612 0 0.0045409227089052498 0.32534962449557803 0 -0.014085858099766179 0.34069714598644091 0 0.0045409227089052498 0.32534962449557803 0 0.0027898396658826061 0.34218595544836911 0 -0.01159083203207256 0.31838565977644612 0 0.0045409227089052498 0.32534962449557803 0 0.0038938970189251951 0.30064697132742468 0 -0.022291964128290782 0.36758823699463949 0 0.0041759738791468824 0.37643541540048281 0 0.0010700777081586771 0.35819128210598239 0 -0.014085858099766179 0.34069714598644091 0 -0.022291964128290782 0.36758823699463949 0 0.0010700777081586771 0.35819128210598239 0 -0.014085858099766179 0.34069714598644091 0 0.0010700777081586771 0.35819128210598239 0 0.0027898396658826061 0.34218595544836911 0 -0.014085858099766179 0.34069714598644091 0 -0.022291964128290782 0.36758823699463949 0 -0.039293815857810367 0.34993799625286232 0 -0.022291964128290782 0.36758823699463949 0 -0.039293815857810367 0.34993799625286232 0 -0.047770033601948952 0.37786367472890109 0 -0.039293815857810367 0.34993799625286232 0 -0.047770033601948952 0.37786367472890109 0 -0.039293815857810367 0.34993799625286232 0 -0.060968124462924732 0.34859284091101261 0 -0.047770033601948952 0.37786367472890109 0 -0.060968124462924732 0.34859284091101261 0 -0.073246749589636451 0.36780446027362379 0 -0.047770033601948952 0.37786367472890109 0 -0.073246749589636451 0.36780446027362379 0 -0.083231114668123884 0.35079283051939841 0 -0.093896065639820447 0.36616852135301747 0 -0.073246749589636451 0.36780446027362379 0 -0.093896065639820447 0.36616852135301747 0 -0.088389383109168038 0.38116479620001698 0 -0.083231114668123884 0.35079283051939841 0 -0.093896065639820447 0.36616852135301747 0 -0.10068154905131201 0.35250036398269069 0 -0.060968124462924732 0.34859284091101261 0 -0.073246749589636451 0.36780446027362379 0 -0.083231114668123884 0.35079283051939841 0 -0.060968124462924732 0.34859284091101261 0 -0.083231114668123884 0.35079283051939841 0 -0.076330539136734349 0.33581505868811129 0 -0.060968124462924732 0.34859284091101261 0 -0.076330539136734349 0.33581505868811129 0 -0.062755719005923499 0.3265666619591423 0 -0.076330539136734349 0.33581505868811129 0 -0.062755719005923499 0.3265666619591423 0 -0.083685148938595466 0.31958244669401492 0 -0.067938368652182848 0.3092804404367776 0 -0.062755719005923499 0.3265666619591423 0 -0.083685148938595466 0.31958244669401492 0 -0.083231114668123884 0.35079283051939841 0 -0.076330539136734349 0.33581505868811129 0 -0.097737147756339099 0.3348487825316247 0 -0.076330539136734349 0.33581505868811129 0 -0.083685148938595466 0.31958244669401492 0 -0.097737147756339099 0.3348487825316247 0 -0.093669635033332685 0.30344534605596069 0 -0.083685148938595466 0.31958244669401492 0 -0.10474811973487751 0.3146450532891224 0 -0.097737147756339099 0.3348487825316247 0 -0.10474811973487751 0.3146450532891224 0 -0.12043594297386789 0.32433371256458959 0 -0.083685148938595466 0.31958244669401492 0 -0.097737147756339099 0.3348487825316247 0 -0.10474811973487751 0.3146450532891224 0 -0.12009488052038909 0.30461566268099483 0 -0.10474811973487751 0.3146450532891224 0 -0.12043594297386789 0.32433371256458959 0 -0.097737147756339099 0.3348487825316247 0 -0.12043594297386789 0.32433371256458959 0 -0.11693281717161021 0.34615147868587898 0 -0.11693281717161021 0.34615147868587898 0 -0.1116106000206665 0.36454020682353389 0 -0.10068154905131201 0.35250036398269069 0 -0.13121264691085971 0.35844226380569461 0 -0.11693281717161021 0.34615147868587898 0 -0.1116106000206665 0.36454020682353389 0 -0.12503067725984579 0.37635245263907119 0 -0.1116106000206665 0.36454020682353389 0 -0.106706163042587 0.38052567442410201 0 -0.12503067725984579 0.37635245263907119 0 -0.13121264691085971 0.35844226380569461 0 -0.1116106000206665 0.36454020682353389 0 -0.1116106000206665 0.36454020682353389 0 -0.093896065639820447 0.36616852135301747 0 -0.10068154905131201 0.35250036398269069 0 -0.1116106000206665 0.36454020682353389 0 -0.093896065639820447 0.36616852135301747 0 -0.106706163042587 0.38052567442410201 0 -0.097737147756339099 0.3348487825316247 0 -0.11693281717161021 0.34615147868587898 0 -0.10068154905131201 0.35250036398269069 0 -0.083231114668123884 0.35079283051939841 0 -0.097737147756339099 0.3348487825316247 0 -0.10068154905131201 0.35250036398269069 0 -0.10271656567879189 0.40484476155178267 0 -0.09819549883148207 0.38880736182739428 0 -0.10999217779290391 0.39597838057429352 0 -0.10271656567879189 0.40484476155178267 0 -0.09819549883148207 0.38880736182739428 0 -0.093422867859456901 0.40901835496093691 0 -0.10271656567879189 0.40484476155178267 0 -0.10999217779290391 0.39597838057429352 0 -0.11023362285952019 0.40969084436778458 0 -0.09819549883148207 0.38880736182739428 0 -0.106706163042587 0.38052567442410201 0 -0.088389383109168038 0.38116479620001698 0 -0.093896065639820447 0.36616852135301747 0 -0.106706163042587 0.38052567442410201 0 -0.088389383109168038 0.38116479620001698 0 -0.09819549883148207 0.38880736182739428 0 -0.106706163042587 0.38052567442410201 0 -0.10999217779290391 0.39597838057429352 0 -0.106706163042587 0.38052567442410201 0 -0.1198287386442226 0.39066800155138681 0 -0.10999217779290391 0.39597838057429352 0 -0.12503067725984579 0.37635245263907119 0 -0.106706163042587 0.38052567442410201 0 -0.1198287386442226 0.39066800155138681 0 -0.1198287386442226 0.39066800155138681 0 -0.10999217779290391 0.39597838057429352 0 -0.1201439459440314 0.40447665194619031 0 -0.10999217779290391 0.39597838057429352 0 -0.1201439459440314 0.40447665194619031 0 -0.11023362285952019 0.40969084436778458 0 -0.11909820816040161 0.41987908030122828 0 -0.11023362285952019 0.40969084436778458 0 -0.1057776268495845 0.41795139238070561 0 -0.1201439459440314 0.40447665194619031 0 -0.11909820816040161 0.41987908030122828 0 -0.11023362285952019 0.40969084436778458 0 -0.1320167165840177 0.42802155391055707 0 -0.11909820816040161 0.41987908030122828 0 -0.11882193292102521 0.44007033405516061 0 -0.11909820816040161 0.41987908030122828 0 -0.10144261324930939 0.43339458691365851 0 -0.11882193292102521 0.44007033405516061 0 -0.10144261324930939 0.43339458691365851 0 -0.094138251421574837 0.41119278255154368 0 -0.10144261324930939 0.43339458691365851 0 -0.094138251421574837 0.41119278255154368 0 -0.089500853281080456 0.42502094436542531 0 -0.11909820816040161 0.41987908030122828 0 -0.10144261324930939 0.43339458691365851 0 -0.1057776268495845 0.41795139238070561 0 -0.10144261324930939 0.43339458691365851 0 -0.1057776268495845 0.41795139238070561 0 -0.094138251421574837 0.41119278255154368 0 -0.11023362285952019 0.40969084436778458 0 -0.1032231165085634 0.4109791207753884 0 -0.1057776268495845 0.41795139238070561 0 -0.10271656567879189 0.40484476155178267 0 -0.11023362285952019 0.40969084436778458 0 -0.1032231165085634 0.4109791207753884 0 -0.10271656567879189 0.40484476155178267 0 -0.094138251421574837 0.41119278255154368 0 -0.10271656567879189 0.40484476155178267 0 -0.1032231165085634 0.4109791207753884 0 -0.094138251421574837 0.41119278255154368 0 -0.1032231165085634 0.4109791207753884 0 -0.1057776268495845 0.41795139238070561 0 -0.094138251421574837 0.41119278255154368 0 -0.10271656567879189 0.40484476155178267 0 -0.094138251421574837 0.41119278255154368 0 -0.093422867859456901 0.40901835496093691 0 -0.094138251421574837 0.41119278255154368 0 -0.093422867859456901 0.40901835496093691 0 -0.094138251421574837 0.41119278255154368 0 -0.074921096148902147 0.42541363079383793 0 -0.094138251421574837 0.41119278255154368 0 -0.086558297490191713 0.40711049631061591 0 -0.074921096148902147 0.42541363079383793 0 -0.086558297490191713 0.40711049631061591 0 -0.074921096148902147 0.42541363079383793 0 -0.094138251421574837 0.41119278255154368 0 -0.089500853281080456 0.42502094436542531 0 -0.074921096148902147 0.42541363079383793 0 -0.094138251421574837 0.41119278255154368 0 -0.093422867859456901 0.40901835496093691 0 -0.086558297490191713 0.40711049631061591 0 -0.10144261324930939 0.43339458691365851 0 -0.089500853281080456 0.42502094436542531 0 -0.083185786834978792 0.43706746613056319 0 -0.089500853281080456 0.42502094436542531 0 -0.083185786834978792 0.43706746613056319 0 -0.074921096148902147 0.42541363079383793 0 -0.074921096148902147 0.42541363079383793 0 -0.051101828593544049 0.44304007884721203 0 -0.074921096148902147 0.42541363079383793 0 -0.051101828593544049 0.44304007884721203 0 -0.06587399311789309 0.43964302655693821 0 -0.083185786834978792 0.43706746613056319 0 -0.074921096148902147 0.42541363079383793 0 -0.06587399311789309 0.43964302655693821 0 -0.074921096148902147 0.42541363079383793 0 -0.06587399311789309 0.43964302655693821 0 -0.086558297490191713 0.40711049631061591 0 -0.074921096148902147 0.42541363079383793 0 -0.069225453644595869 0.41290074890993889 0 -0.086558297490191713 0.40711049631061591 0 -0.069225453644595869 0.41290074890993889 0 -0.071595390388920252 0.40201911011528058 0 -0.074921096148902147 0.42541363079383793 0 -0.069225453644595869 0.41290074890993889 0 -0.056806232848877668 0.42417115412502021 0 -0.069225453644595869 0.41290074890993889 0 -0.071595390388920252 0.40201911011528058 0 -0.056246251346087531 0.40578935320493997 0 -0.071595390388920252 0.40201911011528058 0 -0.070001460580081776 0.38763452362516931 0 -0.056246251346087531 0.40578935320493997 0 -0.071595390388920252 0.40201911011528058 0 -0.082948006079968772 0.39334725761569539 0 -0.070001460580081776 0.38763452362516931 0 -0.09819549883148207 0.38880736182739428 0 -0.093422867859456901 0.40901835496093691 0 -0.086558297490191713 0.40711049631061591 0 -0.09819549883148207 0.38880736182739428 0 -0.086558297490191713 0.40711049631061591 0 -0.086558297490191713 0.40711049631061591 0 -0.071595390388920252 0.40201911011528058 0 -0.082948006079968772 0.39334725761569539 0 -0.09819549883148207 0.38880736182739428 0 -0.086558297490191713 0.40711049631061591 0 -0.082948006079968772 0.39334725761569539 0 -0.082948006079968772 0.39334725761569539 0 -0.088389383109168038 0.38116479620001698 0 -0.070001460580081776 0.38763452362516931 0 -0.09819549883148207 0.38880736182739428 0 -0.082948006079968772 0.39334725761569539 0 -0.088389383109168038 0.38116479620001698 0 -0.073246749589636451 0.36780446027362379 0 -0.070001460580081776 0.38763452362516931 0 -0.047770033601948952 0.37786367472890109 0 -0.073246749589636451 0.36780446027362379 0 -0.088389383109168038 0.38116479620001698 0 -0.070001460580081776 0.38763452362516931 0 -0.070001460580081776 0.38763452362516931 0 -0.047770033601948952 0.37786367472890109 0 -0.056246251346087531 0.40578935320493997 0 -0.047770033601948952 0.37786367472890109 0 -0.056246251346087531 0.40578935320493997 0 -0.047770033601948952 0.37786367472890109 0 -0.056246251346087531 0.40578935320493997 0 -0.034410421458022478 0.40222640141982702 0 -0.047770033601948952 0.37786367472890109 0 -0.034410421458022478 0.40222640141982702 0 -0.026122826180052881 0.38530843357950062 0 -0.022291964128290782 0.36758823699463949 0 -0.047770033601948952 0.37786367472890109 0 -0.026122826180052881 0.38530843357950062 0 -0.022291964128290782 0.36758823699463949 0 -0.026122826180052881 0.38530843357950062 0 -0.0099990816229297268 0.38878915679036219 0 -0.026122826180052881 0.38530843357950062 0 -0.01713313332890681 0.40228689647652088 0 -0.0099990816229297268 0.38878915679036219 0 -0.034410421458022478 0.40222640141982702 0 -0.026122826180052881 0.38530843357950062 0 -0.01713313332890681 0.40228689647652088 0 -0.0099990816229297268 0.38878915679036219 0 -0.00094396708474059896 0.40662435388321411 0 0.0046912135209884699 0.39318247585015381 0 -0.01713313332890681 0.40228689647652088 0 -0.0099990816229297268 0.38878915679036219 0 -0.00094396708474059896 0.40662435388321411 0 -0.022291964128290782 0.36758823699463949 0 -0.0099990816229297268 0.38878915679036219 0 0.0041759738791468824 0.37643541540048281 0 -0.0099990816229297268 0.38878915679036219 0 0.0041759738791468824 0.37643541540048281 0 0.0046912135209884699 0.39318247585015381 0 -0.0018904201847109131 0.42251303475154878 0 -0.01928753548974705 0.41973936102829762 0 -0.0076373301654850973 0.44053065001782582 0 -0.01713313332890681 0.40228689647652088 0 -0.00094396708474059896 0.40662435388321411 0 -0.01928753548974705 0.41973936102829762 0 -0.0018904201847109131 0.42251303475154878 0 -0.00094396708474059896 0.40662435388321411 0 -0.01928753548974705 0.41973936102829762 0 -0.034410421458022478 0.40222640141982702 0 -0.01713313332890681 0.40228689647652088 0 -0.01928753548974705 0.41973936102829762 0 -0.01928753548974705 0.41973936102829762 0 -0.04058796423828516 0.42260749470154979 0 -0.030921186643498029 0.44050298481932071 0 -0.01928753548974705 0.41973936102829762 0 -0.030921186643498029 0.44050298481932071 0 -0.0076373301654850973 0.44053065001782582 0 -0.04058796423828516 0.42260749470154979 0 -0.041879914134074249 0.43486402238946931 0 -0.056806232848877668 0.42417115412502021 0 -0.04058796423828516 0.42260749470154979 0 -0.041879914134074249 0.43486402238946931 0 -0.030921186643498029 0.44050298481932071 0 -0.056246251346087531 0.40578935320493997 0 -0.034410421458022478 0.40222640141982702 0 -0.04058796423828516 0.42260749470154979 0 -0.034410421458022478 0.40222640141982702 0 -0.01928753548974705 0.41973936102829762 0 -0.04058796423828516 0.42260749470154979 0 -0.056246251346087531 0.40578935320493997 0 -0.04058796423828516 0.42260749470154979 0 -0.056806232848877668 0.42417115412502021 0 -0.069225453644595869 0.41290074890993889 0 -0.056246251346087531 0.40578935320493997 0 -0.056806232848877668 0.42417115412502021 0 -0.074921096148902147 0.42541363079383793 0 -0.056806232848877668 0.42417115412502021 0 -0.051101828593544049 0.44304007884721203 0 -0.041879914134074249 0.43486402238946931 0 -0.056806232848877668 0.42417115412502021 0 -0.051101828593544049 0.44304007884721203 0 -0.056826890086884782 0.45387242232003888 0 -0.06587399311789309 0.43964302655693821 0 -0.051101828593544049 0.44304007884721203 0 -0.056826890086884782 0.45387242232003888 0 -0.06587399311789309 0.43964302655693821 0 -0.051101828593544049 0.44304007884721203 0 -0.056826890086884782 0.45387242232003888 0 -0.045053313631889927 0.46339525211865551 0 -0.056826890086884782 0.45387242232003888 0 -0.059076093976237552 0.46888819136033361 0 -0.068559081518805076 0.45835199611034633 0 -0.056826890086884782 0.45387242232003888 0 -0.045053313631889927 0.46339525211865551 0 -0.059076093976237552 0.46888819136033361 0 -0.051101828593544049 0.44304007884721203 0 -0.045053313631889927 0.46339525211865551 0 -0.027282561038185452 0.4606665269005854 0 -0.045053313631889927 0.46339525211865551 0 -0.027282561038185452 0.4606665269005854 0 -0.030016447061667749 0.48103711116830489 0 -0.051101828593544049 0.44304007884721203 0 -0.030921186643498029 0.44050298481932071 0 -0.027282561038185452 0.4606665269005854 0 -0.051101828593544049 0.44304007884721203 0 -0.027282561038185452 0.4606665269005854 0 -0.041879914134074249 0.43486402238946931 0 -0.051101828593544049 0.44304007884721203 0 -0.030921186643498029 0.44050298481932071 0 -0.030921186643498029 0.44050298481932071 0 -0.027282561038185452 0.4606665269005854 0 -0.0076373301654850973 0.44053065001782582 0 -0.027282561038185452 0.4606665269005854 0 -0.011493712091427469 0.47744428973028369 0 0.001630433269091859 0.46310396500044321 0 -0.027282561038185452 0.4606665269005854 0 -0.0076373301654850973 0.44053065001782582 0 0.001630433269091859 0.46310396500044321 0 -0.0076902545739238048 0.5 0 -0.011493712091427469 0.47744428973028369 0 0.0078644126399025904 0.48197472407942521 0 -0.011493712091427469 0.47744428973028369 0 0.0078644126399025904 0.48197472407942521 0 0.001630433269091859 0.46310396500044321 0 -0.027282561038185452 0.4606665269005854 0 -0.011493712091427469 0.47744428973028369 0 -0.030016447061667749 0.48103711116830489 0 -0.0076902545739238048 0.5 0 -0.011493712091427469 0.47744428973028369 0 -0.030016447061667749 0.48103711116830489 0 -0.0076902545739238048 0.5 0 -0.030016447061667749 0.48103711116830489 0 -0.037150300597496022 0.5 0 -0.030016447061667749 0.48103711116830489 0 -0.037150300597496022 0.5 0 -0.050420389459751642 0.48261065081473731 0 -0.045053313631889927 0.46339525211865551 0 -0.030016447061667749 0.48103711116830489 0 -0.050420389459751642 0.48261065081473731 0 -0.045053313631889927 0.46339525211865551 0 -0.050420389459751642 0.48261065081473731 0 -0.059076093976237552 0.46888819136033361 0 -0.050420389459751642 0.48261065081473731 0 -0.059076093976237552 0.46888819136033361 0 -0.065377158820660239 0.48190917601521133 0 -0.050420389459751642 0.48261065081473731 0 -0.066610346621068461 0.5 0 -0.065377158820660239 0.48190917601521133 0 -0.037150300597496022 0.5 0 -0.050420389459751642 0.48261065081473731 0 -0.066610346621068461 0.5 0 -0.066610346621068461 0.5 0 -0.079776204605096809 0.48452502032547717 0 -0.065377158820660239 0.48190917601521133 0 -0.079776204605096809 0.48452502032547717 0 -0.096070392644641039 0.49999999999999939 0 -0.095412022330185475 0.48008469573639129 0 -0.066610346621068461 0.5 0 -0.079776204605096809 0.48452502032547717 0 -0.096070392644641039 0.49999999999999939 0 -0.079776204605096809 0.48452502032547717 0 -0.082386356516429879 0.46485339086420507 0 -0.095412022330185475 0.48008469573639129 0 -0.079776204605096809 0.48452502032547717 0 -0.070827369932504256 0.47191002425091882 0 -0.082386356516429879 0.46485339086420507 0 -0.079776204605096809 0.48452502032547717 0 -0.070827369932504256 0.47191002425091882 0 -0.065377158820660239 0.48190917601521133 0 -0.059076093976237552 0.46888819136033361 0 -0.070827369932504256 0.47191002425091882 0 -0.065377158820660239 0.48190917601521133 0 -0.059076093976237552 0.46888819136033361 0 -0.070827369932504256 0.47191002425091882 0 -0.068559081518805076 0.45835199611034633 0 -0.068559081518805076 0.45835199611034633 0 -0.077789373777801207 0.45004699914674567 0 -0.082386356516429879 0.46485339086420507 0 -0.070827369932504256 0.47191002425091882 0 -0.068559081518805076 0.45835199611034633 0 -0.082386356516429879 0.46485339086420507 0 -0.068559081518805076 0.45835199611034633 0 -0.06587399311789309 0.43964302655693821 0 -0.077789373777801207 0.45004699914674567 0 -0.056826890086884782 0.45387242232003888 0 -0.068559081518805076 0.45835199611034633 0 -0.06587399311789309 0.43964302655693821 0 -0.083185786834978792 0.43706746613056319 0 -0.06587399311789309 0.43964302655693821 0 -0.077789373777801207 0.45004699914674567 0 -0.10144261324930939 0.43339458691365851 0 -0.083185786834978792 0.43706746613056319 0 -0.089586791434886431 0.44888560900677338 0 -0.083185786834978792 0.43706746613056319 0 -0.077789373777801207 0.45004699914674567 0 -0.089586791434886431 0.44888560900677338 0 -0.089586791434886431 0.44888560900677338 0 -0.082386356516429879 0.46485339086420507 0 -0.09475365201572987 0.46016939147278318 0 -0.082386356516429879 0.46485339086420507 0 -0.09475365201572987 0.46016939147278318 0 -0.095412022330185475 0.48008469573639129 0 -0.077789373777801207 0.45004699914674567 0 -0.089586791434886431 0.44888560900677338 0 -0.082386356516429879 0.46485339086420507 0 -0.089586791434886431 0.44888560900677338 0 -0.09475365201572987 0.46016939147278318 0 -0.10874697507704451 0.45559639127577312 0 -0.09475365201572987 0.46016939147278318 0 -0.10874697507704451 0.45559639127577312 0 -0.10437690453067031 0.47266429000407811 0 -0.10144261324930939 0.43339458691365851 0 -0.089586791434886431 0.44888560900677338 0 -0.10874697507704451 0.45559639127577312 0 -0.10144261324930939 0.43339458691365851 0 -0.10874697507704451 0.45559639127577312 0 -0.1284912810098896 0.46061049792051179 0 -0.10874697507704451 0.45559639127577312 0 -0.11882193292102521 0.44007033405516061 0 -0.10144261324930939 0.43339458691365851 0 -0.10874697507704451 0.45559639127577312 0 -0.11882193292102521 0.44007033405516061 0 -0.10874697507704451 0.45559639127577312 0 -0.1160513369047796 0.47779819563788761 0 -0.10874697507704451 0.45559639127577312 0 -0.1160513369047796 0.47779819563788761 0 -0.10437690453067031 0.47266429000407811 0 -0.1284912810098896 0.46061049792051179 0 -0.10874697507704451 0.45559639127577312 0 -0.1160513369047796 0.47779819563788761 0 -0.1160513369047796 0.47779819563788761 0 -0.1233556987325153 0.500000000000002 0 -0.10696890903076731 0.48837418274089189 0 -0.1160513369047796 0.47779819563788761 0 -0.1233556987325153 0.500000000000002 0 -0.13342404496474669 0.48359689433772451 0 -0.1160513369047796 0.47779819563788761 0 -0.1233556987325153 0.500000000000002 0 -0.1233556987325153 0.500000000000002 0 -0.096070392644641039 0.49999999999999939 0 -0.10696890903076731 0.48837418274089189 0 -0.096070392644641039 0.49999999999999939 0 -0.10696890903076731 0.48837418274089189 0 -0.095412022330185475 0.48008469573639129 0 -0.096070392644641039 0.49999999999999939 0 -0.095412022330185475 0.48008469573639129 0 -0.10696890903076731 0.48837418274089189 0 -0.095412022330185475 0.48008469573639129 0 -0.10437690453067031 0.47266429000407811 0 -0.09475365201572987 0.46016939147278318 0 -0.095412022330185475 0.48008469573639129 0 -0.09475365201572987 0.46016939147278318 0 -0.095412022330185475 0.48008469573639129 0 -0.10437690453067031 0.47266429000407811 0 -0.1160513369047796 0.47779819563788761 0 -0.10696890903076731 0.48837418274089189 0 -0.10437690453067031 0.47266429000407811 0 -0.16548656647397419 0.076984591136687486 0 -0.1827692443087352 0.086158210487876807 0 -0.15809790506297039 0.095345101239168881 0 -0.16548656647397419 0.076984591136687486 0 -0.1820654474124227 0.065124864949742206 0 -0.159140276758368 0.059950601200192709 0 -0.16548656647397419 0.076984591136687486 0 -0.14468748086200051 0.075882736880114821 0 -0.159140276758368 0.059950601200192709 0 -0.16548656647397419 0.076984591136687486 0 -0.1820654474124227 0.065124864949742206 0 -0.1827692443087352 0.086158210487876807 0 -0.1827692443087352 0.086158210487876807 0 -0.1797527739609977 0.10659282011050319 0 -0.15809790506297039 0.095345101239168881 0 -0.1797527739609977 0.10659282011050319 0 -0.15947575656411481 0.1147354520394001 0 -0.1793310819402654 0.12808700013431859 0 -0.1797527739609977 0.10659282011050319 0 -0.19461353999511341 0.11956935537710579 0 -0.1793310819402654 0.12808700013431859 0 -0.15947575656411481 0.1147354520394001 0 -0.16009037678993379 0.12915968358810409 0 -0.1793310819402654 0.12808700013431859 0 -0.15947575656411481 0.1147354520394001 0 -0.1793310819402654 0.12808700013431859 0 -0.1797527739609977 0.10659282011050319 0 -0.15947575656411481 0.1147354520394001 0 -0.15809790506297039 0.095345101239168881 0 -0.15947575656411481 0.1147354520394001 0 -0.15809790506297039 0.095345101239168881 0 -0.13962043118796411 0.1013839039444815 0 -0.15947575656411481 0.1147354520394001 0 -0.13962043118796411 0.1013839039444815 0 -0.15947575656411481 0.1147354520394001 0 -0.14125919281366131 0.1232137998428741 0 -0.13962043118796411 0.1013839039444815 0 -0.15947575656411481 0.1147354520394001 0 -0.14125919281366131 0.1232137998428741 0 -0.16009037678993379 0.12915968358810409 0 -0.14125919281366131 0.1232137998428741 0 -0.13962043118796411 0.1013839039444815 0 -0.12322663987887909 0.11474338507230079 0 -0.13962043118796411 0.1013839039444815 0 -0.11232677458086079 0.094556912890966599 0 -0.12322663987887909 0.11474338507230079 0 -0.13962043118796411 0.1013839039444815 0 -0.12607400417273021 0.081900850211831272 0 -0.14468748086200051 0.075882736880114821 0 -0.13962043118796411 0.1013839039444815 0 -0.12607400417273021 0.081900850211831272 0 -0.11232677458086079 0.094556912890966599 0 -0.16548656647397419 0.076984591136687486 0 -0.15809790506297039 0.095345101239168881 0 -0.14468748086200051 0.075882736880114821 0 -0.15809790506297039 0.095345101239168881 0 -0.13962043118796411 0.1013839039444815 0 -0.14468748086200051 0.075882736880114821 0 -0.14468748086200051 0.075882736880114821 0 -0.14254010359394659 0.051207228821853752 0 -0.1237306202926902 0.062636540988146597 0 -0.12607400417273021 0.081900850211831272 0 -0.14468748086200051 0.075882736880114821 0 -0.1237306202926902 0.062636540988146597 0 -0.12770050722718221 0.045047767505548009 0 -0.14254010359394659 0.051207228821853752 0 -0.1237306202926902 0.062636540988146597 0 -0.14254010359394659 0.051207228821853752 0 -0.13448929506215121 0.029253679166408211 0 -0.12770050722718221 0.045047767505548009 0 -0.14254010359394659 0.051207228821853752 0 -0.13448929506215121 0.029253679166408211 0 -0.12770050722718221 0.045047767505548009 0 -0.13448929506215121 0.029253679166408211 0 -0.11890597037357099 0.034613688374106569 0 -0.1540685702094092 0.034526536479222901 0 -0.14254010359394659 0.051207228821853752 0 -0.13448929506215121 0.029253679166408211 0 -0.14468748086200051 0.075882736880114821 0 -0.14254010359394659 0.051207228821853752 0 -0.159140276758368 0.059950601200192709 0 -0.1540685702094092 0.034526536479222901 0 -0.14254010359394659 0.051207228821853752 0 -0.159140276758368 0.059950601200192709 0 -0.13014224810698979 -0.0065110860010838848 0 -0.13738713309425291 0.0028340066447267299 0 -0.12643848653035569 0.0073001295109626626 0 -0.13738713309425291 0.0028340066447267299 0 -0.12643848653035569 0.0073001295109626626 0 -0.13979421488781099 0.013809379372905691 0 -0.12643848653035569 0.0073001295109626626 0 -0.13448929506215121 0.029253679166408211 0 -0.12643848653035569 0.0073001295109626626 0 -0.13448929506215121 0.029253679166408211 0 -0.1224677913916557 0.022477794084740169 0 -0.12643848653035569 0.0073001295109626626 0 -0.13979421488781099 0.013809379372905691 0 -0.13448929506215121 0.029253679166408211 0 -0.13448929506215121 0.029253679166408211 0 -0.1224677913916557 0.022477794084740169 0 -0.11890597037357099 0.034613688374106569 0 -0.1540685702094092 0.034526536479222901 0 -0.13448929506215121 0.029253679166408211 0 -0.1492880804390215 0.020403571034373191 0 -0.13979421488781099 0.013809379372905691 0 -0.13448929506215121 0.029253679166408211 0 -0.1492880804390215 0.020403571034373191 0 -0.1492880804390215 0.020403571034373191 0 -0.1512756197650294 0.0056731578998684452 0 -0.16681270227070699 0.018755102253460741 0 -0.13979421488781099 0.013809379372905691 0 -0.1492880804390215 0.020403571034373191 0 -0.1512756197650294 0.0056731578998684452 0 -0.13738713309425291 0.0028340066447267299 0 -0.13979421488781099 0.013809379372905691 0 -0.1512756197650294 0.0056731578998684452 0 -0.1407632337354531 -0.0062954722561057112 0 -0.13738713309425291 0.0028340066447267299 0 -0.1512756197650294 0.0056731578998684452 0 -0.1512756197650294 0.0056731578998684452 0 -0.16935449430775329 0.0011091571161891639 0 -0.16681270227070699 0.018755102253460741 0 -0.1540685702094092 0.034526536479222901 0 -0.1492880804390215 0.020403571034373191 0 -0.16681270227070699 0.018755102253460741 0 -0.16681270227070699 0.018755102253460741 0 -0.18488777875958429 0.029459993980760719 0 -0.18620498528574889 0.010680493889605571 0 -0.16935449430775329 0.0011091571161891639 0 -0.16681270227070699 0.018755102253460741 0 -0.18620498528574889 0.010680493889605571 0 -0.18744015302908129 -0.0056952105517294538 0 -0.16935449430775329 0.0011091571161891639 0 -0.18620498528574889 0.010680493889605571 0 -0.1540685702094092 0.034526536479222901 0 -0.159140276758368 0.059950601200192709 0 -0.1726085874264508 0.046445527523026997 0 -0.1820654474124227 0.065124864949742206 0 -0.159140276758368 0.059950601200192709 0 -0.1726085874264508 0.046445527523026997 0 -0.1540685702094092 0.034526536479222901 0 -0.16681270227070699 0.018755102253460741 0 -0.1726085874264508 0.046445527523026997 0 -0.18488777875958429 0.029459993980760719 0 -0.1726085874264508 0.046445527523026997 0 -0.20124482895372781 0.044625781763355632 0 -0.16681270227070699 0.018755102253460741 0 -0.18488777875958429 0.029459993980760719 0 -0.1726085874264508 0.046445527523026997 0 -0.1820654474124227 0.065124864949742206 0 -0.1726085874264508 0.046445527523026997 0 -0.20124482895372781 0.044625781763355632 0 -0.20124482895372781 0.044625781763355632 0 -0.20177776844232129 0.072918831666967929 0 -0.1820654474124227 0.065124864949742206 0 -0.20124482895372781 0.044625781763355632 0 -0.20177776844232129 0.072918831666967929 0 -0.20124482895372781 0.044625781763355632 0 -0.22875668202046229 0.05149333301640386 0 -0.22351128090588501 0.032848900755285133 0 -0.20124482895372781 0.044625781763355632 0 -0.21135707467623771 0.026419786605022231 0 -0.22351128090588501 0.032848900755285133 0 -0.20124482895372781 0.044625781763355632 0 -0.22875668202046229 0.05149333301640386 0 -0.20177776844232129 0.072918831666967929 0 -0.18620498528574889 0.010680493889605571 0 -0.2007118894651343 0.016332731859743269 0 -0.20698426585593729 0.0038329455032469241 0 -0.18744015302908129 -0.0056952105517294538 0 -0.18620498528574889 0.010680493889605571 0 -0.20698426585593729 0.0038329455032469241 0 -0.18488777875958429 0.029459993980760719 0 -0.20124482895372781 0.044625781763355632 0 -0.2007118894651343 0.016332731859743269 0 -0.20124482895372781 0.044625781763355632 0 -0.2007118894651343 0.016332731859743269 0 -0.18488777875958429 0.029459993980760719 0 -0.18620498528574889 0.010680493889605571 0 -0.2007118894651343 0.016332731859743269 0 -0.21135707467623771 0.026419786605022231 0 -0.21996029938020381 0.01187173204170491 0 -0.22351128090588501 0.032848900755285133 0 -0.20124482895372781 0.044625781763355632 0 -0.2007118894651343 0.016332731859743269 0 -0.21135707467623771 0.026419786605022231 0 -0.2007118894651343 0.016332731859743269 0 -0.21135707467623771 0.026419786605022231 0 -0.21996029938020381 0.01187173204170491 0 -0.2280522312554305 -0.0031112600764061221 0 -0.20698426585593729 0.0038329455032469241 0 -0.21996029938020381 0.01187173204170491 0 -0.2007118894651343 0.016332731859743269 0 -0.20698426585593729 0.0038329455032469241 0 -0.21996029938020381 0.01187173204170491 0 -0.2280522312554305 -0.0031112600764061221 0 -0.21996029938020381 0.01187173204170491 0 -0.24715136784709851 0.019544127397268959 0 -0.21996029938020381 0.01187173204170491 0 -0.2431054019094851 0.027035623456324601 0 -0.22351128090588501 0.032848900755285133 0 -0.21996029938020381 0.01187173204170491 0 -0.2431054019094851 0.027035623456324601 0 -0.21996029938020381 0.01187173204170491 0 -0.2431054019094851 0.027035623456324601 0 -0.24715136784709851 0.019544127397268959 0 -0.2280522312554305 -0.0031112600764061221 0 -0.24715136784709851 0.019544127397268959 0 -0.2280522312554305 -0.0031112600764061221 0 -0.24715136784709851 0.019544127397268959 0 -0.24587491164738959 0.0043270520053787006 0 -0.2513162794641734 0.011637224375976311 0 -0.24715136784709851 0.019544127397268959 0 -0.24587491164738959 0.0043270520053787006 0 -0.24530706110599959 -0.0074674868665740267 0 -0.25565325530567518 0.0057868627586625384 0 -0.24587491164738959 0.0043270520053787006 0 -0.22875668202046229 0.05149333301640386 0 -0.22351128090588501 0.032848900755285133 0 -0.23570038934836809 0.039590522633807697 0 -0.2431054019094851 0.027035623456324601 0 -0.22351128090588501 0.032848900755285133 0 -0.23570038934836809 0.039590522633807697 0 -0.22875668202046229 0.05149333301640386 0 -0.23570038934836809 0.039590522633807697 0 -0.24742819255764029 0.046984233307217217 0 -0.2431054019094851 0.027035623456324601 0 -0.23570038934836809 0.039590522633807697 0 -0.24742819255764029 0.046984233307217217 0 -0.22875668202046229 0.05149333301640386 0 -0.24742819255764029 0.046984233307217217 0 -0.24873223389209739 0.071440771527455052 0 -0.22875668202046229 0.05149333301640386 0 -0.24873223389209739 0.071440771527455052 0 -0.22757844906289679 0.075186843279614474 0 -0.25146419328691488 0.092293369550659005 0 -0.24873223389209739 0.071440771527455052 0 -0.23769222827091821 0.092162798193285517 0 -0.24873223389209739 0.071440771527455052 0 -0.23769222827091821 0.092162798193285517 0 -0.22757844906289679 0.075186843279614474 0 -0.23769222827091821 0.092162798193285517 0 -0.22757844906289679 0.075186843279614474 0 -0.22107385875325819 0.095868451809938221 0 -0.22875668202046229 0.05149333301640386 0 -0.22757844906289679 0.075186843279614474 0 -0.20177776844232129 0.072918831666967929 0 -0.22757844906289679 0.075186843279614474 0 -0.20177776844232129 0.072918831666967929 0 -0.22107385875325819 0.095868451809938221 0 -0.20177776844232129 0.072918831666967929 0 -0.2023107079309148 0.10121188157058029 0 -0.22107385875325819 0.095868451809938221 0 -0.20177776844232129 0.072918831666967929 0 -0.2023107079309148 0.10121188157058029 0 -0.1827692443087352 0.086158210487876807 0 -0.20177776844232129 0.072918831666967929 0 -0.2023107079309148 0.10121188157058029 0 -0.1820654474124227 0.065124864949742206 0 -0.1827692443087352 0.086158210487876807 0 -0.20177776844232129 0.072918831666967929 0 -0.1797527739609977 0.10659282011050319 0 -0.19461353999511341 0.11956935537710579 0 -0.2023107079309148 0.10121188157058029 0 -0.1827692443087352 0.086158210487876807 0 -0.1797527739609977 0.10659282011050319 0 -0.2023107079309148 0.10121188157058029 0 -0.2023107079309148 0.10121188157058029 0 -0.21248672882697259 0.12051652684089 0 -0.22107385875325819 0.095868451809938221 0 -0.19461353999511341 0.11956935537710579 0 -0.2023107079309148 0.10121188157058029 0 -0.21248672882697259 0.12051652684089 0 -0.21248672882697259 0.12051652684089 0 -0.23110491807821201 0.11260123159119929 0 -0.22107385875325819 0.095868451809938221 0 -0.21248672882697259 0.12051652684089 0 -0.23110491807821201 0.11260123159119929 0 -0.22991209928888121 0.1284713073291098 0 -0.23769222827091821 0.092162798193285517 0 -0.23110491807821201 0.11260123159119929 0 -0.22107385875325819 0.095868451809938221 0 -0.23769222827091821 0.092162798193285517 0 -0.23110491807821201 0.11260123159119929 0 -0.2453855617984193 0.10654566054510189 0 -0.25146419328691488 0.092293369550659005 0 -0.23769222827091821 0.092162798193285517 0 -0.2453855617984193 0.10654566054510189 0 -0.23110491807821201 0.11260123159119929 0 -0.2453855617984193 0.10654566054510189 0 -0.24990378432808949 0.12190467797273639 0 -0.23110491807821201 0.11260123159119929 0 -0.24990378432808949 0.12190467797273639 0 -0.22991209928888121 0.1284713073291098 0 -0.25438616355168048 0.1367677488002505 0 -0.24990378432808949 0.12190467797273639 0 -0.23907993130390179 0.14252150892863319 0 -0.24990378432808949 0.12190467797273639 0 -0.22991209928888121 0.1284713073291098 0 -0.23907993130390179 0.14252150892863319 0 -0.21248672882697259 0.12051652684089 0 -0.22991209928888121 0.1284713073291098 0 -0.21913316931015911 0.1419800285789348 0 -0.22991209928888121 0.1284713073291098 0 -0.21913316931015911 0.1419800285789348 0 -0.23907993130390179 0.14252150892863319 0 -0.21913316931015911 0.1419800285789348 0 -0.22057517452074241 0.15582124650335341 0 -0.23907993130390179 0.14252150892863319 0 -0.22057517452074241 0.15582124650335341 0 -0.23907993130390179 0.14252150892863319 0 -0.24196394172506869 0.17020394477746961 0 -0.21913316931015911 0.1419800285789348 0 -0.23907993130390179 0.14252150892863319 0 -0.2595055321116313 0.15109420390976111 0 -0.23907993130390179 0.14252150892863319 0 -0.24196394172506869 0.17020394477746961 0 -0.25439980846308041 0.18291948599303731 0 -0.2422096932028717 0.1825869388911959 0 -0.24685674409102309 0.1927201471117356 0 -0.25439980846308041 0.18291948599303731 0 -0.24196394172506869 0.17020394477746961 0 -0.2422096932028717 0.1825869388911959 0 -0.24196394172506869 0.17020394477746961 0 -0.2422096932028717 0.1825869388911959 0 -0.23072385662529671 0.18394717617255571 0 -0.2422096932028717 0.1825869388911959 0 -0.23072385662529671 0.18394717617255571 0 -0.24045294081640889 0.18824760281592959 0 -0.24196394172506869 0.17020394477746961 0 -0.23072385662529671 0.18394717617255571 0 -0.21979363526022991 0.17646538159417199 0 -0.23072385662529671 0.18394717617255571 0 -0.21979363526022991 0.17646538159417199 0 -0.2087305252397412 0.19902779403189369 0 -0.22057517452074241 0.15582124650335341 0 -0.24196394172506869 0.17020394477746961 0 -0.21979363526022991 0.17646538159417199 0 -0.22057517452074241 0.15582124650335341 0 -0.24196394172506869 0.17020394477746961 0 -0.22057517452074241 0.15582124650335341 0 -0.20945300122498259 0.16780349531916 0 -0.20280273719195499 0.15788619238718121 0 -0.22057517452074241 0.15582124650335341 0 -0.21979363526022991 0.17646538159417199 0 -0.20945300122498259 0.16780349531916 0 -0.20945300122498259 0.16780349531916 0 -0.20280273719195499 0.15788619238718121 0 -0.1977421802991948 0.1691106758288059 0 -0.21979363526022991 0.17646538159417199 0 -0.20507344921363271 0.18167209180790919 0 -0.2087305252397412 0.19902779403189369 0 -0.21979363526022991 0.17646538159417199 0 -0.20945300122498259 0.16780349531916 0 -0.20507344921363271 0.18167209180790919 0 -0.20945300122498259 0.16780349531916 0 -0.20507344921363271 0.18167209180790919 0 -0.1977421802991948 0.1691106758288059 0 -0.20507344921363271 0.18167209180790919 0 -0.18803999736958829 0.18214889981679239 0 -0.1977421802991948 0.1691106758288059 0 -0.18803999736958829 0.18214889981679239 0 -0.1977421802991948 0.1691106758288059 0 -0.1847276015344278 0.16107637964273019 0 -0.20280273719195499 0.15788619238718121 0 -0.1977421802991948 0.1691106758288059 0 -0.1847276015344278 0.16107637964273019 0 -0.20280273719195499 0.15788619238718121 0 -0.1991864073164164 0.14143854822923679 0 -0.1847276015344278 0.16107637964273019 0 -0.1991864073164164 0.14143854822923679 0 -0.1793310819402654 0.12808700013431859 0 -0.19461353999511341 0.11956935537710579 0 -0.1991864073164164 0.14143854822923679 0 -0.1793310819402654 0.12808700013431859 0 -0.19461353999511341 0.11956935537710579 0 -0.21248672882697259 0.12051652684089 0 -0.1991864073164164 0.14143854822923679 0 -0.21248672882697259 0.12051652684089 0 -0.21913316931015911 0.1419800285789348 0 -0.1991864073164164 0.14143854822923679 0 -0.22057517452074241 0.15582124650335341 0 -0.1991864073164164 0.14143854822923679 0 -0.22057517452074241 0.15582124650335341 0 -0.20280273719195499 0.15788619238718121 0 -0.1991864073164164 0.14143854822923679 0 -0.21913316931015911 0.1419800285789348 0 -0.1991864073164164 0.14143854822923679 0 -0.21913316931015911 0.1419800285789348 0 -0.22057517452074241 0.15582124650335341 0 -0.1991864073164164 0.14143854822923679 0 -0.22168090821336769 0.25429339660362582 0 -0.2339593849407943 0.23807094887472571 0 -0.21593150784010301 0.23197963053467671 0 -0.2506263941714858 0.24704315055313489 0 -0.24044006788963049 0.26248568527812322 0 -0.2339593849407943 0.23807094887472571 0 -0.2506263941714858 0.24704315055313489 0 -0.2444711343498851 0.22195195185913669 0 -0.2506263941714858 0.24704315055313489 0 -0.2339593849407943 0.23807094887472571 0 -0.2444711343498851 0.22195195185913669 0 -0.2339593849407943 0.23807094887472571 0 -0.2246633815334946 0.21351051089002551 0 -0.21593150784010301 0.23197963053467671 0 -0.2339593849407943 0.23807094887472571 0 -0.2444711343498851 0.22195195185913669 0 -0.2246633815334946 0.21351051089002551 0 -0.2246633815334946 0.21351051089002551 0 -0.23831587452828451 0.19686075316513871 0 -0.2087305252397412 0.19902779403189369 0 -0.2444711343498851 0.22195195185913669 0 -0.23831587452828451 0.19686075316513871 0 -0.25274632867820113 0.20926577990401499 0 -0.2444711343498851 0.22195195185913669 0 -0.23831587452828451 0.19686075316513871 0 -0.2444711343498851 0.22195195185913669 0 -0.2246633815334946 0.21351051089002551 0 -0.23831587452828451 0.19686075316513871 0 -0.25590979458900298 0.19557204964482031 0 -0.23831587452828451 0.19686075316513871 0 -0.25590979458900298 0.19557204964482031 0 -0.25274632867820113 0.20926577990401499 0 -0.23831587452828451 0.19686075316513871 0 -0.25590979458900298 0.19557204964482031 0 -0.23831587452828451 0.19686075316513871 0 -0.24685674409102309 0.1927201471117356 0 -0.2422096932028717 0.1825869388911959 0 -0.24685674409102309 0.1927201471117356 0 -0.24045294081640889 0.18824760281592959 0 -0.24685674409102309 0.1927201471117356 0 -0.24045294081640889 0.18824760281592959 0 -0.24082404401471141 0.19264323763741081 0 -0.23072385662529671 0.18394717617255571 0 -0.24045294081640889 0.18824760281592959 0 -0.23736930306127141 0.19300216499091619 0 -0.24045294081640889 0.18824760281592959 0 -0.24082404401471141 0.19264323763741081 0 -0.23736930306127141 0.19300216499091619 0 -0.23831587452828451 0.19686075316513871 0 -0.24685674409102309 0.1927201471117356 0 -0.24082404401471141 0.19264323763741081 0 -0.23831587452828451 0.19686075316513871 0 -0.24082404401471141 0.19264323763741081 0 -0.23736930306127141 0.19300216499091619 0 -0.23831587452828451 0.19686075316513871 0 -0.23736930306127141 0.19300216499091619 0 -0.23831587452828451 0.19686075316513871 0 -0.23736930306127141 0.19300216499091619 0 -0.2087305252397412 0.19902779403189369 0 -0.23831587452828451 0.19686075316513871 0 -0.2087305252397412 0.19902779403189369 0 -0.23072385662529671 0.18394717617255571 0 -0.23736930306127141 0.19300216499091619 0 -0.2087305252397412 0.19902779403189369 0 -0.2246633815334946 0.21351051089002551 0 -0.2087305252397412 0.19902779403189369 0 -0.21593150784010301 0.23197963053467671 0 -0.2087305252397412 0.19902779403189369 0 -0.19558432516538171 0.23380888061252419 0 -0.18412204285653419 0.21725729424382331 0 -0.2087305252397412 0.19902779403189369 0 -0.17914517595119789 0.20119483489864881 0 -0.20507344921363271 0.18167209180790919 0 -0.18803999736958829 0.18214889981679239 0 -0.2087305252397412 0.19902779403189369 0 -0.18803999736958829 0.18214889981679239 0 -0.2087305252397412 0.19902779403189369 0 -0.17914517595119789 0.20119483489864881 0 -0.2087305252397412 0.19902779403189369 0 -0.18412204285653419 0.21725729424382331 0 -0.17914517595119789 0.20119483489864881 0 -0.2087305252397412 0.19902779403189369 0 -0.21593150784010301 0.23197963053467671 0 -0.19558432516538171 0.23380888061252419 0 -0.18678621132647921 0.25345374768324042 0 -0.19558432516538171 0.23380888061252419 0 -0.2043428464604839 0.2486692865158838 0 -0.22168090821336769 0.25429339660362582 0 -0.21593150784010301 0.23197963053467671 0 -0.2043428464604839 0.2486692865158838 0 -0.21593150784010301 0.23197963053467671 0 -0.19558432516538171 0.23380888061252419 0 -0.2043428464604839 0.2486692865158838 0 -0.1703721653593539 0.2354550794604176 0 -0.15167892330737689 0.2248358023153158 0 -0.14903113098341919 0.24309704453464831 0 -0.16349777408373389 0.25975841557579682 0 -0.1703721653593539 0.2354550794604176 0 -0.14903113098341919 0.24309704453464831 0 -0.18678621132647921 0.25345374768324042 0 -0.19558432516538171 0.23380888061252419 0 -0.1703721653593539 0.2354550794604176 0 -0.18678621132647921 0.25345374768324042 0 -0.16349777408373389 0.25975841557579682 0 -0.1703721653593539 0.2354550794604176 0 -0.1703721653593539 0.2354550794604176 0 -0.16677802256699609 0.21679988221563221 0 -0.18412204285653419 0.21725729424382331 0 -0.19558432516538171 0.23380888061252419 0 -0.1703721653593539 0.2354550794604176 0 -0.18412204285653419 0.21725729424382331 0 -0.1703721653593539 0.2354550794604176 0 -0.16677802256699609 0.21679988221563221 0 -0.15167892330737689 0.2248358023153158 0 -0.16677802256699609 0.21679988221563221 0 -0.17914517595119789 0.20119483489864881 0 -0.14955982666265449 0.20336187576540379 0 -0.16677802256699609 0.21679988221563221 0 -0.18412204285653419 0.21725729424382331 0 -0.17914517595119789 0.20119483489864881 0 -0.18803999736958829 0.18214889981679239 0 -0.17914517595119789 0.20119483489864881 0 -0.17105370595421349 0.17975780935751229 0 -0.17914517595119789 0.20119483489864881 0 -0.15674691421717751 0.1883182387706939 0 -0.17105370595421349 0.17975780935751229 0 -0.17914517595119789 0.20119483489864881 0 -0.14955982666265449 0.20336187576540379 0 -0.17914517595119789 0.20119483489864881 0 -0.15674691421717751 0.1883182387706939 0 -0.14955982666265449 0.20336187576540379 0 -0.15674691421717751 0.1883182387706939 0 -0.13350408064792449 0.19014828437248291 0 -0.14955982666265449 0.20336187576540379 0 -0.13350408064792449 0.19014828437248291 0 -0.14955982666265449 0.20336187576540379 0 -0.1199744773741111 0.2055289166321565 0 -0.13350408064792449 0.19014828437248291 0 -0.1199744773741111 0.2055289166321565 0 -0.13124020913307549 0.21444393496688741 0 -0.14955982666265449 0.20336187576540379 0 -0.1402013826031451 0.22109722285407701 0 -0.14955982666265449 0.20336187576540379 0 -0.1199744773741111 0.2055289166321565 0 -0.13124020913307549 0.21444393496688741 0 -0.14955982666265449 0.20336187576540379 0 -0.1199744773741111 0.2055289166321565 0 -0.16677802256699609 0.21679988221563221 0 -0.14955982666265449 0.20336187576540379 0 -0.15167892330737689 0.2248358023153158 0 -0.14955982666265449 0.20336187576540379 0 -0.15167892330737689 0.2248358023153158 0 -0.1402013826031451 0.22109722285407701 0 -0.15167892330737689 0.2248358023153158 0 -0.1369221373478256 0.23277931933455681 0 -0.14903113098341919 0.24309704453464831 0 -0.15167892330737689 0.2248358023153158 0 -0.1402013826031451 0.22109722285407701 0 -0.1369221373478256 0.23277931933455681 0 -0.1402013826031451 0.22109722285407701 0 -0.1267288250580953 0.22407515112570239 0 -0.1369221373478256 0.23277931933455681 0 -0.13124020913307549 0.21444393496688741 0 -0.1402013826031451 0.22109722285407701 0 -0.1267288250580953 0.22407515112570239 0 -0.13124020913307549 0.21444393496688741 0 -0.1267288250580953 0.22407515112570239 0 -0.11973653396737161 0.21815650845709739 0 -0.1267288250580953 0.22407515112570239 0 -0.1369221373478256 0.23277931933455681 0 -0.1225223365703481 0.23724056906739729 0 -0.1369221373478256 0.23277931933455681 0 -0.13137022556456901 0.2463301261102 0 -0.14903113098341919 0.24309704453464831 0 -0.1369221373478256 0.23277931933455681 0 -0.13137022556456901 0.2463301261102 0 -0.1225223365703481 0.23724056906739729 0 -0.14167078060778221 0.2599720405400307 0 -0.13137022556456901 0.2463301261102 0 -0.14903113098341919 0.24309704453464831 0 -0.17254023488206521 0.14071520382013339 0 -0.16056328719555621 0.15938701985313991 0 -0.14589406244771391 0.13999185941103059 0 -0.16009037678993379 0.12915968358810409 0 -0.17254023488206521 0.14071520382013339 0 -0.14589406244771391 0.13999185941103059 0 -0.16009037678993379 0.12915968358810409 0 -0.1793310819402654 0.12808700013431859 0 -0.17254023488206521 0.14071520382013339 0 -0.17254023488206521 0.14071520382013339 0 -0.14589406244771391 0.13999185941103059 0 -0.1991864073164164 0.14143854822923679 0 -0.1793310819402654 0.12808700013431859 0 -0.17254023488206521 0.14071520382013339 0 -0.1991864073164164 0.14143854822923679 0 -0.17254023488206521 0.14071520382013339 0 -0.1847276015344278 0.16107637964273019 0 -0.1991864073164164 0.14143854822923679 0 -0.17254023488206521 0.14071520382013339 0 -0.17254023488206521 0.14071520382013339 0 -0.1847276015344278 0.16107637964273019 0 -0.16056328719555621 0.15938701985313991 0 -0.1847276015344278 0.16107637964273019 0 -0.17105370595421349 0.17975780935751229 0 -0.16056328719555621 0.15938701985313991 0 -0.18803999736958829 0.18214889981679239 0 -0.1847276015344278 0.16107637964273019 0 -0.17105370595421349 0.17975780935751229 0 -0.15674691421717751 0.1883182387706939 0 -0.17105370595421349 0.17975780935751229 0 -0.14703368392174029 0.17476765211281139 0 -0.17105370595421349 0.17975780935751229 0 -0.16056328719555621 0.15938701985313991 0 -0.14703368392174029 0.17476765211281139 0 -0.16056328719555621 0.15938701985313991 0 -0.14703368392174029 0.17476765211281139 0 -0.13189233767738659 0.15843685620431111 0 -0.16056328719555621 0.15938701985313991 0 -0.14703368392174029 0.17476765211281139 0 -0.15674691421717751 0.1883182387706939 0 -0.13350408064792449 0.19014828437248291 0 -0.14703368392174029 0.17476765211281139 0 -0.13350408064792449 0.19014828437248291 0 -0.14703368392174029 0.17476765211281139 0 -0.13016565400986799 0.17500906994271059 0 -0.13350408064792449 0.19014828437248291 0 -0.14703368392174029 0.17476765211281139 0 -0.13350408064792449 0.19014828437248291 0 -0.13016565400986799 0.17500906994271059 0 -0.1194652091154394 0.1900862994558446 0 -0.14703368392174029 0.17476765211281139 0 -0.13016565400986799 0.17500906994271059 0 -0.13189233767738659 0.15843685620431111 0 -0.13016565400986799 0.17500906994271059 0 -0.13189233767738659 0.15843685620431111 0 -0.1142209879753147 0.17000444002131229 0 -0.13189233767738659 0.15843685620431111 0 -0.14589406244771391 0.13999185941103059 0 -0.1192478900133626 0.1392685150019278 0 -0.16056328719555621 0.15938701985313991 0 -0.13189233767738659 0.15843685620431111 0 -0.14589406244771391 0.13999185941103059 0 -0.14125919281366131 0.1232137998428741 0 -0.16009037678993379 0.12915968358810409 0 -0.14589406244771391 0.13999185941103059 0 -0.14125919281366131 0.1232137998428741 0 -0.14589406244771391 0.13999185941103059 0 -0.1192478900133626 0.1392685150019278 0 -0.14125919281366131 0.1232137998428741 0 -0.1192478900133626 0.1392685150019278 0 -0.12322663987887909 0.11474338507230079 0 -0.14589406244771391 0.13999185941103059 0 -0.1192478900133626 0.1392685150019278 0 -0.1192478900133626 0.1392685150019278 0 -0.092601717579011145 0.13854517059282501 0 -0.1017273554966981 0.1162386909884906 0 -0.1192478900133626 0.1392685150019278 0 -0.092601717579011145 0.13854517059282501 0 -0.1058281611404556 0.15302912652446521 0 -0.092601717579011145 0.13854517059282501 0 -0.085419246517259989 0.15609365649518309 0 -0.1192478900133626 0.1392685150019278 0 -0.1058281611404556 0.15302912652446521 0 -0.092601717579011145 0.13854517059282501 0 -0.13189233767738659 0.15843685620431111 0 -0.1192478900133626 0.1392685150019278 0 -0.1058281611404556 0.15302912652446521 0 -0.13189233767738659 0.15843685620431111 0 -0.1058281611404556 0.15302912652446521 0 -0.1142209879753147 0.17000444002131229 0 -0.1142209879753147 0.17000444002131229 0 -0.1194652091154394 0.1900862994558446 0 -0.1055719873161023 0.19548224520996099 0 -0.13016565400986799 0.17500906994271059 0 -0.1142209879753147 0.17000444002131229 0 -0.1194652091154394 0.1900862994558446 0 -0.1142209879753147 0.17000444002131229 0 -0.1055719873161023 0.19548224520996099 0 -0.1142209879753147 0.17000444002131229 0 -0.098842907741937241 0.1829384105876645 0 -0.1055719873161023 0.19548224520996099 0 -0.1142209879753147 0.17000444002131229 0 -0.098842907741937241 0.1829384105876645 0 -0.094178997971798434 0.17085865215845089 0 -0.1058281611404556 0.15302912652446521 0 -0.1142209879753147 0.17000444002131229 0 -0.094178997971798434 0.17085865215845089 0 -0.1058281611404556 0.15302912652446521 0 -0.094178997971798434 0.17085865215845089 0 -0.085419246517259989 0.15609365649518309 0 -0.094178997971798434 0.17085865215845089 0 -0.075970254362848086 0.17338081261361871 0 -0.085419246517259989 0.15609365649518309 0 -0.094178997971798434 0.17085865215845089 0 -0.087110760144863381 0.18439020402869541 0 -0.075970254362848086 0.17338081261361871 0 -0.098842907741937241 0.1829384105876645 0 -0.087110760144863381 0.18439020402869541 0 -0.093131805301607432 0.1939565115199029 0 -0.098842907741937241 0.1829384105876645 0 -0.094178997971798434 0.17085865215845089 0 -0.087110760144863381 0.18439020402869541 0 -0.087110760144863381 0.18439020402869541 0 -0.076654003412107402 0.18635004644147279 0 -0.075970254362848086 0.17338081261361871 0 -0.075970254362848086 0.17338081261361871 0 -0.063839181738336775 0.18801926773565941 0 -0.060929852837445682 0.17050467315999901 0 -0.076654003412107402 0.18635004644147279 0 -0.075970254362848086 0.17338081261361871 0 -0.063839181738336775 0.18801926773565941 0 -0.075970254362848086 0.17338081261361871 0 -0.066951880361755603 0.15576406099206799 0 -0.060929852837445682 0.17050467315999901 0 -0.075970254362848086 0.17338081261361871 0 -0.066951880361755603 0.15576406099206799 0 -0.085419246517259989 0.15609365649518309 0 -0.077732097400671607 0.14705617856594949 0 -0.066951880361755603 0.15576406099206799 0 -0.065955545144659761 0.1378218261837221 0 -0.077732097400671607 0.14705617856594949 0 -0.066951880361755603 0.15576406099206799 0 -0.085419246517259989 0.15609365649518309 0 -0.065955545144659761 0.1378218261837221 0 -0.064808019014786528 0.1256921638208876 0 -0.078454185218300637 0.122871032247569 0 -0.092601717579011145 0.13854517059282501 0 -0.078454185218300637 0.122871032247569 0 -0.1017273554966981 0.1162386909884906 0 -0.065955545144659761 0.1378218261837221 0 -0.092601717579011145 0.13854517059282501 0 -0.065955545144659761 0.1378218261837221 0 -0.092601717579011145 0.13854517059282501 0 -0.078454185218300637 0.122871032247569 0 -0.077732097400671607 0.14705617856594949 0 -0.065955545144659761 0.1378218261837221 0 -0.092601717579011145 0.13854517059282501 0 -0.077732097400671607 0.14705617856594949 0 -0.092601717579011145 0.13854517059282501 0 -0.085419246517259989 0.15609365649518309 0 -0.099934217010288789 0.2406467680583228 0 -0.096922986656890031 0.22096005039860969 0 -0.088273985997677717 0.24643785558725831 0 -0.097254329417332905 0.25217657764012291 0 -0.1047489070558071 0.2520418779122241 0 -0.099934217010288789 0.2406467680583228 0 -0.097254329417332905 0.25217657764012291 0 -0.099934217010288789 0.2406467680583228 0 -0.088273985997677717 0.24643785558725831 0 -0.099934217010288789 0.2406467680583228 0 -0.1095604764402202 0.2409989783069795 0 -0.1055130597601423 0.23032006822528761 0 -0.1047489070558071 0.2520418779122241 0 -0.099934217010288789 0.2406467680583228 0 -0.1095604764402202 0.2409989783069795 0 -0.1047489070558071 0.2520418779122241 0 -0.11667465663438301 0.25100537099451209 0 -0.1095604764402202 0.2409989783069795 0 -0.11667465663438301 0.25100537099451209 0 -0.1225223365703481 0.23724056906739729 0 -0.1095604764402202 0.2409989783069795 0 -0.11667465663438301 0.25100537099451209 0 -0.13137022556456901 0.2463301261102 0 -0.1225223365703481 0.23724056906739729 0 -0.1225223365703481 0.23724056906739729 0 -0.1095604764402202 0.2409989783069795 0 -0.1152029187471216 0.22880298466086069 0 -0.1095604764402202 0.2409989783069795 0 -0.1152029187471216 0.22880298466086069 0 -0.1055130597601423 0.23032006822528761 0 -0.1267288250580953 0.22407515112570239 0 -0.1225223365703481 0.23724056906739729 0 -0.1152029187471216 0.22880298466086069 0 -0.1267288250580953 0.22407515112570239 0 -0.1152029187471216 0.22880298466086069 0 -0.11973653396737161 0.21815650845709739 0 -0.1152029187471216 0.22880298466086069 0 -0.10747264070475469 0.21974117019866851 0 -0.11973653396737161 0.21815650845709739 0 -0.1152029187471216 0.22880298466086069 0 -0.10747264070475469 0.21974117019866851 0 -0.1055130597601423 0.23032006822528761 0 -0.099934217010288789 0.2406467680583228 0 -0.1055130597601423 0.23032006822528761 0 -0.096922986656890031 0.22096005039860969 0 -0.10747264070475469 0.21974117019866851 0 -0.1055130597601423 0.23032006822528761 0 -0.096922986656890031 0.22096005039860969 0 -0.096922986656890031 0.22096005039860969 0 -0.1093432706871288 0.20630762162999131 0 -0.1055719873161023 0.19548224520996099 0 -0.096922986656890031 0.22096005039860969 0 -0.1055719873161023 0.19548224520996099 0 -0.092229676263578295 0.20522887352008201 0 -0.096922986656890031 0.22096005039860969 0 -0.1055719873161023 0.19548224520996099 0 -0.10747264070475469 0.21974117019866851 0 -0.096922986656890031 0.22096005039860969 0 -0.1093432706871288 0.20630762162999131 0 -0.10747264070475469 0.21974117019866851 0 -0.1199744773741111 0.2055289166321565 0 -0.10747264070475469 0.21974117019866851 0 -0.11973653396737161 0.21815650845709739 0 -0.1199744773741111 0.2055289166321565 0 -0.13124020913307549 0.21444393496688741 0 -0.11973653396737161 0.21815650845709739 0 -0.1199744773741111 0.2055289166321565 0 -0.1093432706871288 0.20630762162999131 0 -0.1199744773741111 0.2055289166321565 0 -0.10747264070475469 0.21974117019866851 0 -0.1093432706871288 0.20630762162999131 0 -0.1199744773741111 0.2055289166321565 0 -0.1093432706871288 0.20630762162999131 0 -0.1199744773741111 0.2055289166321565 0 -0.11358873612319539 0.19935127073198841 0 -0.1093432706871288 0.20630762162999131 0 -0.11358873612319539 0.19935127073198841 0 -0.1055719873161023 0.19548224520996099 0 -0.1199744773741111 0.2055289166321565 0 -0.11358873612319539 0.19935127073198841 0 -0.1194652091154394 0.1900862994558446 0 -0.13350408064792449 0.19014828437248291 0 -0.1199744773741111 0.2055289166321565 0 -0.1194652091154394 0.1900862994558446 0 -0.11358873612319539 0.19935127073198841 0 -0.1194652091154394 0.1900862994558446 0 -0.1055719873161023 0.19548224520996099 0 -0.1055719873161023 0.19548224520996099 0 -0.093131805301607432 0.1939565115199029 0 -0.092229676263578295 0.20522887352008201 0 -0.098842907741937241 0.1829384105876645 0 -0.1055719873161023 0.19548224520996099 0 -0.093131805301607432 0.1939565115199029 0 -0.087110760144863381 0.18439020402869541 0 -0.093131805301607432 0.1939565115199029 0 -0.080117917311718481 0.19882168464501651 0 -0.093131805301607432 0.1939565115199029 0 -0.080117917311718481 0.19882168464501651 0 -0.092229676263578295 0.20522887352008201 0 -0.087110760144863381 0.18439020402869541 0 -0.076654003412107402 0.18635004644147279 0 -0.080117917311718481 0.19882168464501651 0 -0.076654003412107402 0.18635004644147279 0 -0.080117917311718481 0.19882168464501651 0 -0.063839181738336775 0.18801926773565941 0 -0.080117917311718481 0.19882168464501651 0 -0.063839181738336775 0.18801926773565941 0 -0.064855308119512817 0.20976376902974261 0 -0.064855308119512817 0.20976376902974261 0 -0.083604740968374863 0.2158248590539488 0 -0.074086406897043877 0.22600869597990761 0 -0.080117917311718481 0.19882168464501651 0 -0.064855308119512817 0.20976376902974261 0 -0.083604740968374863 0.2158248590539488 0 -0.080117917311718481 0.19882168464501651 0 -0.083604740968374863 0.2158248590539488 0 -0.092229676263578295 0.20522887352008201 0 -0.096922986656890031 0.22096005039860969 0 -0.083604740968374863 0.2158248590539488 0 -0.092229676263578295 0.20522887352008201 0 -0.096922986656890031 0.22096005039860969 0 -0.088273985997677717 0.24643785558725831 0 -0.096922986656890031 0.22096005039860969 0 -0.085909125250514681 0.23142810242577189 0 -0.088273985997677717 0.24643785558725831 0 -0.096922986656890031 0.22096005039860969 0 -0.085909125250514681 0.23142810242577189 0 -0.08513081494320586 0.22355542696455949 0 -0.096922986656890031 0.22096005039860969 0 -0.083604740968374863 0.2158248590539488 0 -0.08513081494320586 0.22355542696455949 0 -0.085909125250514681 0.23142810242577189 0 -0.08513081494320586 0.22355542696455949 0 -0.074086406897043877 0.22600869597990761 0 -0.085909125250514681 0.23142810242577189 0 -0.074086406897043877 0.22600869597990761 0 -0.074883417759580351 0.23688445471429229 0 -0.083604740968374863 0.2158248590539488 0 -0.08513081494320586 0.22355542696455949 0 -0.074086406897043877 0.22600869597990761 0 -0.064855308119512817 0.20976376902974261 0 -0.074086406897043877 0.22600869597990761 0 -0.060150766234662978 0.22700975356674169 0 -0.074086406897043877 0.22600869597990761 0 -0.064237175145926542 0.2390559433665024 0 -0.060150766234662978 0.22700975356674169 0 -0.074086406897043877 0.22600869597990761 0 -0.074883417759580351 0.23688445471429229 0 -0.064237175145926542 0.2390559433665024 0 -0.074883417759580351 0.23688445471429229 0 -0.064237175145926542 0.2390559433665024 0 -0.076844330228939689 0.24902911725631471 0 -0.05512228116409737 0.25450414514278707 0 -0.064237175145926542 0.2390559433665024 0 -0.076844330228939689 0.24902911725631471 0 -0.074883417759580351 0.23688445471429229 0 -0.076844330228939689 0.24902911725631471 0 -0.081477714809178106 0.24094488249590931 0 -0.076844330228939689 0.24902911725631471 0 -0.081477714809178106 0.24094488249590931 0 -0.088273985997677717 0.24643785558725831 0 -0.085909125250514681 0.23142810242577189 0 -0.081477714809178106 0.24094488249590931 0 -0.088273985997677717 0.24643785558725831 0 -0.085909125250514681 0.23142810242577189 0 -0.074883417759580351 0.23688445471429229 0 -0.081477714809178106 0.24094488249590931 0 -0.033400232099255182 0.25997917302925971 0 -0.034222294701352018 0.2384722069349669 0 -0.048730387742958223 0.24087062929249631 0 -0.05512228116409737 0.25450414514278707 0 -0.064237175145926542 0.2390559433665024 0 -0.048730387742958223 0.24087062929249631 0 -0.064237175145926542 0.2390559433665024 0 -0.048730387742958223 0.24087062929249631 0 -0.060150766234662978 0.22700975356674169 0 -0.048730387742958223 0.24087062929249631 0 -0.048844553267873472 0.2193497301650599 0 -0.060150766234662978 0.22700975356674169 0 -0.034222294701352018 0.2384722069349669 0 -0.048730387742958223 0.24087062929249631 0 -0.048844553267873472 0.2193497301650599 0 -0.034222294701352018 0.2384722069349669 0 -0.048844553267873472 0.2193497301650599 0 -0.032627497217864371 0.21670313581290709 0 -0.048844553267873472 0.2193497301650599 0 -0.032627497217864371 0.21670313581290709 0 -0.043910907951563931 0.19383057050635941 0 -0.032627497217864371 0.21670313581290709 0 -0.043910907951563931 0.19383057050635941 0 -0.02586432435807429 0.20288961489205809 0 -0.064855308119512817 0.20976376902974261 0 -0.048844553267873472 0.2193497301650599 0 -0.060150766234662978 0.22700975356674169 0 -0.064855308119512817 0.20976376902974261 0 -0.048844553267873472 0.2193497301650599 0 -0.043910907951563931 0.19383057050635941 0 -0.063839181738336775 0.18801926773565941 0 -0.064855308119512817 0.20976376902974261 0 -0.043910907951563931 0.19383057050635941 0 -0.043910907951563931 0.19383057050635941 0 -0.02542371560548683 0.1922993024662554 0 -0.02586432435807429 0.20288961489205809 0 -0.043910907951563931 0.19383057050635941 0 -0.02542371560548683 0.1922993024662554 0 -0.0233907203530564 0.1789796794399163 0 -0.02542371560548683 0.1922993024662554 0 -0.02586432435807429 0.20288961489205809 0 -0.015751481065963739 0.1945879612681532 0 -0.02586432435807429 0.20288961489205809 0 -0.015751481065963739 0.1945879612681532 0 -0.015719749459700959 0.20436148458781961 0 -0.02542371560548683 0.1922993024662554 0 -0.015751481065963739 0.1945879612681532 0 -0.017996797887801789 0.1868453471749642 0 -0.0073576351490438549 0.19943555449587169 0 0.003451728691173037 0.20920049077016331 0 0.0036961993017142949 0.18958129754698291 0 -0.015751481065963739 0.1945879612681532 0 -0.0078822615623409704 0.18911974495316319 0 -0.017996797887801789 0.1868453471749642 0 -0.015751481065963739 0.1945879612681532 0 -0.0078822615623409704 0.18911974495316319 0 -0.0073576351490438549 0.19943555449587169 0 -0.0078822615623409704 0.18911974495316319 0 -0.0073576351490438549 0.19943555449587169 0 0.0036961993017142949 0.18958129754698291 0 -0.015751481065963739 0.1945879612681532 0 -0.0073576351490438549 0.19943555449587169 0 -0.015719749459700959 0.20436148458781961 0 -0.0073576351490438549 0.19943555449587169 0 -0.010186443294049771 0.2122865160688665 0 -0.015719749459700959 0.20436148458781961 0 -0.0073576351490438549 0.19943555449587169 0 -0.010186443294049771 0.2122865160688665 0 0.003451728691173037 0.20920049077016331 0 -0.0021315750627880418 0.21735966672682289 0 -0.010186443294049771 0.2122865160688665 0 0.003451728691173037 0.20920049077016331 0 -0.0021315750627880418 0.21735966672682289 0 -0.010186443294049771 0.2122865160688665 0 -0.0067891013756084997 0.22522802391136909 0 -0.010186443294049771 0.2122865160688665 0 -0.021405685546540529 0.21366237269001209 0 -0.01907070761406059 0.2251773865526904 0 -0.02586432435807429 0.20288961489205809 0 -0.021405685546540529 0.21366237269001209 0 -0.015719749459700959 0.20436148458781961 0 -0.010186443294049771 0.2122865160688665 0 -0.021405685546540529 0.21366237269001209 0 -0.015719749459700959 0.20436148458781961 0 -0.032627497217864371 0.21670313581290709 0 -0.021405685546540529 0.21366237269001209 0 -0.01907070761406059 0.2251773865526904 0 -0.032627497217864371 0.21670313581290709 0 -0.02586432435807429 0.20288961489205809 0 -0.021405685546540529 0.21366237269001209 0 -0.034222294701352018 0.2384722069349669 0 -0.01907070761406059 0.2251773865526904 0 -0.0061601503043545378 0.23859323913217001 0 -0.034222294701352018 0.2384722069349669 0 -0.032627497217864371 0.21670313581290709 0 -0.01907070761406059 0.2251773865526904 0 -0.0067891013756084997 0.22522802391136909 0 -0.0061601503043545378 0.23859323913217001 0 0.004997515727333068 0.22272363615689281 0 -0.010186443294049771 0.2122865160688665 0 -0.01907070761406059 0.2251773865526904 0 -0.0067891013756084997 0.22522802391136909 0 -0.0021315750627880418 0.21735966672682289 0 -0.0067891013756084997 0.22522802391136909 0 0.004997515727333068 0.22272363615689281 0 -0.01907070761406059 0.2251773865526904 0 -0.0067891013756084997 0.22522802391136909 0 -0.0061601503043545378 0.23859323913217001 0 -0.0071567094876491466 0.25418764894853862 0 -0.0061601503043545378 0.23859323913217001 0 -0.02211123597793023 0.24877847883455881 0 -0.034222294701352018 0.2384722069349669 0 -0.0061601503043545378 0.23859323913217001 0 -0.033400232099255182 0.25997917302925971 0 -0.034222294701352018 0.2384722069349669 0 -0.02211123597793023 0.24877847883455881 0 -0.034222294701352018 0.2384722069349669 0 -0.0061601503043545378 0.23859323913217001 0 -0.02211123597793023 0.24877847883455881 0 -0.041609137560825071 0.15169330172994011 0 -0.039309372710308342 0.13709848177462111 0 -0.052939329891830769 0.14449634560007091 0 -0.039309372710308342 0.13709848177462111 0 -0.052939329891830769 0.14449634560007091 0 -0.041609137560825071 0.15169330172994011 0 -0.032669460748885673 0.15790490925460141 0 -0.028093915532547621 0.14677037312404931 0 -0.041609137560825071 0.15169330172994011 0 -0.039309372710308342 0.13709848177462111 0 -0.028093915532547621 0.14677037312404931 0 -0.039309372710308342 0.13709848177462111 0 -0.05336381963266585 0.12791600899863481 0 -0.044271313290875233 0.1201246647069233 0 -0.039309372710308342 0.13709848177462111 0 -0.030691139557465309 0.1206834044916857 0 -0.044271313290875233 0.1201246647069233 0 -0.065955545144659761 0.1378218261837221 0 -0.039309372710308342 0.13709848177462111 0 -0.052939329891830769 0.14449634560007091 0 -0.065955545144659761 0.1378218261837221 0 -0.039309372710308342 0.13709848177462111 0 -0.05336381963266585 0.12791600899863481 0 -0.065955545144659761 0.1378218261837221 0 -0.039309372710308342 0.13709848177462111 0 -0.065955545144659761 0.1378218261837221 0 -0.064808019014786528 0.1256921638208876 0 -0.05336381963266585 0.12791600899863481 0 -0.066951880361755603 0.15576406099206799 0 -0.065955545144659761 0.1378218261837221 0 -0.052939329891830769 0.14449634560007091 0 -0.041609137560825071 0.15169330172994011 0 -0.052939329891830769 0.14449634560007091 0 -0.053730942153608657 0.157822206097082 0 -0.066951880361755603 0.15576406099206799 0 -0.052939329891830769 0.14449634560007091 0 -0.053730942153608657 0.157822206097082 0 -0.066951880361755603 0.15576406099206799 0 -0.060929852837445682 0.17050467315999901 0 -0.053730942153608657 0.157822206097082 0 -0.060929852837445682 0.17050467315999901 0 -0.053730942153608657 0.157822206097082 0 -0.043240713015041468 0.16684904611826981 0 -0.060929852837445682 0.17050467315999901 0 -0.050811983291680497 0.18000540844488311 0 -0.043240713015041468 0.16684904611826981 0 -0.063839181738336775 0.18801926773565941 0 -0.043910907951563931 0.19383057050635941 0 -0.050811983291680497 0.18000540844488311 0 -0.063839181738336775 0.18801926773565941 0 -0.060929852837445682 0.17050467315999901 0 -0.050811983291680497 0.18000540844488311 0 -0.043910907951563931 0.19383057050635941 0 -0.050811983291680497 0.18000540844488311 0 -0.037933640983798228 0.17767251355506561 0 -0.043910907951563931 0.19383057050635941 0 -0.037933640983798228 0.17767251355506561 0 -0.0233907203530564 0.1789796794399163 0 -0.043910907951563931 0.19383057050635941 0 -0.0233907203530564 0.1789796794399163 0 -0.050811983291680497 0.18000540844488311 0 -0.037933640983798228 0.17767251355506561 0 -0.043240713015041468 0.16684904611826981 0 -0.037933640983798228 0.17767251355506561 0 -0.043240713015041468 0.16684904611826981 0 -0.027437709488437032 0.16804141094317809 0 -0.043240713015041468 0.16684904611826981 0 -0.032669460748885673 0.15790490925460141 0 -0.027437709488437032 0.16804141094317809 0 -0.041609137560825071 0.15169330172994011 0 -0.043240713015041468 0.16684904611826981 0 -0.032669460748885673 0.15790490925460141 0 -0.041609137560825071 0.15169330172994011 0 -0.053730942153608657 0.157822206097082 0 -0.043240713015041468 0.16684904611826981 0 -0.032669460748885673 0.15790490925460141 0 -0.027437709488437032 0.16804141094317809 0 -0.022965828147577132 0.15617041435756979 0 -0.027437709488437032 0.16804141094317809 0 -0.021128134095702428 0.16912984632904821 0 -0.017908459261672911 0.1615988128694654 0 -0.021128134095702428 0.16912984632904821 0 -0.015775647279643382 0.16789948206363289 0 -0.017908459261672911 0.1615988128694654 0 -0.027437709488437032 0.16804141094317809 0 -0.017908459261672911 0.1615988128694654 0 -0.022965828147577132 0.15617041435756979 0 -0.017908459261672911 0.1615988128694654 0 -0.010675830432671519 0.15301190599608699 0 -0.022965828147577132 0.15617041435756979 0 -0.037933640983798228 0.17767251355506561 0 -0.027437709488437032 0.16804141094317809 0 -0.0233907203530564 0.1789796794399163 0 -0.027437709488437032 0.16804141094317809 0 -0.021128134095702428 0.16912984632904821 0 -0.0233907203530564 0.1789796794399163 0 -0.021128134095702428 0.16912984632904821 0 -0.015775647279643382 0.16789948206363289 0 -0.0233907203530564 0.1789796794399163 0 -0.02542371560548683 0.1922993024662554 0 -0.0233907203530564 0.1789796794399163 0 -0.017996797887801789 0.1868453471749642 0 -0.017996797887801789 0.1868453471749642 0 -0.0001735715219213247 0.16806162224099741 0 -0.017996797887801789 0.1868453471749642 0 -0.0062813018504378803 0.18132315385757439 0 -0.0001735715219213247 0.16806162224099741 0 -0.0233907203530564 0.1789796794399163 0 -0.017996797887801789 0.1868453471749642 0 -0.0001735715219213247 0.16806162224099741 0 -0.0078822615623409704 0.18911974495316319 0 -0.017996797887801789 0.1868453471749642 0 -0.0062813018504378803 0.18132315385757439 0 -0.0062813018504378803 0.18132315385757439 0 -0.0001735715219213247 0.16806162224099741 0 0.00085076948173431642 0.1765918509455687 0 -0.0078822615623409704 0.18911974495316319 0 -0.0062813018504378803 0.18132315385757439 0 0.00026123120752966398 0.18276211002737811 0 -0.0078822615623409704 0.18911974495316319 0 0.00026123120752966398 0.18276211002737811 0 0.0036961993017142949 0.18958129754698291 0 -0.0062813018504378803 0.18132315385757439 0 0.00026123120752966398 0.18276211002737811 0 0.00085076948173431642 0.1765918509455687 0 -0.0233907203530564 0.1789796794399163 0 -0.0028705327545488612 0.16412878837347319 0 -0.0001735715219213247 0.16806162224099741 0 -0.015775647279643382 0.16789948206363289 0 -0.0233907203530564 0.1789796794399163 0 -0.0028705327545488612 0.16412878837347319 0 -0.0233907203530564 0.1789796794399163 0 -0.0028705327545488612 0.16412878837347319 0 -0.01069376369152421 0.1613230353312326 0 -0.00584535241630562 0.16011386088902471 0 -0.010675830432671519 0.15301190599608699 0 -0.017908459261672911 0.1615988128694654 0 -0.01069376369152421 0.1613230353312326 0 -0.010675830432671519 0.15301190599608699 0 -0.015775647279643382 0.16789948206363289 0 -0.017908459261672911 0.1615988128694654 0 -0.01069376369152421 0.1613230353312326 0 -0.015775647279643382 0.16789948206363289 0 -0.01069376369152421 0.1613230353312326 0 -0.0028705327545488612 0.16412878837347319 0 -0.01069376369152421 0.1613230353312326 0 -0.0028705327545488612 0.16412878837347319 0 -0.00584535241630562 0.16011386088902471 0 -0.0028705327545488612 0.16412878837347319 0 -0.00584535241630562 0.16011386088902471 0 -0.0037919842162381949 0.15559755141672471 0 -0.0028705327545488612 0.16412878837347319 0 -0.0037919842162381949 0.15559755141672471 0 0.003243036490446848 0.15084415072815791 0 -0.0037919842162381949 0.15559755141672471 0 -0.003025438028186161 0.148769893974603 0 0.003243036490446848 0.15084415072815791 0 -0.0037919842162381949 0.15559755141672471 0 -0.003025438028186161 0.148769893974603 0 -0.010675830432671519 0.15301190599608699 0 -0.00584535241630562 0.16011386088902471 0 -0.0037919842162381949 0.15559755141672471 0 -0.010675830432671519 0.15301190599608699 0 -0.003025438028186161 0.148769893974603 0 -0.0060618363772924474 0.1424755875544898 0 0.002316921317612661 0.14450668830263219 0 -0.003025438028186161 0.148769893974603 0 -0.0060618363772924474 0.1424755875544898 0 -0.010675830432671519 0.15301190599608699 0 -0.0060618363772924474 0.1424755875544898 0 -0.016732879864956311 0.14697807786662589 0 -0.015866988834692831 0.1364621083009338 0 -0.0060618363772924474 0.1424755875544898 0 -0.010675830432671519 0.15301190599608699 0 -0.016732879864956311 0.14697807786662589 0 -0.022965828147577132 0.15617041435756979 0 -0.016732879864956311 0.14697807786662589 0 -0.028093915532547621 0.14677037312404931 0 -0.010675830432671519 0.15301190599608699 0 -0.022965828147577132 0.15617041435756979 0 -0.016732879864956311 0.14697807786662589 0 -0.016732879864956311 0.14697807786662589 0 -0.028093915532547621 0.14677037312404931 0 -0.015866988834692831 0.1364621083009338 0 -0.032669460748885673 0.15790490925460141 0 -0.022965828147577132 0.15617041435756979 0 -0.028093915532547621 0.14677037312404931 0 -0.039309372710308342 0.13709848177462111 0 -0.015866988834692831 0.1364621083009338 0 -0.039309372710308342 0.13709848177462111 0 -0.015866988834692831 0.1364621083009338 0 -0.015272427369830919 0.1240520689326489 0 -0.039309372710308342 0.13709848177462111 0 -0.015272427369830919 0.1240520689326489 0 -0.039309372710308342 0.13709848177462111 0 -0.015272427369830919 0.1240520689326489 0 -0.030691139557465309 0.1206834044916857 0 -0.039309372710308342 0.13709848177462111 0 -0.028093915532547621 0.14677037312404931 0 -0.015866988834692831 0.1364621083009338 0 -0.0041328492516540614 0.1295769578348627 0 -0.015272427369830919 0.1240520689326489 0 0.0070326241569847042 0.12196791927861959 0 -0.015866988834692831 0.1364621083009338 0 0.0075753950409227994 0.13582573482724841 0 -0.015866988834692831 0.1364621083009338 0 -0.0041328492516540614 0.1295769578348627 0 -0.015272427369830919 0.1240520689326489 0 -0.0060618363772924474 0.1424755875544898 0 -0.015866988834692831 0.1364621083009338 0 0.0075753950409227994 0.13582573482724841 0 -0.015866988834692831 0.1364621083009338 0 -0.0041328492516540614 0.1295769578348627 0 0.0075753950409227994 0.13582573482724841 0 -0.015272427369830919 0.1240520689326489 0 -0.006806245091420195 0.1109890458716775 0 0.0087645179706455148 0.111005656090675 0 -0.015272427369830919 0.1240520689326489 0 0.0087645179706455148 0.111005656090675 0 -0.015272427369830919 0.1240520689326489 0 -0.006806245091420195 0.1109890458716775 0 -0.02049773854259709 0.1096927256051265 0 -0.007733741616847362 0.1014884258732389 0 0.0017792866621465389 0.098305776869591535 0 0.00085505385116209105 0.1054539967605458 0 -0.006806245091420195 0.1109890458716775 0 -0.007733741616847362 0.1014884258732389 0 0.00085505385116209105 0.1054539967605458 0 -0.007733741616847362 0.1014884258732389 0 -0.00476415137174095 0.087523430645981476 0 0.0017792866621465389 0.098305776869591535 0 -0.007733741616847362 0.1014884258732389 0 -0.016968655208634571 0.096965579486510509 0 -0.00476415137174095 0.087523430645981476 0 -0.007733741616847362 0.1014884258732389 0 -0.016968655208634571 0.096965579486510509 0 -0.02049773854259709 0.1096927256051265 0 -0.006806245091420195 0.1109890458716775 0 -0.007733741616847362 0.1014884258732389 0 -0.02049773854259709 0.1096927256051265 0 -0.02856906893308251 0.097943404412639268 0 -0.02049773854259709 0.1096927256051265 0 -0.036286275186187607 0.1097242400991264 0 -0.016968655208634571 0.096965579486510509 0 -0.02856906893308251 0.097943404412639268 0 -0.02049773854259709 0.1096927256051265 0 -0.030691139557465309 0.1206834044916857 0 -0.02049773854259709 0.1096927256051265 0 -0.036286275186187607 0.1097242400991264 0 -0.015272427369830919 0.1240520689326489 0 -0.030691139557465309 0.1206834044916857 0 -0.02049773854259709 0.1096927256051265 0 -0.011653212509134181 0.076446456377151889 0 -0.00476415137174095 0.087523430645981476 0 0.00049563818546232645 0.069993478308037288 0 -0.011653212509134181 0.076446456377151889 0 -0.01314905750637628 0.061166182281393262 0 0.00049563818546232645 0.069993478308037288 0 -0.011653212509134181 0.076446456377151889 0 -0.00476415137174095 0.087523430645981476 0 -0.018777237840955519 0.085834339841969212 0 -0.016968655208634571 0.096965579486510509 0 -0.00476415137174095 0.087523430645981476 0 -0.018777237840955519 0.085834339841969212 0 -0.016968655208634571 0.096965579486510509 0 -0.02856906893308251 0.097943404412639268 0 -0.018777237840955519 0.085834339841969212 0 -0.02856906893308251 0.097943404412639268 0 -0.031036533463556341 0.08636051476802889 0 -0.018777237840955519 0.085834339841969212 0 -0.031036533463556341 0.08636051476802889 0 -0.018777237840955519 0.085834339841969212 0 -0.023839055536170571 0.075374249386680692 0 -0.011653212509134181 0.076446456377151889 0 -0.018777237840955519 0.085834339841969212 0 -0.023839055536170571 0.075374249386680692 0 -0.023839055536170571 0.075374249386680692 0 -0.03164835478367195 0.064528117383054612 0 -0.01314905750637628 0.061166182281393262 0 -0.011653212509134181 0.076446456377151889 0 -0.023839055536170571 0.075374249386680692 0 -0.01314905750637628 0.061166182281393262 0 -0.03164835478367195 0.064528117383054612 0 -0.041408808287780062 0.079542862443892887 0 -0.049469145888637781 0.065236649709909528 0 -0.023839055536170571 0.075374249386680692 0 -0.03164835478367195 0.064528117383054612 0 -0.041408808287780062 0.079542862443892887 0 -0.031036533463556341 0.08636051476802889 0 -0.023839055536170571 0.075374249386680692 0 -0.041408808287780062 0.079542862443892887 0 -0.031036533463556341 0.08636051476802889 0 -0.041408808287780062 0.079542862443892887 0 -0.040349441552434633 0.095474562139073571 0 -0.041408808287780062 0.079542862443892887 0 -0.05128660302644357 0.090281253069432063 0 -0.040349441552434633 0.095474562139073571 0 -0.02856906893308251 0.097943404412639268 0 -0.031036533463556341 0.08636051476802889 0 -0.040349441552434633 0.095474562139073571 0 -0.041408808287780062 0.079542862443892887 0 -0.05128660302644357 0.090281253069432063 0 -0.057636031368725693 0.079039451073239453 0 -0.05128660302644357 0.090281253069432063 0 -0.057636031368725693 0.079039451073239453 0 -0.065489672083028236 0.093449053875252902 0 -0.041408808287780062 0.079542862443892887 0 -0.057636031368725693 0.079039451073239453 0 -0.049469145888637781 0.065236649709909528 0 -0.057636031368725693 0.079039451073239453 0 -0.049469145888637781 0.065236649709909528 0 -0.066427716716295798 0.064399057074335755 0 -0.044271313290875233 0.1201246647069233 0 -0.036286275186187607 0.1097242400991264 0 -0.049754176945038787 0.10462644580789079 0 -0.030691139557465309 0.1206834044916857 0 -0.044271313290875233 0.1201246647069233 0 -0.036286275186187607 0.1097242400991264 0 -0.02856906893308251 0.097943404412639268 0 -0.036286275186187607 0.1097242400991264 0 -0.040349441552434633 0.095474562139073571 0 -0.036286275186187607 0.1097242400991264 0 -0.040349441552434633 0.095474562139073571 0 -0.049754176945038787 0.10462644580789079 0 -0.049754176945038787 0.10462644580789079 0 -0.061458526063519911 0.1141597878536246 0 -0.065489672083028236 0.093449053875252902 0 -0.05128660302644357 0.090281253069432063 0 -0.049754176945038787 0.10462644580789079 0 -0.065489672083028236 0.093449053875252902 0 -0.05128660302644357 0.090281253069432063 0 -0.040349441552434633 0.095474562139073571 0 -0.049754176945038787 0.10462644580789079 0 -0.044271313290875233 0.1201246647069233 0 -0.049754176945038787 0.10462644580789079 0 -0.061458526063519911 0.1141597878536246 0 -0.05336381963266585 0.12791600899863481 0 -0.044271313290875233 0.1201246647069233 0 -0.061458526063519911 0.1141597878536246 0 -0.064808019014786528 0.1256921638208876 0 -0.05336381963266585 0.12791600899863481 0 -0.061458526063519911 0.1141597878536246 0 -0.061458526063519911 0.1141597878536246 0 -0.078454185218300637 0.122871032247569 0 -0.082072285987612958 0.1042416245730379 0 -0.064808019014786528 0.1256921638208876 0 -0.061458526063519911 0.1141597878536246 0 -0.078454185218300637 0.122871032247569 0 -0.078454185218300637 0.122871032247569 0 -0.082072285987612958 0.1042416245730379 0 -0.1017273554966981 0.1162386909884906 0 -0.082072285987612958 0.1042416245730379 0 -0.084090513395082375 0.084292022572764788 0 -0.095569180701834788 0.095196611374263884 0 -0.082072285987612958 0.1042416245730379 0 -0.1017273554966981 0.1162386909884906 0 -0.095569180701834788 0.095196611374263884 0 -0.082072285987612958 0.1042416245730379 0 -0.065489672083028236 0.093449053875252902 0 -0.084090513395082375 0.084292022572764788 0 -0.061458526063519911 0.1141597878536246 0 -0.082072285987612958 0.1042416245730379 0 -0.065489672083028236 0.093449053875252902 0 -0.057636031368725693 0.079039451073239453 0 -0.065489672083028236 0.093449053875252902 0 -0.071455994615371679 0.077364493684159846 0 -0.065489672083028236 0.093449053875252902 0 -0.071455994615371679 0.077364493684159846 0 -0.084090513395082375 0.084292022572764788 0 -0.057636031368725693 0.079039451073239453 0 -0.066427716716295798 0.064399057074335755 0 -0.071455994615371679 0.077364493684159846 0 -0.066427716716295798 0.064399057074335755 0 -0.071455994615371679 0.077364493684159846 0 -0.080629657961544532 0.068679611580488867 0 -0.066427716716295798 0.064399057074335755 0 -0.080629657961544532 0.068679611580488867 0 -0.078725033287105547 0.057765759239058169 0 -0.071455994615371679 0.077364493684159846 0 -0.080629657961544532 0.068679611580488867 0 -0.084090513395082375 0.084292022572764788 0 -0.080629657961544532 0.068679611580488867 0 -0.093723694103235167 0.068823994991214776 0 -0.084090513395082375 0.084292022572764788 0 -0.080629657961544532 0.068679611580488867 0 -0.093723694103235167 0.068823994991214776 0 -0.087605687792032622 0.059599440343874793 0 -0.093723694103235167 0.068823994991214776 0 -0.084090513395082375 0.084292022572764788 0 -0.09680613809550484 0.081387489860394346 0 -0.084090513395082375 0.084292022572764788 0 -0.09680613809550484 0.081387489860394346 0 -0.095569180701834788 0.095196611374263884 0 -0.09680613809550484 0.081387489860394346 0 -0.11232677458086079 0.094556912890966599 0 -0.095569180701834788 0.095196611374263884 0 -0.09680613809550484 0.081387489860394346 0 -0.1100047139401356 0.075044156355446798 0 -0.11232677458086079 0.094556912890966599 0 -0.093723694103235167 0.068823994991214776 0 -0.1100047139401356 0.075044156355446798 0 -0.1086124173535918 0.060099752896084449 0 -0.093723694103235167 0.068823994991214776 0 -0.09680613809550484 0.081387489860394346 0 -0.1100047139401356 0.075044156355446798 0 -0.12607400417273021 0.081900850211831272 0 -0.1100047139401356 0.075044156355446798 0 -0.1237306202926902 0.062636540988146597 0 -0.1100047139401356 0.075044156355446798 0 -0.1237306202926902 0.062636540988146597 0 -0.1086124173535918 0.060099752896084449 0 -0.12607400417273021 0.081900850211831272 0 -0.1100047139401356 0.075044156355446798 0 -0.11232677458086079 0.094556912890966599 0 -0.11232677458086079 0.094556912890966599 0 -0.12322663987887909 0.11474338507230079 0 -0.1017273554966981 0.1162386909884906 0 -0.1192478900133626 0.1392685150019278 0 -0.12322663987887909 0.11474338507230079 0 -0.1017273554966981 0.1162386909884906 0 -0.11232677458086079 0.094556912890966599 0 -0.1017273554966981 0.1162386909884906 0 -0.095569180701834788 0.095196611374263884 0 -0.10465488276963709 0.03072793568410543 0 -0.11152128038409891 0.008037257769811252 0 -0.110037413600545 0.018743679287483252 0 -0.10465488276963709 0.03072793568410543 0 -0.110037413600545 0.018743679287483252 0 -0.1012831171846385 0.043627677706834331 0 -0.10465488276963709 0.03072793568410543 0 -0.11152128038409891 0.008037257769811252 0 -0.089974959573605726 0.013352867962913019 0 -0.110037413600545 0.018743679287483252 0 -0.1012831171846385 0.043627677706834331 0 -0.10465488276963709 0.03072793568410543 0 -0.087792277776700234 0.027882397329581171 0 -0.089974959573605726 0.013352867962913019 0 -0.10465488276963709 0.03072793568410543 0 -0.11152128038409891 0.008037257769811252 0 -0.1026956870853256 -0.0074300779337511079 0 -0.089974959573605726 0.013352867962913019 0 -0.1026956870853256 -0.0074300779337511079 0 -0.11152128038409891 0.008037257769811252 0 -0.089974959573605726 0.013352867962913019 0 -0.1181942733492 -0.0062964785643825974 0 -0.11152128038409891 0.008037257769811252 0 -0.110037413600545 0.018743679287483252 0 -0.1181942733492 -0.0062964785643825974 0 -0.12643848653035569 0.0073001295109626626 0 -0.110037413600545 0.018743679287483252 0 -0.1181942733492 -0.0062964785643825974 0 -0.110037413600545 0.018743679287483252 0 -0.110037413600545 0.018743679287483252 0 -0.1224677913916557 0.022477794084740169 0 -0.11890597037357099 0.034613688374106569 0 -0.12643848653035569 0.0073001295109626626 0 -0.110037413600545 0.018743679287483252 0 -0.1224677913916557 0.022477794084740169 0 -0.11890597037357099 0.034613688374106569 0 -0.115740985430623 0.048964991401874852 0 -0.1012831171846385 0.043627677706834331 0 -0.110037413600545 0.018743679287483252 0 -0.11890597037357099 0.034613688374106569 0 -0.1012831171846385 0.043627677706834331 0 -0.12770050722718221 0.045047767505548009 0 -0.11890597037357099 0.034613688374106569 0 -0.115740985430623 0.048964991401874852 0 -0.12770050722718221 0.045047767505548009 0 -0.1237306202926902 0.062636540988146597 0 -0.115740985430623 0.048964991401874852 0 -0.1237306202926902 0.062636540988146597 0 -0.115740985430623 0.048964991401874852 0 -0.1086124173535918 0.060099752896084449 0 -0.115740985430623 0.048964991401874852 0 -0.1086124173535918 0.060099752896084449 0 -0.1012831171846385 0.043627677706834331 0 -0.1086124173535918 0.060099752896084449 0 -0.098650538739133042 0.053699428528631597 0 -0.1012831171846385 0.043627677706834331 0 -0.098650538739133042 0.053699428528631597 0 -0.1012831171846385 0.043627677706834331 0 -0.093723694103235167 0.068823994991214776 0 -0.098650538739133042 0.053699428528631597 0 -0.093723694103235167 0.068823994991214776 0 -0.1086124173535918 0.060099752896084449 0 -0.098650538739133042 0.053699428528631597 0 -0.10465488276963709 0.03072793568410543 0 -0.091582818141517627 0.039544467105551713 0 -0.087792277776700234 0.027882397329581171 0 -0.10465488276963709 0.03072793568410543 0 -0.1012831171846385 0.043627677706834331 0 -0.098650538739133042 0.053699428528631597 0 -0.1012831171846385 0.043627677706834331 0 -0.091582818141517627 0.039544467105551713 0 -0.10465488276963709 0.03072793568410543 0 -0.1012831171846385 0.043627677706834331 0 -0.091582818141517627 0.039544467105551713 0 -0.079520829056435011 0.037425140856082707 0 -0.087161568453102509 0.049309222310212467 0 -0.070335214168201973 0.049735592149566223 0 -0.091582818141517627 0.039544467105551713 0 -0.079520829056435011 0.037425140856082707 0 -0.087792277776700234 0.027882397329581171 0 -0.091582818141517627 0.039544467105551713 0 -0.079520829056435011 0.037425140856082707 0 -0.087161568453102509 0.049309222310212467 0 -0.087161568453102509 0.049309222310212467 0 -0.078725033287105547 0.057765759239058169 0 -0.070335214168201973 0.049735592149566223 0 -0.093723694103235167 0.068823994991214776 0 -0.098650538739133042 0.053699428528631597 0 -0.087605687792032622 0.059599440343874793 0 -0.098650538739133042 0.053699428528631597 0 -0.091582818141517627 0.039544467105551713 0 -0.087161568453102509 0.049309222310212467 0 -0.098650538739133042 0.053699428528631597 0 -0.087605687792032622 0.059599440343874793 0 -0.087161568453102509 0.049309222310212467 0 -0.080629657961544532 0.068679611580488867 0 -0.087605687792032622 0.059599440343874793 0 -0.078725033287105547 0.057765759239058169 0 -0.087605687792032622 0.059599440343874793 0 -0.087161568453102509 0.049309222310212467 0 -0.078725033287105547 0.057765759239058169 0 -0.066427716716295798 0.064399057074335755 0 -0.078725033287105547 0.057765759239058169 0 -0.070335214168201973 0.049735592149566223 0 -0.070335214168201973 0.049735592149566223 0 -0.065129044260066174 0.038969245921099009 0 -0.057132679368498432 0.052363312393224067 0 -0.066427716716295798 0.064399057074335755 0 -0.070335214168201973 0.049735592149566223 0 -0.057132679368498432 0.052363312393224067 0 -0.079520829056435011 0.037425140856082707 0 -0.065129044260066174 0.038969245921099009 0 -0.071235804349229756 0.020443523540498821 0 -0.079520829056435011 0.037425140856082707 0 -0.070335214168201973 0.049735592149566223 0 -0.065129044260066174 0.038969245921099009 0 -0.065129044260066174 0.038969245921099009 0 -0.071235804349229756 0.020443523540498821 0 -0.05657952609587838 0.028520600176919951 0 -0.071235804349229756 0.020443523540498821 0 -0.087792277776700234 0.027882397329581171 0 -0.089974959573605726 0.013352867962913019 0 -0.079520829056435011 0.037425140856082707 0 -0.071235804349229756 0.020443523540498821 0 -0.087792277776700234 0.027882397329581171 0 -0.08543111947802963 -0.0096173047182570252 0 -0.089974959573605726 0.013352867962913019 0 -0.074089197287396574 0.003089560188189522 0 -0.071235804349229756 0.020443523540498821 0 -0.089974959573605726 0.013352867962913019 0 -0.074089197287396574 0.003089560188189522 0 -0.071235804349229756 0.020443523540498821 0 -0.074089197287396574 0.003089560188189522 0 -0.058863159750131268 0.0042186236050882524 0 -0.058863159750131268 0.0042186236050882524 0 -0.051988743584234193 0.016679794651823621 0 -0.041505087676753059 0.01002118496410152 0 -0.071235804349229756 0.020443523540498821 0 -0.058863159750131268 0.0042186236050882524 0 -0.051988743584234193 0.016679794651823621 0 -0.047148328916374133 -0.0060219220954354086 0 -0.058863159750131268 0.0042186236050882524 0 -0.041505087676753059 0.01002118496410152 0 -0.071235804349229756 0.020443523540498821 0 -0.05657952609587838 0.028520600176919951 0 -0.051988743584234193 0.016679794651823621 0 -0.05657952609587838 0.028520600176919951 0 -0.051988743584234193 0.016679794651823621 0 -0.043278946275677112 0.026588572328721 0 -0.043278946275677112 0.026588572328721 0 -0.041505087676753059 0.01002118496410152 0 -0.023441604643605229 0.02580694909528498 0 -0.043278946275677112 0.026588572328721 0 -0.036378380922166963 0.038554941167851922 0 -0.023441604643605229 0.02580694909528498 0 -0.051988743584234193 0.016679794651823621 0 -0.043278946275677112 0.026588572328721 0 -0.041505087676753059 0.01002118496410152 0 -0.047148328916374133 -0.0060219220954354086 0 -0.036017492828171162 -0.0016407105890012051 0 -0.041505087676753059 0.01002118496410152 0 -0.036017492828171162 -0.0016407105890012051 0 -0.041505087676753059 0.01002118496410152 0 -0.023981194886863379 0.0035969300986321649 0 -0.049469145888637781 0.065236649709909528 0 -0.066427716716295798 0.064399057074335755 0 -0.057132679368498432 0.052363312393224067 0 -0.049469145888637781 0.065236649709909528 0 -0.057132679368498432 0.052363312393224067 0 -0.041443127901538077 0.052865083762307641 0 -0.057132679368498432 0.052363312393224067 0 -0.049780334731424902 0.039947963916344031 0 -0.041443127901538077 0.052865083762307641 0 -0.065129044260066174 0.038969245921099009 0 -0.057132679368498432 0.052363312393224067 0 -0.049780334731424902 0.039947963916344031 0 -0.065129044260066174 0.038969245921099009 0 -0.05657952609587838 0.028520600176919951 0 -0.049780334731424902 0.039947963916344031 0 -0.05657952609587838 0.028520600176919951 0 -0.043278946275677112 0.026588572328721 0 -0.049780334731424902 0.039947963916344031 0 -0.036378380922166963 0.038554941167851922 0 -0.041443127901538077 0.052865083762307641 0 -0.023052829789270091 0.047867388618860363 0 -0.043278946275677112 0.026588572328721 0 -0.049780334731424902 0.039947963916344031 0 -0.036378380922166963 0.038554941167851922 0 -0.049780334731424902 0.039947963916344031 0 -0.036378380922166963 0.038554941167851922 0 -0.041443127901538077 0.052865083762307641 0 -0.03164835478367195 0.064528117383054612 0 -0.041443127901538077 0.052865083762307641 0 -0.023052829789270091 0.047867388618860363 0 -0.03164835478367195 0.064528117383054612 0 -0.049469145888637781 0.065236649709909528 0 -0.041443127901538077 0.052865083762307641 0 -0.03164835478367195 0.064528117383054612 0 -0.023052829789270091 0.047867388618860363 0 -0.01314905750637628 0.061166182281393262 0 -0.036378380922166963 0.038554941167851922 0 -0.023052829789270091 0.047867388618860363 0 -0.023441604643605229 0.02580694909528498 0 -0.023052829789270091 0.047867388618860363 0 -0.0086502023004267226 0.039890449796429972 0 -0.023441604643605229 0.02580694909528498 0 -0.0086502023004267226 0.039890449796429972 0 -0.0037706103704985179 0.025862549939520241 0 0.0038962522382065181 0.03716030904464155 0 -0.01314905750637628 0.061166182281393262 0 0.0054667234378713292 0.055404071962543419 0 0.00049563818546232645 0.069993478308037288 0 -0.023052829789270091 0.047867388618860363 0 -0.0086502023004267226 0.039890449796429972 0 -0.01314905750637628 0.061166182281393262 0 -0.0086502023004267226 0.039890449796429972 0 -0.01314905750637628 0.061166182281393262 0 0.0054667234378713292 0.055404071962543419 0 -0.023981194886863379 0.0035969300986321649 0 -0.023441604643605229 0.02580694909528498 0 -0.01019489759247208 0.013260834111848309 0 -0.041505087676753059 0.01002118496410152 0 -0.023981194886863379 0.0035969300986321649 0 -0.023441604643605229 0.02580694909528498 0 -0.0086502023004267226 0.039890449796429972 0 -0.023441604643605229 0.02580694909528498 0 -0.0037706103704985179 0.025862549939520241 0 -0.023441604643605229 0.02580694909528498 0 -0.0037706103704985179 0.025862549939520241 0 -0.01019489759247208 0.013260834111848309 0 -0.0037706103704985179 0.025862549939520241 0 -0.01019489759247208 0.013260834111848309 0 0.0046722595462334697 0.0121311046539437 0 -0.01019489759247208 0.013260834111848309 0 -0.0081904933395319478 0.001381227285167226 0 0.0046722595462334697 0.0121311046539437 0 -0.023981194886863379 0.0035969300986321649 0 -0.01019489759247208 0.013260834111848309 0 -0.0081904933395319478 0.001381227285167226 0 -0.0081904933395319478 0.001381227285167226 0 0.0046722595462334697 0.0121311046539437 0 0.0020292439059455178 -0.0013131619961493509 0 0.0046722595462334697 0.0121311046539437 0 0.021923238180965351 0.017094781441984449 0 0.0187025779820859 0.0043174021170347028 0 0.0046722595462334697 0.0121311046539437 0 0.0187025779820859 0.0043174021170347028 0 0.0020292439059455178 -0.0013131619961493509 0 0.0046722595462334697 0.0121311046539437 0 0.01109453052907294 0.026925652934972979 0 0.021923238180965351 0.017094781441984449 0 -0.0037706103704985179 0.025862549939520241 0 0.0046722595462334697 0.0121311046539437 0 0.01109453052907294 0.026925652934972979 0 -0.0037706103704985179 0.025862549939520241 0 0.01109453052907294 0.026925652934972979 0 0.0038962522382065181 0.03716030904464155 0 0.01109453052907294 0.026925652934972979 0 0.021923238180965351 0.017094781441984449 0 0.023727459034202099 0.029272574536359019 0 0.023727459034202099 0.029272574536359019 0 0.028401581314396421 0.024314021505220291 0 0.033772176195111081 0.029956165080762941 0 0.021923238180965351 0.017094781441984449 0 0.023727459034202099 0.029272574536359019 0 0.028401581314396421 0.024314021505220291 0 0.021923238180965351 0.017094781441984449 0 0.028401581314396421 0.024314021505220291 0 0.034183451847307159 0.020932564961774761 0 0.0187025779820859 0.0043174021170347028 0 0.034183451847307159 0.020932564961774761 0 0.0187025779820859 0.0043174021170347028 0 0.033642864976278289 0.0064464945390643024 0 0.02961968877518174 -0.01030340083867352 0 0.0187025779820859 0.0043174021170347028 0 0.033642864976278289 0.0064464945390643024 0 0.034183451847307159 0.020932564961774761 0 0.021923238180965351 0.017094781441984449 0 0.0187025779820859 0.0043174021170347028 0 0.034183451847307159 0.020932564961774761 0 0.0054667234378713292 0.055404071962543419 0 0.01552258658816477 0.041785430191045803 0 0.0038962522382065181 0.03716030904464155 0 -0.0086502023004267226 0.039890449796429972 0 0.0054667234378713292 0.055404071962543419 0 0.0038962522382065181 0.03716030904464155 0 0.01109453052907294 0.026925652934972979 0 0.01552258658816477 0.041785430191045803 0 0.0038962522382065181 0.03716030904464155 0 0.023727459034202099 0.029272574536359019 0 0.01552258658816477 0.041785430191045803 0 0.033444658096316693 0.038773871654198863 0 0.01552258658816477 0.041785430191045803 0 0.028381985882577201 0.050448946241092897 0 0.033444658096316693 0.038773871654198863 0 0.01109453052907294 0.026925652934972979 0 0.023727459034202099 0.029272574536359019 0 0.01552258658816477 0.041785430191045803 0 0.023727459034202099 0.029272574536359019 0 0.033444658096316693 0.038773871654198863 0 0.033772176195111081 0.029956165080762941 0 0.0054667234378713292 0.055404071962543419 0 0.028381985882577201 0.050448946241092897 0 0.0054667234378713292 0.055404071962543419 0 0.01552258658816477 0.041785430191045803 0 0.028381985882577201 0.050448946241092897 0 0.0054667234378713292 0.055404071962543419 0 0.028381985882577201 0.050448946241092897 0 0.018674623997675069 0.069269686548599385 0 0.028381985882577201 0.050448946241092897 0 0.033989358568123892 0.0646970402438726 0 0.018674623997675069 0.069269686548599385 0 0.028381985882577201 0.050448946241092897 0 0.051297248327283163 0.045493820519642361 0 0.028381985882577201 0.050448946241092897 0 0.041214632291991432 0.055755999363695512 0 0.051297248327283163 0.045493820519642361 0 0.041214632291991432 0.055755999363695512 0 0.033989358568123892 0.0646970402438726 0 0.042212717348130778 0.062592158526515937 0 0.041214632291991432 0.055755999363695512 0 0.050191851333842089 0.055548031287353743 0 0.042212717348130778 0.062592158526515937 0 0.028381985882577201 0.050448946241092897 0 0.041214632291991432 0.055755999363695512 0 0.033989358568123892 0.0646970402438726 0 0.033444658096316693 0.038773871654198863 0 0.049664325712528407 0.037547727806514823 0 0.051297248327283163 0.045493820519642361 0 0.033444658096316693 0.038773871654198863 0 0.049664325712528407 0.037547727806514823 0 0.033772176195111081 0.029956165080762941 0 0.028381985882577201 0.050448946241092897 0 0.033444658096316693 0.038773871654198863 0 0.051297248327283163 0.045493820519642361 0 0.049664325712528407 0.037547727806514823 0 0.051297248327283163 0.045493820519642361 0 0.055799116096038007 0.02926061481930153 0 0.051297248327283163 0.045493820519642361 0 0.055799116096038007 0.02926061481930153 0 0.074212510771989176 0.040538694798192228 0 0.051297248327283163 0.045493820519642361 0 0.060623461294391508 0.050398391304437268 0 0.074212510771989176 0.040538694798192228 0 0.051297248327283163 0.045493820519642361 0 0.060623461294391508 0.050398391304437268 0 0.050191851333842089 0.055548031287353743 0 0.041214632291991432 0.055755999363695512 0 0.051297248327283163 0.045493820519642361 0 0.050191851333842089 0.055548031287353743 0 0.060623461294391508 0.050398391304437268 0 0.057977073198519927 0.057267857998168359 0 0.050191851333842089 0.055548031287353743 0 0.057977073198519927 0.057267857998168359 0 0.051380810837025212 0.063744349063109385 0 0.060342708107310038 0.063918823054963575 0 0.057977073198519927 0.057267857998168359 0 0.050191851333842089 0.055548031287353743 0 0.051380810837025212 0.063744349063109385 0 0.050191851333842089 0.055548031287353743 0 0.051380810837025212 0.063744349063109385 0 0.042212717348130778 0.062592158526515937 0 0.045301406192701753 0.0098781043810144721 0 0.033642864976278289 0.0064464945390643024 0 0.045709591116263402 -0.0015518179498124681 0 0.033642864976278289 0.0064464945390643024 0 0.034183451847307159 0.020932564961774761 0 0.037385721420087017 0.01798253484041059 0 0.045301406192701753 0.0098781043810144721 0 0.033642864976278289 0.0064464945390643024 0 0.037385721420087017 0.01798253484041059 0 0.049664325712528407 0.037547727806514823 0 0.034183451847307159 0.020932564961774761 0 0.044258153768990151 0.02643086060700043 0 0.049664325712528407 0.037547727806514823 0 0.034183451847307159 0.020932564961774761 0 0.034183451847307159 0.020932564961774761 0 0.037385721420087017 0.01798253484041059 0 0.044258153768990151 0.02643086060700043 0 0.037385721420087017 0.01798253484041059 0 0.055799116096038007 0.02926061481930153 0 0.049664325712528407 0.037547727806514823 0 0.034183451847307159 0.020932564961774761 0 0.033772176195111081 0.029956165080762941 0 0.037385721420087017 0.01798253484041059 0 0.047166676780993982 0.021900805547137431 0 0.055799116096038007 0.02926061481930153 0 0.037385721420087017 0.01798253484041059 0 0.044258153768990151 0.02643086060700043 0 0.055799116096038007 0.02926061481930153 0 0.028401581314396421 0.024314021505220291 0 0.034183451847307159 0.020932564961774761 0 0.033772176195111081 0.029956165080762941 0 0.045301406192701753 0.0098781043810144721 0 0.037385721420087017 0.01798253484041059 0 0.047166676780993982 0.021900805547137431 0 0.047166676780993982 0.021900805547137431 0 0.055799116096038007 0.02926061481930153 0 0.062602176669886003 0.0046125049282724987 0 0.049664325712528407 0.037547727806514823 0 0.044258153768990151 0.02643086060700043 0 0.055799116096038007 0.02926061481930153 0 0.047166676780993982 0.021900805547137431 0 0.062602176669886003 0.0046125049282724987 0 0.045301406192701753 0.0098781043810144721 0 0.047166676780993982 0.021900805547137431 0 0.062602176669886003 0.0046125049282724987 0 0.045301406192701753 0.0098781043810144721 0 0.062602176669886003 0.0046125049282724987 0 0.045709591116263402 -0.0015518179498124681 0 0.062602176669886003 0.0046125049282724987 0 0.080082139743195113 0.0051119915016680636 0 0.07268959066469316 0.019693548931325008 0 0.080082139743195113 0.0051119915016680636 0 0.089972628075428759 0.019475522883435931 0 0.07268959066469316 0.019693548931325008 0 0.080082139743195113 0.0051119915016680636 0 0.089972628075428759 0.019475522883435931 0 0.097149040390757474 0.00056627870637449007 0 0.089972628075428759 0.019475522883435931 0 0.07268959066469316 0.019693548931325008 0 0.074212510771989176 0.040538694798192228 0 0.055799116096038007 0.02926061481930153 0 0.07268959066469316 0.019693548931325008 0 0.074212510771989176 0.040538694798192228 0 0.055799116096038007 0.02926061481930153 0 0.062602176669886003 0.0046125049282724987 0 0.07268959066469316 0.019693548931325008 0 0.051297248327283163 0.045493820519642361 0 0.074212510771989176 0.040538694798192228 0 0.055799116096038007 0.02926061481930153 0 0.074212510771989176 0.040538694798192228 0 0.074212510771989176 0.040538694798192228 0 0.069438622840323358 0.053143551918829357 0 0.090568317841868765 0.050556516253696858 0 0.069438622840323358 0.053143551918829357 0 0.090568317841868765 0.050556516253696858 0 0.06843406737775283 0.066584656685119703 0 0.069438622840323358 0.053143551918829357 0 0.06843406737775283 0.066584656685119703 0 0.060342708107310038 0.063918823054963575 0 0.057977073198519927 0.057267857998168359 0 0.069438622840323358 0.053143551918829357 0 0.060342708107310038 0.063918823054963575 0 0.060623461294391508 0.050398391304437268 0 0.074212510771989176 0.040538694798192228 0 0.069438622840323358 0.053143551918829357 0 0.060623461294391508 0.050398391304437268 0 0.057977073198519927 0.057267857998168359 0 0.069438622840323358 0.053143551918829357 0 0.090568317841868765 0.050556516253696858 0 0.1006134918824195 0.061153246984978572 0 0.078725950267008946 0.07303303869585287 0 0.090568317841868765 0.050556516253696858 0 0.06843406737775283 0.066584656685119703 0 0.074212510771989176 0.040538694798192228 0 0.090568317841868765 0.050556516253696858 0 0.074212510771989176 0.040538694798192228 0 0.095734238127767976 0.035884902809206649 0 0.089972628075428759 0.019475522883435931 0 0.074212510771989176 0.040538694798192228 0 0.095734238127767976 0.035884902809206649 0 0.074212510771989176 0.040538694798192228 0 0.090568317841868765 0.050556516253696858 0 0.095734238127767976 0.035884902809206649 0 0.095734238127767976 0.035884902809206649 0 0.11725596548354671 0.03123111082022087 0 0.095734238127767976 0.035884902809206649 0 0.1039121416627075 0.040893813536958527 0 0.11725596548354671 0.03123111082022087 0 0.090568317841868765 0.050556516253696858 0 0.095734238127767976 0.035884902809206649 0 0.1039121416627075 0.040893813536958527 0 0.090568317841868765 0.050556516253696858 0 0.1039121416627075 0.040893813536958527 0 0.090568317841868765 0.050556516253696858 0 0.108019564431035 0.051727923985669721 0 0.1108321215552492 0.062967959280795877 0 0.090568317841868765 0.050556516253696858 0 0.1006134918824195 0.061153246984978572 0 0.1108321215552492 0.062967959280795877 0 0.090568317841868765 0.050556516253696858 0 0.1039121416627075 0.040893813536958527 0 0.108019564431035 0.051727923985669721 0 0.090568317841868765 0.050556516253696858 0 0.1108321215552492 0.062967959280795877 0 0.108019564431035 0.051727923985669721 0 0.1214467259153901 0.058987244281521689 0 0.1108321215552492 0.062967959280795877 0 0.108019564431035 0.051727923985669721 0 0.1214467259153901 0.058987244281521689 0 0.11917001304876849 0.046506758807129442 0 0.1039121416627075 0.040893813536958527 0 0.11725596548354671 0.03123111082022087 0 0.1039121416627075 0.040893813536958527 0 0.11917001304876849 0.046506758807129442 0 0.11725596548354671 0.03123111082022087 0 0.1039121416627075 0.040893813536958527 0 0.108019564431035 0.051727923985669721 0 0.11917001304876849 0.046506758807129442 0 0.11917001304876849 0.046506758807129442 0 0.11725596548354671 0.03123111082022087 0 0.13072733004745771 0.039711008903775637 0 0.1192764447347045 0.02549024771539591 0 0.11725596548354671 0.03123111082022087 0 0.1159611416998841 0.020590074136437521 0 0.1193858384812775 0.02968879956987671 0 0.11725596548354671 0.03123111082022087 0 0.1372723548692325 0.026902828474125329 0 0.1192764447347045 0.02549024771539591 0 0.1193858384812775 0.02968879956987671 0 0.1245049962617637 0.021976835094774799 0 0.1192764447347045 0.02549024771539591 0 0.1193858384812775 0.02968879956987671 0 0.11725596548354671 0.03123111082022087 0 0.1193858384812775 0.02968879956987671 0 0.11725596548354671 0.03123111082022087 0 0.1159611416998841 0.020590074136437521 0 0.1152692989520958 0.01220711213024196 0 0.1066344460272758 0.017216684472315329 0 0.11725596548354671 0.03123111082022087 0 0.1159611416998841 0.020590074136437521 0 0.1066344460272758 0.017216684472315329 0 0.1192764447347045 0.02549024771539591 0 0.1159611416998841 0.020590074136437521 0 0.1245049962617637 0.021976835094774799 0 0.1159611416998841 0.020590074136437521 0 0.1245049962617637 0.021976835094774799 0 0.12221612218244669 0.012369509045437529 0 0.12221612218244669 0.012369509045437529 0 0.1143165830657787 0.00066318671767231195 0 0.1152692989520958 0.01220711213024196 0 0.12221612218244669 0.012369509045437529 0 0.1143165830657787 0.00066318671767231195 0 0.13073213683304949 0.00026224515078349803 0 0.1159611416998841 0.020590074136437521 0 0.12221612218244669 0.012369509045437529 0 0.1152692989520958 0.01220711213024196 0 0.1143165830657787 0.00066318671767231195 0 0.1152692989520958 0.01220711213024196 0 0.1066344460272758 0.017216684472315329 0 0.089972628075428759 0.019475522883435931 0 0.097149040390757474 0.00056627870637449007 0 0.1066344460272758 0.017216684472315329 0 0.1143165830657787 0.00066318671767231195 0 0.097149040390757474 0.00056627870637449007 0 0.1066344460272758 0.017216684472315329 0 0.089972628075428759 0.019475522883435931 0 0.095734238127767976 0.035884902809206649 0 0.1066344460272758 0.017216684472315329 0 0.095734238127767976 0.035884902809206649 0 0.11725596548354671 0.03123111082022087 0 0.1066344460272758 0.017216684472315329 0 0.1124819726971526 0.097056962456967044 0 0.084660190674375801 0.090984896431848358 0 0.086368754240490925 0.096229084469982532 0 0.09997384341154561 0.1017447345454994 0 0.1120703606320126 0.10051573393763021 0 0.086368754240490925 0.096229084469982532 0 0.1124819726971526 0.097056962456967044 0 0.1120703606320126 0.10051573393763021 0 0.086368754240490925 0.096229084469982532 0 0.1120703606320126 0.10051573393763021 0 0.086368754240490925 0.096229084469982532 0 0.1124819726971526 0.097056962456967044 0 0.084660190674375801 0.090984896431848358 0 0.1052639951794897 0.10322644623058699 0 0.09997384341154561 0.1017447345454994 0 0.1120703606320126 0.10051573393763021 0 0.1052639951794897 0.10322644623058699 0 0.09997384341154561 0.1017447345454994 0 0.10147091889736801 0.1051031028145982 0 0.1052639951794897 0.10322644623058699 0 0.1052374604856262 0.1056342636379735 0 0.10147091889736801 0.1051031028145982 0 0.1054745483193444 0.1091565711584138 0 0.10147091889736801 0.1051031028145982 0 0.098628590403546781 0.1085892332856976 0 0.1052374604856262 0.1056342636379735 0 0.1054745483193444 0.1091565711584138 0 0.10147091889736801 0.1051031028145982 0 0.1054745483193444 0.1091565711584138 0 0.1087403795463026 0.1050509343482951 0 0.11059239068988989 0.1094205631196303 0 0.1052374604856262 0.1056342636379735 0 0.1054745483193444 0.1091565711584138 0 0.1087403795463026 0.1050509343482951 0 0.1052639951794897 0.10322644623058699 0 0.1087403795463026 0.1050509343482951 0 0.1120703606320126 0.10051573393763021 0 0.1052639951794897 0.10322644623058699 0 0.1052374604856262 0.1056342636379735 0 0.1087403795463026 0.1050509343482951 0 0.094695188108366773 0.1036493052746989 0 0.09997384341154561 0.1017447345454994 0 0.10147091889736801 0.1051031028145982 0 0.094695188108366773 0.1036493052746989 0 0.10147091889736801 0.1051031028145982 0 0.098628590403546781 0.1085892332856976 0 0.094695188108366773 0.1036493052746989 0 0.098628590403546781 0.1085892332856976 0 0.092619786609277832 0.1081756790489873 0 0.098628590403546781 0.1085892332856976 0 0.096456985733922584 0.1120397245379034 0 0.092619786609277832 0.1081756790489873 0 0.096456985733922584 0.1120397245379034 0 0.092619786609277832 0.1081756790489873 0 0.092355169435159964 0.1128812102109993 0 0.096456985733922584 0.1120397245379034 0 0.096504650468673597 0.1164201504142356 0 0.092355169435159964 0.1128812102109993 0 0.096504650468673597 0.1164201504142356 0 0.092753487482918409 0.1184324810793647 0 0.092355169435159964 0.1128812102109993 0 0.096456985733922584 0.1120397245379034 0 0.096504650468673597 0.1164201504142356 0 0.10217673175295471 0.1141323497295971 0 0.096504650468673597 0.1164201504142356 0 0.09974311658758292 0.12060168988634069 0 0.10217673175295471 0.1141323497295971 0 0.098628590403546781 0.1085892332856976 0 0.096456985733922584 0.1120397245379034 0 0.10217673175295471 0.1141323497295971 0 0.094965611989541746 0.1225303268380921 0 0.09974311658758292 0.12060168988634069 0 0.098873239576045852 0.12848765383197139 0 0.096504650468673597 0.1164201504142356 0 0.094965611989541746 0.1225303268380921 0 0.09974311658758292 0.12060168988634069 0 0.096504650468673597 0.1164201504142356 0 0.094965611989541746 0.1225303268380921 0 0.092753487482918409 0.1184324810793647 0 0.09974311658758292 0.12060168988634069 0 0.1061953491506987 0.1214379686178071 0 0.098873239576045852 0.12848765383197139 0 0.09974311658758292 0.12060168988634069 0 0.1061953491506987 0.1214379686178071 0 0.10217673175295471 0.1141323497295971 0 0.1054745483193444 0.1091565711584138 0 0.10217673175295471 0.1141323497295971 0 0.1112293639941367 0.114868410802419 0 0.1061953491506987 0.1214379686178071 0 0.10217673175295471 0.1141323497295971 0 0.1112293639941367 0.114868410802419 0 0.1054745483193444 0.1091565711584138 0 0.098628590403546781 0.1085892332856976 0 0.10217673175295471 0.1141323497295971 0 0.1054745483193444 0.1091565711584138 0 0.11059239068988989 0.1094205631196303 0 0.1112293639941367 0.114868410802419 0 0.11059239068988989 0.1094205631196303 0 0.1112293639941367 0.114868410802419 0 0.1153736313389828 0.1085351456257919 0 0.1112293639941367 0.114868410802419 0 0.12170887245016811 0.11541909444479651 0 0.1153736313389828 0.1085351456257919 0 0.1061953491506987 0.1214379686178071 0 0.1112293639941367 0.114868410802419 0 0.1154464228389363 0.1273933983629395 0 0.1112293639941367 0.114868410802419 0 0.12170887245016811 0.11541909444479651 0 0.1154464228389363 0.1273933983629395 0 0.12170887245016811 0.11541909444479651 0 0.1217312078611744 0.1073180893533742 0 0.1153736313389828 0.1085351456257919 0 0.1120703606320126 0.10051573393763021 0 0.13777196702353409 0.1048023834052782 0 0.1124819726971526 0.097056962456967044 0 0.1120703606320126 0.10051573393763021 0 0.13777196702353409 0.1048023834052782 0 0.1217312078611744 0.1073180893533742 0 0.1120703606320126 0.10051573393763021 0 0.13777196702353409 0.1048023834052782 0 0.1217312078611744 0.1073180893533742 0 0.1153736313389828 0.1085351456257919 0 0.1120703606320126 0.10051573393763021 0 0.1087403795463026 0.1050509343482951 0 0.1153736313389828 0.1085351456257919 0 0.1120703606320126 0.10051573393763021 0 0.1087403795463026 0.1050509343482951 0 0.11059239068988989 0.1094205631196303 0 0.1153736313389828 0.1085351456257919 0 0.1124819726971526 0.097056962456967044 0 0.12049047604346021 0.094142464274693277 0 0.11518939322901151 0.093480618868165943 0 0.1124819726971526 0.097056962456967044 0 0.1108874161398022 0.092610041854174915 0 0.1048787187702494 0.092595705276737925 0 0.1124819726971526 0.097056962456967044 0 0.1108874161398022 0.092610041854174915 0 0.11518939322901151 0.093480618868165943 0 0.1124819726971526 0.097056962456967044 0 0.12049047604346021 0.094142464274693277 0 0.12647806300463271 0.096525047046157719 0 0.12049047604346021 0.094142464274693277 0 0.12675967124765769 0.092251376873950464 0 0.12647806300463271 0.096525047046157719 0 0.12049047604346021 0.094142464274693277 0 0.1223325898251668 0.090388069715669983 0 0.12675967124765769 0.092251376873950464 0 0.12049047604346021 0.094142464274693277 0 0.1223325898251668 0.090388069715669983 0 0.11810862118444281 0.089597317725631218 0 0.12049047604346021 0.094142464274693277 0 0.11810862118444281 0.089597317725631218 0 0.11518939322901151 0.093480618868165943 0 0.11810862118444281 0.089597317725631218 0 0.1239715908251066 0.085561119988404988 0 0.116867787388739 0.082773201304914404 0 0.1223325898251668 0.090388069715669983 0 0.11810862118444281 0.089597317725631218 0 0.1239715908251066 0.085561119988404988 0 0.1223325898251668 0.090388069715669983 0 0.1239715908251066 0.085561119988404988 0 0.12675967124765769 0.092251376873950464 0 0.1239715908251066 0.085561119988404988 0 0.1212996958304926 0.078513418337270324 0 0.12924240097064099 0.077615839325202496 0 0.1212996958304926 0.078513418337270324 0 0.116867787388739 0.082773201304914404 0 0.1157195342302713 0.076708920835827768 0 0.1239715908251066 0.085561119988404988 0 0.1212996958304926 0.078513418337270324 0 0.116867787388739 0.082773201304914404 0 0.116867787388739 0.082773201304914404 0 0.1129257989160693 0.086318770118385582 0 0.10866517901914589 0.080933326276471665 0 0.116867787388739 0.082773201304914404 0 0.1157195342302713 0.076708920835827768 0 0.10866517901914589 0.080933326276471665 0 0.1129257989160693 0.086318770118385582 0 0.1087607031623244 0.089015731522689032 0 0.10866517901914589 0.080933326276471665 0 0.1129257989160693 0.086318770118385582 0 0.1131262928402728 0.090901191146314592 0 0.1087607031623244 0.089015731522689032 0 0.1131262928402728 0.090901191146314592 0 0.1108874161398022 0.092610041854174915 0 0.1087607031623244 0.089015731522689032 0 0.1131262928402728 0.090901191146314592 0 0.1108874161398022 0.092610041854174915 0 0.11518939322901151 0.093480618868165943 0 0.11810862118444281 0.089597317725631218 0 0.1131262928402728 0.090901191146314592 0 0.11518939322901151 0.093480618868165943 0 0.11810862118444281 0.089597317725631218 0 0.116867787388739 0.082773201304914404 0 0.1129257989160693 0.086318770118385582 0 0.11810862118444281 0.089597317725631218 0 0.1129257989160693 0.086318770118385582 0 0.1131262928402728 0.090901191146314592 0 0.1214467259153901 0.058987244281521689 0 0.1204608682897429 0.070557786749644455 0 0.1108321215552492 0.062967959280795877 0 0.1212996958304926 0.078513418337270324 0 0.1204608682897429 0.070557786749644455 0 0.12924240097064099 0.077615839325202496 0 0.1212996958304926 0.078513418337270324 0 0.1204608682897429 0.070557786749644455 0 0.1157195342302713 0.076708920835827768 0 0.1204608682897429 0.070557786749644455 0 0.1157195342302713 0.076708920835827768 0 0.1108315457273111 0.072066424546122984 0 0.1157195342302713 0.076708920835827768 0 0.1108315457273111 0.072066424546122984 0 0.10866517901914589 0.080933326276471665 0 0.1204608682897429 0.070557786749644455 0 0.1108315457273111 0.072066424546122984 0 0.1108321215552492 0.062967959280795877 0 0.1006134918824195 0.061153246984978572 0 0.1108321215552492 0.062967959280795877 0 0.10428213053458631 0.068559391988928978 0 0.1108315457273111 0.072066424546122984 0 0.1108321215552492 0.062967959280795877 0 0.10428213053458631 0.068559391988928978 0 0.1108315457273111 0.072066424546122984 0 0.1032515548382478 0.074721983984336063 0 0.10866517901914589 0.080933326276471665 0 0.1108315457273111 0.072066424546122984 0 0.10428213053458631 0.068559391988928978 0 0.1032515548382478 0.074721983984336063 0 0.10428213053458631 0.068559391988928978 0 0.1032515548382478 0.074721983984336063 0 0.095881938669703917 0.071887345148411358 0 0.1032515548382478 0.074721983984336063 0 0.096989340649861269 0.077625584876417852 0 0.095881938669703917 0.071887345148411358 0 0.1032515548382478 0.074721983984336063 0 0.096989340649861269 0.077625584876417852 0 0.10145933694904689 0.08078714574891202 0 0.096989340649861269 0.077625584876417852 0 0.095881938669703917 0.071887345148411358 0 0.089376136628905492 0.078541576864052054 0 0.1006134918824195 0.061153246984978572 0 0.10428213053458631 0.068559391988928978 0 0.095881938669703917 0.071887345148411358 0 0.1048787187702494 0.092595705276737925 0 0.098486475517564426 0.088833144364854177 0 0.084660190674375801 0.090984896431848358 0 0.1124819726971526 0.097056962456967044 0 0.1048787187702494 0.092595705276737925 0 0.084660190674375801 0.090984896431848358 0 0.1035714718545203 0.086070815394010639 0 0.1039243423261646 0.089128849139572947 0 0.1087607031623244 0.089015731522689032 0 0.1035714718545203 0.086070815394010639 0 0.1039243423261646 0.089128849139572947 0 0.098486475517564426 0.088833144364854177 0 0.1039243423261646 0.089128849139572947 0 0.1048787187702494 0.092595705276737925 0 0.098486475517564426 0.088833144364854177 0 0.1039243423261646 0.089128849139572947 0 0.1048787187702494 0.092595705276737925 0 0.1087607031623244 0.089015731522689032 0 0.1108874161398022 0.092610041854174915 0 0.1048787187702494 0.092595705276737925 0 0.1087607031623244 0.089015731522689032 0 0.1035714718545203 0.086070815394010639 0 0.1087607031623244 0.089015731522689032 0 0.10866517901914589 0.080933326276471665 0 0.1032515548382478 0.074721983984336063 0 0.10866517901914589 0.080933326276471665 0 0.10145933694904689 0.08078714574891202 0 0.1035714718545203 0.086070815394010639 0 0.10866517901914589 0.080933326276471665 0 0.10145933694904689 0.08078714574891202 0 0.1035714718545203 0.086070815394010639 0 0.098440107530963383 0.084981045679760114 0 0.10145933694904689 0.08078714574891202 0 0.098440107530963383 0.084981045679760114 0 0.10145933694904689 0.08078714574891202 0 0.094977736163402257 0.082189872636377767 0 0.096989340649861269 0.077625584876417852 0 0.10145933694904689 0.08078714574891202 0 0.094977736163402257 0.082189872636377767 0 0.096989340649861269 0.077625584876417852 0 0.094977736163402257 0.082189872636377767 0 0.089376136628905492 0.078541576864052054 0 0.098440107530963383 0.084981045679760114 0 0.094977736163402257 0.082189872636377767 0 0.09370551717028304 0.087024250254645955 0 0.098440107530963383 0.084981045679760114 0 0.098486475517564426 0.088833144364854177 0 0.09370551717028304 0.087024250254645955 0 0.1035714718545203 0.086070815394010639 0 0.098440107530963383 0.084981045679760114 0 0.098486475517564426 0.088833144364854177 0 0.09370551717028304 0.087024250254645955 0 0.088580716058093312 0.084681606128847675 0 0.084660190674375801 0.090984896431848358 0 0.098486475517564426 0.088833144364854177 0 0.09370551717028304 0.087024250254645955 0 0.084660190674375801 0.090984896431848358 0 0.089376136628905492 0.078541576864052054 0 0.088580716058093312 0.084681606128847675 0 0.080080193754831788 0.082542126767767954 0 0.094977736163402257 0.082189872636377767 0 0.09370551717028304 0.087024250254645955 0 0.088580716058093312 0.084681606128847675 0 0.094977736163402257 0.082189872636377767 0 0.089376136628905492 0.078541576864052054 0 0.088580716058093312 0.084681606128847675 0 0.088580716058093312 0.084681606128847675 0 0.080080193754831788 0.082542126767767954 0 0.084660190674375801 0.090984896431848358 0 0.090568317841868765 0.050556516253696858 0 0.078725950267008946 0.07303303869585287 0 0.06843406737775283 0.066584656685119703 0 0.095881938669703917 0.071887345148411358 0 0.089376136628905492 0.078541576864052054 0 0.078725950267008946 0.07303303869585287 0 0.1006134918824195 0.061153246984978572 0 0.078725950267008946 0.07303303869585287 0 0.1006134918824195 0.061153246984978572 0 0.095881938669703917 0.071887345148411358 0 0.078725950267008946 0.07303303869585287 0 0.089376136628905492 0.078541576864052054 0 0.080080193754831788 0.082542126767767954 0 0.078725950267008946 0.07303303869585287 0 0.078725950267008946 0.07303303869585287 0 0.06843406737775283 0.066584656685119703 0 0.056838408651599177 0.084912830406728507 0 0.080080193754831788 0.082542126767767954 0 0.078725950267008946 0.07303303869585287 0 0.056838408651599177 0.084912830406728507 0 0.084660190674375801 0.090984896431848358 0 0.056838408651599177 0.084912830406728507 0 0.067551906042822338 0.10058623658254261 0 0.075250803144556927 0.095062707316325129 0 0.056838408651599177 0.084912830406728507 0 0.084660190674375801 0.090984896431848358 0 0.075250803144556927 0.095062707316325129 0 0.056838408651599177 0.084912830406728507 0 0.080080193754831788 0.082542126767767954 0 0.084660190674375801 0.090984896431848358 0 0.056838408651599177 0.084912830406728507 0 0.078725950267008946 0.07303303869585287 0 0.056838408651599177 0.084912830406728507 0 0.067551906042822338 0.10058623658254261 0 0.067295598340185905 0.1105353142832258 0 0.055101081534702889 0.1098082029373154 0 0.067551906042822338 0.10058623658254261 0 0.076655377430789706 0.10995361216229289 0 0.067295598340185905 0.1105353142832258 0 0.067551906042822338 0.10058623658254261 0 0.080834756113496359 0.1026004886905236 0 0.076655377430789706 0.10995361216229289 0 0.067551906042822338 0.10058623658254261 0 0.075250803144556927 0.095062707316325129 0 0.080834756113496359 0.1026004886905236 0 0.075250803144556927 0.095062707316325129 0 0.080834756113496359 0.1026004886905236 0 0.086368754240490925 0.096229084469982532 0 0.084660190674375801 0.090984896431848358 0 0.075250803144556927 0.095062707316325129 0 0.086368754240490925 0.096229084469982532 0 0.080834756113496359 0.1026004886905236 0 0.088348864191469062 0.1040142971936434 0 0.086368754240490925 0.096229084469982532 0 0.080834756113496359 0.1026004886905236 0 0.086248595231696895 0.1097524427938187 0 0.076655377430789706 0.10995361216229289 0 0.080834756113496359 0.1026004886905236 0 0.088348864191469062 0.1040142971936434 0 0.086248595231696895 0.1097524427938187 0 0.088348864191469062 0.1040142971936434 0 0.092619786609277832 0.1081756790489873 0 0.086248595231696895 0.1097524427938187 0 0.094695188108366773 0.1036493052746989 0 0.088348864191469062 0.1040142971936434 0 0.092619786609277832 0.1081756790489873 0 0.094695188108366773 0.1036493052746989 0 0.088348864191469062 0.1040142971936434 0 0.086368754240490925 0.096229084469982532 0 0.094695188108366773 0.1036493052746989 0 0.09997384341154561 0.1017447345454994 0 0.086368754240490925 0.096229084469982532 0 0.089469305077752637 0.12280169590123501 0 0.083175370074595439 0.11914583363616579 0 0.085986207993020064 0.1270690924260427 0 0.089469305077752637 0.12280169590123501 0 0.088703500968271592 0.1158607006327726 0 0.083175370074595439 0.11914583363616579 0 0.094965611989541746 0.1225303268380921 0 0.089469305077752637 0.12280169590123501 0 0.092753487482918409 0.1184324810793647 0 0.094965611989541746 0.1225303268380921 0 0.089469305077752637 0.12280169590123501 0 0.091292884652120765 0.12747867201893651 0 0.089469305077752637 0.12280169590123501 0 0.092753487482918409 0.1184324810793647 0 0.088703500968271592 0.1158607006327726 0 0.092753487482918409 0.1184324810793647 0 0.092355169435159964 0.1128812102109993 0 0.088703500968271592 0.1158607006327726 0 0.086248595231696895 0.1097524427938187 0 0.088703500968271592 0.1158607006327726 0 0.083175370074595439 0.11914583363616579 0 0.092619786609277832 0.1081756790489873 0 0.092355169435159964 0.1128812102109993 0 0.086248595231696895 0.1097524427938187 0 0.092355169435159964 0.1128812102109993 0 0.086248595231696895 0.1097524427938187 0 0.088703500968271592 0.1158607006327726 0 0.083175370074595439 0.11914583363616579 0 0.075546588326962205 0.1175806961109612 0 0.076655377430789706 0.10995361216229289 0 0.086248595231696895 0.1097524427938187 0 0.083175370074595439 0.11914583363616579 0 0.076655377430789706 0.10995361216229289 0 0.083175370074595439 0.11914583363616579 0 0.075546588326962205 0.1175806961109612 0 0.078473604985725115 0.12702003058805461 0 0.083175370074595439 0.11914583363616579 0 0.085986207993020064 0.1270690924260427 0 0.078473604985725115 0.12702003058805461 0 0.075546588326962205 0.1175806961109612 0 0.065899112258859374 0.1198933405857107 0 0.078473604985725115 0.12702003058805461 0 0.075546588326962205 0.1175806961109612 0 0.076655377430789706 0.10995361216229289 0 0.067295598340185905 0.1105353142832258 0 0.075546588326962205 0.1175806961109612 0 0.067295598340185905 0.1105353142832258 0 0.065899112258859374 0.1198933405857107 0 0.067295598340185905 0.1105353142832258 0 0.065899112258859374 0.1198933405857107 0 0.055101081534702889 0.1098082029373154 0 0.055471424698120553 0.1226391151894919 0 0.055101081534702889 0.1098082029373154 0 0.037991272571290403 0.12784006420888941 0 0.065899112258859374 0.1198933405857107 0 0.055471424698120553 0.1226391151894919 0 0.055101081534702889 0.1098082029373154 0 0.051195594944508413 0.098844727482152617 0 0.032801463311121958 0.097959243248701089 0 0.056838408651599177 0.084912830406728507 0 0.067551906042822338 0.10058623658254261 0 0.055101081534702889 0.1098082029373154 0 0.051195594944508413 0.098844727482152617 0 0.067551906042822338 0.10058623658254261 0 0.051195594944508413 0.098844727482152617 0 0.056838408651599177 0.084912830406728507 0 0.055101081534702889 0.1098082029373154 0 0.051195594944508413 0.098844727482152617 0 0.041674822265915547 0.1044515867741493 0 0.051195594944508413 0.098844727482152617 0 0.041674822265915547 0.1044515867741493 0 0.032801463311121958 0.097959243248701089 0 0.055101081534702889 0.1098082029373154 0 0.041674822265915547 0.1044515867741493 0 0.037594816728100389 0.1129510264548667 0 0.041674822265915547 0.1044515867741493 0 0.032801463311121958 0.097959243248701089 0 0.032838076647493067 0.1072753537155282 0 0.041674822265915547 0.1044515867741493 0 0.032838076647493067 0.1072753537155282 0 0.037594816728100389 0.1129510264548667 0 0.055101081534702889 0.1098082029373154 0 0.037991272571290403 0.12784006420888941 0 0.055101081534702889 0.1098082029373154 0 0.037594816728100389 0.1129510264548667 0 0.037991272571290403 0.12784006420888941 0 0.037594816728100389 0.1129510264548667 0 0.030279777798393449 0.118678196387034 0 0.029482459580215489 0.11268863555850871 0 0.032838076647493067 0.1072753537155282 0 0.037594816728100389 0.1129510264548667 0 0.029482459580215489 0.11268863555850871 0 0.037594816728100389 0.1129510264548667 0 0.030279777798393449 0.118678196387034 0 0.037991272571290403 0.12784006420888941 0 0.06843406737775283 0.066584656685119703 0 0.046299816913637729 0.082612797116543499 0 0.06843406737775283 0.066584656685119703 0 0.054140673868343848 0.070411066737017122 0 0.046299816913637729 0.082612797116543499 0 0.06843406737775283 0.066584656685119703 0 0.056838408651599177 0.084912830406728507 0 0.046299816913637729 0.082612797116543499 0 0.051380810837025212 0.063744349063109385 0 0.054140673868343848 0.070411066737017122 0 0.043348530246299373 0.070969274926184781 0 0.06843406737775283 0.066584656685119703 0 0.060342708107310038 0.063918823054963575 0 0.054140673868343848 0.070411066737017122 0 0.051380810837025212 0.063744349063109385 0 0.060342708107310038 0.063918823054963575 0 0.054140673868343848 0.070411066737017122 0 0.054140673868343848 0.070411066737017122 0 0.046299816913637729 0.082612797116543499 0 0.043348530246299373 0.070969274926184781 0 0.056838408651599177 0.084912830406728507 0 0.046299816913637729 0.082612797116543499 0 0.032801463311121958 0.097959243248701089 0 0.046299816913637729 0.082612797116543499 0 0.030017722955517079 0.094403198101724553 0 0.046299816913637729 0.082612797116543499 0 0.030017722955517079 0.094403198101724553 0 0.032801463311121958 0.097959243248701089 0 0.056838408651599177 0.084912830406728507 0 0.032801463311121958 0.097959243248701089 0 0.056838408651599177 0.084912830406728507 0 0.046299816913637729 0.082612797116543499 0 0.031627950723390051 0.086112437245395412 0 0.046299816913637729 0.082612797116543499 0 0.030017722955517079 0.094403198101724553 0 0.031627950723390051 0.086112437245395412 0 0.033636626596843647 0.079849073080849098 0 0.046299816913637729 0.082612797116543499 0 0.033636626596843647 0.079849073080849098 0 0.046299816913637729 0.082612797116543499 0 0.033636626596843647 0.079849073080849098 0 0.046299816913637729 0.082612797116543499 0 0.043348530246299373 0.070969274926184781 0 0.033636626596843647 0.079849073080849098 0 0.043348530246299373 0.070969274926184781 0 0.033989358568123892 0.0646970402438726 0 0.043348530246299373 0.070969274926184781 0 0.033989358568123892 0.0646970402438726 0 0.042212717348130778 0.062592158526515937 0 0.051380810837025212 0.063744349063109385 0 0.043348530246299373 0.070969274926184781 0 0.042212717348130778 0.062592158526515937 0 0.033636626596843647 0.079849073080849098 0 0.033989358568123892 0.0646970402438726 0 0.018674623997675069 0.069269686548599385 0 0.033636626596843647 0.079849073080849098 0 0.018674623997675069 0.069269686548599385 0 0.02252470525757792 0.082944928147980795 0 0.018674623997675069 0.069269686548599385 0 0.02252470525757792 0.082944928147980795 0 0.0080584968826784373 0.081216020427720734 0 0.031627950723390051 0.086112437245395412 0 0.033636626596843647 0.079849073080849098 0 0.02252470525757792 0.082944928147980795 0 0.031627950723390051 0.086112437245395412 0 0.02252470525757792 0.082944928147980795 0 0.024101251094442461 0.090240623560460531 0 0.024101251094442461 0.090240623560460531 0 0.030017722955517079 0.094403198101724553 0 0.02022019445921916 0.096173754565074959 0 0.031627950723390051 0.086112437245395412 0 0.024101251094442461 0.090240623560460531 0 0.030017722955517079 0.094403198101724553 0 0.024101251094442461 0.090240623560460531 0 0.01611568207650807 0.09156879974212695 0 0.02022019445921916 0.096173754565074959 0 0.02252470525757792 0.082944928147980795 0 0.024101251094442461 0.090240623560460531 0 0.01611568207650807 0.09156879974212695 0 -0.00476415137174095 0.087523430645981476 0 0.0080584968826784373 0.081216020427720734 0 0.00049563818546232645 0.069993478308037288 0 0.01611568207650807 0.09156879974212695 0 0.0058837086749619679 0.090557413201504663 0 0.0080584968826784373 0.081216020427720734 0 0.01611568207650807 0.09156879974212695 0 0.0058837086749619679 0.090557413201504663 0 0.0096193155399060225 0.098369507758355637 0 -0.00476415137174095 0.087523430645981476 0 0.0058837086749619679 0.090557413201504663 0 0.0017792866621465389 0.098305776869591535 0 -0.00476415137174095 0.087523430645981476 0 0.0058837086749619679 0.090557413201504663 0 0.0080584968826784373 0.081216020427720734 0 0.02252470525757792 0.082944928147980795 0 0.01611568207650807 0.09156879974212695 0 0.0080584968826784373 0.081216020427720734 0 0.0054667234378713292 0.055404071962543419 0 0.018674623997675069 0.069269686548599385 0 0.00049563818546232645 0.069993478308037288 0 0.018674623997675069 0.069269686548599385 0 0.0080584968826784373 0.081216020427720734 0 0.00049563818546232645 0.069993478308037288 0 0.01671207084782627 0.1168926457446488 0 0.02388955605728918 0.1102858909447243 0 0.0087645179706455148 0.111005656090675 0 0.01671207084782627 0.1168926457446488 0 0.02363423334775859 0.1168587265499199 0 0.02388955605728918 0.1102858909447243 0 0.01671207084782627 0.1168926457446488 0 0.022511948364137811 0.124903991743753 0 0.02363423334775859 0.1168587265499199 0 0.022511948364137811 0.124903991743753 0 0.030279777798393449 0.118678196387034 0 0.02363423334775859 0.1168587265499199 0 0.022511948364137811 0.124903991743753 0 0.030279777798393449 0.118678196387034 0 0.037991272571290403 0.12784006420888941 0 0.032838076647493067 0.1072753537155282 0 0.02388955605728918 0.1102858909447243 0 0.029482459580215489 0.11268863555850871 0 0.030279777798393449 0.118678196387034 0 0.02363423334775859 0.1168587265499199 0 0.029482459580215489 0.11268863555850871 0 0.02363423334775859 0.1168587265499199 0 0.02388955605728918 0.1102858909447243 0 0.029482459580215489 0.11268863555850871 0 0.032801463311121958 0.097959243248701089 0 0.0087645179706455148 0.111005656090675 0 0.030017722955517079 0.094403198101724553 0 0.013735628997396949 0.1061935990869065 0 0.032801463311121958 0.097959243248701089 0 0.032838076647493067 0.1072753537155282 0 0.02388955605728918 0.1102858909447243 0 0.032801463311121958 0.097959243248701089 0 0.02388955605728918 0.1102858909447243 0 0.0087645179706455148 0.111005656090675 0 0.030017722955517079 0.094403198101724553 0 0.02022019445921916 0.096173754565074959 0 0.013735628997396949 0.1061935990869065 0 0.032801463311121958 0.097959243248701089 0 0.013735628997396949 0.1061935990869065 0 0.0087645179706455148 0.111005656090675 0 0.032801463311121958 0.097959243248701089 0 0.030017722955517079 0.094403198101724553 0 0.013735628997396949 0.1061935990869065 0 0.02022019445921916 0.096173754565074959 0 0.013735628997396949 0.1061935990869065 0 0.015571056373299801 0.09795098611473764 0 0.01611568207650807 0.09156879974212695 0 0.02022019445921916 0.096173754565074959 0 0.015571056373299801 0.09795098611473764 0 0.013735628997396949 0.1061935990869065 0 0.0096193155399060225 0.098369507758355637 0 0.00734206312703326 0.1045624448698272 0 0.013735628997396949 0.1061935990869065 0 0.00734206312703326 0.1045624448698272 0 0.0087645179706455148 0.111005656090675 0 0.013735628997396949 0.1061935990869065 0 0.015571056373299801 0.09795098611473764 0 0.0096193155399060225 0.098369507758355637 0 0.01611568207650807 0.09156879974212695 0 0.015571056373299801 0.09795098611473764 0 0.0096193155399060225 0.098369507758355637 0 0.0096193155399060225 0.098369507758355637 0 0.0017792866621465389 0.098305776869591535 0 0.00734206312703326 0.1045624448698272 0 0.0058837086749619679 0.090557413201504663 0 0.0096193155399060225 0.098369507758355637 0 0.0017792866621465389 0.098305776869591535 0 0.00734206312703326 0.1045624448698272 0 0.00085505385116209105 0.1054539967605458 0 0.0087645179706455148 0.111005656090675 0 -0.006806245091420195 0.1109890458716775 0 0.00085505385116209105 0.1054539967605458 0 0.0087645179706455148 0.111005656090675 0 0.0017792866621465389 0.098305776869591535 0 0.00734206312703326 0.1045624448698272 0 0.00085505385116209105 0.1054539967605458 0 -0.015272427369830919 0.1240520689326489 0 0.0087645179706455148 0.111005656090675 0 0.0070326241569847042 0.12196791927861959 0 0.01671207084782627 0.1168926457446488 0 0.0087645179706455148 0.111005656090675 0 0.0070326241569847042 0.12196791927861959 0 0.01671207084782627 0.1168926457446488 0 0.022511948364137811 0.124903991743753 0 0.0070326241569847042 0.12196791927861959 0 0.022511948364137811 0.124903991743753 0 0.0070326241569847042 0.12196791927861959 0 -0.0041328492516540614 0.1295769578348627 0 0.0070326241569847042 0.12196791927861959 0 0.0075753950409227994 0.13582573482724841 0 0.0070326241569847042 0.12196791927861959 0 0.0075753950409227994 0.13582573482724841 0 0.019343084963917689 0.12955928949009571 0 0.0075753950409227994 0.13582573482724841 0 0.031017778916538421 0.1351893613535638 0 0.0098534494621722677 0.14461807442866201 0 0.0075753950409227994 0.13582573482724841 0 0.031017778916538421 0.1351893613535638 0 0.022511948364137811 0.124903991743753 0 0.0070326241569847042 0.12196791927861959 0 0.019343084963917689 0.12955928949009571 0 0.0075753950409227994 0.13582573482724841 0 0.019343084963917689 0.12955928949009571 0 0.031017778916538421 0.1351893613535638 0 0.022511948364137811 0.124903991743753 0 0.028577678341004688 0.12990944024729359 0 0.037991272571290403 0.12784006420888941 0 0.022511948364137811 0.124903991743753 0 0.019343084963917689 0.12955928949009571 0 0.028577678341004688 0.12990944024729359 0 0.019343084963917689 0.12955928949009571 0 0.031017778916538421 0.1351893613535638 0 0.028577678341004688 0.12990944024729359 0 0.022511948364137811 0.124903991743753 0 0.037991272571290403 0.12784006420888941 0 0.031017778916538421 0.1351893613535638 0 0.017649654843958879 0.14927789730703039 0 0.0098534494621722677 0.14461807442866201 0 0.027126919643261159 0.15535507410858759 0 0.024316116546414631 0.14445323885463909 0 0.035043171973767828 0.14417428961986181 0 0.031017778916538421 0.1351893613535638 0 0.024316116546414631 0.14445323885463909 0 0.017649654843958879 0.14927789730703039 0 0.031017778916538421 0.1351893613535638 0 0.024316116546414631 0.14445323885463909 0 0.035043171973767828 0.14417428961986181 0 0.031017778916538421 0.1351893613535638 0 0.017649654843958879 0.14927789730703039 0 0.024316116546414631 0.14445323885463909 0 0.017649654843958879 0.14927789730703039 0 0.027126919643261159 0.15535507410858759 0 0.024316116546414631 0.14445323885463909 0 0.017649654843958879 0.14927789730703039 0 0.027126919643261159 0.15535507410858759 0 0.017649654843958879 0.14927789730703039 0 0.019898037208197571 0.15853340028777749 0 -0.0028705327545488612 0.16412878837347319 0 0.017649654843958879 0.14927789730703039 0 0.003243036490446848 0.15084415072815791 0 0.017649654843958879 0.14927789730703039 0 0.0098534494621722677 0.14461807442866201 0 0.003243036490446848 0.15084415072815791 0 0.0075753950409227994 0.13582573482724841 0 0.0098534494621722677 0.14461807442866201 0 0.002316921317612661 0.14450668830263219 0 -0.0060618363772924474 0.1424755875544898 0 0.0075753950409227994 0.13582573482724841 0 0.002316921317612661 0.14450668830263219 0 0.0098534494621722677 0.14461807442866201 0 0.002316921317612661 0.14450668830263219 0 0.003243036490446848 0.15084415072815791 0 -0.003025438028186161 0.148769893974603 0 0.002316921317612661 0.14450668830263219 0 0.003243036490446848 0.15084415072815791 0 -0.0001735715219213247 0.16806162224099741 0 0.017649654843958879 0.14927789730703039 0 -0.0028705327545488612 0.16412878837347319 0 -0.0001735715219213247 0.16806162224099741 0 0.017649654843958879 0.14927789730703039 0 -0.0001735715219213247 0.16806162224099741 0 0.017649654843958879 0.14927789730703039 0 0.01292624702322575 0.16264380286183741 0 -0.0028705327545488612 0.16412878837347319 0 0.017649654843958879 0.14927789730703039 0 -0.0001735715219213247 0.16806162224099741 0 0.0087532023544306167 0.1700410260128577 0 0.0033202630446573958 0.17233823733261641 0 -0.0001735715219213247 0.16806162224099741 0 0.0087532023544306167 0.1700410260128577 0 0.01292624702322575 0.16264380286183741 0 0.0087532023544306167 0.1700410260128577 0 0.01292624702322575 0.16264380286183741 0 0.021889327322344471 0.16685682687365461 0 0.00026123120752966398 0.18276211002737811 0 0.0066355783244221173 0.17863988624799171 0 0.0036961993017142949 0.18958129754698291 0 -0.0001735715219213247 0.16806162224099741 0 0.00085076948173431642 0.1765918509455687 0 0.0033202630446573958 0.17233823733261641 0 0.0087532023544306167 0.1700410260128577 0 0.0066355783244221173 0.17863988624799171 0 0.0033202630446573958 0.17233823733261641 0 0.0066355783244221173 0.17863988624799171 0 0.00085076948173431642 0.1765918509455687 0 0.0033202630446573958 0.17233823733261641 0 0.00026123120752966398 0.18276211002737811 0 0.0066355783244221173 0.17863988624799171 0 0.00085076948173431642 0.1765918509455687 0 0.0087532023544306167 0.1700410260128577 0 0.0066355783244221173 0.17863988624799171 0 0.017646103596989281 0.1771682598781863 0 0.0066355783244221173 0.17863988624799171 0 0.0036961993017142949 0.18958129754698291 0 0.01888574789450501 0.18883518055818069 0 0.0066355783244221173 0.17863988624799171 0 0.017646103596989281 0.1771682598781863 0 0.01888574789450501 0.18883518055818069 0 0.017646103596989281 0.1771682598781863 0 0.029622402172894899 0.1798891804756621 0 0.01888574789450501 0.18883518055818069 0 0.017646103596989281 0.1771682598781863 0 0.029622402172894899 0.1798891804756621 0 0.021889327322344471 0.16685682687365461 0 0.01292624702322575 0.16264380286183741 0 0.019898037208197571 0.15853340028777749 0 0.021889327322344471 0.16685682687365461 0 0.027126919643261159 0.15535507410858759 0 0.019898037208197571 0.15853340028777749 0 0.021889327322344471 0.16685682687365461 0 0.017649654843958879 0.14927789730703039 0 0.01292624702322575 0.16264380286183741 0 0.019898037208197571 0.15853340028777749 0 0.0087532023544306167 0.1700410260128577 0 0.017646103596989281 0.1771682598781863 0 0.021889327322344471 0.16685682687365461 0 0.029622402172894899 0.1798891804756621 0 0.021889327322344471 0.16685682687365461 0 0.033864342328620421 0.16437492784976779 0 0.027126919643261159 0.15535507410858759 0 0.021889327322344471 0.16685682687365461 0 0.033864342328620421 0.16437492784976779 0 0.033864342328620421 0.16437492784976779 0 0.050959255134814647 0.18603293330934151 0 0.055187492420103519 0.1625323453809181 0 0.027126919643261159 0.15535507410858759 0 0.033864342328620421 0.16437492784976779 0 0.042787798921947118 0.15119881992927539 0 0.033864342328620421 0.16437492784976779 0 0.055187492420103519 0.1625323453809181 0 0.042787798921947118 0.15119881992927539 0 0.029622402172894899 0.1798891804756621 0 0.033864342328620421 0.16437492784976779 0 0.050959255134814647 0.18603293330934151 0 0.033864342328620421 0.16437492784976779 0 0.050959255134814647 0.18603293330934151 0 0.029622402172894899 0.1798891804756621 0 0.050959255134814647 0.18603293330934151 0 0.034489636760095567 0.19606695438484201 0 0.050959255134814647 0.18603293330934151 0 0.073439060297455061 0.17233724020687191 0 0.050959255134814647 0.18603293330934151 0 0.055187492420103519 0.1625323453809181 0 0.073439060297455061 0.17233724020687191 0 0.056999495964422997 0.14865988386854551 0 0.049967245840677799 0.1346749538532428 0 0.042787798921947118 0.15119881992927539 0 0.055187492420103519 0.1625323453809181 0 0.056999495964422997 0.14865988386854551 0 0.073075001873360884 0.1525902671217067 0 0.055187492420103519 0.1625323453809181 0 0.056999495964422997 0.14865988386854551 0 0.042787798921947118 0.15119881992927539 0 0.056999495964422997 0.14865988386854551 0 0.049967245840677799 0.1346749538532428 0 0.064592264036266375 0.1425463139757297 0 0.049967245840677799 0.1346749538532428 0 0.069040326730661766 0.13322966386856061 0 0.064592264036266375 0.1425463139757297 0 0.037991272571290403 0.12784006420888941 0 0.064397224395211089 0.13284866710577661 0 0.049967245840677799 0.1346749538532428 0 0.035489550879933399 0.13047660436986699 0 0.064397224395211089 0.13284866710577661 0 0.055471424698120553 0.1226391151894919 0 0.037991272571290403 0.12784006420888941 0 0.064397224395211089 0.13284866710577661 0 0.035489550879933399 0.13047660436986699 0 0.064397224395211089 0.13284866710577661 0 0.049967245840677799 0.1346749538532428 0 0.069040326730661766 0.13322966386856061 0 0.064397224395211089 0.13284866710577661 0 0.049967245840677799 0.1346749538532428 0 0.069040326730661766 0.13322966386856061 0 0.065899112258859374 0.1198933405857107 0 0.055471424698120553 0.1226391151894919 0 0.064397224395211089 0.13284866710577661 0 0.031017778916538421 0.1351893613535638 0 0.049967245840677799 0.1346749538532428 0 0.035043171973767828 0.14417428961986181 0 0.037991272571290403 0.12784006420888941 0 0.035489550879933399 0.13047660436986699 0 0.064397224395211089 0.13284866710577661 0 0.031017778916538421 0.1351893613535638 0 0.049967245840677799 0.1346749538532428 0 0.031017778916538421 0.1351893613535638 0 0.049967245840677799 0.1346749538532428 0 0.035489550879933399 0.13047660436986699 0 0.028577678341004688 0.12990944024729359 0 0.037991272571290403 0.12784006420888941 0 0.035489550879933399 0.13047660436986699 0 0.037991272571290403 0.12784006420888941 0 0.035489550879933399 0.13047660436986699 0 0.028577678341004688 0.12990944024729359 0 0.035489550879933399 0.13047660436986699 0 0.031017778916538421 0.1351893613535638 0 0.028577678341004688 0.12990944024729359 0 0.035489550879933399 0.13047660436986699 0 0.031017778916538421 0.1351893613535638 0 0.035489550879933399 0.13047660436986699 0 0.049967245840677799 0.1346749538532428 0 0.035043171973767828 0.14417428961986181 0 0.042787798921947118 0.15119881992927539 0 0.027126919643261159 0.15535507410858759 0 0.035043171973767828 0.14417428961986181 0 0.042787798921947118 0.15119881992927539 0 0.021901994092642849 0.23871427132937401 0 0.01908681312395703 0.2483961248678184 0 0.042108793830668463 0.24331554336120759 0 0.01908681312395703 0.2483961248678184 0 0.042108793830668463 0.24331554336120759 0 0.021901994092642849 0.23871427132937401 0 0.01908681312395703 0.2483961248678184 0 -0.0061601503043545378 0.23859323913217001 0 0.021901994092642849 0.23871427132937401 0 0.01908681312395703 0.2483961248678184 0 -0.0071567094876491466 0.25418764894853862 0 -0.0061601503043545378 0.23859323913217001 0 0.01908681312395703 0.2483961248678184 0 -0.0061601503043545378 0.23859323913217001 0 0.021901994092642849 0.23871427132937401 0 0.013706184737857219 0.2283755694368286 0 -0.0061601503043545378 0.23859323913217001 0 0.021901994092642849 0.23871427132937401 0 -0.0061601503043545378 0.23859323913217001 0 0.013706184737857219 0.2283755694368286 0 0.004997515727333068 0.22272363615689281 0 0.013706184737857219 0.2283755694368286 0 0.004997515727333068 0.22272363615689281 0 0.016292782495968439 0.2174049964599937 0 0.013706184737857219 0.2283755694368286 0 0.026322220476430049 0.22351241221955839 0 0.016292782495968439 0.2174049964599937 0 0.021901994092642849 0.23871427132937401 0 0.013706184737857219 0.2283755694368286 0 0.026322220476430049 0.22351241221955839 0 0.021901994092642849 0.23871427132937401 0 0.026322220476430049 0.22351241221955839 0 0.021901994092642849 0.23871427132937401 0 0.026322220476430049 0.22351241221955839 0 0.034280255607200452 0.2320565944215742 0 0.026322220476430049 0.22351241221955839 0 0.016292782495968439 0.2174049964599937 0 0.033184645744104402 0.2122596113440002 0 0.018020018385374991 0.20610097546034009 0 0.034489636760095567 0.19606695438484201 0 0.033184645744104402 0.2122596113440002 0 0.018020018385374991 0.20610097546034009 0 0.016292782495968439 0.2174049964599937 0 0.033184645744104402 0.2122596113440002 0 0.004997515727333068 0.22272363615689281 0 0.016292782495968439 0.2174049964599937 0 0.003451728691173037 0.20920049077016331 0 -0.0021315750627880418 0.21735966672682289 0 0.004997515727333068 0.22272363615689281 0 0.003451728691173037 0.20920049077016331 0 0.018020018385374991 0.20610097546034009 0 0.016292782495968439 0.2174049964599937 0 0.003451728691173037 0.20920049077016331 0 0.018020018385374991 0.20610097546034009 0 0.003451728691173037 0.20920049077016331 0 0.0036961993017142949 0.18958129754698291 0 0.018020018385374991 0.20610097546034009 0 0.0036961993017142949 0.18958129754698291 0 0.01888574789450501 0.18883518055818069 0 0.018020018385374991 0.20610097546034009 0 0.034489636760095567 0.19606695438484201 0 0.029622402172894899 0.1798891804756621 0 0.01888574789450501 0.18883518055818069 0 0.034489636760095567 0.19606695438484201 0 0.018020018385374991 0.20610097546034009 0 0.01888574789450501 0.18883518055818069 0 0.034489636760095567 0.19606695438484201 0 0.050959255134814647 0.18603293330934151 0 0.034489636760095567 0.19606695438484201 0 0.049275163692892608 0.20396456572605171 0 0.050959255134814647 0.18603293330934151 0 0.034489636760095567 0.19606695438484201 0 0.050959255134814647 0.18603293330934151 0 0.069556005189453526 0.20959365682866429 0 0.050959255134814647 0.18603293330934151 0 0.049275163692892608 0.20396456572605171 0 0.069556005189453526 0.20959365682866429 0 0.049275163692892608 0.20396456572605171 0 0.061106875983970771 0.2202424598527353 0 0.069556005189453526 0.20959365682866429 0 0.049275163692892608 0.20396456572605171 0 0.047834071896449351 0.21622676129731541 0 0.061106875983970771 0.2202424598527353 0 0.034489636760095567 0.19606695438484201 0 0.049275163692892608 0.20396456572605171 0 0.033184645744104402 0.2122596113440002 0 0.047834071896449351 0.21622676129731541 0 0.033184645744104402 0.2122596113440002 0 0.040503964941909269 0.225434002333983 0 0.049275163692892608 0.20396456572605171 0 0.047834071896449351 0.21622676129731541 0 0.033184645744104402 0.2122596113440002 0 0.026322220476430049 0.22351241221955839 0 0.033184645744104402 0.2122596113440002 0 0.040503964941909269 0.225434002333983 0 0.026322220476430049 0.22351241221955839 0 0.034280255607200452 0.2320565944215742 0 0.040503964941909269 0.225434002333983 0 0.040503964941909269 0.225434002333983 0 0.05222708162012895 0.2277970116331173 0 0.045474079875824469 0.23881593787682689 0 0.034280255607200452 0.2320565944215742 0 0.040503964941909269 0.225434002333983 0 0.045474079875824469 0.23881593787682689 0 0.047834071896449351 0.21622676129731541 0 0.040503964941909269 0.225434002333983 0 0.05222708162012895 0.2277970116331173 0 0.047834071896449351 0.21622676129731541 0 0.061106875983970771 0.2202424598527353 0 0.05222708162012895 0.2277970116331173 0 0.061106875983970771 0.2202424598527353 0 0.05222708162012895 0.2277970116331173 0 0.065130774537380115 0.2382349618545978 0 0.05222708162012895 0.2277970116331173 0 0.045474079875824469 0.23881593787682689 0 0.065130774537380115 0.2382349618545978 0 0.042108793830668463 0.24331554336120759 0 0.045474079875824469 0.23881593787682689 0 0.065130774537380115 0.2382349618545978 0 0.05547764474372141 0.24849057313960141 0 0.042108793830668463 0.24331554336120759 0 0.065130774537380115 0.2382349618545978 0 0.042108793830668463 0.24331554336120759 0 0.065130774537380115 0.2382349618545978 0 0.05547764474372141 0.24849057313960141 0 0.065130774537380115 0.2382349618545978 0 0.065398480310422169 0.25061588267944429 0 0.05547764474372141 0.24849057313960141 0 0.042108793830668463 0.24331554336120759 0 0.04749626877771515 0.25304368338574462 0 0.042108793830668463 0.24331554336120759 0 0.03524265270980155 0.25117031458875477 0 0.04749626877771515 0.25304368338574462 0 0.01908681312395703 0.2483961248678184 0 0.042108793830668463 0.24331554336120759 0 0.03524265270980155 0.25117031458875477 0 0.021901994092642849 0.23871427132937401 0 0.034280255607200452 0.2320565944215742 0 0.045474079875824469 0.23881593787682689 0 0.021901994092642849 0.23871427132937401 0 0.042108793830668463 0.24331554336120759 0 0.045474079875824469 0.23881593787682689 0 0.021901994092642849 0.23871427132937401 0 0.045474079875824469 0.23881593787682689 0 0.088152755244091718 0.23315438034798769 0 0.099726721814054509 0.24781775032261119 0 0.080414566366012505 0.25030138021361747 0 0.065130774537380115 0.2382349618545978 0 0.065398480310422169 0.25061588267944429 0 0.080414566366012505 0.25030138021361747 0 0.065130774537380115 0.2382349618545978 0 0.088152755244091718 0.23315438034798769 0 0.080414566366012505 0.25030138021361747 0 0.065130774537380115 0.2382349618545978 0 0.088152755244091718 0.23315438034798769 0 0.071258012955001712 0.22531409845852821 0 0.088152755244091718 0.23315438034798769 0 0.069556005189453526 0.20959365682866429 0 0.065130774537380115 0.2382349618545978 0 0.071258012955001712 0.22531409845852821 0 0.088152755244091718 0.23315438034798769 0 0.061106875983970771 0.2202424598527353 0 0.065130774537380115 0.2382349618545978 0 0.071258012955001712 0.22531409845852821 0 0.088152755244091718 0.23315438034798769 0 0.069556005189453526 0.20959365682866429 0 0.088152755244091718 0.23315438034798769 0 0.086969663969011457 0.22491581844690531 0 0.069556005189453526 0.20959365682866429 0 0.08932740308852237 0.22904637375180459 0 0.088152755244091718 0.23315438034798769 0 0.086969663969011457 0.22491581844690531 0 0.08932740308852237 0.22904637375180459 0 0.092689862606469609 0.2275007739037688 0 0.086969663969011457 0.22491581844690531 0 0.088152755244091718 0.23315438034798769 0 0.092689862606469609 0.2275007739037688 0 0.095108498198556268 0.23097364697418549 0 0.08932740308852237 0.22904637375180459 0 0.088152755244091718 0.23315438034798769 0 0.092689862606469609 0.2275007739037688 0 0.092881352767511874 0.2193495335200617 0 0.086969663969011457 0.22491581844690531 0 0.083879092011772974 0.21350973187122149 0 0.092689862606469609 0.2275007739037688 0 0.092881352767511874 0.2193495335200617 0 0.086969663969011457 0.22491581844690531 0 0.092881352767511874 0.2193495335200617 0 0.086109346121115066 0.20017991868925489 0 0.1022036241279321 0.21379051181729089 0 0.092881352767511874 0.2193495335200617 0 0.083879092011772974 0.21350973187122149 0 0.086109346121115066 0.20017991868925489 0 0.086969663969011457 0.22491581844690531 0 0.083879092011772974 0.21350973187122149 0 0.069556005189453526 0.20959365682866429 0 0.083879092011772974 0.21350973187122149 0 0.069556005189453526 0.20959365682866429 0 0.086109346121115066 0.20017991868925489 0 0.061106875983970771 0.2202424598527353 0 0.071258012955001712 0.22531409845852821 0 0.069556005189453526 0.20959365682866429 0 0.050959255134814647 0.18603293330934151 0 0.069556005189453526 0.20959365682866429 0 0.072969207020909546 0.1904246554986275 0 0.069556005189453526 0.20959365682866429 0 0.072969207020909546 0.1904246554986275 0 0.086109346121115066 0.20017991868925489 0 0.086109346121115066 0.20017991868925489 0 0.099006752424836184 0.19537583327303809 0 0.085670366219538358 0.18374307311616031 0 0.072969207020909546 0.1904246554986275 0 0.086109346121115066 0.20017991868925489 0 0.085670366219538358 0.18374307311616031 0 0.099006752424836184 0.19537583327303809 0 0.11260276300605621 0.19775225206070129 0 0.1022036241279321 0.21379051181729089 0 0.086109346121115066 0.20017991868925489 0 0.099006752424836184 0.19537583327303809 0 0.1022036241279321 0.21379051181729089 0 0.099006752424836184 0.19537583327303809 0 0.11260276300605621 0.19775225206070129 0 0.1017189742696616 0.1814677749114047 0 0.11260276300605621 0.19775225206070129 0 0.1244841608436606 0.18065942167590651 0 0.130514152869286 0.2051006873245815 0 0.1176889135009606 0.21011928336198599 0 0.1182979021347491 0.22740110494532689 0 0.1257612783499768 0.21804075715128779 0 0.11260276300605621 0.19775225206070129 0 0.1176889135009606 0.21011928336198599 0 0.130514152869286 0.2051006873245815 0 0.11260276300605621 0.19775225206070129 0 0.1176889135009606 0.21011928336198599 0 0.1022036241279321 0.21379051181729089 0 0.1176889135009606 0.21011928336198599 0 0.1022036241279321 0.21379051181729089 0 0.1182979021347491 0.22740110494532689 0 0.1176889135009606 0.21011928336198599 0 0.1257612783499768 0.21804075715128779 0 0.130514152869286 0.2051006873245815 0 0.086109346121115066 0.20017991868925489 0 0.1022036241279321 0.21379051181729089 0 0.1022036241279321 0.21379051181729089 0 0.09857351746066545 0.22680611638876219 0 0.10816553624968329 0.23180730038228251 0 0.092689862606469609 0.2275007739037688 0 0.092881352767511874 0.2193495335200617 0 0.09857351746066545 0.22680611638876219 0 0.092881352767511874 0.2193495335200617 0 0.1022036241279321 0.21379051181729089 0 0.09857351746066545 0.22680611638876219 0 0.092689862606469609 0.2275007739037688 0 0.095108498198556268 0.23097364697418549 0 0.09857351746066545 0.22680611638876219 0 0.088152755244091718 0.23315438034798769 0 0.095108498198556268 0.23097364697418549 0 0.099806784324974751 0.23670058165750091 0 0.095108498198556268 0.23097364697418549 0 0.09857351746066545 0.22680611638876219 0 0.099806784324974751 0.23670058165750091 0 0.09857351746066545 0.22680611638876219 0 0.10816553624968329 0.23180730038228251 0 0.099806784324974751 0.23670058165750091 0 0.1022036241279321 0.21379051181729089 0 0.1182979021347491 0.22740110494532689 0 0.1022036241279321 0.21379051181729089 0 0.10816553624968329 0.23180730038228251 0 0.1182979021347491 0.22740110494532689 0 0.10816553624968329 0.23180730038228251 0 0.1182979021347491 0.22740110494532689 0 0.119989175715576 0.24130879140062139 0 0.1182979021347491 0.22740110494532689 0 0.119989175715576 0.24130879140062139 0 0.13439218014156629 0.24101169807336259 0 0.10816553624968329 0.23180730038228251 0 0.119989175715576 0.24130879140062139 0 0.1101222137342026 0.24483669608419281 0 0.119989175715576 0.24130879140062139 0 0.1245192667765436 0.25126071329662197 0 0.1152049647699719 0.25438230127939371 0 0.119989175715576 0.24130879140062139 0 0.1101222137342026 0.24483669608419281 0 0.1152049647699719 0.25438230127939371 0 0.1101222137342026 0.24483669608419281 0 0.099726721814054509 0.24781775032261119 0 0.1152049647699719 0.25438230127939371 0 0.1101222137342026 0.24483669608419281 0 0.099806784324974751 0.23670058165750091 0 0.099726721814054509 0.24781775032261119 0 0.10816553624968329 0.23180730038228251 0 0.1101222137342026 0.24483669608419281 0 0.099806784324974751 0.23670058165750091 0 0.088152755244091718 0.23315438034798769 0 0.099726721814054509 0.24781775032261119 0 0.088152755244091718 0.23315438034798769 0 0.099806784324974751 0.23670058165750091 0 0.099726721814054509 0.24781775032261119 0 0.087163420319863294 0.14849282656623611 0 0.073075001873360884 0.1525902671217067 0 0.095918865460093913 0.15864154710439979 0 0.081691251993137481 0.14354529180090159 0 0.087163420319863294 0.14849282656623611 0 0.098357016555669072 0.13929006011167369 0 0.081691251993137481 0.14354529180090159 0 0.087163420319863294 0.14849282656623611 0 0.073075001873360884 0.1525902671217067 0 0.081691251993137481 0.14354529180090159 0 0.081377120475440087 0.1360693636087251 0 0.074002863738053024 0.14264591868223059 0 0.086990541256311213 0.13470259578594121 0 0.081377120475440087 0.1360693636087251 0 0.098357016555669072 0.13929006011167369 0 0.086990541256311213 0.13470259578594121 0 0.078473604985725115 0.12702003058805461 0 0.069040326730661766 0.13322966386856061 0 0.081691251993137481 0.14354529180090159 0 0.081377120475440087 0.1360693636087251 0 0.098357016555669072 0.13929006011167369 0 0.086990541256311213 0.13470259578594121 0 0.081377120475440087 0.1360693636087251 0 0.069040326730661766 0.13322966386856061 0 0.081377120475440087 0.1360693636087251 0 0.098357016555669072 0.13929006011167369 0 0.086990541256311213 0.13470259578594121 0 0.091292884652120765 0.12747867201893651 0 0.098873239576045852 0.12848765383197139 0 0.086990541256311213 0.13470259578594121 0 0.091292884652120765 0.12747867201893651 0 0.085986207993020064 0.1270690924260427 0 0.089469305077752637 0.12280169590123501 0 0.091292884652120765 0.12747867201893651 0 0.085986207993020064 0.1270690924260427 0 0.086990541256311213 0.13470259578594121 0 0.085986207993020064 0.1270690924260427 0 0.078473604985725115 0.12702003058805461 0 0.081377120475440087 0.1360693636087251 0 0.069040326730661766 0.13322966386856061 0 0.086990541256311213 0.13470259578594121 0 0.069040326730661766 0.13322966386856061 0 0.081377120475440087 0.1360693636087251 0 0.069040326730661766 0.13322966386856061 0 0.074002863738053024 0.14264591868223059 0 0.078473604985725115 0.12702003058805461 0 0.069040326730661766 0.13322966386856061 0 0.064397224395211089 0.13284866710577661 0 0.065899112258859374 0.1198933405857107 0 0.078473604985725115 0.12702003058805461 0 0.064397224395211089 0.13284866710577661 0 0.069040326730661766 0.13322966386856061 0 0.064592264036266375 0.1425463139757297 0 0.074002863738053024 0.14264591868223059 0 0.069040326730661766 0.13322966386856061 0 0.064397224395211089 0.13284866710577661 0 0.056999495964422997 0.14865988386854551 0 0.064592264036266375 0.1425463139757297 0 0.073075001873360884 0.1525902671217067 0 0.064592264036266375 0.1425463139757297 0 0.074002863738053024 0.14264591868223059 0 0.073075001873360884 0.1525902671217067 0 0.081691251993137481 0.14354529180090159 0 0.074002863738053024 0.14264591868223059 0 0.073075001873360884 0.1525902671217067 0 0.055187492420103519 0.1625323453809181 0 0.073075001873360884 0.1525902671217067 0 0.073439060297455061 0.17233724020687191 0 0.050959255134814647 0.18603293330934151 0 0.072969207020909546 0.1904246554986275 0 0.073439060297455061 0.17233724020687191 0 0.072969207020909546 0.1904246554986275 0 0.073439060297455061 0.17233724020687191 0 0.085670366219538358 0.18374307311616031 0 0.073075001873360884 0.1525902671217067 0 0.073439060297455061 0.17233724020687191 0 0.095918865460093913 0.15864154710439979 0 0.073439060297455061 0.17233724020687191 0 0.085670366219538358 0.18374307311616031 0 0.095918865460093913 0.15864154710439979 0 0.073439060297455061 0.17233724020687191 0 0.095918865460093913 0.15864154710439979 0 0.095918865460093913 0.15864154710439979 0 0.1091043418594369 0.168246153633798 0 0.1017189742696616 0.1814677749114047 0 0.095918865460093913 0.15864154710439979 0 0.1091043418594369 0.168246153633798 0 0.11357214427938871 0.15596067496336319 0 0.085670366219538358 0.18374307311616031 0 0.095918865460093913 0.15864154710439979 0 0.1017189742696616 0.1814677749114047 0 0.099006752424836184 0.19537583327303809 0 0.085670366219538358 0.18374307311616031 0 0.1017189742696616 0.1814677749114047 0 0.11260276300605621 0.19775225206070129 0 0.1017189742696616 0.1814677749114047 0 0.1244841608436606 0.18065942167590651 0 0.1091043418594369 0.168246153633798 0 0.1017189742696616 0.1814677749114047 0 0.1244841608436606 0.18065942167590651 0 0.11357214427938871 0.15596067496336319 0 0.1305154619560471 0.15405322189175669 0 0.1254807161826936 0.16665210326036969 0 0.1091043418594369 0.168246153633798 0 0.1244841608436606 0.18065942167590651 0 0.1254807161826936 0.16665210326036969 0 0.1091043418594369 0.168246153633798 0 0.11357214427938871 0.15596067496336319 0 0.1254807161826936 0.16665210326036969 0 0.117932243867143 0.1427171205707955 0 0.11357214427938871 0.15596067496336319 0 0.1305154619560471 0.15405322189175669 0 0.117932243867143 0.1427171205707955 0 0.11357214427938871 0.15596067496336319 0 0.1070728256559412 0.14663318544326759 0 0.117932243867143 0.1427171205707955 0 0.1070728256559412 0.14663318544326759 0 0.10958385811741141 0.13655652446610569 0 0.087163420319863294 0.14849282656623611 0 0.095918865460093913 0.15864154710439979 0 0.098357016555669072 0.13929006011167369 0 0.095918865460093913 0.15864154710439979 0 0.11357214427938871 0.15596067496336319 0 0.1070728256559412 0.14663318544326759 0 0.095918865460093913 0.15864154710439979 0 0.1070728256559412 0.14663318544326759 0 0.098357016555669072 0.13929006011167369 0 0.1070728256559412 0.14663318544326759 0 0.098357016555669072 0.13929006011167369 0 0.10958385811741141 0.13655652446610569 0 0.086990541256311213 0.13470259578594121 0 0.098357016555669072 0.13929006011167369 0 0.10958385811741141 0.13655652446610569 0 0.086990541256311213 0.13470259578594121 0 0.10958385811741141 0.13655652446610569 0 0.086990541256311213 0.13470259578594121 0 0.098873239576045852 0.12848765383197139 0 0.10958385811741141 0.13655652446610569 0 0.094965611989541746 0.1225303268380921 0 0.091292884652120765 0.12747867201893651 0 0.098873239576045852 0.12848765383197139 0 0.098873239576045852 0.12848765383197139 0 0.1075247174207731 0.1284688863197059 0 0.10958385811741141 0.13655652446610569 0 0.1061953491506987 0.1214379686178071 0 0.098873239576045852 0.12848765383197139 0 0.1075247174207731 0.1284688863197059 0 0.12170887245016811 0.11541909444479651 0 0.1154464228389363 0.1273933983629395 0 0.1283257799327904 0.13399226468533851 0 0.1061953491506987 0.1214379686178071 0 0.1075247174207731 0.1284688863197059 0 0.1154464228389363 0.1273933983629395 0 0.1075247174207731 0.1284688863197059 0 0.1154464228389363 0.1273933983629395 0 0.10958385811741141 0.13655652446610569 0 0.117932243867143 0.1427171205707955 0 0.1154464228389363 0.1273933983629395 0 0.10958385811741141 0.13655652446610569 0 0.117932243867143 0.1427171205707955 0 0.1154464228389363 0.1273933983629395 0 0.1283257799327904 0.13399226468533851 0 0.1283257799327904 0.13399226468533851 0 0.14577211097279899 0.1296205262128296 0 0.1357080992232185 0.1194104631950723 0 0.1283257799327904 0.13399226468533851 0 0.14577211097279899 0.1296205262128296 0 0.14573544572550701 0.14759938004384829 0 0.14577211097279899 0.1296205262128296 0 0.14573544572550701 0.14759938004384829 0 0.15719978670139009 0.13752084249287591 0 0.14577211097279899 0.1296205262128296 0 0.15719978670139009 0.13752084249287591 0 0.16094333244547901 0.12356064939624339 0 0.14573544572550701 0.14759938004384829 0 0.15719978670139009 0.13752084249287591 0 0.1610918387793667 0.1537215669828276 0 0.117932243867143 0.1427171205707955 0 0.1283257799327904 0.13399226468533851 0 0.1305154619560471 0.15405322189175669 0 0.1283257799327904 0.13399226468533851 0 0.14573544572550701 0.14759938004384829 0 0.1305154619560471 0.15405322189175669 0 0.1305154619560471 0.15405322189175669 0 0.1254807161826936 0.16665210326036969 0 0.14972747197493469 0.17434104413702431 0 0.1244841608436606 0.18065942167590651 0 0.14972747197493469 0.17434104413702431 0 0.13885494957537239 0.1893976306370147 0 0.1244841608436606 0.18065942167590651 0 0.1254807161826936 0.16665210326036969 0 0.14972747197493469 0.17434104413702431 0 0.14972747197493469 0.17434104413702431 0 0.1658807312328251 0.17842741654435421 0 0.1512936393455214 0.18934268874381219 0 0.14972747197493469 0.17434104413702431 0 0.13885494957537239 0.1893976306370147 0 0.1512936393455214 0.18934268874381219 0 0.14972747197493469 0.17434104413702431 0 0.1610918387793667 0.1537215669828276 0 0.14573544572550701 0.14759938004384829 0 0.14972747197493469 0.17434104413702431 0 0.1610918387793667 0.1537215669828276 0 0.14573544572550701 0.14759938004384829 0 0.1305154619560471 0.15405322189175669 0 0.14972747197493469 0.17434104413702431 0 0.1658807312328251 0.17842741654435421 0 0.18179090545798721 0.16920838198586419 0 0.1610918387793667 0.1537215669828276 0 0.14972747197493469 0.17434104413702431 0 0.1658807312328251 0.17842741654435421 0 0.1610918387793667 0.1537215669828276 0 0.1658807312328251 0.17842741654435421 0 0.1512936393455214 0.18934268874381219 0 0.16417451948759049 0.1929690657593976 0 0.1658807312328251 0.17842741654435421 0 0.16417451948759049 0.1929690657593976 0 0.17652904274502279 0.1892877973037356 0 0.18179090545798721 0.16920838198586419 0 0.17652904274502279 0.1892877973037356 0 0.19009327954550359 0.1858530321497375 0 0.1658807312328251 0.17842741654435421 0 0.18179090545798721 0.16920838198586419 0 0.17652904274502279 0.1892877973037356 0 0.18179090545798721 0.16920838198586419 0 0.1844197588313897 0.1476828350503773 0 0.1610918387793667 0.1537215669828276 0 0.1844197588313897 0.1476828350503773 0 0.17245620558379871 0.13310208982863089 0 0.1610918387793667 0.1537215669828276 0 0.17245620558379871 0.13310208982863089 0 0.1901122061945674 0.1304209611105227 0 0.18382057238823071 0.1124826126744342 0 0.1844197588313897 0.1476828350503773 0 0.17245620558379871 0.13310208982863089 0 0.1901122061945674 0.1304209611105227 0 0.17245620558379871 0.13310208982863089 0 0.15719978670139009 0.13752084249287591 0 0.16094333244547901 0.12356064939624339 0 0.17245620558379871 0.13310208982863089 0 0.1610918387793667 0.1537215669828276 0 0.17245620558379871 0.13310208982863089 0 0.15719978670139009 0.13752084249287591 0 0.1610918387793667 0.1537215669828276 0 0.14591182213318121 0.23596063094969241 0 0.1406873045743415 0.2463353526858035 0 0.13654414489491201 0.2295419529732565 0 0.15356021646706139 0.24346735864033589 0 0.15237192743769931 0.23454481088227749 0 0.1597712415439182 0.23628171390044411 0 0.15356021646706139 0.24346735864033589 0 0.15237192743769931 0.23454481088227749 0 0.14591182213318121 0.23596063094969241 0 0.15356021646706139 0.24346735864033589 0 0.14591182213318121 0.23596063094969241 0 0.1406873045743415 0.2463353526858035 0 0.1406873045743415 0.2463353526858035 0 0.13439218014156629 0.24101169807336259 0 0.13078278600202481 0.26024938804110131 0 0.1406873045743415 0.2463353526858035 0 0.13439218014156629 0.24101169807336259 0 0.13654414489491201 0.2295419529732565 0 0.1406873045743415 0.2463353526858035 0 0.13654414489491201 0.2295419529732565 0 0.1406873045743415 0.2463353526858035 0 0.13439218014156629 0.24101169807336259 0 0.119989175715576 0.24130879140062139 0 0.13439218014156629 0.24101169807336259 0 0.1245192667765436 0.25126071329662197 0 0.13439218014156629 0.24101169807336259 0 0.13654414489491201 0.2295419529732565 0 0.1182979021347491 0.22740110494532689 0 0.13439218014156629 0.24101169807336259 0 0.13654414489491201 0.2295419529732565 0 0.1182979021347491 0.22740110494532689 0 0.13439218014156629 0.24101169807336259 0 0.1182979021347491 0.22740110494532689 0 0.13654414489491201 0.2295419529732565 0 0.1257612783499768 0.21804075715128779 0 0.13654414489491201 0.2295419529732565 0 0.14865553283891991 0.2269814357877584 0 0.14587073779499349 0.2171153023636819 0 0.14591182213318121 0.23596063094969241 0 0.13654414489491201 0.2295419529732565 0 0.14865553283891991 0.2269814357877584 0 0.15237192743769931 0.23454481088227749 0 0.14865553283891991 0.2269814357877584 0 0.15824076367434731 0.22702810021331291 0 0.15237192743769931 0.23454481088227749 0 0.14591182213318121 0.23596063094969241 0 0.14865553283891991 0.2269814357877584 0 0.14865553283891991 0.2269814357877584 0 0.15325800557975669 0.21796885983849729 0 0.15824076367434731 0.22702810021331291 0 0.14865553283891991 0.2269814357877584 0 0.15325800557975669 0.21796885983849729 0 0.14587073779499349 0.2171153023636819 0 0.13654414489491201 0.2295419529732565 0 0.14587073779499349 0.2171153023636819 0 0.14187587945414371 0.20112437027784691 0 0.14902012620723579 0.2099598929410503 0 0.14587073779499349 0.2171153023636819 0 0.14187587945414371 0.20112437027784691 0 0.15325800557975669 0.21796885983849729 0 0.14902012620723579 0.2099598929410503 0 0.14587073779499349 0.2171153023636819 0 0.15325800557975669 0.21796885983849729 0 0.14902012620723579 0.2099598929410503 0 0.15653774996749381 0.20348487828170109 0 0.14902012620723579 0.2099598929410503 0 0.14187587945414371 0.20112437027784691 0 0.15653774996749381 0.20348487828170109 0 0.13654414489491201 0.2295419529732565 0 0.14187587945414371 0.20112437027784691 0 0.13654414489491201 0.2295419529732565 0 0.130514152869286 0.2051006873245815 0 0.14187587945414371 0.20112437027784691 0 0.13654414489491201 0.2295419529732565 0 0.130514152869286 0.2051006873245815 0 0.13654414489491201 0.2295419529732565 0 0.1257612783499768 0.21804075715128779 0 0.130514152869286 0.2051006873245815 0 0.130514152869286 0.2051006873245815 0 0.13885494957537239 0.1893976306370147 0 0.14187587945414371 0.20112437027784691 0 0.1244841608436606 0.18065942167590651 0 0.130514152869286 0.2051006873245815 0 0.1244841608436606 0.18065942167590651 0 0.130514152869286 0.2051006873245815 0 0.13885494957537239 0.1893976306370147 0 0.13885494957537239 0.1893976306370147 0 0.14187587945414371 0.20112437027784691 0 0.1512936393455214 0.18934268874381219 0 0.14187587945414371 0.20112437027784691 0 0.1512936393455214 0.18934268874381219 0 0.15653774996749381 0.20348487828170109 0 0.1512936393455214 0.18934268874381219 0 0.16417451948759049 0.1929690657593976 0 0.15653774996749381 0.20348487828170109 0 0.16417451948759049 0.1929690657593976 0 0.17005787844992051 0.20349094613690069 0 0.15653774996749381 0.20348487828170109 0 0.16417451948759049 0.1929690657593976 0 0.17652904274502279 0.1892877973037356 0 0.17005787844992051 0.20349094613690069 0 0.17652904274502279 0.1892877973037356 0 0.18717694229631029 0.20577794124615981 0 0.19009327954550359 0.1858530321497375 0 0.17652904274502279 0.1892877973037356 0 0.18717694229631029 0.20577794124615981 0 0.17005787844992051 0.20349094613690069 0 0.18717694229631029 0.20577794124615981 0 0.1758461358394191 0.21768227508772611 0 0.17005787844992051 0.20349094613690069 0 0.18717694229631029 0.20577794124615981 0 0.1758461358394191 0.21768227508772611 0 0.18697933758202021 0.22319639015762721 0 0.1758461358394191 0.21768227508772611 0 0.16408707237797321 0.21659758319431549 0 0.17005787844992051 0.20349094613690069 0 0.16408707237797321 0.21659758319431549 0 0.17005787844992051 0.20349094613690069 0 0.15653774996749381 0.20348487828170109 0 0.15325800557975669 0.21796885983849729 0 0.16408707237797321 0.21659758319431549 0 0.15653774996749381 0.20348487828170109 0 0.15325800557975669 0.21796885983849729 0 0.16408707237797321 0.21659758319431549 0 0.15824076367434731 0.22702810021331291 0 0.16408707237797321 0.21659758319431549 0 0.15824076367434731 0.22702810021331291 0 0.1693842372708276 0.23034764310439709 0 0.15824076367434731 0.22702810021331291 0 0.1693842372708276 0.23034764310439709 0 0.1597712415439182 0.23628171390044411 0 0.15237192743769931 0.23454481088227749 0 0.15824076367434731 0.22702810021331291 0 0.1597712415439182 0.23628171390044411 0 0.1758461358394191 0.21768227508772611 0 0.16408707237797321 0.21659758319431549 0 0.1693842372708276 0.23034764310439709 0 0.1758461358394191 0.21768227508772611 0 0.1693842372708276 0.23034764310439709 0 0.17996711006278149 0.23041749794278599 0 0.1758461358394191 0.21768227508772611 0 0.18697933758202021 0.22319639015762721 0 0.17996711006278149 0.23041749794278599 0 0.18697933758202021 0.22319639015762721 0 0.17996711006278149 0.23041749794278599 0 0.1892415565365953 0.2359111463176416 0 0.1693842372708276 0.23034764310439709 0 0.17996711006278149 0.23041749794278599 0 0.1783842830850455 0.24495003504653801 0 0.17996711006278149 0.23041749794278599 0 0.1783842830850455 0.24495003504653801 0 0.1892415565365953 0.2359111463176416 0 0.1783842830850455 0.24495003504653801 0 0.19300386992948179 0.24803736689329239 0 0.1892415565365953 0.2359111463176416 0 0.1783842830850455 0.24495003504653801 0 0.16529906286965559 0.24602065666189671 0 0.171395163859485 0.25711420742336921 0 0.1693842372708276 0.23034764310439709 0 0.1783842830850455 0.24495003504653801 0 0.16529906286965559 0.24602065666189671 0 0.1693842372708276 0.23034764310439709 0 0.16529906286965559 0.24602065666189671 0 0.1597712415439182 0.23628171390044411 0 0.15356021646706139 0.24346735864033589 0 0.16529906286965559 0.24602065666189671 0 0.1597712415439182 0.23628171390044411 0 0.2164574796508611 0.24620752144412791 0 0.21539601762981669 0.23533510664561069 0 0.20599362481276609 0.24766897191122689 0 0.21539601762981669 0.23533510664561069 0 0.20599362481276609 0.24766897191122689 0 0.20063804790651549 0.2373368817804182 0 0.20599362481276609 0.24766897191122689 0 0.19300386992948179 0.24803736689329239 0 0.20063804790651549 0.2373368817804182 0 0.19300386992948179 0.24803736689329239 0 0.1892415565365953 0.2359111463176416 0 0.20063804790651549 0.2373368817804182 0 0.20063804790651549 0.2373368817804182 0 0.1957720889317309 0.22829632405145839 0 0.2053125125541013 0.2253972430764152 0 0.18697933758202021 0.22319639015762721 0 0.1892415565365953 0.2359111463176416 0 0.1957720889317309 0.22829632405145839 0 0.1892415565365953 0.2359111463176416 0 0.20063804790651549 0.2373368817804182 0 0.1957720889317309 0.22829632405145839 0 0.18697933758202021 0.22319639015762721 0 0.1957720889317309 0.22829632405145839 0 0.1966889900794222 0.21963995892518981 0 0.1957720889317309 0.22829632405145839 0 0.1966889900794222 0.21963995892518981 0 0.2053125125541013 0.2253972430764152 0 0.21539601762981669 0.23533510664561069 0 0.2053125125541013 0.2253972430764152 0 0.22265129657167909 0.22458521110015511 0 0.2053125125541013 0.2253972430764152 0 0.21832997078756131 0.21478634743114389 0 0.22265129657167909 0.22458521110015511 0 0.21539601762981669 0.23533510664561069 0 0.20063804790651549 0.2373368817804182 0 0.2053125125541013 0.2253972430764152 0 0.2053125125541013 0.2253972430764152 0 0.2098637343843488 0.2083157728184245 0 0.19924974516571919 0.20959237244597709 0 0.2053125125541013 0.2253972430764152 0 0.21832997078756131 0.21478634743114389 0 0.2098637343843488 0.2083157728184245 0 0.21832997078756131 0.21478634743114389 0 0.2098637343843488 0.2083157728184245 0 0.21880399386194821 0.20071475084048621 0 0.2098637343843488 0.2083157728184245 0 0.19924974516571919 0.20959237244597709 0 0.20173634629041809 0.19687630936067371 0 0.1966889900794222 0.21963995892518981 0 0.2053125125541013 0.2253972430764152 0 0.19924974516571919 0.20959237244597709 0 0.18717694229631029 0.20577794124615981 0 0.18697933758202021 0.22319639015762721 0 0.1966889900794222 0.21963995892518981 0 0.18717694229631029 0.20577794124615981 0 0.1966889900794222 0.21963995892518981 0 0.19924974516571919 0.20959237244597709 0 0.18717694229631029 0.20577794124615981 0 0.19924974516571919 0.20959237244597709 0 0.20173634629041809 0.19687630936067371 0 0.18717694229631029 0.20577794124615981 0 0.20173634629041809 0.19687630936067371 0 0.19009327954550359 0.1858530321497375 0 0.20173634629041809 0.19687630936067371 0 0.19009327954550359 0.1858530321497375 0 0.20360379444913571 0.18347355204247209 0 0.20173634629041809 0.19687630936067371 0 0.21311189613839629 0.18856701735837711 0 0.21880399386194821 0.20071475084048621 0 0.2098637343843488 0.2083157728184245 0 0.20173634629041809 0.19687630936067371 0 0.21880399386194821 0.20071475084048621 0 0.20173634629041809 0.19687630936067371 0 0.21311189613839629 0.18856701735837711 0 0.20360379444913571 0.18347355204247209 0 0.21311189613839629 0.18856701735837711 0 0.21880399386194821 0.20071475084048621 0 0.2273925597559141 0.18628481846341069 0 0.21880399386194821 0.20071475084048621 0 0.23315527368417771 0.20080996185269351 0 0.2273925597559141 0.18628481846341069 0 0.23315527368417771 0.20080996185269351 0 0.23954731260828169 0.19059053775502399 0 0.2273925597559141 0.18628481846341069 0 0.23954731260828169 0.19059053775502399 0 0.24828453414083809 0.18270870522598159 0 0.25346340239848258 0.19429911864016761 0 0.23954731260828169 0.19059053775502399 0 0.24511120893490149 0.2053334976865909 0 0.25346340239848258 0.19429911864016761 0 0.23315527368417771 0.20080996185269351 0 0.23954731260828169 0.19059053775502399 0 0.24511120893490149 0.2053334976865909 0 0.23315527368417771 0.20080996185269351 0 0.24511120893490149 0.2053334976865909 0 0.23558379892396361 0.21752489377191039 0 0.24511120893490149 0.2053334976865909 0 0.23558379892396361 0.21752489377191039 0 0.25064340427912452 0.21993090778693361 0 0.23315527368417771 0.20080996185269351 0 0.23558379892396361 0.21752489377191039 0 0.22681072864401869 0.21084831608772711 0 0.23558379892396361 0.21752489377191039 0 0.22681072864401869 0.21084831608772711 0 0.22265129657167909 0.22458521110015511 0 0.21832997078756131 0.21478634743114389 0 0.21880399386194821 0.20071475084048621 0 0.22681072864401869 0.21084831608772711 0 0.21880399386194821 0.20071475084048621 0 0.23315527368417771 0.20080996185269351 0 0.22681072864401869 0.21084831608772711 0 0.21832997078756131 0.21478634743114389 0 0.22681072864401869 0.21084831608772711 0 0.22265129657167909 0.22458521110015511 0 0.21539601762981669 0.23533510664561069 0 0.22265129657167909 0.22458521110015511 0 0.22951230576798429 0.23189451664885599 0 0.23558379892396361 0.21752489377191039 0 0.22265129657167909 0.22458521110015511 0 0.22951230576798429 0.23189451664885599 0 0.23558379892396361 0.21752489377191039 0 0.22951230576798429 0.23189451664885599 0 0.24085960501226539 0.22835896208042231 0 0.23558379892396361 0.21752489377191039 0 0.24085960501226539 0.22835896208042231 0 0.25064340427912452 0.21993090778693361 0 0.24085960501226539 0.22835896208042231 0 0.252219714153534 0.23102059151017329 0 0.25064340427912452 0.21993090778693361 0 0.24085960501226539 0.22835896208042231 0 0.24325396879045211 0.2398476797085656 0 0.252219714153534 0.23102059151017329 0 0.22951230576798429 0.23189451664885599 0 0.24085960501226539 0.22835896208042231 0 0.24325396879045211 0.2398476797085656 0 0.24325396879045211 0.2398476797085656 0 0.24322103778237281 0.25067821939439178 0 0.25562675326591239 0.25012877547937301 0 0.24325396879045211 0.2398476797085656 0 0.23326627806090389 0.25079278603217953 0 0.24322103778237281 0.25067821939439178 0 0.22951230576798429 0.23189451664885599 0 0.24325396879045211 0.2398476797085656 0 0.22575681241002329 0.2428649010621195 0 0.24325396879045211 0.2398476797085656 0 0.22575681241002329 0.2428649010621195 0 0.23326627806090389 0.25079278603217953 0 0.22575681241002329 0.2428649010621195 0 0.22302725411224991 0.25336955787681281 0 0.23326627806090389 0.25079278603217953 0 0.2164574796508611 0.24620752144412791 0 0.21539601762981669 0.23533510664561069 0 0.22575681241002329 0.2428649010621195 0 0.21539601762981669 0.23533510664561069 0 0.22951230576798429 0.23189451664885599 0 0.22575681241002329 0.2428649010621195 0 0.2164574796508611 0.24620752144412791 0 0.22575681241002329 0.2428649010621195 0 0.22302725411224991 0.25336955787681281 0 0.20237371292885389 0.1434047302618737 0 0.21300451405491549 0.16003106019329821 0 0.22346701487335879 0.1431230498567006 0 0.20237371292885389 0.1434047302618737 0 0.19835234198664711 0.157552215815812 0 0.21300451405491549 0.16003106019329821 0 0.21323061842573529 0.13227065349293601 0 0.2025517008350482 0.12728535284962769 0 0.20237371292885389 0.1434047302618737 0 0.21323061842573529 0.13227065349293601 0 0.20237371292885389 0.1434047302618737 0 0.22346701487335879 0.1431230498567006 0 0.21323061842573529 0.13227065349293601 0 0.22394024837121679 0.12545202479196799 0 0.21457894907760311 0.11761265696243239 0 0.21323061842573529 0.13227065349293601 0 0.2025517008350482 0.12728535284962769 0 0.21457894907760311 0.11761265696243239 0 0.1844197588313897 0.1476828350503773 0 0.1901122061945674 0.1304209611105227 0 0.20237371292885389 0.1434047302618737 0 0.2025517008350482 0.12728535284962769 0 0.1901122061945674 0.1304209611105227 0 0.20237371292885389 0.1434047302618737 0 0.1844197588313897 0.1476828350503773 0 0.20237371292885389 0.1434047302618737 0 0.19835234198664711 0.157552215815812 0 0.18179090545798721 0.16920838198586419 0 0.1844197588313897 0.1476828350503773 0 0.19835234198664711 0.157552215815812 0 0.19835234198664711 0.157552215815812 0 0.19559578938798641 0.17112220826772109 0 0.21300451405491549 0.16003106019329821 0 0.18179090545798721 0.16920838198586419 0 0.19835234198664711 0.157552215815812 0 0.19559578938798641 0.17112220826772109 0 0.18179090545798721 0.16920838198586419 0 0.19559578938798641 0.17112220826772109 0 0.19009327954550359 0.1858530321497375 0 0.19559578938798641 0.17112220826772109 0 0.19009327954550359 0.1858530321497375 0 0.20360379444913571 0.18347355204247209 0 0.19559578938798641 0.17112220826772109 0 0.20360379444913571 0.18347355204247209 0 0.21748166088337409 0.17494919307585119 0 0.21311189613839629 0.18856701735837711 0 0.20360379444913571 0.18347355204247209 0 0.21748166088337409 0.17494919307585119 0 0.19559578938798641 0.17112220826772109 0 0.21748166088337409 0.17494919307585119 0 0.21300451405491549 0.16003106019329821 0 0.21748166088337409 0.17494919307585119 0 0.21300451405491549 0.16003106019329821 0 0.23352469398077499 0.1628088773741608 0 0.21748166088337409 0.17494919307585119 0 0.23352469398077499 0.1628088773741608 0 0.22957039656794481 0.17527651947312781 0 0.23352469398077499 0.1628088773741608 0 0.22957039656794481 0.17527651947312781 0 0.2398826716517162 0.17706318897908871 0 0.21311189613839629 0.18856701735837711 0 0.21748166088337409 0.17494919307585119 0 0.2273925597559141 0.18628481846341069 0 0.21748166088337409 0.17494919307585119 0 0.22957039656794481 0.17527651947312781 0 0.2273925597559141 0.18628481846341069 0 0.22957039656794481 0.17527651947312781 0 0.2273925597559141 0.18628481846341069 0 0.2398826716517162 0.17706318897908871 0 0.23954731260828169 0.19059053775502399 0 0.2273925597559141 0.18628481846341069 0 0.2398826716517162 0.17706318897908871 0 0.2398826716517162 0.17706318897908871 0 0.24860549358682249 0.17609136961635369 0 0.24828453414083809 0.18270870522598159 0 0.2398826716517162 0.17706318897908871 0 0.24860549358682249 0.17609136961635369 0 0.2477365591857453 0.16793806492643179 0 0.23954731260828169 0.19059053775502399 0 0.2398826716517162 0.17706318897908871 0 0.24828453414083809 0.18270870522598159 0 0.23352469398077499 0.1628088773741608 0 0.2488752846061219 0.15364358907438461 0 0.23352469398077499 0.1628088773741608 0 0.2398826716517162 0.17706318897908871 0 0.2477365591857453 0.16793806492643179 0 0.23352469398077499 0.1628088773741608 0 0.2477365591857453 0.16793806492643179 0 0.2488752846061219 0.15364358907438461 0 0.23352469398077499 0.1628088773741608 0 0.23578710325635169 0.14638786004818949 0 0.2488752846061219 0.15364358907438461 0 0.23578710325635169 0.14638786004818949 0 0.2488752846061219 0.15364358907438461 0 0.23728141956515089 0.125975923887512 0 0.21300451405491549 0.16003106019329821 0 0.23352469398077499 0.1628088773741608 0 0.22346701487335879 0.1431230498567006 0 0.23352469398077499 0.1628088773741608 0 0.23578710325635169 0.14638786004818949 0 0.22346701487335879 0.1431230498567006 0 0.22346701487335879 0.1431230498567006 0 0.22394024837121679 0.12545202479196799 0 0.23728141956515089 0.125975923887512 0 0.21323061842573529 0.13227065349293601 0 0.22346701487335879 0.1431230498567006 0 0.22394024837121679 0.12545202479196799 0 0.23578710325635169 0.14638786004818949 0 0.22346701487335879 0.1431230498567006 0 0.23728141956515089 0.125975923887512 0 0.2488752846061219 0.15364358907438461 0 0.23728141956515089 0.125975923887512 0 0.25447365927535059 0.13334183285330251 0 0.23728141956515089 0.125975923887512 0 0.25317204161842732 0.1174002398605351 0 0.25447365927535059 0.13334183285330251 0 0.2488752846061219 0.15364358907438461 0 0.23728141956515089 0.125975923887512 0 0.23728141956515089 0.125975923887512 0 0.24175632889836651 0.1042375874965424 0 0.25317204161842732 0.1174002398605351 0 0.23728141956515089 0.125975923887512 0 0.24175632889836651 0.1042375874965424 0 0.22568755452417941 0.098308258700639875 0 0.24175632889836651 0.1042375874965424 0 0.25286483021549921 0.1013522659841926 0 0.25317204161842732 0.1174002398605351 0 0.24175632889836651 0.1042375874965424 0 0.22568755452417941 0.098308258700639875 0 0.2358334979817974 0.091158022320548621 0 0.24175632889836651 0.1042375874965424 0 0.24569862948514509 0.091230814225826212 0 0.25286483021549921 0.1013522659841926 0 0.24175632889836651 0.1042375874965424 0 0.2358334979817974 0.091158022320548621 0 0.24569862948514509 0.091230814225826212 0 0.22394024837121679 0.12545202479196799 0 0.22568755452417941 0.098308258700639875 0 0.21457894907760311 0.11761265696243239 0 0.22394024837121679 0.12545202479196799 0 0.23728141956515089 0.125975923887512 0 0.22568755452417941 0.098308258700639875 0 0.23728141956515089 0.125975923887512 0 0.22568755452417941 0.098308258700639875 0 0.21457894907760311 0.11761265696243239 0 0.20897231359648519 0.10140252097613769 0 0.1991997607329169 0.1150476348184333 0 0.2025517008350482 0.12728535284962769 0 0.21457894907760311 0.11761265696243239 0 0.1991997607329169 0.1150476348184333 0 0.21457894907760311 0.11761265696243239 0 0.1991997607329169 0.1150476348184333 0 0.22568755452417941 0.098308258700639875 0 0.20897231359648519 0.10140252097613769 0 0.2079845799415968 0.083548384096478287 0 0.22568755452417941 0.098308258700639875 0 0.21457894907760311 0.11761265696243239 0 0.20897231359648519 0.10140252097613769 0 0.1957282332471223 0.090877384220871577 0 0.18382057238823071 0.1124826126744342 0 0.1991997607329169 0.1150476348184333 0 0.1957282332471223 0.090877384220871577 0 0.18382057238823071 0.1124826126744342 0 0.20897231359648519 0.10140252097613769 0 0.1991997607329169 0.1150476348184333 0 0.1957282332471223 0.090877384220871577 0 0.1991997607329169 0.1150476348184333 0 0.18382057238823071 0.1124826126744342 0 0.1901122061945674 0.1304209611105227 0 0.1991997607329169 0.1150476348184333 0 0.18382057238823071 0.1124826126744342 0 0.2025517008350482 0.12728535284962769 0 0.1901122061945674 0.1304209611105227 0 0.1991997607329169 0.1150476348184333 0 0.1957282332471223 0.090877384220871577 0 0.2076358941060138 0.069272155767308913 0 0.18749698729887451 0.071937223501857051 0 0.2076358941060138 0.069272155767308913 0 0.19358161454072439 0.058238117192268568 0 0.18749698729887451 0.071937223501857051 0 0.1957282332471223 0.090877384220871577 0 0.18049911914828279 0.087364614457372938 0 0.18749698729887451 0.071937223501857051 0 0.1957282332471223 0.090877384220871577 0 0.2076358941060138 0.069272155767308913 0 0.22568755452417941 0.098308258700639875 0 0.2079845799415968 0.083548384096478287 0 0.21409368948320781 0.070640593513767724 0 0.1957282332471223 0.090877384220871577 0 0.2079845799415968 0.083548384096478287 0 0.2076358941060138 0.069272155767308913 0 0.20897231359648519 0.10140252097613769 0 0.1957282332471223 0.090877384220871577 0 0.2079845799415968 0.083548384096478287 0 0.2079845799415968 0.083548384096478287 0 0.21409368948320781 0.070640593513767724 0 0.2076358941060138 0.069272155767308913 0 0.21409368948320781 0.070640593513767724 0 0.2210960575477052 0.06473149591875392 0 0.2176930715846872 0.056544355370825312 0 0.21409368948320781 0.070640593513767724 0 0.2210960575477052 0.06473149591875392 0 0.22521250706684781 0.069859006725504227 0 0.2210960575477052 0.06473149591875392 0 0.22521250706684781 0.069859006725504227 0 0.22738496205607811 0.061882028064918423 0 0.21409368948320781 0.070640593513767724 0 0.22521250706684781 0.069859006725504227 0 0.22910007857485021 0.080227629481951002 0 0.22521250706684781 0.069859006725504227 0 0.22910007857485021 0.080227629481951002 0 0.23591451851899931 0.071421047247793787 0 0.22521250706684781 0.069859006725504227 0 0.23591451851899931 0.071421047247793787 0 0.22738496205607811 0.061882028064918423 0 0.22568755452417941 0.098308258700639875 0 0.21409368948320781 0.070640593513767724 0 0.22910007857485021 0.080227629481951002 0 0.22568755452417941 0.098308258700639875 0 0.21409368948320781 0.070640593513767724 0 0.22568755452417941 0.098308258700639875 0 0.22910007857485021 0.080227629481951002 0 0.2358334979817974 0.091158022320548621 0 0.2358334979817974 0.091158022320548621 0 0.23985392137275041 0.082185433074107556 0 0.24569862948514509 0.091230814225826212 0 0.22910007857485021 0.080227629481951002 0 0.2358334979817974 0.091158022320548621 0 0.23985392137275041 0.082185433074107556 0 0.23985392137275041 0.082185433074107556 0 0.24874419144224449 0.083537599343049038 0 0.24569862948514509 0.091230814225826212 0 0.23985392137275041 0.082185433074107556 0 0.24874419144224449 0.083537599343049038 0 0.24495616245616661 0.076154574895762245 0 0.24874419144224449 0.083537599343049038 0 0.24495616245616661 0.076154574895762245 0 0.25098622210316501 0.078126964838113058 0 0.24874419144224449 0.083537599343049038 0 0.24569862948514509 0.091230814225826212 0 0.25536201755562399 0.088042419485091727 0 0.23591451851899931 0.071421047247793787 0 0.24068815780630121 0.060035502895528857 0 0.22738496205607811 0.061882028064918423 0 0.23591451851899931 0.071421047247793787 0 0.24417984442405261 0.069280052421573035 0 0.24068815780630121 0.060035502895528857 0 0.22910007857485021 0.080227629481951002 0 0.23985392137275041 0.082185433074107556 0 0.23591451851899931 0.071421047247793787 0 0.23985392137275041 0.082185433074107556 0 0.23591451851899931 0.071421047247793787 0 0.24495616245616661 0.076154574895762245 0 0.23591451851899931 0.071421047247793787 0 0.24495616245616661 0.076154574895762245 0 0.24417984442405261 0.069280052421573035 0 0.24495616245616661 0.076154574895762245 0 0.25005827687578769 0.072376352449937023 0 0.25098622210316501 0.078126964838113058 0 0.24495616245616661 0.076154574895762245 0 0.24417984442405261 0.069280052421573035 0 0.25005827687578769 0.072376352449937023 0 0.24417984442405261 0.069280052421573035 0 0.2498374806334239 0.065705686959011828 0 0.24068815780630121 0.060035502895528857 0 0.24417984442405261 0.069280052421573035 0 0.2498374806334239 0.065705686959011828 0 0.25005827687578769 0.072376352449937023 0 0.24068815780630121 0.060035502895528857 0 0.2480238906276416 0.045912687195881402 0 0.25203525219338968 0.058887004008764288 0 0.24068815780630121 0.060035502895528857 0 0.2480238906276416 0.045912687195881402 0 0.226456302059166 0.046200701843781743 0 0.2498374806334239 0.065705686959011828 0 0.24068815780630121 0.060035502895528857 0 0.25203525219338968 0.058887004008764288 0 0.2480238906276416 0.045912687195881402 0 0.226456302059166 0.046200701843781743 0 0.23668387584425371 0.02949755207438055 0 0.2480238906276416 0.045912687195881402 0 0.23668387584425371 0.02949755207438055 0 0.25872887798867622 0.032988318832192047 0 0.226456302059166 0.046200701843781743 0 0.23668387584425371 0.02949755207438055 0 0.2150488069517722 0.026011846694958089 0 0.226456302059166 0.046200701843781743 0 0.22738496205607811 0.061882028064918423 0 0.2176930715846872 0.056544355370825312 0 0.24068815780630121 0.060035502895528857 0 0.226456302059166 0.046200701843781743 0 0.22738496205607811 0.061882028064918423 0 0.2210960575477052 0.06473149591875392 0 0.22738496205607811 0.061882028064918423 0 0.2176930715846872 0.056544355370825312 0 0.22693262543853129 0.0085782552599250762 0 0.25223596470616289 0.017258358774431649 0 0.22693262543853129 0.0085782552599250762 0 0.25223596470616289 0.017258358774431649 0 0.24727983912845811 -0.001679955406053003 0 0.23668387584425371 0.02949755207438055 0 0.25223596470616289 0.017258358774431649 0 0.25872887798867622 0.032988318832192047 0 0.23668387584425371 0.02949755207438055 0 0.22693262543853129 0.0085782552599250762 0 0.25223596470616289 0.017258358774431649 0 0.23668387584425371 0.02949755207438055 0 0.22693262543853129 0.0085782552599250762 0 0.2150488069517722 0.026011846694958089 0 0.22693262543853129 0.0085782552599250762 0 0.21243445167087799 0.011462569763798241 0 0.2150488069517722 0.026011846694958089 0 0.22693262543853129 0.0085782552599250762 0 0.21243445167087799 0.011462569763798241 0 0.20162928617089981 -0.0001018482545814981 0 0.22693262543853129 0.0085782552599250762 0 0.21685010653696021 -0.0032511187731546248 0 0.20162928617089981 -0.0001018482545814981 0 0.22693262543853129 0.0085782552599250762 0 0.20162928617089981 -0.0001018482545814981 0 0.21243445167087799 0.011462569763798241 0 0.20175719502910169 0.0074701442556517773 0 0.20162928617089981 -0.0001018482545814981 0 0.21243445167087799 0.011462569763798241 0 0.19783909782734571 0.01380606265612945 0 0.20175719502910169 0.0074701442556517773 0 0.21243445167087799 0.011462569763798241 0 0.2150488069517722 0.026011846694958089 0 0.19783909782734571 0.01380606265612945 0 0.2150488069517722 0.026011846694958089 0 0.19783909782734571 0.01380606265612945 0 0.2024998244422361 0.042972928326895532 0 0.19090595940126601 0.01530526314002272 0 0.2024998244422361 0.042972928326895532 0 0.19783909782734571 0.01380606265612945 0 0.19090595940126601 0.01530526314002272 0 0.2024998244422361 0.042972928326895532 0 0.19090595940126601 0.01530526314002272 0 0.2024998244422361 0.042972928326895532 0 0.18358014061343561 0.033402149097484617 0 0.19090595940126601 0.01530526314002272 0 0.19512594444728351 0.0047137928572609233 0 0.1828448545182304 -0.0039318032008279838 0 0.19783909782734571 0.01380606265612945 0 0.19512594444728351 0.0047137928572609233 0 0.20175719502910169 0.0074701442556517773 0 0.19783909782734571 0.01380606265612945 0 0.19090595940126601 0.01530526314002272 0 0.19512594444728351 0.0047137928572609233 0 0.19783909782734571 0.01380606265612945 0 0.19090595940126601 0.01530526314002272 0 0.19512594444728351 0.0047137928572609233 0 0.20175719502910169 0.0074701442556517773 0 0.20162928617089981 -0.0001018482545814981 0 0.226456302059166 0.046200701843781743 0 0.2176930715846872 0.056544355370825312 0 0.2024998244422361 0.042972928326895532 0 0.21409368948320781 0.070640593513767724 0 0.2176930715846872 0.056544355370825312 0 0.2024998244422361 0.042972928326895532 0 0.21409368948320781 0.070640593513767724 0 0.2024998244422361 0.042972928326895532 0 0.21409368948320781 0.070640593513767724 0 0.2076358941060138 0.069272155767308913 0 0.2024998244422361 0.042972928326895532 0 0.226456302059166 0.046200701843781743 0 0.2150488069517722 0.026011846694958089 0 0.2024998244422361 0.042972928326895532 0 0.2024998244422361 0.042972928326895532 0 0.18429793392826449 0.048453727334335631 0 0.18358014061343561 0.033402149097484617 0 0.2076358941060138 0.069272155767308913 0 0.2024998244422361 0.042972928326895532 0 0.19358161454072439 0.058238117192268568 0 0.2024998244422361 0.042972928326895532 0 0.19358161454072439 0.058238117192268568 0 0.18429793392826449 0.048453727334335631 0 0.19358161454072439 0.058238117192268568 0 0.17491052267972251 0.060103297976268087 0 0.18429793392826449 0.048453727334335631 0 0.17491052267972251 0.060103297976268087 0 0.18429793392826449 0.048453727334335631 0 0.16609963346732029 0.041338922052147467 0 0.18429793392826449 0.048453727334335631 0 0.18358014061343561 0.033402149097484617 0 0.16609963346732029 0.041338922052147467 0 0.16609963346732029 0.041338922052147467 0 0.15728874425491779 0.022574546128027121 0 0.14663219947708919 0.039583782304006172 0 0.16609963346732029 0.041338922052147467 0 0.15728874425491779 0.022574546128027121 0 0.17491052267972251 0.060103297976268087 0 0.16609963346732029 0.041338922052147467 0 0.17491052267972251 0.060103297976268087 0 0.16609963346732029 0.041338922052147467 0 0.15318634303764239 0.053853520103383061 0 0.17491052267972251 0.060103297976268087 0 0.15318634303764239 0.053853520103383061 0 0.16326249505301879 0.071008459702207399 0 0.17846662551518069 0.0081313624936782403 0 0.16601833631313551 0.002212085401496445 0 0.1828448545182304 -0.0039318032008279838 0 0.17846662551518069 0.0081313624936782403 0 0.17409735182809119 0.01893990463402179 0 0.16601833631313551 0.002212085401496445 0 0.19090595940126601 0.01530526314002272 0 0.17846662551518069 0.0081313624936782403 0 0.17409735182809119 0.01893990463402179 0 0.19090595940126601 0.01530526314002272 0 0.17846662551518069 0.0081313624936782403 0 0.1828448545182304 -0.0039318032008279838 0 0.19090595940126601 0.01530526314002272 0 0.1828448545182304 -0.0039318032008279838 0 0.19090595940126601 0.01530526314002272 0 0.17409735182809119 0.01893990463402179 0 0.19090595940126601 0.01530526314002272 0 0.18358014061343561 0.033402149097484617 0 0.17409735182809119 0.01893990463402179 0 0.18358014061343561 0.033402149097484617 0 0.16609963346732029 0.041338922052147467 0 0.17409735182809119 0.01893990463402179 0 0.16609963346732029 0.041338922052147467 0 0.17409735182809119 0.01893990463402179 0 0.15728874425491779 0.022574546128027121 0 0.17409735182809119 0.01893990463402179 0 0.15728874425491779 0.022574546128027121 0 0.17409735182809119 0.01893990463402179 0 0.15728874425491779 0.022574546128027121 0 0.16601833631313551 0.002212085401496445 0 0.15728874425491779 0.022574546128027121 0 0.14456821268474351 -0.0045161175477141449 0 0.15728874425491779 0.022574546128027121 0 0.16601833631313551 0.002212085401496445 0 0.14456821268474351 -0.0045161175477141449 0 0.15728874425491779 0.022574546128027121 0 0.14107337636682649 0.012293572758222951 0 0.14456821268474351 -0.0045161175477141449 0 0.15728874425491779 0.022574546128027121 0 0.14107337636682649 0.012293572758222951 0 0.1372723548692325 0.026902828474125329 0 0.15728874425491779 0.022574546128027121 0 0.1372723548692325 0.026902828474125329 0 0.15728874425491779 0.022574546128027121 0 0.1372723548692325 0.026902828474125329 0 0.14663219947708919 0.039583782304006172 0 0.1193858384812775 0.02968879956987671 0 0.1245049962617637 0.021976835094774799 0 0.1372723548692325 0.026902828474125329 0 0.11725596548354671 0.03123111082022087 0 0.1372723548692325 0.026902828474125329 0 0.1245049962617637 0.021976835094774799 0 0.1372723548692325 0.026902828474125329 0 0.13166254877913711 0.01562162567539329 0 0.1245049962617637 0.021976835094774799 0 0.12221612218244669 0.012369509045437529 0 0.13166254877913711 0.01562162567539329 0 0.14107337636682649 0.012293572758222951 0 0.1372723548692325 0.026902828474125329 0 0.13166254877913711 0.01562162567539329 0 0.14107337636682649 0.012293572758222951 0 0.13073213683304949 0.00026224515078349803 0 0.14456821268474351 -0.0045161175477141449 0 0.14107337636682649 0.012293572758222951 0 0.13166254877913711 0.01562162567539329 0 0.13073213683304949 0.00026224515078349803 0 0.12221612218244669 0.012369509045437529 0 0.13166254877913711 0.01562162567539329 0 0.13073213683304949 0.00026224515078349803 0 0.15318634303764239 0.053853520103383061 0 0.14663219947708919 0.039583782304006172 0 0.13521879118596489 0.05312186816257837 0 0.15318634303764239 0.053853520103383061 0 0.14390495188184169 0.060796383931997468 0 0.14937429920317449 0.070647952939168521 0 0.15318634303764239 0.053853520103383061 0 0.14390495188184169 0.060796383931997468 0 0.13521879118596489 0.05312186816257837 0 0.16609963346732029 0.041338922052147467 0 0.15318634303764239 0.053853520103383061 0 0.14663219947708919 0.039583782304006172 0 0.11917001304876849 0.046506758807129442 0 0.13072733004745771 0.039711008903775637 0 0.13521879118596489 0.05312186816257837 0 0.11725596548354671 0.03123111082022087 0 0.1372723548692325 0.026902828474125329 0 0.13072733004745771 0.039711008903775637 0 0.14663219947708919 0.039583782304006172 0 0.13072733004745771 0.039711008903775637 0 0.13521879118596489 0.05312186816257837 0 0.1372723548692325 0.026902828474125329 0 0.14663219947708919 0.039583782304006172 0 0.13072733004745771 0.039711008903775637 0 0.1214467259153901 0.058987244281521689 0 0.11917001304876849 0.046506758807129442 0 0.13521879118596489 0.05312186816257837 0 0.14390495188184169 0.060796383931997468 0 0.13521879118596489 0.05312186816257837 0 0.13453211224069581 0.067250869863048762 0 0.1214467259153901 0.058987244281521689 0 0.13521879118596489 0.05312186816257837 0 0.13453211224069581 0.067250869863048762 0 0.1214467259153901 0.058987244281521689 0 0.1204608682897429 0.070557786749644455 0 0.13453211224069581 0.067250869863048762 0 0.1204608682897429 0.070557786749644455 0 0.12924240097064099 0.077615839325202496 0 0.13453211224069581 0.067250869863048762 0 0.12924240097064099 0.077615839325202496 0 0.13453211224069581 0.067250869863048762 0 0.14007284523989291 0.07932952115265246 0 0.15318634303764239 0.053853520103383061 0 0.14937429920317449 0.070647952939168521 0 0.16326249505301879 0.071008459702207399 0 0.14390495188184169 0.060796383931997468 0 0.13453211224069581 0.067250869863048762 0 0.14937429920317449 0.070647952939168521 0 0.13453211224069581 0.067250869863048762 0 0.14937429920317449 0.070647952939168521 0 0.14007284523989291 0.07932952115265246 0 0.14937429920317449 0.070647952939168521 0 0.1507064470892967 0.081975637700595877 0 0.14007284523989291 0.07932952115265246 0 0.14937429920317449 0.070647952939168521 0 0.1507064470892967 0.081975637700595877 0 0.16326249505301879 0.071008459702207399 0 0.1507064470892967 0.081975637700595877 0 0.14624317425957639 0.09243878040042626 0 0.16390037100940211 0.087533125991971869 0 0.1507064470892967 0.081975637700595877 0 0.13892323503408899 0.089563637994669446 0 0.14007284523989291 0.07932952115265246 0 0.1507064470892967 0.081975637700595877 0 0.14624317425957639 0.09243878040042626 0 0.13892323503408899 0.089563637994669446 0 0.14624317425957639 0.09243878040042626 0 0.13892323503408899 0.089563637994669446 0 0.1364414150514314 0.095605882302660608 0 0.13892323503408899 0.089563637994669446 0 0.13279120103259251 0.092038366756092838 0 0.13209476328736069 0.086003775416610084 0 0.13892323503408899 0.089563637994669446 0 0.13279120103259251 0.092038366756092838 0 0.1364414150514314 0.095605882302660608 0 0.13892323503408899 0.089563637994669446 0 0.14007284523989291 0.07932952115265246 0 0.13209476328736069 0.086003775416610084 0 0.12924240097064099 0.077615839325202496 0 0.14007284523989291 0.07932952115265246 0 0.13209476328736069 0.086003775416610084 0 0.1239715908251066 0.085561119988404988 0 0.12924240097064099 0.077615839325202496 0 0.13209476328736069 0.086003775416610084 0 0.1239715908251066 0.085561119988404988 0 0.13209476328736069 0.086003775416610084 0 0.12675967124765769 0.092251376873950464 0 0.13279120103259251 0.092038366756092838 0 0.12675967124765769 0.092251376873950464 0 0.13235444031496371 0.096045403143091679 0 0.13279120103259251 0.092038366756092838 0 0.13209476328736069 0.086003775416610084 0 0.12675967124765769 0.092251376873950464 0 0.12675967124765769 0.092251376873950464 0 0.12647806300463271 0.096525047046157719 0 0.13235444031496371 0.096045403143091679 0 0.1124819726971526 0.097056962456967044 0 0.1403037547199294 0.1031290284820862 0 0.1124819726971526 0.097056962456967044 0 0.13777196702353409 0.1048023834052782 0 0.1403037547199294 0.1031290284820862 0 0.1124819726971526 0.097056962456967044 0 0.12647806300463271 0.096525047046157719 0 0.1403037547199294 0.1031290284820862 0 0.12170887245016811 0.11541909444479651 0 0.1217312078611744 0.1073180893533742 0 0.13777196702353409 0.1048023834052782 0 0.13777196702353409 0.1048023834052782 0 0.1403037547199294 0.1031290284820862 0 0.12647806300463271 0.096525047046157719 0 0.13235444031496371 0.096045403143091679 0 0.1403037547199294 0.1031290284820862 0 0.13235444031496371 0.096045403143091679 0 0.1403037547199294 0.1031290284820862 0 0.1364414150514314 0.095605882302660608 0 0.13279120103259251 0.092038366756092838 0 0.13235444031496371 0.096045403143091679 0 0.1364414150514314 0.095605882302660608 0 0.12170887245016811 0.11541909444479651 0 0.13777196702353409 0.1048023834052782 0 0.1357080992232185 0.1194104631950723 0 0.12170887245016811 0.11541909444479651 0 0.1283257799327904 0.13399226468533851 0 0.1357080992232185 0.1194104631950723 0 0.12170887245016811 0.11541909444479651 0 0.13777196702353409 0.1048023834052782 0 0.13777196702353409 0.1048023834052782 0 0.1357080992232185 0.1194104631950723 0 0.14794724092947981 0.11685869779311681 0 0.13777196702353409 0.1048023834052782 0 0.14794724092947981 0.11685869779311681 0 0.1607962697058824 0.108642498039856 0 0.14577211097279899 0.1296205262128296 0 0.1357080992232185 0.1194104631950723 0 0.14794724092947981 0.11685869779311681 0 0.14577211097279899 0.1296205262128296 0 0.14794724092947981 0.11685869779311681 0 0.16094333244547901 0.12356064939624339 0 0.13777196702353409 0.1048023834052782 0 0.1464791574158667 0.10447680170778099 0 0.1607962697058824 0.108642498039856 0 0.14624317425957639 0.09243878040042626 0 0.1403037547199294 0.1031290284820862 0 0.16390037100940211 0.087533125991971869 0 0.1403037547199294 0.1031290284820862 0 0.16390037100940211 0.087533125991971869 0 0.13777196702353409 0.1048023834052782 0 0.1607962697058824 0.108642498039856 0 0.1403037547199294 0.1031290284820862 0 0.1464791574158667 0.10447680170778099 0 0.16390037100940211 0.087533125991971869 0 0.14624317425957639 0.09243878040042626 0 0.1403037547199294 0.1031290284820862 0 0.1364414150514314 0.095605882302660608 0 0.1403037547199294 0.1031290284820862 0 0.1464791574158667 0.10447680170778099 0 0.13777196702353409 0.1048023834052782 0 0.1403037547199294 0.1031290284820862 0 0.1464791574158667 0.10447680170778099 0 0.1464791574158667 0.10447680170778099 0 0.1607962697058824 0.108642498039856 0 0.16390037100940211 0.087533125991971869 0 0.1607962697058824 0.108642498039856 0 0.17487088503773229 0.099110724114791285 0 0.16390037100940211 0.087533125991971869 0 0.1607962697058824 0.108642498039856 0 0.16094333244547901 0.12356064939624339 0 0.18382057238823071 0.1124826126744342 0 0.14794724092947981 0.11685869779311681 0 0.1607962697058824 0.108642498039856 0 0.16094333244547901 0.12356064939624339 0 0.17245620558379871 0.13310208982863089 0 0.16094333244547901 0.12356064939624339 0 0.18382057238823071 0.1124826126744342 0 0.17245620558379871 0.13310208982863089 0 0.18382057238823071 0.1124826126744342 0 0.1607962697058824 0.108642498039856 0 0.18382057238823071 0.1124826126744342 0 0.1607962697058824 0.108642498039856 0 0.18382057238823071 0.1124826126744342 0 0.17487088503773229 0.099110724114791285 0 0.1957282332471223 0.090877384220871577 0 0.18382057238823071 0.1124826126744342 0 0.17487088503773229 0.099110724114791285 0 0.17487088503773229 0.099110724114791285 0 0.18049911914828279 0.087364614457372938 0 0.16390037100940211 0.087533125991971869 0 0.1957282332471223 0.090877384220871577 0 0.17487088503773229 0.099110724114791285 0 0.18049911914828279 0.087364614457372938 0 0.18049911914828279 0.087364614457372938 0 0.18749698729887451 0.071937223501857051 0 0.16390037100940211 0.087533125991971869 0 0.18749698729887451 0.071937223501857051 0 0.16390037100940211 0.087533125991971869 0 0.17491052267972251 0.060103297976268087 0 0.18749698729887451 0.071937223501857051 0 0.16326249505301879 0.071008459702207399 0 0.19358161454072439 0.058238117192268568 0 0.17491052267972251 0.060103297976268087 0 0.18749698729887451 0.071937223501857051 0 0.18749698729887451 0.071937223501857051 0 0.16326249505301879 0.071008459702207399 0 0.16390037100940211 0.087533125991971869 0 0.1507064470892967 0.081975637700595877 0 0.16326249505301879 0.071008459702207399 0 0.16390037100940211 0.087533125991971869 0 0.095491976322492914 0.47865231754707238 0 0.1137148058908878 0.47907943006842041 0 0.112558342219786 0.46554698541011102 0 0.095491976322492914 0.47865231754707238 0 0.11014992952036511 0.5 0 0.080689883496792847 0.5 0 0.095491976322492914 0.47865231754707238 0 0.11014992952036511 0.5 0 0.1137148058908878 0.47907943006842041 0 0.11014992952036511 0.5 0 0.1137148058908878 0.47907943006842041 0 0.1281034201982536 0.48775603022048519 0 0.1137148058908878 0.47907943006842041 0 0.112558342219786 0.46554698541011102 0 0.12636703073327921 0.46780463407609479 0 0.121166338416637 0.43936870645396331 0 0.12636703073327921 0.46780463407609479 0 0.112558342219786 0.46554698541011102 0 0.121166338416637 0.43936870645396331 0 0.12636703073327921 0.46780463407609479 0 0.112558342219786 0.46554698541011102 0 0.121166338416637 0.43936870645396331 0 0.10020456087464 0.45867652119238322 0 0.121166338416637 0.43936870645396331 0 0.10020456087464 0.45867652119238322 0 0.093404956321474178 0.44099355722944911 0 0.095491976322492914 0.47865231754707238 0 0.112558342219786 0.46554698541011102 0 0.10020456087464 0.45867652119238322 0 0.095491976322492914 0.47865231754707238 0 0.10020456087464 0.45867652119238322 0 0.081277728373588376 0.46440133592446109 0 0.10020456087464 0.45867652119238322 0 0.081277728373588376 0.46440133592446109 0 0.093404956321474178 0.44099355722944911 0 0.093404956321474178 0.44099355722944911 0 0.070674768647051606 0.44829539246627281 0 0.074633224030429518 0.42942332843981479 0 0.081277728373588376 0.46440133592446109 0 0.093404956321474178 0.44099355722944911 0 0.070674768647051606 0.44829539246627281 0 0.070674768647051606 0.44829539246627281 0 0.053967012995645013 0.4386686032438063 0 0.074633224030429518 0.42942332843981479 0 0.081277728373588376 0.46440133592446109 0 0.070674768647051606 0.44829539246627281 0 0.053857384172363777 0.46614405263344311 0 0.081277728373588376 0.46440133592446109 0 0.070609491184503992 0.48191650505267208 0 0.053857384172363777 0.46614405263344311 0 0.095491976322492914 0.47865231754707238 0 0.081277728373588376 0.46440133592446109 0 0.070609491184503992 0.48191650505267208 0 0.095491976322492914 0.47865231754707238 0 0.070609491184503992 0.48191650505267208 0 0.080689883496792847 0.5 0 0.070609491184503992 0.48191650505267208 0 0.080689883496792847 0.5 0 0.05122983747322063 0.5 0 0.070609491184503992 0.48191650505267208 0 0.05122983747322063 0.5 0 0.053857384172363777 0.46614405263344311 0 0.05122983747322063 0.5 0 0.02657447687192583 0.47224945918208011 0 0.053857384172363777 0.46614405263344311 0 0.05122983747322063 0.5 0 0.021769791449648409 0.5 0 0.02657447687192583 0.47224945918208011 0 0.021769791449648409 0.5 0 0.02657447687192583 0.47224945918208011 0 0.0078644126399025904 0.48197472407942521 0 0.02657447687192583 0.47224945918208011 0 0.0078644126399025904 0.48197472407942521 0 0.001630433269091859 0.46310396500044321 0 -0.0076902545739238048 0.5 0 0.021769791449648409 0.5 0 0.0078644126399025904 0.48197472407942521 0 -0.0076373301654850973 0.44053065001782582 0 0.015390313804196089 0.44694492633864408 0 0.001630433269091859 0.46310396500044321 0 -0.0076373301654850973 0.44053065001782582 0 0.015390313804196089 0.44694492633864408 0 0.010094090578367141 0.43047386416899702 0 0.02657447687192583 0.47224945918208011 0 0.015390313804196089 0.44694492633864408 0 0.001630433269091859 0.46310396500044321 0 0.02657447687192583 0.47224945918208011 0 0.015390313804196089 0.44694492633864408 0 0.033300801960860382 0.44791387804779781 0 0.015390313804196089 0.44694492633864408 0 0.033300801960860382 0.44791387804779781 0 0.033063738164034538 0.42664176302047291 0 0.033300801960860382 0.44791387804779781 0 0.053967012995645013 0.4386686032438063 0 0.033300801960860382 0.44791387804779781 0 0.053967012995645013 0.4386686032438063 0 0.033063738164034538 0.42664176302047291 0 0.02657447687192583 0.47224945918208011 0 0.033300801960860382 0.44791387804779781 0 0.053857384172363777 0.46614405263344311 0 0.070674768647051606 0.44829539246627281 0 0.053857384172363777 0.46614405263344311 0 0.053967012995645013 0.4386686032438063 0 0.033300801960860382 0.44791387804779781 0 0.053857384172363777 0.46614405263344311 0 0.053967012995645013 0.4386686032438063 0 0.053967012995645013 0.4386686032438063 0 0.056399104281451742 0.42289782292134392 0 0.074633224030429518 0.42942332843981479 0 0.053967012995645013 0.4386686032438063 0 0.056399104281451742 0.42289782292134392 0 0.033063738164034538 0.42664176302047291 0 0.056399104281451742 0.42289782292134392 0 0.0470780441506456 0.41100739862939872 0 0.068390507210472878 0.40834570778298468 0 0.0470780441506456 0.41100739862939872 0 0.033063738164034538 0.42664176302047291 0 0.035012946999871682 0.3990073226746762 0 0.056399104281451742 0.42289782292134392 0 0.0470780441506456 0.41100739862939872 0 0.033063738164034538 0.42664176302047291 0 0.015390313804196089 0.44694492633864408 0 0.033063738164034538 0.42664176302047291 0 0.010094090578367141 0.43047386416899702 0 0.033063738164034538 0.42664176302047291 0 0.01873820559614052 0.41720352899966068 0 0.010094090578367141 0.43047386416899702 0 0.033063738164034538 0.42664176302047291 0 0.01873820559614052 0.41720352899966068 0 0.035012946999871682 0.3990073226746762 0 -0.00094396708474059896 0.40662435388321411 0 0.01873820559614052 0.41720352899966068 0 0.018895801754079108 0.40172245988893929 0 -0.0018904201847109131 0.42251303475154878 0 -0.00094396708474059896 0.40662435388321411 0 0.01873820559614052 0.41720352899966068 0 -0.0018904201847109131 0.42251303475154878 0 0.01873820559614052 0.41720352899966068 0 0.010094090578367141 0.43047386416899702 0 -0.0018904201847109131 0.42251303475154878 0 -0.0076373301654850973 0.44053065001782582 0 0.010094090578367141 0.43047386416899702 0 0.0041759738791468824 0.37643541540048281 0 0.0046912135209884699 0.39318247585015381 0 0.026698351607569899 0.38060121167105282 0 -0.00094396708474059896 0.40662435388321411 0 0.0046912135209884699 0.39318247585015381 0 0.018895801754079108 0.40172245988893929 0 0.01873820559614052 0.41720352899966068 0 0.018895801754079108 0.40172245988893929 0 0.035012946999871682 0.3990073226746762 0 0.018895801754079108 0.40172245988893929 0 0.026698351607569899 0.38060121167105282 0 0.0046912135209884699 0.39318247585015381 0 0.018895801754079108 0.40172245988893929 0 0.026698351607569899 0.38060121167105282 0 0.018895801754079108 0.40172245988893929 0 0.026698351607569899 0.38060121167105282 0 0.035012946999871682 0.3990073226746762 0 0.026698351607569899 0.38060121167105282 0 0.048704722254046137 0.38531433315826868 0 0.042298541719177601 0.37209928372273782 0 0.026698351607569899 0.38060121167105282 0 0.035012946999871682 0.3990073226746762 0 0.048704722254046137 0.38531433315826868 0 0.0470780441506456 0.41100739862939872 0 0.035012946999871682 0.3990073226746762 0 0.055349156665497203 0.39923102276913092 0 0.035012946999871682 0.3990073226746762 0 0.055349156665497203 0.39923102276913092 0 0.048704722254046137 0.38531433315826868 0 0.0470780441506456 0.41100739862939872 0 0.055349156665497203 0.39923102276913092 0 0.068390507210472878 0.40834570778298468 0 0.055349156665497203 0.39923102276913092 0 0.048704722254046137 0.38531433315826868 0 0.067406066114713808 0.39094510656926212 0 0.048704722254046137 0.38531433315826868 0 0.055953076717217727 0.36960614940983821 0 0.042298541719177601 0.37209928372273782 0 0.048704722254046137 0.38531433315826868 0 0.064399973236602751 0.37774182687099961 0 0.067406066114713808 0.39094510656926212 0 0.048704722254046137 0.38531433315826868 0 0.064399973236602751 0.37774182687099961 0 0.055953076717217727 0.36960614940983821 0 0.067406066114713808 0.39094510656926212 0 0.080454860583606153 0.37347107795638579 0 0.081815528322534289 0.38138349346890538 0 0.067406066114713808 0.39094510656926212 0 0.080454860583606153 0.37347107795638579 0 0.064399973236602751 0.37774182687099961 0 0.067406066114713808 0.39094510656926212 0 0.080454860583606153 0.37347107795638579 0 0.081815528322534289 0.38138349346890538 0 0.07934868265743153 0.3937461641080956 0 0.067406066114713808 0.39094510656926212 0 0.081815528322534289 0.38138349346890538 0 0.07934868265743153 0.3937461641080956 0 0.09579634512630987 0.38971138540439493 0 0.081815528322534289 0.38138349346890538 0 0.087540244035989881 0.37063763974128372 0 0.080454860583606153 0.37347107795638579 0 0.08611541011929455 0.40465600306170912 0 0.07934868265743153 0.3937461641080956 0 0.09579634512630987 0.38971138540439493 0 0.055349156665497203 0.39923102276913092 0 0.067406066114713808 0.39094510656926212 0 0.068390507210472878 0.40834570778298468 0 0.08611541011929455 0.40465600306170912 0 0.07934868265743153 0.3937461641080956 0 0.068390507210472878 0.40834570778298468 0 0.07934868265743153 0.3937461641080956 0 0.067406066114713808 0.39094510656926212 0 0.068390507210472878 0.40834570778298468 0 0.056399104281451742 0.42289782292134392 0 0.068390507210472878 0.40834570778298468 0 0.074633224030429518 0.42942332843981479 0 0.068390507210472878 0.40834570778298468 0 0.074633224030429518 0.42942332843981479 0 0.081109644106352713 0.41565077323008298 0 0.053967012995645013 0.4386686032438063 0 0.074633224030429518 0.42942332843981479 0 0.074633224030429518 0.42942332843981479 0 0.095299435065213975 0.4201780536358235 0 0.093404956321474178 0.44099355722944911 0 0.074633224030429518 0.42942332843981479 0 0.095299435065213975 0.4201780536358235 0 0.08611541011929455 0.40465600306170912 0 0.068390507210472878 0.40834570778298468 0 0.081109644106352713 0.41565077323008298 0 0.074633224030429518 0.42942332843981479 0 0.081109644106352713 0.41565077323008298 0 0.095299435065213975 0.4201780536358235 0 0.08611541011929455 0.40465600306170912 0 0.081109644106352713 0.41565077323008298 0 0.095299435065213975 0.4201780536358235 0 0.08611541011929455 0.40465600306170912 0 0.095299435065213975 0.4201780536358235 0 0.101049234343802 0.40302141293003407 0 0.095299435065213975 0.4201780536358235 0 0.1159656460999982 0.41093277883183132 0 0.101049234343802 0.40302141293003407 0 0.095299435065213975 0.4201780536358235 0 0.1076361067949532 0.42750921359652649 0 0.1159656460999982 0.41093277883183132 0 0.095299435065213975 0.4201780536358235 0 0.1159656460999982 0.41093277883183132 0 0.093404956321474178 0.44099355722944911 0 0.095299435065213975 0.4201780536358235 0 0.1076361067949532 0.42750921359652649 0 0.121166338416637 0.43936870645396331 0 0.093404956321474178 0.44099355722944911 0 0.1076361067949532 0.42750921359652649 0 0.121166338416637 0.43936870645396331 0 0.1076361067949532 0.42750921359652649 0 0.1168171828159326 0.41558874287423969 0 0.121166338416637 0.43936870645396331 0 0.1168171828159326 0.41558874287423969 0 0.12934824579199791 0.41993960361552318 0 0.121166338416637 0.43936870645396331 0 0.1168171828159326 0.41558874287423969 0 0.1076361067949532 0.42750921359652649 0 0.1159656460999982 0.41093277883183132 0 0.1168171828159326 0.41558874287423969 0 0.1159656460999982 0.41093277883183132 0 0.1168171828159326 0.41558874287423969 0 0.1159656460999982 0.41093277883183132 0 0.1168171828159326 0.41558874287423969 0 0.1271539793480303 0.40592754515340962 0 0.1159656460999982 0.41093277883183132 0 0.1271539793480303 0.40592754515340962 0 0.1168171828159326 0.41558874287423969 0 0.1271539793480303 0.40592754515340962 0 0.12934824579199791 0.41993960361552318 0 0.1168171828159326 0.41558874287423969 0 0.1271539793480303 0.40592754515340962 0 0.1159656460999982 0.41093277883183132 0 0.12589681223994931 0.39196120803591472 0 0.1271539793480303 0.40592754515340962 0 0.1159656460999982 0.41093277883183132 0 0.11206933530819289 0.38962884371641132 0 0.12589681223994931 0.39196120803591472 0 0.1159656460999982 0.41093277883183132 0 0.11206933530819289 0.38962884371641132 0 0.1159656460999982 0.41093277883183132 0 0.11206933530819289 0.38962884371641132 0 0.101049234343802 0.40302141293003407 0 0.11206933530819289 0.38962884371641132 0 0.1081730245163892 0.36832490860099087 0 0.12738801886142351 0.37754095842007962 0 0.11206933530819289 0.38962884371641132 0 0.12738801886142351 0.37754095842007962 0 0.12589681223994931 0.39196120803591472 0 0.11206933530819289 0.38962884371641132 0 0.1081730245163892 0.36832490860099087 0 0.081815528322534289 0.38138349346890538 0 0.09579634512630987 0.38971138540439493 0 0.1081730245163892 0.36832490860099087 0 0.11206933530819289 0.38962884371641132 0 0.09579634512630987 0.38971138540439493 0 0.1081730245163892 0.36832490860099087 0 0.11206933530819289 0.38962884371641132 0 0.09579634512630987 0.38971138540439493 0 0.101049234343802 0.40302141293003407 0 0.08611541011929455 0.40465600306170912 0 0.09579634512630987 0.38971138540439493 0 0.101049234343802 0.40302141293003407 0 0.1081730245163892 0.36832490860099087 0 0.103475983903746 0.34264280730229119 0 0.10018489311462379 0.35994847540620761 0 0.103475983903746 0.34264280730229119 0 0.093503655052498469 0.35599704934350951 0 0.1081730245163892 0.36832490860099087 0 0.1163991727915102 0.35221379817627718 0 0.103475983903746 0.34264280730229119 0 0.10018489311462379 0.35994847540620761 0 0.1081730245163892 0.36832490860099087 0 0.103475983903746 0.34264280730229119 0 0.094827278150019054 0.34380542877248133 0 0.103475983903746 0.34264280730229119 0 0.093503655052498469 0.35599704934350951 0 0.103475983903746 0.34264280730229119 0 0.093503655052498469 0.35599704934350951 0 0.094180812000473624 0.35939449542476182 0 0.096461102485127112 0.36084214975740159 0 0.093503655052498469 0.35599704934350951 0 0.096461102485127112 0.36084214975740159 0 0.10018489311462379 0.35994847540620761 0 0.093503655052498469 0.35599704934350951 0 0.10018489311462379 0.35994847540620761 0 0.094256796729590156 0.36758338756693959 0 0.1081730245163892 0.36832490860099087 0 0.081815528322534289 0.38138349346890538 0 0.1081730245163892 0.36832490860099087 0 0.094180812000473624 0.35939449542476182 0 0.096461102485127112 0.36084214975740159 0 0.091365987902874979 0.36436365842684909 0 0.081815528322534289 0.38138349346890538 0 0.094256796729590156 0.36758338756693959 0 0.1081730245163892 0.36832490860099087 0 0.096461102485127112 0.36084214975740159 0 0.10018489311462379 0.35994847540620761 0 0.094256796729590156 0.36758338756693959 0 0.096461102485127112 0.36084214975740159 0 0.094256796729590156 0.36758338756693959 0 0.091365987902874979 0.36436365842684909 0 0.1081730245163892 0.36832490860099087 0 0.1163991727915102 0.35221379817627718 0 0.12849986008609621 0.35825416039974922 0 0.1081730245163892 0.36832490860099087 0 0.12849986008609621 0.35825416039974922 0 0.12738801886142351 0.37754095842007962 0 0.1081730245163892 0.36832490860099087 0 0.12849986008609621 0.35825416039974922 0 0.1163991727915102 0.35221379817627718 0 0.12105718841075561 0.3379613074408041 0 0.103475983903746 0.34264280730229119 0 0.1163991727915102 0.35221379817627718 0 0.12105718841075561 0.3379613074408041 0 0.1312931825051811 0.34343947912803158 0 0.12105718841075561 0.3379613074408041 0 0.12075784448699529 0.31950015400697218 0 0.1286454030236448 0.32766771469103079 0 0.12105718841075561 0.3379613074408041 0 0.12075784448699529 0.31950015400697218 0 0.103475983903746 0.34264280730229119 0 0.12075784448699529 0.31950015400697218 0 0.103475983903746 0.34264280730229119 0 0.12075784448699529 0.31950015400697218 0 0.09923771881910036 0.31946916197727498 0 0.1151213392216789 0.29866284656249159 0 0.12075784448699529 0.31950015400697218 0 0.09923771881910036 0.31946916197727498 0 0.103475983903746 0.34264280730229119 0 0.09923771881910036 0.31946916197727498 0 0.094998498054241279 0.33559483741111151 0 0.090786249467688859 0.32792293464057931 0 0.09923771881910036 0.31946916197727498 0 0.103475983903746 0.34264280730229119 0 0.09923771881910036 0.31946916197727498 0 0.103475983903746 0.34264280730229119 0 0.094998498054241279 0.33559483741111151 0 0.094827278150019054 0.34380542877248133 0 0.103475983903746 0.34264280730229119 0 0.094998498054241279 0.33559483741111151 0 0.094827278150019054 0.34380542877248133 0 0.094998498054241279 0.33559483741111151 0 0.08733097558959009 0.3409870210330132 0 0.08733097558959009 0.3409870210330132 0 0.090786249467688859 0.32792293464057931 0 0.080566636607239173 0.32623416911328101 0 0.094998498054241279 0.33559483741111151 0 0.08733097558959009 0.3409870210330132 0 0.090786249467688859 0.32792293464057931 0 0.08733097558959009 0.3409870210330132 0 0.080566636607239173 0.32623416911328101 0 0.074178451210119761 0.33534151457683159 0 0.090786249467688859 0.32792293464057931 0 0.080566636607239173 0.32623416911328101 0 0.087783045170843926 0.3112648428827694 0 0.09923771881910036 0.31946916197727498 0 0.090786249467688859 0.32792293464057931 0 0.087783045170843926 0.3112648428827694 0 0.080566636607239173 0.32623416911328101 0 0.071985215368079503 0.31071237427376858 0 0.087783045170843926 0.3112648428827694 0 0.080566636607239173 0.32623416911328101 0 0.087783045170843926 0.3112648428827694 0 0.080566636607239173 0.32623416911328101 0 0.06910187684483296 0.32226278493602278 0 0.071985215368079503 0.31071237427376858 0 0.080566636607239173 0.32623416911328101 0 0.06910187684483296 0.32226278493602278 0 0.074178451210119761 0.33534151457683159 0 0.074178451210119761 0.33534151457683159 0 0.0679035531835252 0.34717788228939361 0 0.059584178461637542 0.32978781159242571 0 0.08733097558959009 0.3409870210330132 0 0.074178451210119761 0.33534151457683159 0 0.0679035531835252 0.34717788228939361 0 0.06910187684483296 0.32226278493602278 0 0.074178451210119761 0.33534151457683159 0 0.059584178461637542 0.32978781159242571 0 0.0679035531835252 0.34717788228939361 0 0.062762778952430209 0.35879250790642131 0 0.078385436540398465 0.35831659633094259 0 0.0679035531835252 0.34717788228939361 0 0.093503655052498469 0.35599704934350951 0 0.08733097558959009 0.3409870210330132 0 0.0679035531835252 0.34717788228939361 0 0.093503655052498469 0.35599704934350951 0 0.0679035531835252 0.34717788228939361 0 0.078385436540398465 0.35831659633094259 0 0.093503655052498469 0.35599704934350951 0 0.094827278150019054 0.34380542877248133 0 0.08733097558959009 0.3409870210330132 0 0.093503655052498469 0.35599704934350951 0 0.093503655052498469 0.35599704934350951 0 0.080454860583606153 0.37347107795638579 0 0.093503655052498469 0.35599704934350951 0 0.091365987902874979 0.36436365842684909 0 0.080454860583606153 0.37347107795638579 0 0.093503655052498469 0.35599704934350951 0 0.079504520899184278 0.36445845654451448 0 0.080454860583606153 0.37347107795638579 0 0.087540244035989881 0.37063763974128372 0 0.091365987902874979 0.36436365842684909 0 0.080454860583606153 0.37347107795638579 0 0.081815528322534289 0.38138349346890538 0 0.094256796729590156 0.36758338756693959 0 0.087540244035989881 0.37063763974128372 0 0.094256796729590156 0.36758338756693959 0 0.087540244035989881 0.37063763974128372 0 0.091365987902874979 0.36436365842684909 0 0.094180812000473624 0.35939449542476182 0 0.093503655052498469 0.35599704934350951 0 0.091365987902874979 0.36436365842684909 0 0.078385436540398465 0.35831659633094259 0 0.093503655052498469 0.35599704934350951 0 0.079504520899184278 0.36445845654451448 0 0.064399973236602751 0.37774182687099961 0 0.080454860583606153 0.37347107795638579 0 0.06932960754580593 0.36727175350556968 0 0.079504520899184278 0.36445845654451448 0 0.080454860583606153 0.37347107795638579 0 0.06932960754580593 0.36727175350556968 0 0.078385436540398465 0.35831659633094259 0 0.079504520899184278 0.36445845654451448 0 0.06932960754580593 0.36727175350556968 0 0.062762778952430209 0.35879250790642131 0 0.06932960754580593 0.36727175350556968 0 0.055953076717217727 0.36960614940983821 0 0.062762778952430209 0.35879250790642131 0 0.078385436540398465 0.35831659633094259 0 0.06932960754580593 0.36727175350556968 0 0.064399973236602751 0.37774182687099961 0 0.06932960754580593 0.36727175350556968 0 0.055953076717217727 0.36960614940983821 0 0.055953076717217727 0.36960614940983821 0 0.051442940459408247 0.35395467921576362 0 0.042298541719177601 0.37209928372273782 0 0.062762778952430209 0.35879250790642131 0 0.055953076717217727 0.36960614940983821 0 0.051442940459408247 0.35395467921576362 0 0.0679035531835252 0.34717788228939361 0 0.062762778952430209 0.35879250790642131 0 0.051442940459408247 0.35395467921576362 0 0.0679035531835252 0.34717788228939361 0 0.051442940459408247 0.35395467921576362 0 0.042303451314551467 0.33835871523527961 0 0.034500901461060697 0.35947996345316618 0 0.01771104093249265 0.35017883256094767 0 0.042303451314551467 0.33835871523527961 0 0.034500901461060697 0.35947996345316618 0 0.042303451314551467 0.33835871523527961 0 0.051442940459408247 0.35395467921576362 0 0.034500901461060697 0.35947996345316618 0 0.042303451314551467 0.33835871523527961 0 0.026698351607569899 0.38060121167105282 0 0.042298541719177601 0.37209928372273782 0 0.034500901461060697 0.35947996345316618 0 0.051442940459408247 0.35395467921576362 0 0.042298541719177601 0.37209928372273782 0 0.034500901461060697 0.35947996345316618 0 0.026698351607569899 0.38060121167105282 0 0.034500901461060697 0.35947996345316618 0 0.017626111155861601 0.36572216495413279 0 0.026698351607569899 0.38060121167105282 0 0.034500901461060697 0.35947996345316618 0 0.0041759738791468824 0.37643541540048281 0 0.026698351607569899 0.38060121167105282 0 0.017626111155861601 0.36572216495413279 0 0.034500901461060697 0.35947996345316618 0 0.017626111155861601 0.36572216495413279 0 0.01771104093249265 0.35017883256094767 0 0.017626111155861601 0.36572216495413279 0 0.01771104093249265 0.35017883256094767 0 0.0010700777081586771 0.35819128210598239 0 0.01771104093249265 0.35017883256094767 0 0.0010700777081586771 0.35819128210598239 0 0.0027898396658826061 0.34218595544836911 0 0.0041759738791468824 0.37643541540048281 0 0.017626111155861601 0.36572216495413279 0 0.0010700777081586771 0.35819128210598239 0 0.0045409227089052498 0.32534962449557803 0 0.017883982704994431 0.31803091877354073 0 0.0038938970189251951 0.30064697132742468 0 0.0045409227089052498 0.32534962449557803 0 0.023422187011728619 0.33185416986542782 0 0.017883982704994431 0.31803091877354073 0 0.0045409227089052498 0.32534962449557803 0 0.0027898396658826061 0.34218595544836911 0 0.023422187011728619 0.33185416986542782 0 0.01771104093249265 0.35017883256094767 0 0.0027898396658826061 0.34218595544836911 0 0.023422187011728619 0.33185416986542782 0 0.0045409227089052498 0.32534962449557803 0 0.023422187011728619 0.33185416986542782 0 0.01771104093249265 0.35017883256094767 0 0.023422187011728619 0.33185416986542782 0 0.042303451314551467 0.33835871523527961 0 0.017883982704994431 0.31803091877354073 0 0.034374710879363349 0.32207380573600319 0 0.026820555932961471 0.30628634556657192 0 0.023422187011728619 0.33185416986542782 0 0.017883982704994431 0.31803091877354073 0 0.034374710879363349 0.32207380573600319 0 0.034374710879363349 0.32207380573600319 0 0.039859452061182479 0.309912253038019 0 0.026820555932961471 0.30628634556657192 0 0.034374710879363349 0.32207380573600319 0 0.042303451314551467 0.33835871523527961 0 0.048956765395602127 0.32034841080709842 0 0.034374710879363349 0.32207380573600319 0 0.048956765395602127 0.32034841080709842 0 0.039859452061182479 0.309912253038019 0 0.023422187011728619 0.33185416986542782 0 0.034374710879363349 0.32207380573600319 0 0.042303451314551467 0.33835871523527961 0 0.023422187011728619 0.33185416986542782 0 0.042303451314551467 0.33835871523527961 0 0.042303451314551467 0.33835871523527961 0 0.048956765395602127 0.32034841080709842 0 0.0679035531835252 0.34717788228939361 0 0.042303451314551467 0.33835871523527961 0 0.0679035531835252 0.34717788228939361 0 0.042303451314551467 0.33835871523527961 0 0.059584178461637542 0.32978781159242571 0 0.042303451314551467 0.33835871523527961 0 0.059584178461637542 0.32978781159242571 0 0.048956765395602127 0.32034841080709842 0 0.06910187684483296 0.32226278493602278 0 0.059584178461637542 0.32978781159242571 0 0.051470336544358883 0.30358197925786867 0 0.059584178461637542 0.32978781159242571 0 0.048956765395602127 0.32034841080709842 0 0.051470336544358883 0.30358197925786867 0 0.059584178461637542 0.32978781159242571 0 0.051470336544358883 0.30358197925786867 0 0.051470336544358883 0.30358197925786867 0 0.059158852968330407 0.28193922366937718 0 0.067149911534761478 0.29667438865947848 0 0.051470336544358883 0.30358197925786867 0 0.059158852968330407 0.28193922366937718 0 0.04335649462708021 0.27737614692331181 0 0.051470336544358883 0.30358197925786867 0 0.04335649462708021 0.27737614692331181 0 0.037674891553626542 0.29727072382255287 0 0.025842461713159851 0.28854251823723859 0 0.04335649462708021 0.27737614692331181 0 0.051470336544358883 0.30358197925786867 0 0.037674891553626542 0.29727072382255287 0 0.04335649462708021 0.27737614692331181 0 0.048956765395602127 0.32034841080709842 0 0.051470336544358883 0.30358197925786867 0 0.039859452061182479 0.309912253038019 0 0.051470336544358883 0.30358197925786867 0 0.039859452061182479 0.309912253038019 0 0.037674891553626542 0.29727072382255287 0 0.039859452061182479 0.309912253038019 0 0.037674891553626542 0.29727072382255287 0 0.026820555932961471 0.30628634556657192 0 0.026820555932961471 0.30628634556657192 0 0.025842461713159851 0.28854251823723859 0 0.0038938970189251951 0.30064697132742468 0 0.037674891553626542 0.29727072382255287 0 0.026820555932961471 0.30628634556657192 0 0.025842461713159851 0.28854251823723859 0 0.017883982704994431 0.31803091877354073 0 0.026820555932961471 0.30628634556657192 0 0.0038938970189251951 0.30064697132742468 0 0.025842461713159851 0.28854251823723859 0 0.0038938970189251951 0.30064697132742468 0 0.01149035507144134 0.27452154809762169 0 0.0038938970189251951 0.30064697132742468 0 0.01149035507144134 0.27452154809762169 0 -0.00037429794597245607 0.28153109855486308 0 0.0038938970189251951 0.30064697132742468 0 0.01149035507144134 0.27452154809762169 0 -0.0071567094876491466 0.25418764894853862 0 0.01908681312395703 0.2483961248678184 0 0.0053239463120198539 0.26124186962637419 0 0.01908681312395703 0.2483961248678184 0 0.0053239463120198539 0.26124186962637419 0 0.01149035507144134 0.27452154809762169 0 -0.0071567094876491466 0.25418764894853862 0 0.01908681312395703 0.2483961248678184 0 0.01908681312395703 0.2483961248678184 0 0.01149035507144134 0.27452154809762169 0 -0.0021246734596698032 0.2678621565915183 0 0.0053239463120198539 0.26124186962637419 0 0.01149035507144134 0.27452154809762169 0 -0.0021246734596698032 0.2678621565915183 0 -0.00037429794597245607 0.28153109855486308 0 0.01149035507144134 0.27452154809762169 0 0.025842461713159851 0.28854251823723859 0 0.023637934824070971 0.27644666202682788 0 0.04335649462708021 0.27737614692331181 0 0.023637934824070971 0.27644666202682788 0 0.024690435097785731 0.26419260144836032 0 0.04335649462708021 0.27737614692331181 0 0.01149035507144134 0.27452154809762169 0 0.023637934824070971 0.27644666202682788 0 0.024690435097785731 0.26419260144836032 0 0.025842461713159851 0.28854251823723859 0 0.01149035507144134 0.27452154809762169 0 0.023637934824070971 0.27644666202682788 0 0.01908681312395703 0.2483961248678184 0 0.01149035507144134 0.27452154809762169 0 0.024690435097785731 0.26419260144836032 0 0.01908681312395703 0.2483961248678184 0 0.024690435097785731 0.26419260144836032 0 0.03524265270980155 0.25117031458875477 0 0.03524265270980155 0.25117031458875477 0 0.04335649462708021 0.27737614692331181 0 0.03524265270980155 0.25117031458875477 0 0.04335649462708021 0.27737614692331181 0 0.05074215961815727 0.26467082893307392 0 0.024690435097785731 0.26419260144836032 0 0.03524265270980155 0.25117031458875477 0 0.04335649462708021 0.27737614692331181 0 0.03524265270980155 0.25117031458875477 0 0.04749626877771515 0.25304368338574462 0 0.05074215961815727 0.26467082893307392 0 0.059158852968330407 0.28193922366937718 0 0.061944782363595158 0.26725281061424239 0 0.05074215961815727 0.26467082893307392 0 0.059158852968330407 0.28193922366937718 0 0.04335649462708021 0.27737614692331181 0 0.05074215961815727 0.26467082893307392 0 0.05547764474372141 0.24849057313960141 0 0.04749626877771515 0.25304368338574462 0 0.057253906262421182 0.25724279441701292 0 0.04749626877771515 0.25304368338574462 0 0.05074215961815727 0.26467082893307392 0 0.057253906262421182 0.25724279441701292 0 0.061944782363595158 0.26725281061424239 0 0.05074215961815727 0.26467082893307392 0 0.057253906262421182 0.25724279441701292 0 0.05547764474372141 0.24849057313960141 0 0.057253906262421182 0.25724279441701292 0 0.065398480310422169 0.25061588267944429 0 0.069910411218535917 0.25993827674679892 0 0.080414566366012505 0.25030138021361747 0 0.083272529441295429 0.2662224480166055 0 0.057253906262421182 0.25724279441701292 0 0.065398480310422169 0.25061588267944429 0 0.069910411218535917 0.25993827674679892 0 0.061944782363595158 0.26725281061424239 0 0.057253906262421182 0.25724279441701292 0 0.069910411218535917 0.25993827674679892 0 0.065398480310422169 0.25061588267944429 0 0.069910411218535917 0.25993827674679892 0 0.080414566366012505 0.25030138021361747 0 0.080414566366012505 0.25030138021361747 0 0.09039373101421036 0.25749402151445733 0 0.083272529441295429 0.2662224480166055 0 0.099726721814054509 0.24781775032261119 0 0.080414566366012505 0.25030138021361747 0 0.09039373101421036 0.25749402151445733 0 0.09039373101421036 0.25749402151445733 0 0.083272529441295429 0.2662224480166055 0 0.097971690319513097 0.26647370341118898 0 0.091828626248761536 0.27895832087220912 0 0.083272529441295429 0.2662224480166055 0 0.097971690319513097 0.26647370341118898 0 0.083272529441295429 0.2662224480166055 0 0.080637023606068864 0.27872700631211139 0 0.071843641964753735 0.2732402316978379 0 0.091828626248761536 0.27895832087220912 0 0.083272529441295429 0.2662224480166055 0 0.080637023606068864 0.27872700631211139 0 0.080637023606068864 0.27872700631211139 0 0.071843641964753735 0.2732402316978379 0 0.073368004498310144 0.28673511543499641 0 0.069910411218535917 0.25993827674679892 0 0.083272529441295429 0.2662224480166055 0 0.071843641964753735 0.2732402316978379 0 0.061944782363595158 0.26725281061424239 0 0.069910411218535917 0.25993827674679892 0 0.071843641964753735 0.2732402316978379 0 0.059158852968330407 0.28193922366937718 0 0.061944782363595158 0.26725281061424239 0 0.071843641964753735 0.2732402316978379 0 0.059158852968330407 0.28193922366937718 0 0.071843641964753735 0.2732402316978379 0 0.073368004498310144 0.28673511543499641 0 0.059158852968330407 0.28193922366937718 0 0.067149911534761478 0.29667438865947848 0 0.073368004498310144 0.28673511543499641 0 0.067149911534761478 0.29667438865947848 0 0.073368004498310144 0.28673511543499641 0 0.07976714829472846 0.30040325066138179 0 0.051470336544358883 0.30358197925786867 0 0.067149911534761478 0.29667438865947848 0 0.071985215368079503 0.31071237427376858 0 0.06910187684483296 0.32226278493602278 0 0.051470336544358883 0.30358197925786867 0 0.071985215368079503 0.31071237427376858 0 0.067149911534761478 0.29667438865947848 0 0.071985215368079503 0.31071237427376858 0 0.07976714829472846 0.30040325066138179 0 0.071985215368079503 0.31071237427376858 0 0.07976714829472846 0.30040325066138179 0 0.087783045170843926 0.3112648428827694 0 0.07976714829472846 0.30040325066138179 0 0.087783045170843926 0.3112648428827694 0 0.094999453734451678 0.29629551665225928 0 0.087783045170843926 0.3112648428827694 0 0.094999453734451678 0.29629551665225928 0 0.091828626248761536 0.27895832087220912 0 0.08436545346238869 0.28928182923550261 0 0.094999453734451678 0.29629551665225928 0 0.091828626248761536 0.27895832087220912 0 0.094999453734451678 0.29629551665225928 0 0.080637023606068864 0.27872700631211139 0 0.073368004498310144 0.28673511543499641 0 0.08436545346238869 0.28928182923550261 0 0.091828626248761536 0.27895832087220912 0 0.080637023606068864 0.27872700631211139 0 0.08436545346238869 0.28928182923550261 0 0.073368004498310144 0.28673511543499641 0 0.07976714829472846 0.30040325066138179 0 0.08436545346238869 0.28928182923550261 0 0.07976714829472846 0.30040325066138179 0 0.08436545346238869 0.28928182923550261 0 0.094999453734451678 0.29629551665225928 0 0.094999453734451678 0.29629551665225928 0 0.1151213392216789 0.29866284656249159 0 0.103150071059233 0.27938831847474649 0 0.091828626248761536 0.27895832087220912 0 0.094999453734451678 0.29629551665225928 0 0.103150071059233 0.27938831847474649 0 0.094999453734451678 0.29629551665225928 0 0.103150071059233 0.27938831847474649 0 0.09923771881910036 0.31946916197727498 0 0.087783045170843926 0.3112648428827694 0 0.094999453734451678 0.29629551665225928 0 0.09923771881910036 0.31946916197727498 0 0.094999453734451678 0.29629551665225928 0 0.1151213392216789 0.29866284656249159 0 0.09923771881910036 0.31946916197727498 0 0.094999453734451678 0.29629551665225928 0 0.12075784448699529 0.31950015400697218 0 0.1151213392216789 0.29866284656249159 0 0.13803970507024521 0.2963575007116534 0 0.1151213392216789 0.29866284656249159 0 0.1246701967271311 0.27941931050444418 0 0.103150071059233 0.27938831847474649 0 0.1246701967271311 0.27941931050444418 0 0.11130068838401699 0.26248112029723503 0 0.1246701967271311 0.27941931050444418 0 0.12323085804584689 0.2681976569080502 0 0.11130068838401699 0.26248112029723503 0 0.1246701967271311 0.27941931050444418 0 0.11130068838401699 0.26248112029723503 0 0.103150071059233 0.27938831847474649 0 0.12323085804584689 0.2681976569080502 0 0.1210077127956808 0.25931423596448039 0 0.11130068838401699 0.26248112029723503 0 0.1210077127956808 0.25931423596448039 0 0.1245192667765436 0.25126071329662197 0 0.1152049647699719 0.25438230127939371 0 0.1152049647699719 0.25438230127939371 0 0.11130068838401699 0.26248112029723503 0 0.1210077127956808 0.25931423596448039 0 0.1152049647699719 0.25438230127939371 0 0.11130068838401699 0.26248112029723503 0 0.099726721814054509 0.24781775032261119 0 0.11130068838401699 0.26248112029723503 0 0.097971690319513097 0.26647370341118898 0 0.099726721814054509 0.24781775032261119 0 0.09039373101421036 0.25749402151445733 0 0.097971690319513097 0.26647370341118898 0 0.099726721814054509 0.24781775032261119 0 0.1152049647699719 0.25438230127939371 0 0.11130068838401699 0.26248112029723503 0 0.099726721814054509 0.24781775032261119 0 0.11130068838401699 0.26248112029723503 0 0.11130068838401699 0.26248112029723503 0 0.103150071059233 0.27938831847474649 0 0.11130068838401699 0.26248112029723503 0 0.097971690319513097 0.26647370341118898 0 0.103150071059233 0.27938831847474649 0 0.091828626248761536 0.27895832087220912 0 0.097971690319513097 0.26647370341118898 0 0.103150071059233 0.27938831847474649 0 0.14729878635603361 0.2671568871488858 0 0.14208968005492589 0.27194993801623751 0 0.14744537665457019 0.27656175693045948 0 0.14729878635603361 0.2671568871488858 0 0.14208968005492589 0.27194993801623751 0 0.1398373920755222 0.26576778109378729 0 0.14208968005492589 0.27194993801623751 0 0.14744537665457019 0.27656175693045948 0 0.1401707387260272 0.27785751861104879 0 0.14744537665457019 0.27656175693045948 0 0.1401707387260272 0.27785751861104879 0 0.1439845171991343 0.28186052349787849 0 0.1401707387260272 0.27785751861104879 0 0.14014471224245459 0.28168383684121839 0 0.1439845171991343 0.28186052349787849 0 0.14744537665457019 0.27656175693045948 0 0.14810770547634999 0.28308732315779489 0 0.1439845171991343 0.28186052349787849 0 0.14744537665457019 0.27656175693045948 0 0.15562607794317129 0.28168239574131781 0 0.15753163307348059 0.2726469250546778 0 0.14744537665457019 0.27656175693045948 0 0.14810770547634999 0.28308732315779489 0 0.15562607794317129 0.28168239574131781 0 0.14729878635603361 0.2671568871488858 0 0.15753163307348059 0.2726469250546778 0 0.15838401775928079 0.26130109161250209 0 0.14729878635603361 0.2671568871488858 0 0.14744537665457019 0.27656175693045948 0 0.15753163307348059 0.2726469250546778 0 0.14729878635603361 0.2671568871488858 0 0.14326208780640909 0.25677167842144499 0 0.15838401775928079 0.26130109161250209 0 0.1406873045743415 0.2463353526858035 0 0.15838401775928079 0.26130109161250209 0 0.1406873045743415 0.2463353526858035 0 0.14326208780640909 0.25677167842144499 0 0.15838401775928079 0.26130109161250209 0 0.15356021646706139 0.24346735864033589 0 0.1406873045743415 0.2463353526858035 0 0.15838401775928079 0.26130109161250209 0 0.1406873045743415 0.2463353526858035 0 0.14326208780640909 0.25677167842144499 0 0.14729878635603361 0.2671568871488858 0 0.14326208780640909 0.25677167842144499 0 0.1398373920755222 0.26576778109378729 0 0.13439218014156629 0.24101169807336259 0 0.13078278600202481 0.26024938804110131 0 0.13439218014156629 0.24101169807336259 0 0.1245192667765436 0.25126071329662197 0 0.13078278600202481 0.26024938804110131 0 0.14326208780640909 0.25677167842144499 0 0.13078278600202481 0.26024938804110131 0 0.1398373920755222 0.26576778109378729 0 0.1406873045743415 0.2463353526858035 0 0.14326208780640909 0.25677167842144499 0 0.13078278600202481 0.26024938804110131 0 0.1210077127956808 0.25931423596448039 0 0.1245192667765436 0.25126071329662197 0 0.13078278600202481 0.26024938804110131 0 0.12323085804584689 0.2681976569080502 0 0.1210077127956808 0.25931423596448039 0 0.13078278600202481 0.26024938804110131 0 0.13078278600202481 0.26024938804110131 0 0.12717339186248261 0.27948707800883987 0 0.12323085804584689 0.2681976569080502 0 0.13078278600202481 0.26024938804110131 0 0.12717339186248261 0.27948707800883987 0 0.13078278600202481 0.26024938804110131 0 0.1356961064624764 0.27240574629700592 0 0.12717339186248261 0.27948707800883987 0 0.13078278600202481 0.26024938804110131 0 0.1356961064624764 0.27240574629700592 0 0.1398373920755222 0.26576778109378729 0 0.14208968005492589 0.27194993801623751 0 0.1356961064624764 0.27240574629700592 0 0.1398373920755222 0.26576778109378729 0 0.1375057342560769 0.28077096361055193 0 0.1401707387260272 0.27785751861104879 0 0.13486239940844549 0.27845872161359209 0 0.1375057342560769 0.28077096361055193 0 0.1401707387260272 0.27785751861104879 0 0.14014471224245459 0.28168383684121839 0 0.14208968005492589 0.27194993801623751 0 0.1356961064624764 0.27240574629700592 0 0.1401707387260272 0.27785751861104879 0 0.1356961064624764 0.27240574629700592 0 0.1401707387260272 0.27785751861104879 0 0.13486239940844549 0.27845872161359209 0 0.1375057342560769 0.28077096361055193 0 0.13486239940844549 0.27845872161359209 0 0.13471436596802519 0.28317992798977898 0 0.13486239940844549 0.27845872161359209 0 0.12717339186248261 0.27948707800883987 0 0.13471436596802519 0.28317992798977898 0 0.1246701967271311 0.27941931050444418 0 0.12323085804584689 0.2681976569080502 0 0.12717339186248261 0.27948707800883987 0 0.1356961064624764 0.27240574629700592 0 0.13486239940844549 0.27845872161359209 0 0.12717339186248261 0.27948707800883987 0 0.1151213392216789 0.29866284656249159 0 0.1246701967271311 0.27941931050444418 0 0.13803970507024521 0.2963575007116534 0 0.1246701967271311 0.27941931050444418 0 0.13803970507024521 0.2963575007116534 0 0.1246701967271311 0.27941931050444418 0 0.12717339186248261 0.27948707800883987 0 0.13803970507024521 0.2963575007116534 0 0.12717339186248261 0.27948707800883987 0 0.13803970507024521 0.2963575007116534 0 0.13471436596802519 0.28317992798977898 0 0.13803970507024521 0.2963575007116534 0 0.13868173021707039 0.28859878010953222 0 0.13471436596802519 0.28317992798977898 0 0.13803970507024521 0.2963575007116534 0 0.13868173021707039 0.28859878010953222 0 0.14155827813855201 0.28911941748208309 0 0.13868173021707039 0.28859878010953222 0 0.13822956777795109 0.28344280635221641 0 0.14118823064342501 0.28512700522856649 0 0.13868173021707039 0.28859878010953222 0 0.14118823064342501 0.28512700522856649 0 0.14155827813855201 0.28911941748208309 0 0.14014471224245459 0.28168383684121839 0 0.13822956777795109 0.28344280635221641 0 0.14118823064342501 0.28512700522856649 0 0.13868173021707039 0.28859878010953222 0 0.13822956777795109 0.28344280635221641 0 0.13471436596802519 0.28317992798977898 0 0.1375057342560769 0.28077096361055193 0 0.14014471224245459 0.28168383684121839 0 0.13822956777795109 0.28344280635221641 0 0.1375057342560769 0.28077096361055193 0 0.13822956777795109 0.28344280635221641 0 0.13471436596802519 0.28317992798977898 0 0.12075784448699529 0.31950015400697218 0 0.13803970507024521 0.2963575007116534 0 0.12075784448699529 0.31950015400697218 0 0.13803970507024521 0.2963575007116534 0 0.1292361897231574 0.31632868482633242 0 0.13803970507024521 0.2963575007116534 0 0.15334010238966281 0.31574198616849131 0 0.1292361897231574 0.31632868482633242 0 0.13803970507024521 0.2963575007116534 0 0.14584875412278009 0.29627788373228547 0 0.15334010238966281 0.31574198616849131 0 0.13803970507024521 0.2963575007116534 0 0.15334010238966281 0.31574198616849131 0 0.14584875412278009 0.29627788373228547 0 0.15490530850503981 0.2952809396508006 0 0.15334010238966281 0.31574198616849131 0 0.14474541129948679 0.28643419684453808 0 0.14810770547634999 0.28308732315779489 0 0.1488923965932018 0.28847077800476872 0 0.14474541129948679 0.28643419684453808 0 0.1447957960388743 0.29068204382954121 0 0.1488923965932018 0.28847077800476872 0 0.14474541129948679 0.28643419684453808 0 0.14810770547634999 0.28308732315779489 0 0.1439845171991343 0.28186052349787849 0 0.14474541129948679 0.28643419684453808 0 0.1439845171991343 0.28186052349787849 0 0.14118823064342501 0.28512700522856649 0 0.14014471224245459 0.28168383684121839 0 0.1439845171991343 0.28186052349787849 0 0.14118823064342501 0.28512700522856649 0 0.14474541129948679 0.28643419684453808 0 0.14118823064342501 0.28512700522856649 0 0.14155827813855201 0.28911941748208309 0 0.14474541129948679 0.28643419684453808 0 0.14155827813855201 0.28911941748208309 0 0.1447957960388743 0.29068204382954121 0 0.13803970507024521 0.2963575007116534 0 0.14155827813855201 0.28911941748208309 0 0.1426082283363739 0.2928146378892692 0 0.14155827813855201 0.28911941748208309 0 0.1426082283363739 0.2928146378892692 0 0.1447957960388743 0.29068204382954121 0 0.13803970507024521 0.2963575007116534 0 0.1426082283363739 0.2928146378892692 0 0.14584875412278009 0.29627788373228547 0 0.1426082283363739 0.2928146378892692 0 0.14584875412278009 0.29627788373228547 0 0.1447957960388743 0.29068204382954121 0 0.14584875412278009 0.29627788373228547 0 0.1447957960388743 0.29068204382954121 0 0.1488923965932018 0.28847077800476872 0 0.14584875412278009 0.29627788373228547 0 0.15490530850503981 0.2952809396508006 0 0.1488923965932018 0.28847077800476872 0 0.15490530850503981 0.2952809396508006 0 0.1488923965932018 0.28847077800476872 0 0.15562607794317129 0.28168239574131781 0 0.14810770547634999 0.28308732315779489 0 0.1488923965932018 0.28847077800476872 0 0.15562607794317129 0.28168239574131781 0 0.15562607794317129 0.28168239574131781 0 0.16337496191027179 0.2898383957369518 0 0.16635837245561991 0.27982654623987491 0 0.15490530850503981 0.2952809396508006 0 0.15562607794317129 0.28168239574131781 0 0.16337496191027179 0.2898383957369518 0 0.15490530850503981 0.2952809396508006 0 0.16337496191027179 0.2898383957369518 0 0.1641531990614207 0.30083246276441039 0 0.16337496191027179 0.2898383957369518 0 0.1641531990614207 0.30083246276441039 0 0.1758318515861074 0.29156963428835547 0 0.16337496191027179 0.2898383957369518 0 0.1758318515861074 0.29156963428835547 0 0.16635837245561991 0.27982654623987491 0 0.15490530850503981 0.2952809396508006 0 0.1641531990614207 0.30083246276441039 0 0.15334010238966281 0.31574198616849131 0 0.1641531990614207 0.30083246276441039 0 0.17855766759618211 0.31248497550990872 0 0.15334010238966281 0.31574198616849131 0 0.1641531990614207 0.30083246276441039 0 0.17855766759618211 0.31248497550990872 0 0.1758318515861074 0.29156963428835547 0 0.17855766759618211 0.31248497550990872 0 0.1758318515861074 0.29156963428835547 0 0.1893855231024282 0.30005711391701873 0 0.1758318515861074 0.29156963428835547 0 0.18033686140906879 0.27667115550367549 0 0.19325548165483461 0.28553435829592111 0 0.1758318515861074 0.29156963428835547 0 0.19325548165483461 0.28553435829592111 0 0.1893855231024282 0.30005711391701873 0 0.1758318515861074 0.29156963428835547 0 0.18033686140906879 0.27667115550367549 0 0.16635837245561991 0.27982654623987491 0 0.18033686140906879 0.27667115550367549 0 0.1843086956174389 0.26214437312285088 0 0.19574670816955719 0.27310394970569862 0 0.18033686140906879 0.27667115550367549 0 0.17007716727220809 0.26935287265502678 0 0.1843086956174389 0.26214437312285088 0 0.18033686140906879 0.27667115550367549 0 0.16635837245561991 0.27982654623987491 0 0.17007716727220809 0.26935287265502678 0 0.16635837245561991 0.27982654623987491 0 0.17007716727220809 0.26935287265502678 0 0.15753163307348059 0.2726469250546778 0 0.17007716727220809 0.26935287265502678 0 0.15753163307348059 0.2726469250546778 0 0.15838401775928079 0.26130109161250209 0 0.15562607794317129 0.28168239574131781 0 0.16635837245561991 0.27982654623987491 0 0.15753163307348059 0.2726469250546778 0 0.15356021646706139 0.24346735864033589 0 0.16529906286965559 0.24602065666189671 0 0.15838401775928079 0.26130109161250209 0 0.17007716727220809 0.26935287265502678 0 0.15838401775928079 0.26130109161250209 0 0.171395163859485 0.25711420742336921 0 0.16529906286965559 0.24602065666189671 0 0.15838401775928079 0.26130109161250209 0 0.171395163859485 0.25711420742336921 0 0.1783842830850455 0.24495003504653801 0 0.19300386992948179 0.24803736689329239 0 0.1843086956174389 0.26214437312285088 0 0.1783842830850455 0.24495003504653801 0 0.171395163859485 0.25711420742336921 0 0.1843086956174389 0.26214437312285088 0 0.17007716727220809 0.26935287265502678 0 0.171395163859485 0.25711420742336921 0 0.1843086956174389 0.26214437312285088 0 0.1843086956174389 0.26214437312285088 0 0.2004077066394617 0.25986454969509581 0 0.19574670816955719 0.27310394970569862 0 0.19300386992948179 0.24803736689329239 0 0.1843086956174389 0.26214437312285088 0 0.2004077066394617 0.25986454969509581 0 0.20599362481276609 0.24766897191122689 0 0.19300386992948179 0.24803736689329239 0 0.2004077066394617 0.25986454969509581 0 0.18033686140906879 0.27667115550367549 0 0.19574670816955719 0.27310394970569862 0 0.19325548165483461 0.28553435829592111 0 0.2004077066394617 0.25986454969509581 0 0.19574670816955719 0.27310394970569862 0 0.20932851067518499 0.27099601273241608 0 0.19574670816955719 0.27310394970569862 0 0.20637054085403631 0.28454088505678621 0 0.19325548165483461 0.28553435829592111 0 0.20932851067518499 0.27099601273241608 0 0.22187880584649661 0.26508659943745633 0 0.2216977047215497 0.28103569026334518 0 0.19574670816955719 0.27310394970569862 0 0.20932851067518499 0.27099601273241608 0 0.20637054085403631 0.28454088505678621 0 0.20932851067518499 0.27099601273241608 0 0.2216977047215497 0.28103569026334518 0 0.20637054085403631 0.28454088505678621 0 0.20599362481276609 0.24766897191122689 0 0.2004077066394617 0.25986454969509581 0 0.21262856259288579 0.25662189878231062 0 0.2004077066394617 0.25986454969509581 0 0.20932851067518499 0.27099601273241608 0 0.21262856259288579 0.25662189878231062 0 0.20932851067518499 0.27099601273241608 0 0.21262856259288579 0.25662189878231062 0 0.22187880584649661 0.26508659943745633 0 0.2164574796508611 0.24620752144412791 0 0.20599362481276609 0.24766897191122689 0 0.21262856259288579 0.25662189878231062 0 0.2164574796508611 0.24620752144412791 0 0.21262856259288579 0.25662189878231062 0 0.22302725411224991 0.25336955787681281 0 0.22302725411224991 0.25336955787681281 0 0.23326627806090389 0.25079278603217953 0 0.23015830218951491 0.2599008933152176 0 0.23326627806090389 0.25079278603217953 0 0.23015830218951491 0.2599008933152176 0 0.23898285064552069 0.25982148987682741 0 0.23015830218951491 0.2599008933152176 0 0.22187880584649661 0.26508659943745633 0 0.23446245398123089 0.27095788869136789 0 0.22302725411224991 0.25336955787681281 0 0.23015830218951491 0.2599008933152176 0 0.22187880584649661 0.26508659943745633 0 0.21262856259288579 0.25662189878231062 0 0.22302725411224991 0.25336955787681281 0 0.22187880584649661 0.26508659943745633 0 0.2216977047215497 0.28103569026334518 0 0.23446245398123089 0.27095788869136789 0 0.23826705192406161 0.28627260095286239 0 0.22187880584649661 0.26508659943745633 0 0.2216977047215497 0.28103569026334518 0 0.23446245398123089 0.27095788869136789 0 0.23446245398123089 0.27095788869136789 0 0.24626247697220441 0.26772712973248147 0 0.23898285064552069 0.25982148987682741 0 0.23446245398123089 0.27095788869136789 0 0.2455996001367679 0.27825309740810578 0 0.24626247697220441 0.26772712973248147 0 0.23446245398123089 0.27095788869136789 0 0.2455996001367679 0.27825309740810578 0 0.23826705192406161 0.28627260095286239 0 0.2455996001367679 0.27825309740810578 0 0.24626247697220441 0.26772712973248147 0 0.2554672429860757 0.27597957418305019 0 0.24626247697220441 0.26772712973248147 0 0.24792994275652569 0.25823351488638768 0 0.25562121580969399 0.26426437873454911 0 0.24626247697220441 0.26772712973248147 0 0.24792994275652569 0.25823351488638768 0 0.23898285064552069 0.25982148987682741 0 0.24792994275652569 0.25823351488638768 0 0.24322103778237281 0.25067821939439178 0 0.25562675326591239 0.25012877547937301 0 0.24792994275652569 0.25823351488638768 0 0.24322103778237281 0.25067821939439178 0 0.23898285064552069 0.25982148987682741 0 0.23326627806090389 0.25079278603217953 0 0.24322103778237281 0.25067821939439178 0 0.23898285064552069 0.25982148987682741 0 0.23015830218951491 0.2599008933152176 0 0.23446245398123089 0.27095788869136789 0 0.23898285064552069 0.25982148987682741 0 0.24323955600647629 0.30561586721846168 0 0.23826705192406161 0.28627260095286239 0 0.22787526068243411 0.29733474129658788 0 0.24323955600647629 0.30561586721846168 0 0.23826705192406161 0.28627260095286239 0 0.25353877482026682 0.29032829348076722 0 0.2455996001367679 0.27825309740810578 0 0.23826705192406161 0.28627260095286239 0 0.25353877482026682 0.29032829348076722 0 0.2216977047215497 0.28103569026334518 0 0.23826705192406161 0.28627260095286239 0 0.22787526068243411 0.29733474129658788 0 0.2216977047215497 0.28103569026334518 0 0.22787526068243411 0.29733474129658788 0 0.2151607425096497 0.29340731277200732 0 0.22787526068243411 0.29733474129658788 0 0.21799530229597089 0.30645963136190152 0 0.2151607425096497 0.29340731277200732 0 0.24323955600647629 0.30561586721846168 0 0.22787526068243411 0.29733474129658788 0 0.23012352135693681 0.31168520832869578 0 0.22787526068243411 0.29733474129658788 0 0.23012352135693681 0.31168520832869578 0 0.21799530229597089 0.30645963136190152 0 0.21799530229597089 0.30645963136190152 0 0.2047031125195459 0.29988285411780857 0 0.2076238890190984 0.31690232465889151 0 0.21799530229597089 0.30645963136190152 0 0.2047031125195459 0.29988285411780857 0 0.2151607425096497 0.29340731277200732 0 0.2216977047215497 0.28103569026334518 0 0.2151607425096497 0.29340731277200732 0 0.20637054085403631 0.28454088505678621 0 0.2047031125195459 0.29988285411780857 0 0.2151607425096497 0.29340731277200732 0 0.20637054085403631 0.28454088505678621 0 0.2047031125195459 0.29988285411780857 0 0.20637054085403631 0.28454088505678621 0 0.19325548165483461 0.28553435829592111 0 0.2047031125195459 0.29988285411780857 0 0.19325548165483461 0.28553435829592111 0 0.1893855231024282 0.30005711391701873 0 0.2047031125195459 0.29988285411780857 0 0.19457950215547129 0.31081374737309919 0 0.2076238890190984 0.31690232465889151 0 0.17855766759618211 0.31248497550990872 0 0.1893855231024282 0.30005711391701873 0 0.19457950215547129 0.31081374737309919 0 0.2047031125195459 0.29988285411780857 0 0.1893855231024282 0.30005711391701873 0 0.19457950215547129 0.31081374737309919 0 0.17855766759618211 0.31248497550990872 0 0.19457950215547129 0.31081374737309919 0 0.19564909195820521 0.32477825326525989 0 0.19457950215547129 0.31081374737309919 0 0.19564909195820521 0.32477825326525989 0 0.2076238890190984 0.31690232465889151 0 0.1966595358547456 0.33767601998900459 0 0.18844984455210431 0.34741053706896718 0 0.1828247693661452 0.33133937179243589 0 0.19564909195820521 0.32477825326525989 0 0.1966595358547456 0.33767601998900459 0 0.1828247693661452 0.33133937179243589 0 0.19564909195820521 0.32477825326525989 0 0.1966595358547456 0.33767601998900459 0 0.2096134076399018 0.33257213444803813 0 0.2096134076399018 0.33257213444803813 0 0.22626647680196629 0.34206422650943508 0 0.20465720188686781 0.35137205701610119 0 0.1966595358547456 0.33767601998900459 0 0.2096134076399018 0.33257213444803813 0 0.20465720188686781 0.35137205701610119 0 0.21799530229597089 0.30645963136190152 0 0.2076238890190984 0.31690232465889151 0 0.22214675649291649 0.32257128000152269 0 0.19564909195820521 0.32477825326525989 0 0.2096134076399018 0.33257213444803813 0 0.2076238890190984 0.31690232465889151 0 0.2096134076399018 0.33257213444803813 0 0.2076238890190984 0.31690232465889151 0 0.22214675649291649 0.32257128000152269 0 0.23012352135693681 0.31168520832869578 0 0.21799530229597089 0.30645963136190152 0 0.22214675649291649 0.32257128000152269 0 0.23012352135693681 0.31168520832869578 0 0.22214675649291649 0.32257128000152269 0 0.2393607313068862 0.32644452176500499 0 0.22214675649291649 0.32257128000152269 0 0.22626647680196629 0.34206422650943508 0 0.2393607313068862 0.32644452176500499 0 0.2096134076399018 0.33257213444803813 0 0.22214675649291649 0.32257128000152269 0 0.22626647680196629 0.34206422650943508 0 0.22626647680196629 0.34206422650943508 0 0.2393607313068862 0.32644452176500499 0 0.24838044528476061 0.3516954467191421 0 0.2393607313068862 0.32644452176500499 0 0.24838044528476061 0.3516954467191421 0 0.2563080644993469 0.33284227644458819 0 0.24323955600647629 0.30561586721846168 0 0.2393607313068862 0.32644452176500499 0 0.25317539566904917 0.32008887468604491 0 0.24323955600647629 0.30561586721846168 0 0.23012352135693681 0.31168520832869578 0 0.2393607313068862 0.32644452176500499 0 0.2393607313068862 0.32644452176500499 0 0.25317539566904917 0.32008887468604491 0 0.2563080644993469 0.33284227644458819 0 0.24180945494719519 0.3749879149833607 0 0.24838044528476061 0.3516954467191421 0 0.22292050142440259 0.36308525480186288 0 0.24838044528476061 0.3516954467191421 0 0.22292050142440259 0.36308525480186288 0 0.22626647680196629 0.34206422650943508 0 0.24838044528476061 0.3516954467191421 0 0.22292050142440259 0.36308525480186288 0 0.24180945494719519 0.3749879149833607 0 0.22292050142440259 0.36308525480186288 0 0.22369667915761041 0.3818806958198368 0 0.22292050142440259 0.36308525480186288 0 0.20465720188686781 0.35137205701610119 0 0.19746055756404471 0.37447506288458382 0 0.22292050142440259 0.36308525480186288 0 0.19746055756404471 0.37447506288458382 0 0.22369667915761041 0.3818806958198368 0 0.22292050142440259 0.36308525480186288 0 0.19746055756404471 0.37447506288458382 0 0.22626647680196629 0.34206422650943508 0 0.22292050142440259 0.36308525480186288 0 0.20465720188686781 0.35137205701610119 0 0.1966595358547456 0.33767601998900459 0 0.20465720188686781 0.35137205701610119 0 0.18844984455210431 0.34741053706896718 0 0.20465720188686781 0.35137205701610119 0 0.18844984455210431 0.34741053706896718 0 0.18922265846144781 0.36067390980740599 0 0.19746055756404471 0.37447506288458382 0 0.18922265846144781 0.36067390980740599 0 0.1797283498829936 0.37064154540234528 0 0.20465720188686781 0.35137205701610119 0 0.19746055756404471 0.37447506288458382 0 0.18922265846144781 0.36067390980740599 0 0.1797283498829936 0.37064154540234528 0 0.17581733842122879 0.35947034666503241 0 0.16318483229035291 0.37153015626109731 0 0.18922265846144781 0.36067390980740599 0 0.1797283498829936 0.37064154540234528 0 0.17581733842122879 0.35947034666503241 0 0.17581733842122879 0.35947034666503241 0 0.16318483229035291 0.37153015626109731 0 0.1634136497195903 0.3547363267800297 0 0.17581733842122879 0.35947034666503241 0 0.16318483229035291 0.37153015626109731 0 0.16318483229035291 0.37153015626109731 0 0.1634136497195903 0.3547363267800297 0 0.14882669565580631 0.34818341219851351 0 0.17581733842122879 0.35947034666503241 0 0.1634136497195903 0.3547363267800297 0 0.16582573251097571 0.3397613919954745 0 0.16582573251097571 0.3397613919954745 0 0.14882669565580631 0.34818341219851351 0 0.1634136497195903 0.3547363267800297 0 0.16582573251097571 0.3397613919954745 0 0.14882669565580631 0.34818341219851351 0 0.18844984455210431 0.34741053706896718 0 0.17581733842122879 0.35947034666503241 0 0.16582573251097571 0.3397613919954745 0 0.18844984455210431 0.34741053706896718 0 0.17581733842122879 0.35947034666503241 0 0.18844984455210431 0.34741053706896718 0 0.18922265846144781 0.36067390980740599 0 0.17581733842122879 0.35947034666503241 0 0.18844984455210431 0.34741053706896718 0 0.1828247693661452 0.33133937179243589 0 0.16582573251097571 0.3397613919954745 0 0.1828247693661452 0.33133937179243589 0 0.16582573251097571 0.3397613919954745 0 0.1828247693661452 0.33133937179243589 0 0.1677052519268625 0.32608571562850558 0 0.16582573251097571 0.3397613919954745 0 0.17855766759618211 0.31248497550990872 0 0.19564909195820521 0.32477825326525989 0 0.1828247693661452 0.33133937179243589 0 0.17855766759618211 0.31248497550990872 0 0.1828247693661452 0.33133937179243589 0 0.1677052519268625 0.32608571562850558 0 0.17855766759618211 0.31248497550990872 0 0.1677052519268625 0.32608571562850558 0 0.15334010238966281 0.31574198616849131 0 0.1677052519268625 0.32608571562850558 0 0.15444162093753699 0.33156890503622738 0 0.15334010238966281 0.31574198616849131 0 0.16582573251097571 0.3397613919954745 0 0.15444162093753699 0.33156890503622738 0 0.14882669565580631 0.34818341219851351 0 0.1677052519268625 0.32608571562850558 0 0.16582573251097571 0.3397613919954745 0 0.15444162093753699 0.33156890503622738 0 0.13903144268948059 0.33225604851242357 0 0.14882669565580631 0.34818341219851351 0 0.15444162093753699 0.33156890503622738 0 0.13903144268948059 0.33225604851242357 0 0.14882669565580631 0.34818341219851351 0 0.15444162093753699 0.33156890503622738 0 0.15334010238966281 0.31574198616849131 0 0.13903144268948059 0.33225604851242357 0 0.1292361897231574 0.31632868482633242 0 0.13903144268948059 0.33225604851242357 0 0.1286454030236448 0.32766771469103079 0 0.1292361897231574 0.31632868482633242 0 0.13903144268948059 0.33225604851242357 0 0.15334010238966281 0.31574198616849131 0 0.1292361897231574 0.31632868482633242 0 0.13903144268948059 0.33225604851242357 0 0.12075784448699529 0.31950015400697218 0 0.1286454030236448 0.32766771469103079 0 0.1292361897231574 0.31632868482633242 0 0.1286454030236448 0.32766771469103079 0 0.13903144268948059 0.33225604851242357 0 0.1312931825051811 0.34343947912803158 0 0.13903144268948059 0.33225604851242357 0 0.1312931825051811 0.34343947912803158 0 0.14882669565580631 0.34818341219851351 0 0.12105718841075561 0.3379613074408041 0 0.1286454030236448 0.32766771469103079 0 0.1312931825051811 0.34343947912803158 0 0.12849986008609621 0.35825416039974922 0 0.14315830901575871 0.36870472801528731 0 0.14882669565580631 0.34818341219851351 0 0.1163991727915102 0.35221379817627718 0 0.1312931825051811 0.34343947912803158 0 0.12849986008609621 0.35825416039974922 0 0.12849986008609621 0.35825416039974922 0 0.14882669565580631 0.34818341219851351 0 0.1312931825051811 0.34343947912803158 0 0.12849986008609621 0.35825416039974922 0 0.14882669565580631 0.34818341219851351 0 0.12849986008609621 0.35825416039974922 0 0.14315830901575871 0.36870472801528731 0 0.12738801886142351 0.37754095842007962 0 0.16318483229035291 0.37153015626109731 0 0.14315830901575871 0.36870472801528731 0 0.14882669565580631 0.34818341219851351 0 0.16318483229035291 0.37153015626109731 0 0.14882669565580631 0.34818341219851351 0 0.14957729652585841 0.39589620806035719 0 0.1451694058191918 0.3887288507072536 0 0.1271539793480303 0.40592754515340962 0 0.16318483229035291 0.37153015626109731 0 0.1451694058191918 0.3887288507072536 0 0.16318483229035291 0.37153015626109731 0 0.14315830901575871 0.36870472801528731 0 0.1451694058191918 0.3887288507072536 0 0.16318483229035291 0.37153015626109731 0 0.1451694058191918 0.3887288507072536 0 0.15793057205745439 0.38551881774788072 0 0.14957729652585841 0.39589620806035719 0 0.1451694058191918 0.3887288507072536 0 0.15793057205745439 0.38551881774788072 0 0.1451694058191918 0.3887288507072536 0 0.12738801886142351 0.37754095842007962 0 0.12589681223994931 0.39196120803591472 0 0.14315830901575871 0.36870472801528731 0 0.1451694058191918 0.3887288507072536 0 0.12738801886142351 0.37754095842007962 0 0.1451694058191918 0.3887288507072536 0 0.12589681223994931 0.39196120803591472 0 0.1271539793480303 0.40592754515340962 0 0.1451694058191918 0.3887288507072536 0 0.1271539793480303 0.40592754515340962 0 0.14957729652585841 0.39589620806035719 0 0.1271539793480303 0.40592754515340962 0 0.1442308956629349 0.41375529095192132 0 0.14957729652585841 0.39589620806035719 0 0.1271539793480303 0.40592754515340962 0 0.1271539793480303 0.40592754515340962 0 0.12934824579199791 0.41993960361552318 0 0.1442308956629349 0.41375529095192132 0 0.12934824579199791 0.41993960361552318 0 0.13878088486941489 0.42853675956633303 0 0.1442308956629349 0.41375529095192132 0 0.121166338416637 0.43936870645396331 0 0.12934824579199791 0.41993960361552318 0 0.13878088486941489 0.42853675956633303 0 0.13878088486941489 0.42853675956633303 0 0.15667596252936969 0.42959758196447501 0 0.14560684593536649 0.4466031054485135 0 0.13878088486941489 0.42853675956633303 0 0.1442308956629349 0.41375529095192132 0 0.15667596252936969 0.42959758196447501 0 0.14957729652585841 0.39589620806035719 0 0.1442308956629349 0.41375529095192132 0 0.16787197595022921 0.41086599454143041 0 0.1442308956629349 0.41375529095192132 0 0.16787197595022921 0.41086599454143041 0 0.15667596252936969 0.42959758196447501 0 0.15667596252936969 0.42959758196447501 0 0.17702561211445489 0.4374788791718825 0 0.16201881396992601 0.44362712680903432 0 0.16787197595022921 0.41086599454143041 0 0.15667596252936969 0.42959758196447501 0 0.17702561211445489 0.4374788791718825 0 0.16787197595022921 0.41086599454143041 0 0.17702561211445489 0.4374788791718825 0 0.16787197595022921 0.41086599454143041 0 0.17702561211445489 0.4374788791718825 0 0.18779982885414129 0.41155485023799587 0 0.16787197595022921 0.41086599454143041 0 0.17200061370368641 0.38586487096730432 0 0.18779982885414129 0.41155485023799587 0 0.17200061370368641 0.38586487096730432 0 0.19265205143054029 0.39239901714787961 0 0.18779982885414129 0.41155485023799587 0 0.17200061370368641 0.38586487096730432 0 0.18779982885414129 0.41155485023799587 0 0.14957729652585841 0.39589620806035719 0 0.17200061370368641 0.38586487096730432 0 0.14957729652585841 0.39589620806035719 0 0.16787197595022921 0.41086599454143041 0 0.17200061370368641 0.38586487096730432 0 0.14957729652585841 0.39589620806035719 0 0.15793057205745439 0.38551881774788072 0 0.17200061370368641 0.38586487096730432 0 0.1797283498829936 0.37064154540234528 0 0.16318483229035291 0.37153015626109731 0 0.17200061370368641 0.38586487096730432 0 0.16318483229035291 0.37153015626109731 0 0.15793057205745439 0.38551881774788072 0 0.17200061370368641 0.38586487096730432 0 0.16318483229035291 0.37153015626109731 0 0.17200061370368641 0.38586487096730432 0 0.19746055756404471 0.37447506288458382 0 0.17200061370368641 0.38586487096730432 0 0.19746055756404471 0.37447506288458382 0 0.1797283498829936 0.37064154540234528 0 0.17200061370368641 0.38586487096730432 0 0.19746055756404471 0.37447506288458382 0 0.17200061370368641 0.38586487096730432 0 0.19265205143054029 0.39239901714787961 0 0.19746055756404471 0.37447506288458382 0 0.19265205143054029 0.39239901714787961 0 0.21334720560028861 0.39770128450163389 0 0.19265205143054029 0.39239901714787961 0 0.21334720560028861 0.39770128450163389 0 0.18779982885414129 0.41155485023799587 0 0.19746055756404471 0.37447506288458382 0 0.21334720560028861 0.39770128450163389 0 0.22369667915761041 0.3818806958198368 0 0.21334720560028861 0.39770128450163389 0 0.22369667915761041 0.3818806958198368 0 0.23752694330773191 0.39200860708686619 0 0.24180945494719519 0.3749879149833607 0 0.22369667915761041 0.3818806958198368 0 0.23752694330773191 0.39200860708686619 0 0.21334720560028861 0.39770128450163389 0 0.23752694330773191 0.39200860708686619 0 0.24077218760737221 0.41207058532074647 0 0.23752694330773191 0.39200860708686619 0 0.24077218760737221 0.41207058532074647 0 0.25625433189245461 0.39064396266652779 0 0.24180945494719519 0.3749879149833607 0 0.23752694330773191 0.39200860708686619 0 0.25625433189245461 0.39064396266652779 0 0.24077218760737221 0.41207058532074647 0 0.22905276343790049 0.42846603162322339 0 0.25230077371675003 0.4311272071513288 0 0.22905276343790049 0.42846603162322339 0 0.22818098747669741 0.4499181422553532 0 0.25230077371675003 0.4311272071513288 0 0.21334720560028861 0.39770128450163389 0 0.24077218760737221 0.41207058532074647 0 0.21361516570653319 0.41867861354326907 0 0.24077218760737221 0.41207058532074647 0 0.22905276343790049 0.42846603162322339 0 0.21361516570653319 0.41867861354326907 0 0.22905276343790049 0.42846603162322339 0 0.21361516570653319 0.41867861354326907 0 0.20827222018600969 0.44614317430114719 0 0.21361516570653319 0.41867861354326907 0 0.19792331387216799 0.42939806490939159 0 0.20827222018600969 0.44614317430114719 0 0.22905276343790049 0.42846603162322339 0 0.20827222018600969 0.44614317430114719 0 0.21334720560028861 0.39770128450163389 0 0.21361516570653319 0.41867861354326907 0 0.18779982885414129 0.41155485023799587 0 0.21361516570653319 0.41867861354326907 0 0.18779982885414129 0.41155485023799587 0 0.19792331387216799 0.42939806490939159 0 0.17702561211445489 0.4374788791718825 0 0.18779982885414129 0.41155485023799587 0 0.19792331387216799 0.42939806490939159 0 0.19792331387216799 0.42939806490939159 0 0.19153467588211179 0.44799748243937421 0 0.20827222018600969 0.44614317430114719 0 0.17702561211445489 0.4374788791718825 0 0.19792331387216799 0.42939806490939159 0 0.19153467588211179 0.44799748243937421 0 0.19153467588211179 0.44799748243937421 0 0.20827222018600969 0.44614317430114719 0 0.18749167693411881 0.46382031697907111 0 0.20827222018600969 0.44614317430114719 0 0.18749167693411881 0.46382031697907111 0 0.1978461580183922 0.46167872171198721 0 0.20827222018600969 0.44614317430114719 0 0.18749167693411881 0.46382031697907111 0 0.1978461580183922 0.46167872171198721 0 0.18749167693411881 0.46382031697907111 0 0.19156739406790849 0.46535491305320392 0 0.1978461580183922 0.46167872171198721 0 0.19452764519338611 0.47117513684447743 0 0.19156739406790849 0.46535491305320392 0 0.1978461580183922 0.46167872171198721 0 0.18749167693411881 0.46382031697907111 0 0.19156739406790849 0.46535491305320392 0 0.19452764519338611 0.47117513684447743 0 0.18749167693411881 0.46382031697907111 0 0.1978461580183922 0.46167872171198721 0 0.20715243772169961 0.47320962744789957 0 0.19452764519338611 0.47117513684447743 0 0.1978461580183922 0.46167872171198721 0 0.2136020855240455 0.45959326403932582 0 0.20827222018600969 0.44614317430114719 0 0.2136020855240455 0.45959326403932582 0 0.2265586242174287 0.46701665448024171 0 0.20715243772169961 0.47320962744789957 0 0.1978461580183922 0.46167872171198721 0 0.2136020855240455 0.45959326403932582 0 0.20715243772169961 0.47320962744789957 0 0.2136020855240455 0.45959326403932582 0 0.20827222018600969 0.44614317430114719 0 0.22818098747669741 0.4499181422553532 0 0.22905276343790049 0.42846603162322339 0 0.20827222018600969 0.44614317430114719 0 0.22818098747669741 0.4499181422553532 0 0.2136020855240455 0.45959326403932582 0 0.22818098747669741 0.4499181422553532 0 0.2265586242174287 0.46701665448024171 0 0.22818098747669741 0.4499181422553532 0 0.2265586242174287 0.46701665448024171 0 0.24962316275393831 0.45654939601360572 0 0.2265586242174287 0.46701665448024171 0 0.24962316275393831 0.45654939601360572 0 0.2396877307694569 0.48121030980447171 0 0.22818098747669741 0.4499181422553532 0 0.24962316275393831 0.45654939601360572 0 0.25230077371675003 0.4311272071513288 0 0.24222312959354339 0.500000000000004 0 0.2396877307694569 0.48121030980447171 0 0.25809216457171352 0.47832247182110588 0 0.24222312959354339 0.500000000000004 0 0.2396877307694569 0.48121030980447171 0 0.23078916720761311 0.49117417672611341 0 0.24962316275393831 0.45654939601360572 0 0.2396877307694569 0.48121030980447171 0 0.25809216457171352 0.47832247182110588 0 0.2265586242174287 0.46701665448024171 0 0.2396877307694569 0.48121030980447171 0 0.22086920987513919 0.4834863970999817 0 0.2396877307694569 0.48121030980447171 0 0.22086920987513919 0.4834863970999817 0 0.23078916720761311 0.49117417672611341 0 0.24222312959354339 0.500000000000004 0 0.22037659859231259 0.5 0 0.23078916720761311 0.49117417672611341 0 0.22086920987513919 0.4834863970999817 0 0.22037659859231259 0.5 0 0.23078916720761311 0.49117417672611341 0 0.22086920987513919 0.4834863970999817 0 0.22037659859231259 0.5 0 0.20787907912772849 0.48781375257730419 0 0.22037659859231259 0.5 0 0.20787907912772849 0.48781375257730419 0 0.19853006759108169 0.49999999999999922 0 0.2265586242174287 0.46701665448024171 0 0.22086920987513919 0.4834863970999817 0 0.20715243772169961 0.47320962744789957 0 0.22086920987513919 0.4834863970999817 0 0.20787907912772849 0.48781375257730419 0 0.20715243772169961 0.47320962744789957 0 0.19246708185840941 0.48237273833863958 0 0.19452764519338611 0.47117513684447743 0 0.18749167693411881 0.46382031697907111 0 0.19246708185840941 0.48237273833863958 0 0.18749167693411881 0.46382031697907111 0 0.20715243772169961 0.47320962744789957 0 0.19246708185840941 0.48237273833863958 0 0.19452764519338611 0.47117513684447743 0 0.20787907912772849 0.48781375257730419 0 0.20715243772169961 0.47320962744789957 0 0.19246708185840941 0.48237273833863958 0 0.19246708185840941 0.48237273833863958 0 0.19853006759108169 0.49999999999999922 0 0.18145925012160599 0.4895942375367997 0 0.19246708185840941 0.48237273833863958 0 0.19853006759108169 0.49999999999999922 0 0.20787907912772849 0.48781375257730419 0 0.19246708185840941 0.48237273833863958 0 0.19853006759108169 0.49999999999999922 0 0.18145925012160599 0.4895942375367997 0 0.1690700215675095 0.5 0 0.16650816179130151 0.48167011939124832 0 0.19853006759108169 0.49999999999999922 0 0.18145925012160599 0.4895942375367997 0 0.1690700215675095 0.5 0 0.1690700215675095 0.5 0 0.16650816179130151 0.48167011939124832 0 0.15264300424562691 0.48522082614963902 0 0.16202443414941561 0.46908765255769702 0 0.16650816179130151 0.48167011939124832 0 0.15264300424562691 0.48522082614963902 0 0.19246708185840941 0.48237273833863958 0 0.18159978862153739 0.48007705264911621 0 0.18749167693411881 0.46382031697907111 0 0.16650816179130151 0.48167011939124832 0 0.18749167693411881 0.46382031697907111 0 0.16650816179130151 0.48167011939124832 0 0.18159978862153739 0.48007705264911621 0 0.18749167693411881 0.46382031697907111 0 0.16202443414941561 0.46908765255769702 0 0.16650816179130151 0.48167011939124832 0 0.18749167693411881 0.46382031697907111 0 0.18145925012160599 0.4895942375367997 0 0.16650816179130151 0.48167011939124832 0 0.18159978862153739 0.48007705264911621 0 0.19246708185840941 0.48237273833863958 0 0.18145925012160599 0.4895942375367997 0 0.18159978862153739 0.48007705264911621 0 0.16202443414941561 0.46908765255769702 0 0.18749167693411881 0.46382031697907111 0 0.16941007709723441 0.45401041796508762 0 0.16202443414941561 0.46908765255769702 0 0.18749167693411881 0.46382031697907111 0 0.17702561211445489 0.4374788791718825 0 0.18749167693411881 0.46382031697907111 0 0.16941007709723441 0.45401041796508762 0 0.17702561211445489 0.4374788791718825 0 0.19153467588211179 0.44799748243937421 0 0.18749167693411881 0.46382031697907111 0 0.17702561211445489 0.4374788791718825 0 0.18749167693411881 0.46382031697907111 0 0.17702561211445489 0.4374788791718825 0 0.16201881396992601 0.44362712680903432 0 0.16941007709723441 0.45401041796508762 0 0.16201881396992601 0.44362712680903432 0 0.16941007709723441 0.45401041796508762 0 0.15761823241902709 0.45484129293287201 0 0.16202443414941561 0.46908765255769702 0 0.16941007709723441 0.45401041796508762 0 0.15761823241902709 0.45484129293287201 0 0.14824821182773901 0.46179392093353999 0 0.13585160938663471 0.45793078164503398 0 0.13786962002015171 0.47408354131305869 0 0.16202443414941561 0.46908765255769702 0 0.14824821182773901 0.46179392093353999 0 0.13786962002015171 0.47408354131305869 0 0.16202443414941561 0.46908765255769702 0 0.15761823241902709 0.45484129293287201 0 0.14824821182773901 0.46179392093353999 0 0.15761823241902709 0.45484129293287201 0 0.14824821182773901 0.46179392093353999 0 0.14560684593536649 0.4466031054485135 0 0.14824821182773901 0.46179392093353999 0 0.14560684593536649 0.4466031054485135 0 0.13585160938663471 0.45793078164503398 0 0.15667596252936969 0.42959758196447501 0 0.16201881396992601 0.44362712680903432 0 0.14560684593536649 0.4466031054485135 0 0.16201881396992601 0.44362712680903432 0 0.15761823241902709 0.45484129293287201 0 0.14560684593536649 0.4466031054485135 0 0.121166338416637 0.43936870645396331 0 0.13878088486941489 0.42853675956633303 0 0.14560684593536649 0.4466031054485135 0 0.121166338416637 0.43936870645396331 0 0.14560684593536649 0.4466031054485135 0 0.13585160938663471 0.45793078164503398 0 0.13585160938663471 0.45793078164503398 0 0.12636703073327921 0.46780463407609479 0 0.13786962002015171 0.47408354131305869 0 0.121166338416637 0.43936870645396331 0 0.13585160938663471 0.45793078164503398 0 0.12636703073327921 0.46780463407609479 0 0.1137148058908878 0.47907943006842041 0 0.13786962002015171 0.47408354131305869 0 0.1137148058908878 0.47907943006842041 0 0.12636703073327921 0.46780463407609479 0 0.13786962002015171 0.47408354131305869 0 0.1137148058908878 0.47907943006842041 0 0.13786962002015171 0.47408354131305869 0 0.1281034201982536 0.48775603022048519 0 0.13786962002015171 0.47408354131305869 0 0.1281034201982536 0.48775603022048519 0 0.13955650500199229 0.48676509942079571 0 0.11014992952036511 0.5 0 0.1281034201982536 0.48775603022048519 0 0.13960997554393731 0.5 0 0.1281034201982536 0.48775603022048519 0 0.13960997554393731 0.5 0 0.13955650500199229 0.48676509942079571 0 0.1690700215675095 0.5 0 0.13960997554393731 0.5 0 0.15264300424562691 0.48522082614963902 0 0.13960997554393731 0.5 0 0.13955650500199229 0.48676509942079571 0 0.15264300424562691 0.48522082614963902 0 0.16202443414941561 0.46908765255769702 0 0.13786962002015171 0.47408354131305869 0 0.15264300424562691 0.48522082614963902 0 0.16202443414941561 0.46908765255769702 0 0.13786962002015171 0.47408354131305869 0 0.13786962002015171 0.47408354131305869 0 0.13955650500199229 0.48676509942079571 0 0.15264300424562691 0.48522082614963902 0 0.35271097688702879 0.48230486046603938 0 0.35230433203474842 0.46486178592690941 0 0.33785309423634491 0.47469097164152529 0 0.35271097688702879 0.48230486046603938 0 0.37091575600049659 0.47763619783261702 0 0.35230433203474842 0.46486178592690941 0 0.35271097688702879 0.48230486046603938 0 0.35557358948077961 0.49593408373236542 0 0.34317569092931982 0.49014368680681403 0 0.35271097688702879 0.48230486046603938 0 0.34317569092931982 0.49014368680681403 0 0.33874154914757643 0.48564424661905869 0 0.34477763786857779 0.5 0 0.35557358948077961 0.49593408373236542 0 0.37339064948247219 0.5 0 0.35271097688702879 0.48230486046603938 0 0.35557358948077961 0.49593408373236542 0 0.36616771328199238 0.48776293827148998 0 0.36616771328199238 0.48776293827148998 0 0.37091575600049659 0.47763619783261702 0 0.38547053075966442 0.49517661105493832 0 0.35557358948077961 0.49593408373236542 0 0.38547053075966442 0.49517661105493832 0 0.35557358948077961 0.49593408373236542 0 0.36616771328199238 0.48776293827148998 0 0.38547053075966442 0.49517661105493832 0 0.35557358948077961 0.49593408373236542 0 0.37339064948247219 0.5 0 0.38547053075966442 0.49517661105493832 0 0.35271097688702879 0.48230486046603938 0 0.36616771328199238 0.48776293827148998 0 0.37091575600049659 0.47763619783261702 0 0.36762303603200369 0.46163583924240548 0 0.36223989911360999 0.44242722392605688 0 0.35230433203474842 0.46486178592690941 0 0.37091575600049659 0.47763619783261702 0 0.36762303603200369 0.46163583924240548 0 0.35230433203474842 0.46486178592690941 0 0.36762303603200369 0.46163583924240548 0 0.36223989911360999 0.44242722392605688 0 0.38503215697916021 0.46161814928403883 0 0.37091575600049659 0.47763619783261702 0 0.36762303603200369 0.46163583924240548 0 0.38503215697916021 0.46161814928403883 0 0.36223989911360999 0.44242722392605688 0 0.38503215697916021 0.46161814928403883 0 0.36223989911360999 0.44242722392605688 0 0.35230433203474842 0.46486178592690941 0 0.33570572632630652 0.44700475989206179 0 0.35230433203474842 0.46486178592690941 0 0.33799590792240108 0.46289939840228661 0 0.33785309423634491 0.47469097164152529 0 0.33799590792240108 0.46289939840228661 0 0.33570572632630652 0.44700475989206179 0 0.32593517629049468 0.47350237994602967 0 0.35230433203474842 0.46486178592690941 0 0.33799590792240108 0.46289939840228661 0 0.33570572632630652 0.44700475989206179 0 0.33570572632630652 0.44700475989206179 0 0.32593517629049468 0.47350237994602967 0 0.33570572632630652 0.44700475989206179 0 0.32361202981078202 0.45933192575838683 0 0.32593517629049468 0.47350237994602967 0 0.31765847419034993 0.44139521961585199 0 0.32361202981078202 0.45933192575838683 0 0.30099938090257589 0.45423680385254861 0 0.33570572632630652 0.44700475989206179 0 0.31765847419034993 0.44139521961585199 0 0.33079761039406902 0.43315691549394719 0 0.33570572632630652 0.44700475989206179 0 0.31765847419034993 0.44139521961585199 0 0.32361202981078202 0.45933192575838683 0 0.32361202981078202 0.45933192575838683 0 0.32593517629049468 0.47350237994602967 0 0.30101226365716482 0.47288795050559113 0 0.33799590792240108 0.46289939840228661 0 0.32593517629049468 0.47350237994602967 0 0.33785309423634491 0.47469097164152529 0 0.32593517629049468 0.47350237994602967 0 0.33785309423634491 0.47469097164152529 0 0.32876472532269291 0.48602266757532592 0 0.33785309423634491 0.47469097164152529 0 0.33874154914757643 0.48564424661905869 0 0.32876472532269291 0.48602266757532592 0 0.35271097688702879 0.48230486046603938 0 0.33785309423634491 0.47469097164152529 0 0.33874154914757643 0.48564424661905869 0 0.34477763786857779 0.5 0 0.35557358948077961 0.49593408373236542 0 0.32567664820189463 0.49669155640979229 0 0.35557358948077961 0.49593408373236542 0 0.34317569092931982 0.49014368680681403 0 0.32567664820189463 0.49669155640979229 0 0.34317569092931982 0.49014368680681403 0 0.33874154914757643 0.48564424661905869 0 0.32567664820189463 0.49669155640979229 0 0.35557358948077961 0.49593408373236542 0 0.32567664820189463 0.49669155640979229 0 0.34477763786857779 0.5 0 0.32567664820189463 0.49669155640979229 0 0.3161646262546835 0.49999999999999789 0 0.33874154914757643 0.48564424661905869 0 0.32876472532269291 0.48602266757532592 0 0.32567664820189463 0.49669155640979229 0 0.32876472532269291 0.48602266757532592 0 0.32567664820189463 0.49669155640979229 0 0.3161646262546835 0.49999999999999789 0 0.32593517629049468 0.47350237994602967 0 0.3161646262546835 0.49999999999999789 0 0.32593517629049468 0.47350237994602967 0 0.32876472532269291 0.48602266757532592 0 0.3161646262546835 0.49999999999999789 0 0.32593517629049468 0.47350237994602967 0 0.3161646262546835 0.49999999999999789 0 0.30978984853886049 0.4865975826129052 0 0.3161646262546835 0.49999999999999789 0 0.30978984853886049 0.4865975826129052 0 0.29604732795309913 0.5 0 0.30978984853886049 0.4865975826129052 0 0.30101226365716482 0.47288795050559113 0 0.29604732795309913 0.5 0 0.32593517629049468 0.47350237994602967 0 0.30978984853886049 0.4865975826129052 0 0.30101226365716482 0.47288795050559113 0 0.30101226365716482 0.47288795050559113 0 0.28412921277018532 0.47035805076931891 0 0.27841249750354757 0.48644397525279548 0 0.30101226365716482 0.47288795050559113 0 0.27841249750354757 0.48644397525279548 0 0.30101226365716482 0.47288795050559113 0 0.29604732795309913 0.5 0 0.27841249750354757 0.48644397525279548 0 0.29604732795309913 0.5 0 0.27841249750354757 0.48644397525279548 0 0.27593002965151481 0.5 0 0.27841249750354757 0.48644397525279548 0 0.27593002965151481 0.5 0 0.25581273134993038 0.5 0 0.27841249750354757 0.48644397525279548 0 0.25581273134993038 0.5 0 0.28412921277018532 0.47035805076931891 0 0.27841249750354757 0.48644397525279548 0 0.25809216457171352 0.47832247182110588 0 0.24222312959354339 0.500000000000004 0 0.25809216457171352 0.47832247182110588 0 0.24222312959354339 0.500000000000004 0 0.25809216457171352 0.47832247182110588 0 0.25581273134993038 0.5 0 0.27841249750354757 0.48644397525279548 0 0.25809216457171352 0.47832247182110588 0 0.25581273134993038 0.5 0 0.24962316275393831 0.45654939601360572 0 0.27396119954988157 0.45664494364220659 0 0.27119321370608862 0.43548482053414228 0 0.24962316275393831 0.45654939601360572 0 0.27119321370608862 0.43548482053414228 0 0.25230077371675003 0.4311272071513288 0 0.24962316275393831 0.45654939601360572 0 0.25809216457171352 0.47832247182110588 0 0.27396119954988157 0.45664494364220659 0 0.25809216457171352 0.47832247182110588 0 0.27396119954988157 0.45664494364220659 0 0.28412921277018532 0.47035805076931891 0 0.25809216457171352 0.47832247182110588 0 0.27396119954988157 0.45664494364220659 0 0.27396119954988157 0.45664494364220659 0 0.28983023452804962 0.43496741546330719 0 0.27119321370608862 0.43548482053414228 0 0.27396119954988157 0.45664494364220659 0 0.30099938090257589 0.45423680385254861 0 0.28983023452804962 0.43496741546330719 0 0.27396119954988157 0.45664494364220659 0 0.28983023452804962 0.43496741546330719 0 0.30101226365716482 0.47288795050559113 0 0.28412921277018532 0.47035805076931891 0 0.30099938090257589 0.45423680385254861 0 0.28412921277018532 0.47035805076931891 0 0.27396119954988157 0.45664494364220659 0 0.30099938090257589 0.45423680385254861 0 0.32361202981078202 0.45933192575838683 0 0.30101226365716482 0.47288795050559113 0 0.30099938090257589 0.45423680385254861 0 0.32361202981078202 0.45933192575838683 0 0.30101226365716482 0.47288795050559113 0 0.31765847419034993 0.44139521961585199 0 0.30099938090257589 0.45423680385254861 0 0.30390226945645549 0.44043715129083832 0 0.30099938090257589 0.45423680385254861 0 0.30390226945645549 0.44043715129083832 0 0.28983023452804962 0.43496741546330719 0 0.30942475083148918 0.42842862319679093 0 0.30569926950621779 0.4132898872844078 0 0.28983023452804962 0.43496741546330719 0 0.30390226945645549 0.44043715129083832 0 0.30942475083148918 0.42842862319679093 0 0.28983023452804962 0.43496741546330719 0 0.30569926950621779 0.4132898872844078 0 0.28983023452804962 0.43496741546330719 0 0.31765847419034993 0.44139521961585199 0 0.30390226945645549 0.44043715129083832 0 0.30942475083148918 0.42842862319679093 0 0.30942475083148918 0.42842862319679093 0 0.30569926950621779 0.4132898872844078 0 0.31441269196092281 0.41921077491787517 0 0.30569926950621779 0.4132898872844078 0 0.30197427249820868 0.40772745227865181 0 0.29130053886410417 0.41089629917584808 0 0.29130053886410417 0.41089629917584808 0 0.2717726559690839 0.41379341474140041 0 0.2873852406281826 0.39984419538177529 0 0.30569926950621779 0.4132898872844078 0 0.28967125571882818 0.41982654619300541 0 0.29130053886410417 0.41089629917584808 0 0.28967125571882818 0.41982654619300541 0 0.29130053886410417 0.41089629917584808 0 0.2717726559690839 0.41379341474140041 0 0.28967125571882818 0.41982654619300541 0 0.28983023452804962 0.43496741546330719 0 0.27119321370608862 0.43548482053414228 0 0.30569926950621779 0.4132898872844078 0 0.28967125571882818 0.41982654619300541 0 0.28983023452804962 0.43496741546330719 0 0.28967125571882818 0.41982654619300541 0 0.27119321370608862 0.43548482053414228 0 0.2717726559690839 0.41379341474140041 0 0.24077218760737221 0.41207058532074647 0 0.2717726559690839 0.41379341474140041 0 0.25230077371675003 0.4311272071513288 0 0.27119321370608862 0.43548482053414228 0 0.2717726559690839 0.41379341474140041 0 0.25230077371675003 0.4311272071513288 0 0.24180945494719519 0.3749879149833607 0 0.25625433189245461 0.39064396266652779 0 0.26169644257001301 0.37011061213300661 0 0.25625433189245461 0.39064396266652779 0 0.27694293176228052 0.38696227876366712 0 0.26169644257001301 0.37011061213300661 0 0.24077218760737221 0.41207058532074647 0 0.2717726559690839 0.41379341474140041 0 0.25625433189245461 0.39064396266652779 0 0.2717726559690839 0.41379341474140041 0 0.27694293176228052 0.38696227876366712 0 0.2873852406281826 0.39984419538177529 0 0.2717726559690839 0.41379341474140041 0 0.27694293176228052 0.38696227876366712 0 0.2717726559690839 0.41379341474140041 0 0.25625433189245461 0.39064396266652779 0 0.27694293176228052 0.38696227876366712 0 0.27694293176228052 0.38696227876366712 0 0.29204374002684308 0.38392929753229288 0 0.28211320755547731 0.36013114278593389 0 0.27694293176228052 0.38696227876366712 0 0.29204374002684308 0.38392929753229288 0 0.2873852406281826 0.39984419538177529 0 0.30197427249820868 0.40772745227865181 0 0.29204374002684308 0.38392929753229288 0 0.2873852406281826 0.39984419538177529 0 0.30197427249820868 0.40772745227865181 0 0.29130053886410417 0.41089629917584808 0 0.2873852406281826 0.39984419538177529 0 0.30197427249820868 0.40772745227865181 0 0.29204374002684308 0.38392929753229288 0 0.30564724361817419 0.3922237972619575 0 0.30197427249820868 0.40772745227865181 0 0.30564724361817419 0.3922237972619575 0 0.32156830448438589 0.39161235910550829 0 0.30569926950621779 0.4132898872844078 0 0.30197427249820868 0.40772745227865181 0 0.32156830448438589 0.39161235910550829 0 0.30197427249820868 0.40772745227865181 0 0.29204374002684308 0.38392929753229288 0 0.29204374002684308 0.38392929753229288 0 0.30343710729195089 0.37910216076348707 0 0.29634934726220852 0.36736167907320061 0 0.29204374002684308 0.38392929753229288 0 0.30564724361817419 0.3922237972619575 0 0.30343710729195089 0.37910216076348707 0 0.30564724361817419 0.3922237972619575 0 0.30343710729195089 0.37910216076348707 0 0.31324597254047748 0.38249723355011711 0 0.30343710729195089 0.37910216076348707 0 0.31324597254047748 0.38249723355011711 0 0.30989923301205119 0.36949879639986721 0 0.31324597254047748 0.38249723355011711 0 0.32434438759619388 0.37709613124353342 0 0.30989923301205119 0.36949879639986721 0 0.30564724361817419 0.3922237972619575 0 0.31324597254047748 0.38249723355011711 0 0.32156830448438589 0.39161235910550829 0 0.31324597254047748 0.38249723355011711 0 0.32434438759619388 0.37709613124353342 0 0.32156830448438589 0.39161235910550829 0 0.32434438759619388 0.37709613124353342 0 0.33659107873781718 0.38727320589569469 0 0.32156830448438589 0.39161235910550829 0 0.32434438759619388 0.37709613124353342 0 0.33659107873781718 0.38727320589569469 0 0.33911175018517908 0.37650240491778858 0 0.33659107873781718 0.38727320589569469 0 0.33911175018517908 0.37650240491778858 0 0.35102771392554932 0.38170913916634452 0 0.33659107873781718 0.38727320589569469 0 0.32824748983766561 0.40270968115686862 0 0.3552468263979297 0.39400951978412518 0 0.32824748983766561 0.40270968115686862 0 0.33377040201191521 0.41460111123431859 0 0.3552468263979297 0.39400951978412518 0 0.32824748983766561 0.40270968115686862 0 0.3552468263979297 0.39400951978412518 0 0.33659107873781718 0.38727320589569469 0 0.32824748983766561 0.40270968115686862 0 0.32156830448438589 0.39161235910550829 0 0.30569926950621779 0.4132898872844078 0 0.32156830448438589 0.39161235910550829 0 0.32824748983766561 0.40270968115686862 0 0.32156830448438589 0.39161235910550829 0 0.32043701727582358 0.41115058517751291 0 0.30569926950621779 0.4132898872844078 0 0.32156830448438589 0.39161235910550829 0 0.32043701727582358 0.41115058517751291 0 0.30569926950621779 0.4132898872844078 0 0.31441269196092281 0.41921077491787517 0 0.32043701727582358 0.41115058517751291 0 0.31441269196092281 0.41921077491787517 0 0.32043701727582358 0.41115058517751291 0 0.32434996469750138 0.42372054262978182 0 0.32043701727582358 0.41115058517751291 0 0.32434996469750138 0.42372054262978182 0 0.33377040201191521 0.41460111123431859 0 0.32824748983766561 0.40270968115686862 0 0.32043701727582358 0.41115058517751291 0 0.33377040201191521 0.41460111123431859 0 0.31765847419034993 0.44139521961585199 0 0.32434996469750138 0.42372054262978182 0 0.33079761039406902 0.43315691549394719 0 0.31765847419034993 0.44139521961585199 0 0.30942475083148918 0.42842862319679093 0 0.32434996469750138 0.42372054262978182 0 0.30942475083148918 0.42842862319679093 0 0.31441269196092281 0.41921077491787517 0 0.32434996469750138 0.42372054262978182 0 0.33570572632630652 0.44700475989206179 0 0.33079761039406902 0.43315691549394719 0 0.34547627636211842 0.42050713983809362 0 0.32434996469750138 0.42372054262978182 0 0.33079761039406902 0.43315691549394719 0 0.34547627636211842 0.42050713983809362 0 0.33570572632630652 0.44700475989206179 0 0.34547627636211842 0.42050713983809362 0 0.32434996469750138 0.42372054262978182 0 0.33377040201191521 0.41460111123431859 0 0.34547627636211842 0.42050713983809362 0 0.34547627636211842 0.42050713983809362 0 0.3657455207849058 0.41091941610724991 0 0.3552468263979297 0.39400951978412518 0 0.34547627636211842 0.42050713983809362 0 0.3552468263979297 0.39400951978412518 0 0.33377040201191521 0.41460111123431859 0 0.34547627636211842 0.42050713983809362 0 0.3552468263979297 0.39400951978412518 0 0.36223989911360999 0.44242722392605688 0 0.34547627636211842 0.42050713983809362 0 0.36816433033039481 0.42654085087515742 0 0.36223989911360999 0.44242722392605688 0 0.33570572632630652 0.44700475989206179 0 0.34547627636211842 0.42050713983809362 0 0.36223989911360999 0.44242722392605688 0 0.36816433033039481 0.42654085087515742 0 0.38396188338624559 0.43873570017091479 0 0.36816433033039481 0.42654085087515742 0 0.3657455207849058 0.41091941610724991 0 0.38339807200509429 0.42011477433347211 0 0.34547627636211842 0.42050713983809362 0 0.36816433033039481 0.42654085087515742 0 0.3657455207849058 0.41091941610724991 0 0.36882147658180792 0.39893453377511728 0 0.37216952185508317 0.38855641611209912 0 0.3552468263979297 0.39400951978412518 0 0.36882147658180792 0.39893453377511728 0 0.3785483165184248 0.39567948176041862 0 0.37667528548379192 0.40512250238271202 0 0.3657455207849058 0.41091941610724991 0 0.36882147658180792 0.39893453377511728 0 0.37667528548379192 0.40512250238271202 0 0.3657455207849058 0.41091941610724991 0 0.36882147658180792 0.39893453377511728 0 0.3552468263979297 0.39400951978412518 0 0.37216952185508317 0.38855641611209912 0 0.3552468263979297 0.39400951978412518 0 0.36882147658180792 0.39893453377511728 0 0.37216952185508317 0.38855641611209912 0 0.3785483165184248 0.39567948176041862 0 0.37216952185508317 0.38855641611209912 0 0.36222224008617082 0.37509227756615632 0 0.3552468263979297 0.39400951978412518 0 0.37216952185508317 0.38855641611209912 0 0.36222224008617082 0.37509227756615632 0 0.37755881091195598 0.37840136555359088 0 0.36222224008617082 0.37509227756615632 0 0.3552468263979297 0.39400951978412518 0 0.36222224008617082 0.37509227756615632 0 0.35102771392554932 0.38170913916634452 0 0.3552468263979297 0.39400951978412518 0 0.33659107873781718 0.38727320589569469 0 0.35102771392554932 0.38170913916634452 0 0.3552468263979297 0.39400951978412518 0 0.35612319387308999 0.34420468182452479 0 0.34829088013248483 0.36166850189294358 0 0.3419809163109262 0.34580777434105409 0 0.35612319387308999 0.34420468182452479 0 0.34829088013248483 0.36166850189294358 0 0.36919765377441122 0.35617503534818712 0 0.36222224008617082 0.37509227756615632 0 0.35102771392554932 0.38170913916634452 0 0.34829088013248483 0.36166850189294358 0 0.33911175018517908 0.37650240491778858 0 0.35102771392554932 0.38170913916634452 0 0.34829088013248483 0.36166850189294358 0 0.36222224008617082 0.37509227756615632 0 0.36919765377441122 0.35617503534818712 0 0.36222224008617082 0.37509227756615632 0 0.34829088013248483 0.36166850189294358 0 0.36919765377441122 0.35617503534818712 0 0.36222224008617082 0.37509227756615632 0 0.36919765377441122 0.35617503534818712 0 0.37725719999015778 0.36924348698376092 0 0.36222224008617082 0.37509227756615632 0 0.37725719999015778 0.36924348698376092 0 0.37755881091195598 0.37840136555359088 0 0.36919765377441122 0.35617503534818712 0 0.37290528769117631 0.33876772258390841 0 0.38086209281765432 0.34951658876513358 0 0.35612319387308999 0.34420468182452479 0 0.36919765377441122 0.35617503534818712 0 0.37290528769117631 0.33876772258390841 0 0.35612319387308999 0.34420468182452479 0 0.37290528769117631 0.33876772258390841 0 0.36198231298844269 0.33138320228426182 0 0.37290528769117631 0.33876772258390841 0 0.36198231298844269 0.33138320228426182 0 0.37691671019235179 0.32746744948729761 0 0.36583465805115062 0.32038824928758008 0 0.3633279747853721 0.3074041154114262 0 0.37565928645902957 0.31425742259396522 0 0.36583465805115062 0.32038824928758008 0 0.37691671019235179 0.32746744948729761 0 0.37565928645902957 0.31425742259396522 0 0.36198231298844269 0.33138320228426182 0 0.36583465805115062 0.32038824928758008 0 0.37691671019235179 0.32746744948729761 0 0.36198231298844269 0.33138320228426182 0 0.36583465805115062 0.32038824928758008 0 0.35423163277676673 0.31937555079490748 0 0.36583465805115062 0.32038824928758008 0 0.35423163277676673 0.31937555079490748 0 0.3633279747853721 0.3074041154114262 0 0.36198231298844269 0.33138320228426182 0 0.35423163277676673 0.31937555079490748 0 0.3453135167713679 0.33164146788931709 0 0.35423163277676673 0.31937555079490748 0 0.3453135167713679 0.33164146788931709 0 0.34192346140245877 0.32071220167765607 0 0.35423163277676673 0.31937555079490748 0 0.34192346140245877 0.32071220167765607 0 0.34803353083384392 0.30711445606651511 0 0.35612319387308999 0.34420468182452479 0 0.36198231298844269 0.33138320228426182 0 0.3453135167713679 0.33164146788931709 0 0.35612319387308999 0.34420468182452479 0 0.3453135167713679 0.33164146788931709 0 0.3419809163109262 0.34580777434105409 0 0.3453135167713679 0.33164146788931709 0 0.32955150468962779 0.33756284356712041 0 0.33213270424196539 0.32806653230345478 0 0.3453135167713679 0.33164146788931709 0 0.32955150468962779 0.33756284356712041 0 0.3419809163109262 0.34580777434105409 0 0.34192346140245877 0.32071220167765607 0 0.32771380633109509 0.31620472600777871 0 0.34803353083384392 0.30711445606651511 0 0.3453135167713679 0.33164146788931709 0 0.34192346140245877 0.32071220167765607 0 0.33213270424196539 0.32806653230345478 0 0.34192346140245877 0.32071220167765607 0 0.33213270424196539 0.32806653230345478 0 0.32771380633109509 0.31620472600777871 0 0.32771380633109509 0.31620472600777871 0 0.31796080750277977 0.33469241899676277 0 0.30739408182834621 0.32529499594904232 0 0.33213270424196539 0.32806653230345478 0 0.32771380633109509 0.31620472600777871 0 0.31796080750277977 0.33469241899676277 0 0.32771380633109509 0.31620472600777871 0 0.30739408182834621 0.32529499594904232 0 0.31111149672385369 0.30639212637153651 0 0.32771380633109509 0.31620472600777871 0 0.30739408182834621 0.32529499594904232 0 0.32955150468962779 0.33756284356712041 0 0.31796080750277977 0.33469241899676277 0 0.32027419830508652 0.34704361901778458 0 0.32955150468962779 0.33756284356712041 0 0.33213270424196539 0.32806653230345478 0 0.31796080750277977 0.33469241899676277 0 0.31796080750277977 0.33469241899676277 0 0.32027419830508652 0.34704361901778458 0 0.30676636993457279 0.35045824670818432 0 0.32955150468962779 0.33756284356712041 0 0.32027419830508652 0.34704361901778458 0 0.33062548608806042 0.35396137653136461 0 0.32027419830508652 0.34704361901778458 0 0.3198916333062698 0.36034291146540948 0 0.30676636993457279 0.35045824670818432 0 0.32027419830508652 0.34704361901778458 0 0.33062548608806042 0.35396137653136461 0 0.3198916333062698 0.36034291146540948 0 0.32955150468962779 0.33756284356712041 0 0.33062548608806042 0.35396137653136461 0 0.3419809163109262 0.34580777434105409 0 0.34829088013248483 0.36166850189294358 0 0.33062548608806042 0.35396137653136461 0 0.3419809163109262 0.34580777434105409 0 0.34829088013248483 0.36166850189294358 0 0.33062548608806042 0.35396137653136461 0 0.33163018682105849 0.36683882597287681 0 0.33911175018517908 0.37650240491778858 0 0.34829088013248483 0.36166850189294358 0 0.33163018682105849 0.36683882597287681 0 0.32434438759619388 0.37709613124353342 0 0.33911175018517908 0.37650240491778858 0 0.33163018682105849 0.36683882597287681 0 0.32434438759619388 0.37709613124353342 0 0.33163018682105849 0.36683882597287681 0 0.3198916333062698 0.36034291146540948 0 0.32434438759619388 0.37709613124353342 0 0.3198916333062698 0.36034291146540948 0 0.30989923301205119 0.36949879639986721 0 0.33062548608806042 0.35396137653136461 0 0.33163018682105849 0.36683882597287681 0 0.3198916333062698 0.36034291146540948 0 0.30989923301205119 0.36949879639986721 0 0.30676636993457279 0.35045824670818432 0 0.29634934726220852 0.36736167907320061 0 0.3198916333062698 0.36034291146540948 0 0.30989923301205119 0.36949879639986721 0 0.30676636993457279 0.35045824670818432 0 0.30343710729195089 0.37910216076348707 0 0.30989923301205119 0.36949879639986721 0 0.29634934726220852 0.36736167907320061 0 0.30676636993457279 0.35045824670818432 0 0.2948392538533241 0.35011046077631991 0 0.29634934726220852 0.36736167907320061 0 0.30676636993457279 0.35045824670818432 0 0.2948392538533241 0.35011046077631991 0 0.30189298718876478 0.33821596942397458 0 0.2948392538533241 0.35011046077631991 0 0.28211320755547731 0.36013114278593389 0 0.29634934726220852 0.36736167907320061 0 0.2948392538533241 0.35011046077631991 0 0.28211320755547731 0.36013114278593389 0 0.28707435732559788 0.33438526589030709 0 0.28211320755547731 0.36013114278593389 0 0.28707435732559788 0.33438526589030709 0 0.29204374002684308 0.38392929753229288 0 0.28211320755547731 0.36013114278593389 0 0.29634934726220852 0.36736167907320061 0 0.29204374002684308 0.38392929753229288 0 0.28211320755547731 0.36013114278593389 0 0.27694293176228052 0.38696227876366712 0 0.28211320755547731 0.36013114278593389 0 0.28211320755547731 0.36013114278593389 0 0.26650762113884219 0.35556071006862588 0 0.26169644257001301 0.37011061213300661 0 0.27694293176228052 0.38696227876366712 0 0.28211320755547731 0.36013114278593389 0 0.26169644257001301 0.37011061213300661 0 0.28211320755547731 0.36013114278593389 0 0.27384038914511871 0.34030563863642138 0 0.28707435732559788 0.33438526589030709 0 0.28211320755547731 0.36013114278593389 0 0.26650762113884219 0.35556071006862588 0 0.27384038914511871 0.34030563863642138 0 0.28211320755547731 0.36013114278593389 0 0.27384038914511871 0.34030563863642138 0 0.24838044528476061 0.3516954467191421 0 0.26650762113884219 0.35556071006862588 0 0.27384038914511871 0.34030563863642138 0 0.24838044528476061 0.3516954467191421 0 0.26650762113884219 0.35556071006862588 0 0.26169644257001301 0.37011061213300661 0 0.24838044528476061 0.3516954467191421 0 0.27384038914511871 0.34030563863642138 0 0.24180945494719519 0.3749879149833607 0 0.24838044528476061 0.3516954467191421 0 0.26169644257001301 0.37011061213300661 0 0.26724229349582751 0.32449354580593098 0 0.26064419784652482 0.30868145297544541 0 0.25317539566904917 0.32008887468604491 0 0.26724229349582751 0.32449354580593098 0 0.26064419784652482 0.30868145297544541 0 0.25317539566904917 0.32008887468604491 0 0.2563080644993469 0.33284227644458819 0 0.26724229349582751 0.32449354580593098 0 0.24838044528476061 0.3516954467191421 0 0.2563080644993469 0.33284227644458819 0 0.27384038914511871 0.34030563863642138 0 0.27384038914511871 0.34030563863642138 0 0.27801846144337328 0.32996832168254803 0 0.26724229349582751 0.32449354580593098 0 0.27384038914511871 0.34030563863642138 0 0.26724229349582751 0.32449354580593098 0 0.2563080644993469 0.33284227644458819 0 0.27384038914511871 0.34030563863642138 0 0.26724229349582751 0.32449354580593098 0 0.27384038914511871 0.34030563863642138 0 0.28707435732559788 0.33438526589030709 0 0.27384038914511871 0.34030563863642138 0 0.27801846144337328 0.32996832168254803 0 0.28707435732559788 0.33438526589030709 0 0.26724229349582751 0.32449354580593098 0 0.28107773089639537 0.31495178469354329 0 0.28225096305654429 0.32348951120155839 0 0.26724229349582751 0.32449354580593098 0 0.27047084353156398 0.31325734360924029 0 0.26064419784652482 0.30868145297544541 0 0.27801846144337328 0.32996832168254803 0 0.26724229349582751 0.32449354580593098 0 0.28225096305654429 0.32348951120155839 0 0.26724229349582751 0.32449354580593098 0 0.27047084353156398 0.31325734360924029 0 0.28107773089639537 0.31495178469354329 0 0.29089716011294497 0.32138677199439369 0 0.28808281511542461 0.32915187618947428 0 0.30739408182834621 0.32529499594904232 0 0.28107773089639537 0.31495178469354329 0 0.28225096305654429 0.32348951120155839 0 0.29089716011294497 0.32138677199439369 0 0.27801846144337328 0.32996832168254803 0 0.28225096305654429 0.32348951120155839 0 0.28808281511542461 0.32915187618947428 0 0.28225096305654429 0.32348951120155839 0 0.29089716011294497 0.32138677199439369 0 0.28808281511542461 0.32915187618947428 0 0.28107773089639537 0.31495178469354329 0 0.29089716011294497 0.32138677199439369 0 0.29568020966801439 0.31404569193835058 0 0.28707435732559788 0.33438526589030709 0 0.28808281511542461 0.32915187618947428 0 0.30739408182834621 0.32529499594904232 0 0.2948392538533241 0.35011046077631991 0 0.28707435732559788 0.33438526589030709 0 0.30189298718876478 0.33821596942397458 0 0.27801846144337328 0.32996832168254803 0 0.28707435732559788 0.33438526589030709 0 0.28808281511542461 0.32915187618947428 0 0.28707435732559788 0.33438526589030709 0 0.28808281511542461 0.32915187618947428 0 0.31796080750277977 0.33469241899676277 0 0.30189298718876478 0.33821596942397458 0 0.30739408182834621 0.32529499594904232 0 0.28707435732559788 0.33438526589030709 0 0.30739408182834621 0.32529499594904232 0 0.28707435732559788 0.33438526589030709 0 0.30189298718876478 0.33821596942397458 0 0.30739408182834621 0.32529499594904232 0 0.31796080750277977 0.33469241899676277 0 0.30676636993457279 0.35045824670818432 0 0.30189298718876478 0.33821596942397458 0 0.29568020966801439 0.31404569193835058 0 0.30739408182834621 0.32529499594904232 0 0.31111149672385369 0.30639212637153651 0 0.29089716011294497 0.32138677199439369 0 0.29568020966801439 0.31404569193835058 0 0.30739408182834621 0.32529499594904232 0 0.31111149672385369 0.30639212637153651 0 0.29802741619214601 0.30433587450945432 0 0.29788766872533817 0.29351054047760938 0 0.29568020966801439 0.31404569193835058 0 0.31111149672385369 0.30639212637153651 0 0.29802741619214601 0.30433587450945432 0 0.29788766872533817 0.29351054047760938 0 0.29760399444914643 0.28010810150280518 0 0.31593014853631718 0.28724125859508642 0 0.31111149672385369 0.30639212637153651 0 0.29788766872533817 0.29351054047760938 0 0.31593014853631718 0.28724125859508642 0 0.29788766872533817 0.29351054047760938 0 0.2883212971900741 0.28455359856832702 0 0.29760399444914643 0.28010810150280518 0 0.29788766872533817 0.29351054047760938 0 0.28755899455007278 0.29304195520883641 0 0.2883212971900741 0.28455359856832702 0 0.29788766872533817 0.29351054047760938 0 0.28755899455007278 0.29304195520883641 0 0.28724072756464403 0.30165599844441637 0 0.28755899455007278 0.29304195520883641 0 0.2883212971900741 0.28455359856832702 0 0.27678628472023498 0.29244768334499288 0 0.28755899455007278 0.29304195520883641 0 0.28724072756464403 0.30165599844441637 0 0.27678628472023498 0.29244768334499288 0 0.2883212971900741 0.28455359856832702 0 0.27678628472023498 0.29244768334499288 0 0.27949244433740528 0.27949215982489878 0 0.29568020966801439 0.31404569193835058 0 0.29802741619214601 0.30433587450945432 0 0.28724072756464403 0.30165599844441637 0 0.29802741619214601 0.30433587450945432 0 0.29788766872533817 0.29351054047760938 0 0.28724072756464403 0.30165599844441637 0 0.28107773089639537 0.31495178469354329 0 0.29568020966801439 0.31404569193835058 0 0.28724072756464403 0.30165599844441637 0 0.27047084353156398 0.31325734360924029 0 0.28107773089639537 0.31495178469354329 0 0.27370723639270228 0.30475040255052122 0 0.28107773089639537 0.31495178469354329 0 0.28724072756464403 0.30165599844441637 0 0.27370723639270228 0.30475040255052122 0 0.27047084353156398 0.31325734360924029 0 0.27370723639270228 0.30475040255052122 0 0.26064419784652482 0.30868145297544541 0 0.27370723639270228 0.30475040255052122 0 0.26632308830526868 0.29575546180550499 0 0.26064419784652482 0.30868145297544541 0 0.27370723639270228 0.30475040255052122 0 0.27678628472023498 0.29244768334499288 0 0.26632308830526868 0.29575546180550499 0 0.28724072756464403 0.30165599844441637 0 0.27370723639270228 0.30475040255052122 0 0.27678628472023498 0.29244768334499288 0 0.27678628472023498 0.29244768334499288 0 0.26693894774661459 0.28256947667579851 0 0.27949244433740528 0.27949215982489878 0 0.27678628472023498 0.29244768334499288 0 0.26693894774661459 0.28256947667579851 0 0.26632308830526868 0.29575546180550499 0 0.26693894774661459 0.28256947667579851 0 0.26632308830526868 0.29575546180550499 0 0.25353877482026682 0.29032829348076722 0 0.26693894774661459 0.28256947667579851 0 0.25353877482026682 0.29032829348076722 0 0.2554672429860757 0.27597957418305019 0 0.2455996001367679 0.27825309740810578 0 0.25353877482026682 0.29032829348076722 0 0.2554672429860757 0.27597957418305019 0 0.24323955600647629 0.30561586721846168 0 0.25353877482026682 0.29032829348076722 0 0.26064419784652482 0.30868145297544541 0 0.26632308830526868 0.29575546180550499 0 0.25353877482026682 0.29032829348076722 0 0.26064419784652482 0.30868145297544541 0 0.24323955600647629 0.30561586721846168 0 0.25317539566904917 0.32008887468604491 0 0.26064419784652482 0.30868145297544541 0 0.26541155308351377 0.26222563799874099 0 0.25562675326591239 0.25012877547937301 0 0.25562121580969399 0.26426437873454911 0 0.26541155308351377 0.26222563799874099 0 0.25562675326591239 0.25012877547937301 0 0.26790441657201608 0.25086920593660988 0 0.24792994275652569 0.25823351488638768 0 0.25562675326591239 0.25012877547937301 0 0.25562121580969399 0.26426437873454911 0 0.24626247697220441 0.26772712973248147 0 0.25562121580969399 0.26426437873454911 0 0.2554672429860757 0.27597957418305019 0 0.26693894774661459 0.28256947667579851 0 0.2554672429860757 0.27597957418305019 0 0.26337266058959308 0.27125261426421488 0 0.25562121580969399 0.26426437873454911 0 0.2554672429860757 0.27597957418305019 0 0.26337266058959308 0.27125261426421488 0 0.26541155308351377 0.26222563799874099 0 0.25562121580969399 0.26426437873454911 0 0.26337266058959308 0.27125261426421488 0 0.26541155308351377 0.26222563799874099 0 0.26337266058959308 0.27125261426421488 0 0.27342434332206711 0.27122400372893563 0 0.26693894774661459 0.28256947667579851 0 0.26337266058959308 0.27125261426421488 0 0.27342434332206711 0.27122400372893563 0 0.26693894774661459 0.28256947667579851 0 0.27342434332206711 0.27122400372893563 0 0.27949244433740528 0.27949215982489878 0 0.27342434332206711 0.27122400372893563 0 0.27949244433740528 0.27949215982489878 0 0.28265594304375691 0.27354839430552552 0 0.27342434332206711 0.27122400372893563 0 0.28265594304375691 0.27354839430552552 0 0.28157869167278288 0.26727504187767198 0 0.27342434332206711 0.27122400372893563 0 0.274432562214731 0.26179582214295299 0 0.28157869167278288 0.26727504187767198 0 0.28091281155739001 0.26187735503566167 0 0.274432562214731 0.26179582214295299 0 0.27895730928881718 0.25219701727381849 0 0.28091281155739001 0.26187735503566167 0 0.274432562214731 0.26179582214295299 0 0.28157869167278288 0.26727504187767198 0 0.26541155308351377 0.26222563799874099 0 0.27342434332206711 0.27122400372893563 0 0.274432562214731 0.26179582214295299 0 0.26541155308351377 0.26222563799874099 0 0.274432562214731 0.26179582214295299 0 0.26790441657201608 0.25086920593660988 0 0.274432562214731 0.26179582214295299 0 0.26790441657201608 0.25086920593660988 0 0.27895730928881718 0.25219701727381849 0 0.27895730928881718 0.25219701727381849 0 0.28878113242967951 0.26542207849190969 0 0.29708990842046162 0.2687032403720272 0 0.27895730928881718 0.25219701727381849 0 0.29708990842046162 0.2687032403720272 0 0.2874469836575938 0.24569131011249859 0 0.27895730928881718 0.25219701727381849 0 0.29708990842046162 0.2687032403720272 0 0.29708990842046162 0.2687032403720272 0 0.2874469836575938 0.24569131011249859 0 0.29708990842046162 0.2687032403720272 0 0.29872803302897022 0.25816082809889779 0 0.2874469836575938 0.24569131011249859 0 0.30378465987332082 0.25052434204464691 0 0.29872803302897022 0.25816082809889779 0 0.2874469836575938 0.24569131011249859 0 0.28091281155739001 0.26187735503566167 0 0.28878113242967951 0.26542207849190969 0 0.28157869167278288 0.26727504187767198 0 0.28091281155739001 0.26187735503566167 0 0.27895730928881718 0.25219701727381849 0 0.28878113242967951 0.26542207849190969 0 0.27949244433740528 0.27949215982489878 0 0.28265594304375691 0.27354839430552552 0 0.28822275619409782 0.27600259207115407 0 0.2883212971900741 0.28455359856832702 0 0.27949244433740528 0.27949215982489878 0 0.28822275619409782 0.27600259207115407 0 0.28822275619409782 0.27600259207115407 0 0.28680372333812049 0.27052305455958969 0 0.29140562321124691 0.27120243062124127 0 0.28265594304375691 0.27354839430552552 0 0.28822275619409782 0.27600259207115407 0 0.28680372333812049 0.27052305455958969 0 0.28265594304375691 0.27354839430552552 0 0.28680372333812049 0.27052305455958969 0 0.28157869167278288 0.26727504187767198 0 0.28878113242967951 0.26542207849190969 0 0.28680372333812049 0.27052305455958969 0 0.29140562321124691 0.27120243062124127 0 0.28878113242967951 0.26542207849190969 0 0.28680372333812049 0.27052305455958969 0 0.28157869167278288 0.26727504187767198 0 0.28878113242967951 0.26542207849190969 0 0.29140562321124691 0.27120243062124127 0 0.29708990842046162 0.2687032403720272 0 0.29140562321124691 0.27120243062124127 0 0.29328515915856368 0.27533126303195182 0 0.29708990842046162 0.2687032403720272 0 0.2883212971900741 0.28455359856832702 0 0.29185830174797051 0.2789988887935595 0 0.29760399444914643 0.28010810150280518 0 0.29328515915856368 0.27533126303195182 0 0.29760399444914643 0.28010810150280518 0 0.29708990842046162 0.2687032403720272 0 0.2883212971900741 0.28455359856832702 0 0.28822275619409782 0.27600259207115407 0 0.29185830174797051 0.2789988887935595 0 0.28822275619409782 0.27600259207115407 0 0.29328515915856368 0.27533126303195182 0 0.29185830174797051 0.2789988887935595 0 0.28822275619409782 0.27600259207115407 0 0.29140562321124691 0.27120243062124127 0 0.29328515915856368 0.27533126303195182 0 0.29328515915856368 0.27533126303195182 0 0.29185830174797051 0.2789988887935595 0 0.29760399444914643 0.28010810150280518 0 0.29708990842046162 0.2687032403720272 0 0.30899228609014662 0.2698815455116651 0 0.31593014853631718 0.28724125859508642 0 0.29708990842046162 0.2687032403720272 0 0.31593014853631718 0.28724125859508642 0 0.29760399444914643 0.28010810150280518 0 0.29708990842046162 0.2687032403720272 0 0.31593014853631718 0.28724125859508642 0 0.29708990842046162 0.2687032403720272 0 0.30899228609014662 0.2698815455116651 0 0.2999047725357557 0.26550701343580663 0 0.30378465987332082 0.25052434204464691 0 0.29872803302897022 0.25816082809889779 0 0.30668141960079348 0.2602696078524892 0 0.29872803302897022 0.25816082809889779 0 0.2999047725357557 0.26550701343580663 0 0.30668141960079348 0.2602696078524892 0 0.29708990842046162 0.2687032403720272 0 0.29872803302897022 0.25816082809889779 0 0.2999047725357557 0.26550701343580663 0 0.30668141960079348 0.2602696078524892 0 0.31641615293184278 0.25424500962241209 0 0.31412874096100102 0.26320518591395842 0 0.30899228609014662 0.2698815455116651 0 0.2999047725357557 0.26550701343580663 0 0.30668141960079348 0.2602696078524892 0 0.30899228609014662 0.2698815455116651 0 0.30668141960079348 0.2602696078524892 0 0.31412874096100102 0.26320518591395842 0 0.30378465987332082 0.25052434204464691 0 0.30668141960079348 0.2602696078524892 0 0.31641615293184278 0.25424500962241209 0 0.31641615293184278 0.25424500962241209 0 0.31412874096100102 0.26320518591395842 0 0.325614138214118 0.26118112814536742 0 0.31641615293184278 0.25424500962241209 0 0.325614138214118 0.26118112814536742 0 0.33188621015895542 0.24739286881936881 0 0.325614138214118 0.26118112814536742 0 0.34365390121996647 0.25890189437814398 0 0.33188621015895542 0.24739286881936881 0 0.325614138214118 0.26118112814536742 0 0.34365390121996647 0.25890189437814398 0 0.33547804518388991 0.27061266432816589 0 0.34324343357133769 0.27946628688282882 0 0.33547804518388991 0.27061266432816589 0 0.33245433404496399 0.28462876125297659 0 0.34324343357133769 0.27946628688282882 0 0.33547804518388991 0.27061266432816589 0 0.35054763259579952 0.27042033938895133 0 0.34365390121996647 0.25890189437814398 0 0.33547804518388991 0.27061266432816589 0 0.35054763259579952 0.27042033938895133 0 0.33547804518388991 0.27061266432816589 0 0.32113248493751922 0.27323844266117708 0 0.33245433404496399 0.28462876125297659 0 0.30899228609014662 0.2698815455116651 0 0.32113248493751922 0.27323844266117708 0 0.31593014853631718 0.28724125859508642 0 0.325614138214118 0.26118112814536742 0 0.33547804518388991 0.27061266432816589 0 0.32113248493751922 0.27323844266117708 0 0.31412874096100102 0.26320518591395842 0 0.325614138214118 0.26118112814536742 0 0.32113248493751922 0.27323844266117708 0 0.30899228609014662 0.2698815455116651 0 0.31412874096100102 0.26320518591395842 0 0.32113248493751922 0.27323844266117708 0 0.32113248493751922 0.27323844266117708 0 0.31593014853631718 0.28724125859508642 0 0.33245433404496399 0.28462876125297659 0 0.31593014853631718 0.28724125859508642 0 0.33441656816006721 0.30476337925572028 0 0.33245433404496399 0.28462876125297659 0 0.31593014853631718 0.28724125859508642 0 0.33441656816006721 0.30476337925572028 0 0.31593014853631718 0.28724125859508642 0 0.32308510443563632 0.30580902655224368 0 0.33441656816006721 0.30476337925572028 0 0.32771380633109509 0.31620472600777871 0 0.31111149672385369 0.30639212637153651 0 0.32308510443563632 0.30580902655224368 0 0.31111149672385369 0.30639212637153651 0 0.31593014853631718 0.28724125859508642 0 0.32308510443563632 0.30580902655224368 0 0.32771380633109509 0.31620472600777871 0 0.34803353083384392 0.30711445606651511 0 0.32771380633109509 0.31620472600777871 0 0.33441656816006721 0.30476337925572028 0 0.34803353083384392 0.30711445606651511 0 0.32771380633109509 0.31620472600777871 0 0.32308510443563632 0.30580902655224368 0 0.33441656816006721 0.30476337925572028 0 0.33441656816006721 0.30476337925572028 0 0.34452532388065288 0.29245053579488139 0 0.34803353083384392 0.30711445606651511 0 0.33441656816006721 0.30476337925572028 0 0.33245433404496399 0.28462876125297659 0 0.34452532388065288 0.29245053579488139 0 0.34324343357133769 0.27946628688282882 0 0.33245433404496399 0.28462876125297659 0 0.34452532388065288 0.29245053579488139 0 0.34324343357133769 0.27946628688282882 0 0.34452532388065288 0.29245053579488139 0 0.35713192647108671 0.28377094921747742 0 0.34452532388065288 0.29245053579488139 0 0.35653728816105951 0.29552724540997832 0 0.35713192647108671 0.28377094921747742 0 0.34452532388065288 0.29245053579488139 0 0.35653728816105951 0.29552724540997832 0 0.34803353083384392 0.30711445606651511 0 0.35653728816105951 0.29552724540997832 0 0.34803353083384392 0.30711445606651511 0 0.3633279747853721 0.3074041154114262 0 0.35423163277676673 0.31937555079490748 0 0.34803353083384392 0.30711445606651511 0 0.3633279747853721 0.3074041154114262 0 0.35653728816105951 0.29552724540997832 0 0.3633279747853721 0.3074041154114262 0 0.36802684773826372 0.2938712440116959 0 0.3633279747853721 0.3074041154114262 0 0.37401118895011359 0.30331944274209199 0 0.36802684773826372 0.2938712440116959 0 0.37401118895011359 0.30331944274209199 0 0.36802684773826372 0.2938712440116959 0 0.38064555108012821 0.29467299981722528 0 0.3633279747853721 0.3074041154114262 0 0.37401118895011359 0.30331944274209199 0 0.37565928645902957 0.31425742259396522 0 0.35713192647108671 0.28377094921747742 0 0.36802684773826372 0.2938712440116959 0 0.37411840374919331 0.28223004793387207 0 0.35653728816105951 0.29552724540997832 0 0.35713192647108671 0.28377094921747742 0 0.36802684773826372 0.2938712440116959 0 0.36802684773826372 0.2938712440116959 0 0.37411840374919331 0.28223004793387207 0 0.38064555108012821 0.29467299981722528 0 0.35713192647108671 0.28377094921747742 0 0.37411840374919331 0.28223004793387207 0 0.36292455560130049 0.27243094510013449 0 0.37411840374919331 0.28223004793387207 0 0.36292455560130049 0.27243094510013449 0 0.37282908696961459 0.26913978172830511 0 0.36292455560130049 0.27243094510013449 0 0.37282908696961459 0.26913978172830511 0 0.36149504179621889 0.25929401175910433 0 0.36149504179621889 0.25929401175910433 0 0.37728098021804812 0.25673691851632408 0 0.36774152093137391 0.2453274693210358 0 0.37282908696961459 0.26913978172830511 0 0.36149504179621889 0.25929401175910433 0 0.37728098021804812 0.25673691851632408 0 0.34365390121996647 0.25890189437814398 0 0.36149504179621889 0.25929401175910433 0 0.35232017727377429 0.2431264211294224 0 0.34365390121996647 0.25890189437814398 0 0.36149504179621889 0.25929401175910433 0 0.35054763259579952 0.27042033938895133 0 0.34324343357133769 0.27946628688282882 0 0.35713192647108671 0.28377094921747742 0 0.35054763259579952 0.27042033938895133 0 0.35713192647108671 0.28377094921747742 0 0.36292455560130049 0.27243094510013449 0 0.35054763259579952 0.27042033938895133 0 0.36292455560130049 0.27243094510013449 0 0.36149504179621889 0.25929401175910433 0 0.35054763259579952 0.27042033938895133 0 0.40505434768336118 0.27844313338243448 0 0.40429882179155269 0.26254446277793347 0 0.38609264068281007 0.27028987403124438 0 0.40505434768336118 0.27844313338243448 0 0.38609264068281007 0.27028987403124438 0 0.39028022647625621 0.28521119473595119 0 0.40429882179155269 0.26254446277793347 0 0.39180911311579358 0.25330853568770378 0 0.40869693152792502 0.24735339784321941 0 0.40429882179155269 0.26254446277793347 0 0.39180911311579358 0.25330853568770378 0 0.38609264068281007 0.27028987403124438 0 0.39180911311579358 0.25330853568770378 0 0.37728098021804812 0.25673691851632408 0 0.38609264068281007 0.27028987403124438 0 0.37282908696961459 0.26913978172830511 0 0.37728098021804812 0.25673691851632408 0 0.38609264068281007 0.27028987403124438 0 0.37411840374919331 0.28223004793387207 0 0.38609264068281007 0.27028987403124438 0 0.39028022647625621 0.28521119473595119 0 0.37411840374919331 0.28223004793387207 0 0.37282908696961459 0.26913978172830511 0 0.38609264068281007 0.27028987403124438 0 0.37411840374919331 0.28223004793387207 0 0.38064555108012821 0.29467299981722528 0 0.39028022647625621 0.28521119473595119 0 0.38064555108012821 0.29467299981722528 0 0.39028022647625621 0.28521119473595119 0 0.39218134716139541 0.29836513803128689 0 0.38399285011320011 0.30576702358584901 0 0.38809044731186282 0.3171009584554848 0 0.37565928645902957 0.31425742259396522 0 0.37401118895011359 0.30331944274209199 0 0.38399285011320011 0.30576702358584901 0 0.37565928645902957 0.31425742259396522 0 0.37401118895011359 0.30331944274209199 0 0.38064555108012821 0.29467299981722528 0 0.38399285011320011 0.30576702358584901 0 0.38399285011320011 0.30576702358584901 0 0.39318676032641209 0.30787231722078118 0 0.39218134716139541 0.29836513803128689 0 0.38064555108012821 0.29467299981722528 0 0.38399285011320011 0.30576702358584901 0 0.39218134716139541 0.29836513803128689 0 0.38399285011320011 0.30576702358584901 0 0.39318676032641209 0.30787231722078118 0 0.38809044731186282 0.3171009584554848 0 0.39318676032641209 0.30787231722078118 0 0.39218134716139541 0.29836513803128689 0 0.40174126284499162 0.30474644215455832 0 0.39218134716139541 0.29836513803128689 0 0.40174126284499162 0.30474644215455832 0 0.40455776964980811 0.29314250765579991 0 0.40174126284499162 0.30474644215455832 0 0.40455776964980811 0.29314250765579991 0 0.41075939760010138 0.30322362627646549 0 0.39318676032641209 0.30787231722078118 0 0.40174126284499162 0.30474644215455832 0 0.40044448973434571 0.31393540013226973 0 0.40174126284499162 0.30474644215455832 0 0.40907125946963557 0.31164538128083941 0 0.40044448973434571 0.31393540013226973 0 0.39028022647625621 0.28521119473595119 0 0.39218134716139541 0.29836513803128689 0 0.40455776964980811 0.29314250765579991 0 0.40505434768336118 0.27844313338243448 0 0.39028022647625621 0.28521119473595119 0 0.40455776964980811 0.29314250765579991 0 0.40505434768336118 0.27844313338243448 0 0.40455776964980811 0.29314250765579991 0 0.41354335393465641 0.28813546279007618 0 0.40505434768336118 0.27844313338243448 0 0.41354335393465641 0.28813546279007618 0 0.41923856297935941 0.27978596847853532 0 0.40455776964980811 0.29314250765579991 0 0.41354335393465641 0.28813546279007618 0 0.41817057514913258 0.29623164880910541 0 0.41354335393465641 0.28813546279007618 0 0.41817057514913258 0.29623164880910541 0 0.42704143955371349 0.28741196778365452 0 0.41354335393465641 0.28813546279007618 0 0.42704143955371349 0.28741196778365452 0 0.41923856297935941 0.27978596847853532 0 0.40174126284499162 0.30474644215455832 0 0.40907125946963557 0.31164538128083941 0 0.41075939760010138 0.30322362627646549 0 0.40907125946963557 0.31164538128083941 0 0.41075939760010138 0.30322362627646549 0 0.42009863547391718 0.30864561275758018 0 0.40455776964980811 0.29314250765579991 0 0.41817057514913258 0.29623164880910541 0 0.41075939760010138 0.30322362627646549 0 0.41817057514913258 0.29623164880910541 0 0.41075939760010138 0.30322362627646549 0 0.42009863547391718 0.30864561275758018 0 0.41817057514913258 0.29623164880910541 0 0.42009863547391718 0.30864561275758018 0 0.42711965199171348 0.29832820739044591 0 0.42009863547391718 0.30864561275758018 0 0.43122726065592448 0.30564143938518079 0 0.4280256524876227 0.31368965428011769 0 0.42009863547391718 0.30864561275758018 0 0.42711965199171348 0.29832820739044591 0 0.43122726065592448 0.30564143938518079 0 0.43122726065592448 0.30564143938518079 0 0.43909626930211498 0.29301032799730248 0 0.43958483052170921 0.30662401402078449 0 0.42711965199171348 0.29832820739044591 0 0.43122726065592448 0.30564143938518079 0 0.43909626930211498 0.29301032799730248 0 0.43122726065592448 0.30564143938518079 0 0.43958483052170921 0.30662401402078449 0 0.4280256524876227 0.31368965428011769 0 0.41817057514913258 0.29623164880910541 0 0.42711965199171348 0.29832820739044591 0 0.42704143955371349 0.28741196778365452 0 0.42711965199171348 0.29832820739044591 0 0.42704143955371349 0.28741196778365452 0 0.43909626930211498 0.29301032799730248 0 0.42704143955371349 0.28741196778365452 0 0.44026772545950321 0.28068274930552201 0 0.43909626930211498 0.29301032799730248 0 0.43019017619590222 0.27269156672683698 0 0.41757840374301519 0.26863846209333597 0 0.42906412197389571 0.2570425244516783 0 0.43019017619590222 0.27269156672683698 0 0.44026772545950321 0.28068274930552201 0 0.44143811236868669 0.2711289585915076 0 0.42704143955371349 0.28741196778365452 0 0.43019017619590222 0.27269156672683698 0 0.44026772545950321 0.28068274930552201 0 0.43019017619590222 0.27269156672683698 0 0.44046981233967419 0.2599885006655055 0 0.44143811236868669 0.2711289585915076 0 0.42704143955371349 0.28741196778365452 0 0.43019017619590222 0.27269156672683698 0 0.41923856297935941 0.27978596847853532 0 0.43019017619590222 0.27269156672683698 0 0.41923856297935941 0.27978596847853532 0 0.41757840374301519 0.26863846209333597 0 0.40505434768336118 0.27844313338243448 0 0.40429882179155269 0.26254446277793347 0 0.41757840374301519 0.26863846209333597 0 0.40505434768336118 0.27844313338243448 0 0.41923856297935941 0.27978596847853532 0 0.41757840374301519 0.26863846209333597 0 0.40429882179155269 0.26254446277793347 0 0.41660256780910371 0.25681781563404321 0 0.40869693152792502 0.24735339784321941 0 0.40429882179155269 0.26254446277793347 0 0.41757840374301519 0.26863846209333597 0 0.41660256780910371 0.25681781563404321 0 0.41757840374301519 0.26863846209333597 0 0.41660256780910371 0.25681781563404321 0 0.42906412197389571 0.2570425244516783 0 0.43019017619590222 0.27269156672683698 0 0.42906412197389571 0.2570425244516783 0 0.44046981233967419 0.2599885006655055 0 0.41660256780910371 0.25681781563404321 0 0.42906412197389571 0.2570425244516783 0 0.4239581367398656 0.24260598300228189 0 0.42906412197389571 0.2570425244516783 0 0.44046981233967419 0.2599885006655055 0 0.43842801881241139 0.2479000485257995 0 0.44046981233967419 0.2599885006655055 0 0.44987052808673089 0.25251401573437487 0 0.43842801881241139 0.2479000485257995 0 0.44046981233967419 0.2599885006655055 0 0.45191683885416611 0.26291132388715588 0 0.44143811236868669 0.2711289585915076 0 0.44046981233967419 0.2599885006655055 0 0.45191683885416611 0.26291132388715588 0 0.44987052808673089 0.25251401573437487 0 0.44026772545950321 0.28068274930552201 0 0.44143811236868669 0.2711289585915076 0 0.45095844902354859 0.27365908420490997 0 0.45191683885416611 0.26291132388715588 0 0.44143811236868669 0.2711289585915076 0 0.45095844902354859 0.27365908420490997 0 0.44026772545950321 0.28068274930552201 0 0.45095844902354859 0.27365908420490997 0 0.45288190631305331 0.28619459052892021 0 0.45095844902354859 0.27365908420490997 0 0.4661789821043974 0.26576516703705572 0 0.45288190631305331 0.28619459052892021 0 0.4661789821043974 0.26576516703705572 0 0.46534663764408413 0.27712904808865862 0 0.45288190631305331 0.28619459052892021 0 0.4661789821043974 0.26576516703705572 0 0.45288190631305331 0.28619459052892021 0 0.45191683885416611 0.26291132388715588 0 0.45095844902354859 0.27365908420490997 0 0.4661789821043974 0.26576516703705572 0 0.45191683885416611 0.26291132388715588 0 0.44987052808673089 0.25251401573437487 0 0.46017501133033217 0.25663887026730248 0 0.44987052808673089 0.25251401573437487 0 0.46017501133033217 0.25663887026730248 0 0.45807897969436961 0.2452435564163632 0 0.45191683885416611 0.26291132388715588 0 0.4661789821043974 0.26576516703705572 0 0.46017501133033217 0.25663887026730248 0 0.4661789821043974 0.26576516703705572 0 0.46017501133033217 0.25663887026730248 0 0.47074335819047369 0.25387354887021418 0 0.46017501133033217 0.25663887026730248 0 0.47074335819047369 0.25387354887021418 0 0.45807897969436961 0.2452435564163632 0 0.4661789821043974 0.26576516703705572 0 0.47074335819047369 0.25387354887021418 0 0.47510569497335381 0.2726027804452682 0 0.482774124539739 0.25445996538433652 0 0.47510569497335381 0.2726027804452682 0 0.4862493083703453 0.26702885477264637 0 0.482774124539739 0.25445996538433652 0 0.47074335819047369 0.25387354887021418 0 0.47510569497335381 0.2726027804452682 0 0.47074335819047369 0.25387354887021418 0 0.47510569497335381 0.2726027804452682 0 0.4661789821043974 0.26576516703705572 0 0.46534663764408413 0.27712904808865862 0 0.47510569497335381 0.2726027804452682 0 0.47510569497335381 0.2726027804452682 0 0.48814692455143521 0.2772380782849046 0 0.47964772112783771 0.29020193188487969 0 0.46534663764408413 0.27712904808865862 0 0.47510569497335381 0.2726027804452682 0 0.4672199671855321 0.28395365434339043 0 0.47510569497335381 0.2726027804452682 0 0.4862493083703453 0.26702885477264637 0 0.48814692455143521 0.2772380782849046 0 0.4862493083703453 0.26702885477264637 0 0.48814692455143521 0.2772380782849046 0 0.5 0.2658165198324185 0 0.48814692455143521 0.2772380782849046 0 0.5 0.2658165198324185 0 0.5 0.29106163908731603 0 0.482774124539739 0.25445996538433652 0 0.5 0.2658165198324185 0 0.5 0.24057140057752111 0 0.482774124539739 0.25445996538433652 0 0.4862493083703453 0.26702885477264637 0 0.5 0.2658165198324185 0 0.48769805362954438 0.30453789280453081 0 0.5 0.29106163908731603 0 0.50000000000000056 0.31630675834221372 0 0.48769805362954438 0.30453789280453081 0 0.5 0.29106163908731603 0 0.47964772112783771 0.29020193188487969 0 0.48814692455143521 0.2772380782849046 0 0.5 0.29106163908731603 0 0.47964772112783771 0.29020193188487969 0 0.47964772112783771 0.29020193188487969 0 0.4672199671855321 0.28395365434339043 0 0.46189085481272801 0.29627320948292352 0 0.47510569497335381 0.2726027804452682 0 0.47964772112783771 0.29020193188487969 0 0.4672199671855321 0.28395365434339043 0 0.47964772112783771 0.29020193188487969 0 0.47434631344667572 0.30653625555232922 0 0.46189085481272801 0.29627320948292352 0 0.48769805362954438 0.30453789280453081 0 0.47964772112783771 0.29020193188487969 0 0.47434631344667572 0.30653625555232922 0 0.48769805362954438 0.30453789280453081 0 0.47434631344667572 0.30653625555232922 0 0.48449623357320848 0.3185828791559156 0 0.46189085481272801 0.29627320948292352 0 0.44694155354870369 0.31410389165584057 0 0.4613371393603336 0.31221423269666998 0 0.46189085481272801 0.29627320948292352 0 0.44694155354870369 0.31410389165584057 0 0.47434631344667572 0.30653625555232922 0 0.4613371393603336 0.31221423269666998 0 0.46189085481272801 0.29627320948292352 0 0.46534663764408413 0.27712904808865862 0 0.4672199671855321 0.28395365434339043 0 0.45288190631305331 0.28619459052892021 0 0.4672199671855321 0.28395365434339043 0 0.46189085481272801 0.29627320948292352 0 0.45288190631305331 0.28619459052892021 0 0.45288190631305331 0.28619459052892021 0 0.43958483052170921 0.30662401402078449 0 0.46189085481272801 0.29627320948292352 0 0.45288190631305331 0.28619459052892021 0 0.43958483052170921 0.30662401402078449 0 0.45288190631305331 0.28619459052892021 0 0.43909626930211498 0.29301032799730248 0 0.43958483052170921 0.30662401402078449 0 0.44026772545950321 0.28068274930552201 0 0.45288190631305331 0.28619459052892021 0 0.43909626930211498 0.29301032799730248 0 0.46189085481272801 0.29627320948292352 0 0.43958483052170921 0.30662401402078449 0 0.44694155354870369 0.31410389165584057 0 0.43958483052170921 0.30662401402078449 0 0.43842523313737791 0.3156677616452504 0 0.44694155354870369 0.31410389165584057 0 0.44694155354870369 0.31410389165584057 0 0.43199225228467941 0.33193457382875791 0 0.44694155354870369 0.31410389165584057 0 0.43199225228467941 0.33193457382875791 0 0.4363424614041147 0.32145395685028388 0 0.43842523313737791 0.3156677616452504 0 0.44694155354870369 0.31410389165584057 0 0.4363424614041147 0.32145395685028388 0 0.44424654773347799 0.32702650232448571 0 0.44694155354870369 0.31410389165584057 0 0.43199225228467941 0.33193457382875791 0 0.44424654773347799 0.32702650232448571 0 0.44694155354870369 0.31410389165584057 0 0.45521230565067478 0.32498165709205812 0 0.43899295237006442 0.33994527227326038 0 0.44115675382612018 0.33392398603310558 0 0.44939526291625898 0.33678959570591832 0 0.43899295237006442 0.33994527227326038 0 0.44939526291625898 0.33678959570591832 0 0.44555762860321108 0.34784486144249549 0 0.44424654773347799 0.32702650232448571 0 0.44115675382612018 0.33392398603310558 0 0.44939526291625898 0.33678959570591832 0 0.44424654773347799 0.32702650232448571 0 0.44115675382612018 0.33392398603310558 0 0.43199225228467941 0.33193457382875791 0 0.44424654773347799 0.32702650232448571 0 0.44939526291625898 0.33678959570591832 0 0.45521230565067478 0.32498165709205812 0 0.46022487808998508 0.33515421771398751 0 0.4678382567873568 0.32149154149858711 0 0.47020839939675291 0.3441795941971606 0 0.44939526291625898 0.33678959570591832 0 0.46022487808998508 0.33515421771398751 0 0.45847016569888233 0.34832870007621342 0 0.44939526291625898 0.33678959570591832 0 0.46022487808998508 0.33515421771398751 0 0.45521230565067478 0.32498165709205812 0 0.46022487808998508 0.33515421771398751 0 0.47020839939675291 0.3441795941971606 0 0.45847016569888233 0.34832870007621342 0 0.4613371393603336 0.31221423269666998 0 0.44694155354870369 0.31410389165584057 0 0.45521230565067478 0.32498165709205812 0 0.46022487808998508 0.33515421771398751 0 0.45521230565067478 0.32498165709205812 0 0.4678382567873568 0.32149154149858711 0 0.47434631344667572 0.30653625555232922 0 0.4613371393603336 0.31221423269666998 0 0.4678382567873568 0.32149154149858711 0 0.4613371393603336 0.31221423269666998 0 0.45521230565067478 0.32498165709205812 0 0.4678382567873568 0.32149154149858711 0 0.47434631344667572 0.30653625555232922 0 0.4678382567873568 0.32149154149858711 0 0.48449623357320848 0.3185828791559156 0 0.4678382567873568 0.32149154149858711 0 0.47920731764749119 0.33177168158581022 0 0.48449623357320848 0.3185828791559156 0 0.4678382567873568 0.32149154149858711 0 0.47020839939675291 0.3441795941971606 0 0.4678382567873568 0.32149154149858711 0 0.47920731764749119 0.33177168158581022 0 0.47020839939675291 0.3441795941971606 0 0.48138495316917179 0.34150948205233111 0 0.47920731764749119 0.33177168158581022 0 0.4916495615385158 0.34072307209291181 0 0.48138495316917179 0.34150948205233111 0 0.47920731764749119 0.33177168158581022 0 0.47020839939675291 0.3441795941971606 0 0.4916495615385158 0.34072307209291181 0 0.50000000000000056 0.31630675834221372 0 0.4916495615385158 0.34072307209291181 0 0.5 0.34067094886386268 0 0.50000000000000056 0.31630675834221372 0 0.47920731764749119 0.33177168158581022 0 0.4916495615385158 0.34072307209291181 0 0.48449623357320848 0.3185828791559156 0 0.4916495615385158 0.34072307209291181 0 0.50000000000000056 0.31630675834221372 0 0.48449623357320848 0.3185828791559156 0 0.48769805362954438 0.30453789280453081 0 0.50000000000000056 0.31630675834221372 0 0.48449623357320848 0.3185828791559156 0 0.49168602917299142 0.37092958556897843 0 0.48329912307703049 0.36513938584360972 0 0.4874553127405763 0.38145658581353648 0 0.49168602917299142 0.37092958556897843 0 0.49282851732825528 0.35588150826118348 0 0.48329912307703049 0.36513938584360972 0 0.49168602917299142 0.37092958556897843 0 0.5 0.36503513938551191 0 0.49282851732825528 0.35588150826118348 0 0.4916495615385158 0.34072307209291181 0 0.48329912307703049 0.36513938584360972 0 0.4916495615385158 0.34072307209291181 0 0.47990452838172798 0.3516437155931148 0 0.48329912307703049 0.36513938584360972 0 0.5 0.34067094886386268 0 0.5 0.36503513938551191 0 0.49282851732825528 0.35588150826118348 0 0.4916495615385158 0.34072307209291181 0 0.49282851732825528 0.35588150826118348 0 0.48329912307703049 0.36513938584360972 0 0.4916495615385158 0.34072307209291181 0 0.5 0.34067094886386268 0 0.49282851732825528 0.35588150826118348 0 0.47990452838172798 0.3516437155931148 0 0.47020839939675291 0.3441795941971606 0 0.47257854200614902 0.36686764689573409 0 0.47020839939675291 0.3441795941971606 0 0.47257854200614902 0.36686764689573409 0 0.47020839939675291 0.3441795941971606 0 0.47257854200614902 0.36686764689573409 0 0.46412668338650981 0.35941946279078751 0 0.48138495316917179 0.34150948205233111 0 0.4916495615385158 0.34072307209291181 0 0.47990452838172798 0.3516437155931148 0 0.48138495316917179 0.34150948205233111 0 0.47990452838172798 0.3516437155931148 0 0.47020839939675291 0.3441795941971606 0 0.47257854200614902 0.36686764689573409 0 0.48329912307703049 0.36513938584360972 0 0.47494868461554518 0.38955569959430758 0 0.47990452838172798 0.3516437155931148 0 0.47257854200614902 0.36686764689573409 0 0.48329912307703049 0.36513938584360972 0 0.47257854200614902 0.36686764689573409 0 0.46216076402841549 0.37115871168327841 0 0.46649497154322389 0.37884740355983892 0 0.46412668338650981 0.35941946279078751 0 0.44344900550988342 0.36214495458538909 0 0.47257854200614902 0.36686764689573409 0 0.46216076402841549 0.37115871168327841 0 0.46412668338650981 0.35941946279078751 0 0.46216076402841549 0.37115871168327841 0 0.46412668338650981 0.35941946279078751 0 0.45112444374188981 0.37077907155926898 0 0.46216076402841549 0.37115871168327841 0 0.45112444374188981 0.37077907155926898 0 0.45722475457963979 0.37954461557888941 0 0.46412668338650981 0.35941946279078751 0 0.45847016569888233 0.34832870007621342 0 0.44344900550988342 0.36214495458538909 0 0.47020839939675291 0.3441795941971606 0 0.46412668338650981 0.35941946279078751 0 0.45847016569888233 0.34832870007621342 0 0.44939526291625898 0.33678959570591832 0 0.45847016569888233 0.34832870007621342 0 0.44555762860321108 0.34784486144249549 0 0.45847016569888233 0.34832870007621342 0 0.44555762860321108 0.34784486144249549 0 0.44344900550988342 0.36214495458538909 0 0.44555762860321108 0.34784486144249549 0 0.44344900550988342 0.36214495458538909 0 0.43539605246831792 0.34880616994411567 0 0.43899295237006442 0.33994527227326038 0 0.44555762860321108 0.34784486144249549 0 0.43539605246831792 0.34880616994411567 0 0.45112444374188981 0.37077907155926898 0 0.44344900550988342 0.36214495458538909 0 0.43544286350706979 0.37222653095649783 0 0.45112444374188981 0.37077907155926898 0 0.43544286350706979 0.37222653095649783 0 0.44434259143982002 0.38018015376077208 0 0.46412668338650981 0.35941946279078751 0 0.45112444374188981 0.37077907155926898 0 0.44344900550988342 0.36214495458538909 0 0.44344900550988342 0.36214495458538909 0 0.42277132763325709 0.36487044637999072 0 0.44344900550988342 0.36214495458538909 0 0.42277132763325709 0.36487044637999072 0 0.42673008073404101 0.35466374831738018 0 0.44344900550988342 0.36214495458538909 0 0.43544286350706979 0.37222653095649783 0 0.42277132763325709 0.36487044637999072 0 0.43544286350706979 0.37222653095649783 0 0.42341888272665601 0.37204202106993062 0 0.42507124445267558 0.38001765092928108 0 0.43544286350706979 0.37222653095649783 0 0.42277132763325709 0.36487044637999072 0 0.42341888272665601 0.37204202106993062 0 0.42341888272665601 0.37204202106993062 0 0.40625555001944652 0.3775726667550019 0 0.42277132763325709 0.36487044637999072 0 0.41802177216780728 0.35803284338028141 0 0.40209364975663081 0.36759593817459241 0 0.42341888272665601 0.37204202106993062 0 0.41363485253399762 0.37052026809487892 0 0.40625555001944652 0.3775726667550019 0 0.42277132763325709 0.36487044637999072 0 0.41363485253399762 0.37052026809487892 0 0.40209364975663081 0.36759593817459241 0 0.42277132763325709 0.36487044637999072 0 0.40209364975663081 0.36759593817459241 0 0.42277132763325709 0.36487044637999072 0 0.42341888272665601 0.37204202106993062 0 0.41363485253399762 0.37052026809487892 0 0.41363485253399762 0.37052026809487892 0 0.40209364975663081 0.36759593817459241 0 0.40625555001944652 0.3775726667550019 0 0.41299067893902092 0.34748286100451331 0 0.41704295102065497 0.34976525600167507 0 0.40209364975663081 0.36759593817459241 0 0.41299067893902092 0.34748286100451331 0 0.39969360314767738 0.36791228449637797 0 0.41704295102065497 0.34976525600167507 0 0.40209364975663081 0.36759593817459241 0 0.41802177216780728 0.35803284338028141 0 0.41704295102065497 0.34976525600167507 0 0.40209364975663081 0.36759593817459241 0 0.41299067893902092 0.34748286100451331 0 0.40168906913103042 0.35437969016847731 0 0.40468569673617522 0.3467439086493152 0 0.41299067893902092 0.34748286100451331 0 0.40716136179348872 0.3414165503356964 0 0.40468569673617522 0.3467439086493152 0 0.41802177216780728 0.35803284338028141 0 0.42078788909052223 0.35328150619457371 0 0.42673008073404101 0.35466374831738018 0 0.41802177216780728 0.35803284338028141 0 0.42078788909052223 0.35328150619457371 0 0.41704295102065497 0.34976525600167507 0 0.42078788909052223 0.35328150619457371 0 0.41704295102065497 0.34976525600167507 0 0.42217830228847902 0.35042843424443842 0 0.41704295102065497 0.34976525600167507 0 0.42516757657899829 0.34625221399822748 0 0.42217830228847902 0.35042843424443842 0 0.42516757657899829 0.34625221399822748 0 0.42217830228847902 0.35042843424443842 0 0.42673008073404101 0.35466374831738018 0 0.42516757657899829 0.34625221399822748 0 0.42673008073404101 0.35466374831738018 0 0.43539605246831792 0.34880616994411567 0 0.44344900550988342 0.36214495458538909 0 0.42673008073404101 0.35466374831738018 0 0.43539605246831792 0.34880616994411567 0 0.42277132763325709 0.36487044637999072 0 0.41802177216780728 0.35803284338028141 0 0.42673008073404101 0.35466374831738018 0 0.42078788909052223 0.35328150619457371 0 0.42217830228847902 0.35042843424443842 0 0.42673008073404101 0.35466374831738018 0 0.42516757657899829 0.34625221399822748 0 0.43539605246831792 0.34880616994411567 0 0.43288720842551498 0.34173455751109039 0 0.43899295237006442 0.33994527227326038 0 0.43288720842551498 0.34173455751109039 0 0.43199225228467941 0.33193457382875791 0 0.43899295237006442 0.33994527227326038 0 0.43539605246831792 0.34880616994411567 0 0.43288720842551498 0.34173455751109039 0 0.42516757657899829 0.34625221399822748 0 0.43288720842551498 0.34173455751109039 0 0.43199225228467941 0.33193457382875791 0 0.41704295102065497 0.34976525600167507 0 0.43199225228467941 0.33193457382875791 0 0.41704295102065497 0.34976525600167507 0 0.42516757657899829 0.34625221399822748 0 0.43199225228467941 0.33193457382875791 0 0.41704295102065497 0.34976525600167507 0 0.43199225228467941 0.33193457382875791 0 0.42628775473036501 0.32705343751264893 0 0.43899295237006442 0.33994527227326038 0 0.44115675382612018 0.33392398603310558 0 0.43199225228467941 0.33193457382875791 0 0.43958483052170921 0.30662401402078449 0 0.42628775473036501 0.32705343751264893 0 0.43958483052170921 0.30662401402078449 0 0.42628775473036501 0.32705343751264893 0 0.4280256524876227 0.31368965428011769 0 0.43958483052170921 0.30662401402078449 0 0.43842523313737791 0.3156677616452504 0 0.42628775473036501 0.32705343751264893 0 0.43842523313737791 0.3156677616452504 0 0.4363424614041147 0.32145395685028388 0 0.42628775473036501 0.32705343751264893 0 0.43199225228467941 0.33193457382875791 0 0.4363424614041147 0.32145395685028388 0 0.42628775473036501 0.32705343751264893 0 0.42628775473036501 0.32705343751264893 0 0.4280256524876227 0.31368965428011769 0 0.42167993245785568 0.31900797727543789 0 0.42009863547391718 0.30864561275758018 0 0.4280256524876227 0.31368965428011769 0 0.42167993245785568 0.31900797727543789 0 0.42009863547391718 0.30864561275758018 0 0.42167993245785568 0.31900797727543789 0 0.41451854149883149 0.31866928171840142 0 0.40907125946963557 0.31164538128083941 0 0.42009863547391718 0.30864561275758018 0 0.41451854149883149 0.31866928171840142 0 0.42628775473036501 0.32705343751264893 0 0.42167993245785568 0.31900797727543789 0 0.41689754054938849 0.32543039964934051 0 0.42167993245785568 0.31900797727543789 0 0.41451854149883149 0.31866928171840142 0 0.41689754054938849 0.32543039964934051 0 0.41451854149883149 0.31866928171840142 0 0.41689754054938849 0.32543039964934051 0 0.41106546365752289 0.32438823992891702 0 0.41451854149883149 0.31866928171840142 0 0.41106546365752289 0.32438823992891702 0 0.40627350215782232 0.31994564705398348 0 0.41689754054938849 0.32543039964934051 0 0.41106546365752289 0.32438823992891702 0 0.41085564385273948 0.33028694396322678 0 0.41106546365752289 0.32438823992891702 0 0.41085564385273948 0.33028694396322678 0 0.40508961402798149 0.32772815932975102 0 0.41106546365752289 0.32438823992891702 0 0.40627350215782232 0.31994564705398348 0 0.40508961402798149 0.32772815932975102 0 0.40907125946963557 0.31164538128083941 0 0.41451854149883149 0.31866928171840142 0 0.40627350215782232 0.31994564705398348 0 0.41299067893902092 0.34748286100451331 0 0.42628775473036501 0.32705343751264893 0 0.41556338615683769 0.33353226643644962 0 0.41299067893902092 0.34748286100451331 0 0.42628775473036501 0.32705343751264893 0 0.41299067893902092 0.34748286100451331 0 0.41704295102065497 0.34976525600167507 0 0.42628775473036501 0.32705343751264893 0 0.41689754054938849 0.32543039964934051 0 0.41556338615683769 0.33353226643644962 0 0.41085564385273948 0.33028694396322678 0 0.42628775473036501 0.32705343751264893 0 0.41689754054938849 0.32543039964934051 0 0.41556338615683769 0.33353226643644962 0 0.41556338615683769 0.33353226643644962 0 0.41085564385273948 0.33028694396322678 0 0.41078531271267499 0.33740769005251869 0 0.41085564385273948 0.33028694396322678 0 0.40568211390413977 0.33495107668254981 0 0.40508961402798149 0.32772815932975102 0 0.41085564385273948 0.33028694396322678 0 0.41078531271267499 0.33740769005251869 0 0.40568211390413977 0.33495107668254981 0 0.41299067893902092 0.34748286100451331 0 0.41078531271267499 0.33740769005251869 0 0.40716136179348872 0.3414165503356964 0 0.41078531271267499 0.33740769005251869 0 0.40716136179348872 0.3414165503356964 0 0.40568211390413977 0.33495107668254981 0 0.41299067893902092 0.34748286100451331 0 0.41556338615683769 0.33353226643644962 0 0.41078531271267499 0.33740769005251869 0 0.40176785974156071 0.34076285435298298 0 0.40568211390413977 0.33495107668254981 0 0.39868453865510112 0.33274179581327729 0 0.40716136179348872 0.3414165503356964 0 0.40176785974156071 0.34076285435298298 0 0.40468569673617522 0.3467439086493152 0 0.40716136179348872 0.3414165503356964 0 0.40176785974156071 0.34076285435298298 0 0.40568211390413977 0.33495107668254981 0 0.40568211390413977 0.33495107668254981 0 0.39868453865510112 0.33274179581327729 0 0.40508961402798149 0.32772815932975102 0 0.39868453865510112 0.33274179581327729 0 0.39359978783854221 0.33972092956705718 0 0.38980820913795727 0.32961923863264547 0 0.39868453865510112 0.33274179581327729 0 0.39708597007613811 0.32302152950064272 0 0.38980820913795727 0.32961923863264547 0 0.40176785974156071 0.34076285435298298 0 0.39868453865510112 0.33274179581327729 0 0.39359978783854221 0.33972092956705718 0 0.40176785974156071 0.34076285435298298 0 0.39359978783854221 0.33972092956705718 0 0.39742491766379451 0.34801751822658372 0 0.40627350215782232 0.31994564705398348 0 0.40044448973434571 0.31393540013226973 0 0.39708597007613811 0.32302152950064272 0 0.40907125946963557 0.31164538128083941 0 0.40627350215782232 0.31994564705398348 0 0.40044448973434571 0.31393540013226973 0 0.40627350215782232 0.31994564705398348 0 0.40508961402798149 0.32772815932975102 0 0.39708597007613811 0.32302152950064272 0 0.39868453865510112 0.33274179581327729 0 0.40508961402798149 0.32772815932975102 0 0.39708597007613811 0.32302152950064272 0 0.39708597007613811 0.32302152950064272 0 0.38809044731186282 0.3171009584554848 0 0.38980820913795727 0.32961923863264547 0 0.39318676032641209 0.30787231722078118 0 0.40044448973434571 0.31393540013226973 0 0.38809044731186282 0.3171009584554848 0 0.40044448973434571 0.31393540013226973 0 0.39708597007613811 0.32302152950064272 0 0.38809044731186282 0.3171009584554848 0 0.38809044731186282 0.3171009584554848 0 0.37691671019235179 0.32746744948729761 0 0.38980820913795727 0.32961923863264547 0 0.38809044731186282 0.3171009584554848 0 0.37691671019235179 0.32746744948729761 0 0.37565928645902957 0.31425742259396522 0 0.39359978783854221 0.33972092956705718 0 0.38389966351240412 0.33928258170586661 0 0.39008619682225232 0.3475386211977543 0 0.39359978783854221 0.33972092956705718 0 0.38389966351240412 0.33928258170586661 0 0.38980820913795727 0.32961923863264547 0 0.37691671019235179 0.32746744948729761 0 0.38389966351240412 0.33928258170586661 0 0.38980820913795727 0.32961923863264547 0 0.37290528769117631 0.33876772258390841 0 0.37691671019235179 0.32746744948729761 0 0.38389966351240412 0.33928258170586661 0 0.37290528769117631 0.33876772258390841 0 0.38389966351240412 0.33928258170586661 0 0.38086209281765432 0.34951658876513358 0 0.38389966351240412 0.33928258170586661 0 0.38086209281765432 0.34951658876513358 0 0.39008619682225232 0.3475386211977543 0 0.38086209281765432 0.34951658876513358 0 0.39008619682225232 0.3475386211977543 0 0.39121850713221451 0.35679293506470311 0 0.38086209281765432 0.34951658876513358 0 0.3815674127373474 0.36008859273852728 0 0.39121850713221451 0.35679293506470311 0 0.36919765377441122 0.35617503534818712 0 0.38086209281765432 0.34951658876513358 0 0.3815674127373474 0.36008859273852728 0 0.36919765377441122 0.35617503534818712 0 0.3815674127373474 0.36008859273852728 0 0.37725719999015778 0.36924348698376092 0 0.3815674127373474 0.36008859273852728 0 0.37725719999015778 0.36924348698376092 0 0.38777375165189448 0.3694834211413382 0 0.37725719999015778 0.36924348698376092 0 0.38522333077916698 0.37622022955476542 0 0.37755881091195598 0.37840136555359088 0 0.37725719999015778 0.36924348698376092 0 0.38777375165189448 0.3694834211413382 0 0.38522333077916698 0.37622022955476542 0 0.3815674127373474 0.36008859273852728 0 0.38777375165189448 0.3694834211413382 0 0.39121850713221451 0.35679293506470311 0 0.39969360314767738 0.36791228449637797 0 0.40168906913103042 0.35437969016847731 0 0.39121850713221451 0.35679293506470311 0 0.38777375165189448 0.3694834211413382 0 0.39969360314767738 0.36791228449637797 0 0.39121850713221451 0.35679293506470311 0 0.41299067893902092 0.34748286100451331 0 0.39969360314767738 0.36791228449637797 0 0.40209364975663081 0.36759593817459241 0 0.38777375165189448 0.3694834211413382 0 0.39969360314767738 0.36791228449637797 0 0.38777375165189448 0.3694834211413382 0 0.39969360314767738 0.36791228449637797 0 0.3922838571281666 0.37929650473961951 0 0.39969360314767738 0.36791228449637797 0 0.3922838571281666 0.37929650473961951 0 0.39969360314767738 0.36791228449637797 0 0.40209364975663081 0.36759593817459241 0 0.3922838571281666 0.37929650473961951 0 0.40209364975663081 0.36759593817459241 0 0.3922838571281666 0.37929650473961951 0 0.40209364975663081 0.36759593817459241 0 0.3922838571281666 0.37929650473961951 0 0.40625555001944652 0.3775726667550019 0 0.39969360314767738 0.36791228449637797 0 0.40209364975663081 0.36759593817459241 0 0.41299067893902092 0.34748286100451331 0 0.39969360314767738 0.36791228449637797 0 0.40168906913103042 0.35437969016847731 0 0.40176785974156071 0.34076285435298298 0 0.40468569673617522 0.3467439086493152 0 0.39742491766379451 0.34801751822658372 0 0.40168906913103042 0.35437969016847731 0 0.40468569673617522 0.3467439086493152 0 0.39742491766379451 0.34801751822658372 0 0.39359978783854221 0.33972092956705718 0 0.39008619682225232 0.3475386211977543 0 0.39742491766379451 0.34801751822658372 0 0.39008619682225232 0.3475386211977543 0 0.39742491766379451 0.34801751822658372 0 0.39121850713221451 0.35679293506470311 0 0.40168906913103042 0.35437969016847731 0 0.39742491766379451 0.34801751822658372 0 0.39121850713221451 0.35679293506470311 0 0.39331067205170511 0.39766867645672649 0 0.39688942499170921 0.41397463517331828 0 0.40430138635449397 0.40656283349013228 0 0.39331067205170511 0.39766867645672649 0 0.40001294726881348 0.38759683949086909 0 0.39286536074275141 0.38951894227195238 0 0.39331067205170511 0.39766867645672649 0 0.39286536074275141 0.38951894227195238 0 0.38790119075723001 0.39296519158951942 0 0.39331067205170511 0.39766867645672649 0 0.40382359771511378 0.39664641672082313 0 0.40430138635449397 0.40656283349013228 0 0.40382359771511378 0.39664641672082313 0 0.40001294726881348 0.38759683949086909 0 0.41035739917162312 0.39095875710764783 0 0.39331067205170511 0.39766867645672649 0 0.40382359771511378 0.39664641672082313 0 0.40001294726881348 0.38759683949086909 0 0.40001294726881348 0.38759683949086909 0 0.41035739917162312 0.39095875710764783 0 0.40625555001944652 0.3775726667550019 0 0.38909221731223692 0.38310331244007301 0 0.40625555001944652 0.3775726667550019 0 0.40001294726881348 0.38759683949086909 0 0.38909221731223692 0.38310331244007301 0 0.40625555001944652 0.3775726667550019 0 0.39085410680952321 0.38149315122081018 0 0.38909221731223692 0.38310331244007301 0 0.40625555001944652 0.3775726667550019 0 0.39085410680952321 0.38149315122081018 0 0.3922838571281666 0.37929650473961951 0 0.40625555001944652 0.3775726667550019 0 0.3922838571281666 0.37929650473961951 0 0.38909221731223692 0.38310331244007301 0 0.39085410680952321 0.38149315122081018 0 0.3922838571281666 0.37929650473961951 0 0.38909221731223692 0.38310331244007301 0 0.39085410680952321 0.38149315122081018 0 0.3922838571281666 0.37929650473961951 0 0.40001294726881348 0.38759683949086909 0 0.39286536074275141 0.38951894227195238 0 0.38909221731223692 0.38310331244007301 0 0.38909221731223692 0.38310331244007301 0 0.3785483165184248 0.39567948176041862 0 0.37216952185508317 0.38855641611209912 0 0.38909221731223692 0.38310331244007301 0 0.38909221731223692 0.38310331244007301 0 0.3785483165184248 0.39567948176041862 0 0.38790119075723001 0.39296519158951942 0 0.37216952185508317 0.38855641611209912 0 0.38909221731223692 0.38310331244007301 0 0.3785483165184248 0.39567948176041862 0 0.37216952185508317 0.38855641611209912 0 0.38909221731223692 0.38310331244007301 0 0.37755881091195598 0.37840136555359088 0 0.39286536074275141 0.38951894227195238 0 0.38909221731223692 0.38310331244007301 0 0.38790119075723001 0.39296519158951942 0 0.38909221731223692 0.38310331244007301 0 0.38522333077916698 0.37622022955476542 0 0.37755881091195598 0.37840136555359088 0 0.38777375165189448 0.3694834211413382 0 0.3922838571281666 0.37929650473961951 0 0.38522333077916698 0.37622022955476542 0 0.3922838571281666 0.37929650473961951 0 0.38909221731223692 0.38310331244007301 0 0.38522333077916698 0.37622022955476542 0 0.39331067205170511 0.39766867645672649 0 0.38790119075723001 0.39296519158951942 0 0.38490393606806389 0.3995112244526613 0 0.3785483165184248 0.39567948176041862 0 0.38790119075723001 0.39296519158951942 0 0.38490393606806389 0.3995112244526613 0 0.39331067205170511 0.39766867645672649 0 0.38490393606806389 0.3995112244526613 0 0.38646012691327841 0.40733024412576868 0 0.3785483165184248 0.39567948176041862 0 0.38490393606806389 0.3995112244526613 0 0.37667528548379192 0.40512250238271202 0 0.38490393606806389 0.3995112244526613 0 0.37667528548379192 0.40512250238271202 0 0.38646012691327841 0.40733024412576868 0 0.37667528548379192 0.40512250238271202 0 0.38339807200509429 0.42011477433347211 0 0.38646012691327841 0.40733024412576868 0 0.3657455207849058 0.41091941610724991 0 0.37667528548379192 0.40512250238271202 0 0.38339807200509429 0.42011477433347211 0 0.38339807200509429 0.42011477433347211 0 0.38646012691327841 0.40733024412576868 0 0.39688942499170921 0.41397463517331828 0 0.38339807200509429 0.42011477433347211 0 0.4031920144914487 0.43289367123943973 0 0.38396188338624559 0.43873570017091479 0 0.36816433033039481 0.42654085087515742 0 0.38339807200509429 0.42011477433347211 0 0.38396188338624559 0.43873570017091479 0 0.4031920144914487 0.43289367123943973 0 0.39688942499170921 0.41397463517331828 0 0.41067427813423468 0.41927761139437109 0 0.38339807200509429 0.42011477433347211 0 0.4031920144914487 0.43289367123943973 0 0.39688942499170921 0.41397463517331828 0 0.39331067205170511 0.39766867645672649 0 0.38646012691327841 0.40733024412576868 0 0.39688942499170921 0.41397463517331828 0 0.39688942499170921 0.41397463517331828 0 0.40430138635449397 0.40656283349013228 0 0.41067427813423468 0.41927761139437109 0 0.40430138635449397 0.40656283349013228 0 0.41067427813423468 0.41927761139437109 0 0.41796540224932072 0.40714014287760208 0 0.41067427813423468 0.41927761139437109 0 0.41796540224932072 0.40714014287760208 0 0.42770990237735951 0.41728619087899071 0 0.4031920144914487 0.43289367123943973 0 0.41067427813423468 0.41927761139437109 0 0.42054913248742859 0.43061085715910302 0 0.41067427813423468 0.41927761139437109 0 0.42054913248742859 0.43061085715910302 0 0.42770990237735951 0.41728619087899071 0 0.42054913248742859 0.43061085715910302 0 0.44097823790687868 0.42736567353408822 0 0.4315651721014292 0.44165852000219757 0 0.42054913248742859 0.43061085715910302 0 0.42770990237735951 0.41728619087899071 0 0.44097823790687868 0.42736567353408822 0 0.41796540224932072 0.40714014287760208 0 0.42770990237735951 0.41728619087899071 0 0.43278359795111088 0.40394244562843717 0 0.42770990237735951 0.41728619087899071 0 0.44089572044474429 0.41336411011798802 0 0.44097823790687868 0.42736567353408822 0 0.42770990237735951 0.41728619087899071 0 0.43278359795111088 0.40394244562843717 0 0.44089572044474429 0.41336411011798802 0 0.43278359795111088 0.40394244562843717 0 0.43230859871995381 0.39261606107221791 0 0.44104561902536149 0.39521228581084727 0 0.43230859871995381 0.39261606107221791 0 0.42118766494979148 0.39532679881494232 0 0.42571070632346492 0.38698390813255601 0 0.43278359795111088 0.40394244562843717 0 0.43230859871995381 0.39261606107221791 0 0.42118766494979148 0.39532679881494232 0 0.41796540224932072 0.40714014287760208 0 0.43278359795111088 0.40394244562843717 0 0.42118766494979148 0.39532679881494232 0 0.41796540224932072 0.40714014287760208 0 0.42118766494979148 0.39532679881494232 0 0.41141523112831568 0.39964641473266099 0 0.42118766494979148 0.39532679881494232 0 0.41035739917162312 0.39095875710764783 0 0.41141523112831568 0.39964641473266099 0 0.40382359771511378 0.39664641672082313 0 0.41035739917162312 0.39095875710764783 0 0.41141523112831568 0.39964641473266099 0 0.40430138635449397 0.40656283349013228 0 0.41796540224932072 0.40714014287760208 0 0.41141523112831568 0.39964641473266099 0 0.40382359771511378 0.39664641672082313 0 0.40430138635449397 0.40656283349013228 0 0.41141523112831568 0.39964641473266099 0 0.42341888272665601 0.37204202106993062 0 0.40625555001944652 0.3775726667550019 0 0.41726240981639567 0.38233348178454513 0 0.41035739917162312 0.39095875710764783 0 0.40625555001944652 0.3775726667550019 0 0.41726240981639567 0.38233348178454513 0 0.42118766494979148 0.39532679881494232 0 0.41035739917162312 0.39095875710764783 0 0.41726240981639567 0.38233348178454513 0 0.42118766494979148 0.39532679881494232 0 0.41726240981639567 0.38233348178454513 0 0.42571070632346492 0.38698390813255601 0 0.42341888272665601 0.37204202106993062 0 0.41726240981639567 0.38233348178454513 0 0.42507124445267558 0.38001765092928108 0 0.41726240981639567 0.38233348178454513 0 0.42507124445267558 0.38001765092928108 0 0.42571070632346492 0.38698390813255601 0 0.42507124445267558 0.38001765092928108 0 0.42571070632346492 0.38698390813255601 0 0.43235343106981028 0.3836660381072286 0 0.43230859871995381 0.39261606107221791 0 0.42571070632346492 0.38698390813255601 0 0.43235343106981028 0.3836660381072286 0 0.43230859871995381 0.39261606107221791 0 0.43235343106981028 0.3836660381072286 0 0.43976213947857462 0.38717421435962229 0 0.43544286350706979 0.37222653095649783 0 0.43235343106981028 0.3836660381072286 0 0.44434259143982002 0.38018015376077208 0 0.43544286350706979 0.37222653095649783 0 0.42507124445267558 0.38001765092928108 0 0.43235343106981028 0.3836660381072286 0 0.43976213947857462 0.38717421435962229 0 0.45081120752845338 0.38824407102225139 0 0.44104561902536149 0.39521228581084727 0 0.43235343106981028 0.3836660381072286 0 0.44434259143982002 0.38018015376077208 0 0.43976213947857462 0.38717421435962229 0 0.44434259143982002 0.38018015376077208 0 0.43976213947857462 0.38717421435962229 0 0.45081120752845338 0.38824407102225139 0 0.44434259143982002 0.38018015376077208 0 0.45081120752845338 0.38824407102225139 0 0.45722475457963979 0.37954461557888941 0 0.45112444374188981 0.37077907155926898 0 0.44434259143982002 0.38018015376077208 0 0.45722475457963979 0.37954461557888941 0 0.43278359795111088 0.40394244562843717 0 0.44104561902536149 0.39521228581084727 0 0.44926045454857388 0.40244509660761357 0 0.43230859871995381 0.39261606107221791 0 0.43976213947857462 0.38717421435962229 0 0.44104561902536149 0.39521228581084727 0 0.45081120752845338 0.38824407102225139 0 0.44926045454857388 0.40244509660761357 0 0.4577538274593676 0.39458427364824777 0 0.45081120752845338 0.38824407102225139 0 0.44104561902536149 0.39521228581084727 0 0.44926045454857388 0.40244509660761357 0 0.44926045454857388 0.40244509660761357 0 0.4577538274593676 0.39458427364824777 0 0.46263714304614201 0.40479797936970258 0 0.46520843736675938 0.39510665752454788 0 0.46505436411088052 0.38763535541464572 0 0.47494868461554518 0.38955569959430758 0 0.4577538274593676 0.39458427364824777 0 0.46520843736675938 0.39510665752454788 0 0.46263714304614201 0.40479797936970258 0 0.4577538274593676 0.39458427364824777 0 0.46520843736675938 0.39510665752454788 0 0.46505436411088052 0.38763535541464572 0 0.46520843736675938 0.39510665752454788 0 0.46263714304614201 0.40479797936970258 0 0.47194151203223428 0.39834853959130528 0 0.45081120752845338 0.38824407102225139 0 0.4577538274593676 0.39458427364824777 0 0.46505436411088052 0.38763535541464572 0 0.45081120752845338 0.38824407102225139 0 0.45722475457963979 0.37954461557888941 0 0.46505436411088052 0.38763535541464572 0 0.45722475457963979 0.37954461557888941 0 0.46505436411088052 0.38763535541464572 0 0.46649497154322389 0.37884740355983892 0 0.46216076402841549 0.37115871168327841 0 0.45722475457963979 0.37954461557888941 0 0.46649497154322389 0.37884740355983892 0 0.47257854200614902 0.36686764689573409 0 0.47494868461554518 0.38955569959430758 0 0.47257854200614902 0.36686764689573409 0 0.46649497154322389 0.37884740355983892 0 0.47494868461554518 0.38955569959430758 0 0.47494868461554518 0.38955569959430758 0 0.4877832734378667 0.40040373536446061 0 0.4874553127405763 0.38145658581353648 0 0.48329912307703049 0.36513938584360972 0 0.47494868461554518 0.38955569959430758 0 0.48329912307703049 0.36513938584360972 0 0.47494868461554518 0.38955569959430758 0 0.4874553127405763 0.38145658581353648 0 0.46505436411088052 0.38763535541464572 0 0.46649497154322389 0.37884740355983892 0 0.47494868461554518 0.38955569959430758 0 0.47494868461554518 0.38955569959430758 0 0.4877832734378667 0.40040373536446061 0 0.47704191573083282 0.40959303307190831 0 0.46520843736675938 0.39510665752454788 0 0.47494868461554518 0.38955569959430758 0 0.47194151203223428 0.39834853959130528 0 0.47494868461554518 0.38955569959430758 0 0.47194151203223428 0.39834853959130528 0 0.47494868461554518 0.38955569959430758 0 0.47194151203223428 0.39834853959130528 0 0.47704191573083282 0.40959303307190831 0 0.47494868461554518 0.38955569959430758 0 0.47704191573083282 0.40959303307190831 0 0.46263714304614201 0.40479797936970258 0 0.47194151203223428 0.39834853959130528 0 0.47704191573083282 0.40959303307190831 0 0.4877832734378667 0.40040373536446061 0 0.5 0.38939932990716097 0 0.5 0.41376352042880998 0 0.4877832734378667 0.40040373536446061 0 0.4874553127405763 0.38145658581353648 0 0.5 0.38939932990716097 0 0.49168602917299142 0.37092958556897843 0 0.4874553127405763 0.38145658581353648 0 0.5 0.38939932990716097 0 0.49168602917299142 0.37092958556897843 0 0.5 0.36503513938551191 0 0.5 0.38939932990716097 0 0.48725372754024598 0.41865424337104051 0 0.47913514684612041 0.42963036654950892 0 0.50000000000000011 0.43812771095045899 0 0.5 0.41376352042880998 0 0.48725372754024598 0.41865424337104051 0 0.50000000000000011 0.43812771095045899 0 0.4877832734378667 0.40040373536446061 0 0.5 0.41376352042880998 0 0.48725372754024598 0.41865424337104051 0 0.48725372754024598 0.41865424337104051 0 0.47704191573083282 0.40959303307190831 0 0.47913514684612041 0.42963036654950892 0 0.47704191573083282 0.40959303307190831 0 0.47913514684612041 0.42963036654950892 0 0.47704191573083282 0.40959303307190831 0 0.47913514684612041 0.42963036654950892 0 0.46653580237129638 0.41787102908088719 0 0.4877832734378667 0.40040373536446061 0 0.48725372754024598 0.41865424337104051 0 0.47704191573083282 0.40959303307190831 0 0.47913514684612041 0.42963036654950892 0 0.46011839679358868 0.42955262247250581 0 0.46752364885840031 0.44206038335355252 0 0.47913514684612041 0.42963036654950892 0 0.46011839679358868 0.42955262247250581 0 0.46653580237129638 0.41787102908088719 0 0.46263714304614201 0.40479797936970258 0 0.47704191573083282 0.40959303307190831 0 0.46653580237129638 0.41787102908088719 0 0.46263714304614201 0.40479797936970258 0 0.46653580237129638 0.41787102908088719 0 0.45374640943979849 0.41578114394081023 0 0.46011839679358868 0.42955262247250581 0 0.46653580237129638 0.41787102908088719 0 0.45374640943979849 0.41578114394081023 0 0.44926045454857388 0.40244509660761357 0 0.46263714304614201 0.40479797936970258 0 0.45374640943979849 0.41578114394081023 0 0.43278359795111088 0.40394244562843717 0 0.44926045454857388 0.40244509660761357 0 0.44089572044474429 0.41336411011798802 0 0.44926045454857388 0.40244509660761357 0 0.45374640943979849 0.41578114394081023 0 0.44089572044474429 0.41336411011798802 0 0.45374640943979849 0.41578114394081023 0 0.44089572044474429 0.41336411011798802 0 0.44097823790687868 0.42736567353408822 0 0.46011839679358868 0.42955262247250581 0 0.45374640943979849 0.41578114394081023 0 0.44097823790687868 0.42736567353408822 0 0.46011839679358868 0.42955262247250581 0 0.44097823790687868 0.42736567353408822 0 0.45121511013192939 0.44389612037236709 0 0.45121511013192939 0.44389612037236709 0 0.43681484331128911 0.45483594170156888 0 0.4315651721014292 0.44165852000219757 0 0.44097823790687868 0.42736567353408822 0 0.45121511013192939 0.44389612037236709 0 0.4315651721014292 0.44165852000219757 0 0.45121511013192939 0.44389612037236709 0 0.44969018148987339 0.46120867316629172 0 0.43681484331128911 0.45483594170156888 0 0.44969018148987339 0.46120867316629172 0 0.43517977550817682 0.46980965146049769 0 0.43681484331128911 0.45483594170156888 0 0.44969018148987339 0.46120867316629172 0 0.46400714339046512 0.45733536473005848 0 0.45517877582509292 0.47546059549964942 0 0.45121511013192939 0.44389612037236709 0 0.44969018148987339 0.46120867316629172 0 0.46400714339046512 0.45733536473005848 0 0.45121511013192939 0.44389612037236709 0 0.46400714339046512 0.45733536473005848 0 0.46752364885840031 0.44206038335355252 0 0.46011839679358868 0.42955262247250581 0 0.45121511013192939 0.44389612037236709 0 0.46752364885840031 0.44206038335355252 0 0.46400714339046512 0.45733536473005848 0 0.46752364885840031 0.44206038335355252 0 0.47196521106901662 0.45166378728709089 0 0.47913514684612041 0.42963036654950892 0 0.46752364885840031 0.44206038335355252 0 0.48122837796140799 0.44966770002710971 0 0.47913514684612041 0.42963036654950892 0 0.48122837796140799 0.44966770002710971 0 0.48615797175124392 0.45619215015324688 0 0.50000000000000011 0.43812771095045899 0 0.5 0.5 0 0.48122837796140799 0.44966770002710971 0 0.47196521106901662 0.45166378728709089 0 0.47510167406579312 0.45759170103764307 0 0.46752364885840031 0.44206038335355252 0 0.48122837796140799 0.44966770002710971 0 0.47196521106901662 0.45166378728709089 0 0.46400714339046512 0.45733536473005848 0 0.47196521106901662 0.45166378728709089 0 0.47510167406579312 0.45759170103764307 0 0.47510167406579312 0.45759170103764307 0 0.48615797175124392 0.45619215015324688 0 0.47231594350248762 0.47425658935603482 0 0.46400714339046512 0.45733536473005848 0 0.47510167406579312 0.45759170103764307 0 0.47231594350248762 0.47425658935603482 0 0.48615797175124392 0.45619215015324688 0 0.47231594350248762 0.47425658935603482 0 0.48122837796140799 0.44966770002710971 0 0.47510167406579312 0.45759170103764307 0 0.48615797175124392 0.45619215015324688 0 0.48615797175124392 0.45619215015324688 0 0.50000000000000011 0.43812771095045899 0 0.47913514684612041 0.42963036654950892 0 0.48122837796140799 0.44966770002710971 0 0.50000000000000011 0.43812771095045899 0 0.48122837796140799 0.44966770002710971 0 0.48615797175124392 0.45619215015324688 0 0.50000000000000011 0.43812771095045899 0 0.5 0.5 0 0.47231594350248762 0.47425658935603482 0 0.46029373205925223 0.5 0 0.48615797175124392 0.45619215015324688 0 0.5 0.5 0 0.47231594350248762 0.47425658935603482 0 0.45847391525373138 0.49232102855882248 0 0.46029373205925223 0.5 0 0.44408645250353468 0.48689966932580753 0 0.47231594350248762 0.47425658935603482 0 0.45847391525373138 0.49232102855882248 0 0.46029373205925223 0.5 0 0.46400714339046512 0.45733536473005848 0 0.47231594350248762 0.47425658935603482 0 0.45517877582509292 0.47546059549964942 0 0.47231594350248762 0.47425658935603482 0 0.45847391525373138 0.49232102855882248 0 0.47231594350248762 0.47425658935603482 0 0.45847391525373138 0.49232102855882248 0 0.45517877582509292 0.47546059549964942 0 0.44969018148987339 0.46120867316629172 0 0.45517877582509292 0.47546059549964942 0 0.43517977550817682 0.46980965146049769 0 0.45517877582509292 0.47546059549964942 0 0.44408645250353468 0.48689966932580753 0 0.43517977550817682 0.46980965146049769 0 0.46029373205925223 0.5 0 0.44408645250353468 0.48689966932580753 0 0.43061667271026127 0.50000000000000155 0 0.45847391525373138 0.49232102855882248 0 0.45517877582509292 0.47546059549964942 0 0.44408645250353468 0.48689966932580753 0 0.43061667271026127 0.50000000000000155 0 0.40782441484471033 0.48080907464202061 0 0.427208705250677 0.48166250292533958 0 0.44408645250353468 0.48689966932580753 0 0.43061667271026127 0.50000000000000155 0 0.427208705250677 0.48166250292533958 0 0.43061667271026127 0.50000000000000155 0 0.40782441484471033 0.48080907464202061 0 0.43061667271026127 0.50000000000000155 0 0.41536747203854918 0.49441913837751128 0 0.40200366109636682 0.5 0 0.43061667271026127 0.50000000000000155 0 0.41536747203854918 0.49441913837751128 0 0.40782441484471033 0.48080907464202061 0 0.40782441484471033 0.48080907464202061 0 0.42048451744228937 0.47181753763173567 0 0.427208705250677 0.48166250292533958 0 0.40782441484471033 0.48080907464202061 0 0.42048451744228937 0.47181753763173567 0 0.41516246497453341 0.45662639099246582 0 0.42048451744228937 0.47181753763173567 0 0.427208705250677 0.48166250292533958 0 0.43517977550817682 0.46980965146049769 0 0.44408645250353468 0.48689966932580753 0 0.427208705250677 0.48166250292533958 0 0.43517977550817682 0.46980965146049769 0 0.42048451744228937 0.47181753763173567 0 0.43517977550817682 0.46980965146049769 0 0.41516246497453341 0.45662639099246582 0 0.43517977550817682 0.46980965146049769 0 0.43681484331128911 0.45483594170156888 0 0.41516246497453341 0.45662639099246582 0 0.43681484331128911 0.45483594170156888 0 0.4315651721014292 0.44165852000219757 0 0.41516246497453341 0.45662639099246582 0 0.42054913248742859 0.43061085715910302 0 0.4315651721014292 0.44165852000219757 0 0.41516246497453341 0.45662639099246582 0 0.4031920144914487 0.43289367123943973 0 0.42054913248742859 0.43061085715910302 0 0.41516246497453341 0.45662639099246582 0 0.40782441484471033 0.48080907464202061 0 0.41516246497453341 0.45662639099246582 0 0.38503215697916021 0.46161814928403883 0 0.41516246497453341 0.45662639099246582 0 0.39683712995784692 0.44746847792171468 0 0.38503215697916021 0.46161814928403883 0 0.4031920144914487 0.43289367123943973 0 0.41516246497453341 0.45662639099246582 0 0.39683712995784692 0.44746847792171468 0 0.4031920144914487 0.43289367123943973 0 0.39683712995784692 0.44746847792171468 0 0.38396188338624559 0.43873570017091479 0 0.36223989911360999 0.44242722392605688 0 0.38396188338624559 0.43873570017091479 0 0.38503215697916021 0.46161814928403883 0 0.39683712995784692 0.44746847792171468 0 0.38396188338624559 0.43873570017091479 0 0.38503215697916021 0.46161814928403883 0 0.37091575600049659 0.47763619783261702 0 0.38503215697916021 0.46161814928403883 0 0.38731071464600791 0.47881000820340358 0 0.37091575600049659 0.47763619783261702 0 0.38731071464600791 0.47881000820340358 0 0.38547053075966442 0.49517661105493832 0 0.37339064948247219 0.5 0 0.38547053075966442 0.49517661105493832 0 0.40200366109636682 0.5 0 0.41536747203854918 0.49441913837751128 0 0.40782441484471033 0.48080907464202061 0 0.38547053075966442 0.49517661105493832 0 0.40782441484471033 0.48080907464202061 0 0.38731071464600791 0.47881000820340358 0 0.38547053075966442 0.49517661105493832 0 0.41536747203854918 0.49441913837751128 0 0.38547053075966442 0.49517661105493832 0 0.41536747203854918 0.49441913837751128 0 0.38547053075966442 0.49517661105493832 0 0.40200366109636682 0.5 0 0.40782441484471033 0.48080907464202061 0 0.38503215697916021 0.46161814928403883 0 0.40782441484471033 0.48080907464202061 0 0.38503215697916021 0.46161814928403883 0 0.38731071464600791 0.47881000820340358 0 0.331553548735526 0.076279946474528862 0 0.34728403416549081 0.09481484608369628 0 0.331553548735526 0.076279946474528862 0 0.32799879046049762 0.094099823931486096 0 0.34728403416549081 0.09481484608369628 0 0.331553548735526 0.076279946474528862 0 0.35047595944260213 0.062051723859389521 0 0.3379442616130276 0.049236932389642989 0 0.331553548735526 0.076279946474528862 0 0.31582306330556131 0.057745046865361492 0 0.331553548735526 0.076279946474528862 0 0.31332282351903318 0.075267873976686522 0 0.31582306330556131 0.057745046865361492 0 0.331553548735526 0.076279946474528862 0 0.31332282351903318 0.075267873976686522 0 0.32799879046049762 0.094099823931486096 0 0.31332282351903318 0.075267873976686522 0 0.32799879046049762 0.094099823931486096 0 0.30879541068898642 0.095362619109752231 0 0.32799879046049762 0.094099823931486096 0 0.32190902364229362 0.1112199605861612 0 0.30879541068898642 0.095362619109752231 0 0.32190902364229362 0.1112199605861612 0 0.30311275813621602 0.1320368506239811 0 0.32431644955958172 0.13056782224814301 0 0.32190902364229362 0.1112199605861612 0 0.30311275813621602 0.1320368506239811 0 0.32190902364229362 0.1112199605861612 0 0.34138319674297768 0.1187944945962696 0 0.32431644955958172 0.13056782224814301 0 0.32799879046049762 0.094099823931486096 0 0.34138319674297768 0.1187944945962696 0 0.34728403416549081 0.09481484608369628 0 0.32799879046049762 0.094099823931486096 0 0.32190902364229362 0.1112199605861612 0 0.34138319674297768 0.1187944945962696 0 0.34728403416549081 0.09481484608369628 0 0.36301451959545572 0.1133497456928638 0 0.34138319674297768 0.1187944945962696 0 0.34728403416549081 0.09481484608369628 0 0.36301451959545572 0.1133497456928638 0 0.34138319674297768 0.1187944945962696 0 0.36301451959545572 0.1133497456928638 0 0.36008942375607911 0.13465923792833359 0 0.36301451959545572 0.1133497456928638 0 0.37874500502542269 0.1318846453020294 0 0.36301451959545572 0.1133497456928638 0 0.37874500502542269 0.1318846453020294 0 0.37841980346381793 0.1168776898494201 0 0.36301451959545572 0.1133497456928638 0 0.37251928656450478 0.099695357822203068 0 0.37841980346381793 0.1168776898494201 0 0.34728403416549081 0.09481484608369628 0 0.36301451959545572 0.1133497456928638 0 0.37251928656450478 0.099695357822203068 0 0.37251928656450478 0.099695357822203068 0 0.35788675631945971 0.077813482274333684 0 0.37765205629240978 0.081310460583812194 0 0.34728403416549081 0.09481484608369628 0 0.37251928656450478 0.099695357822203068 0 0.35788675631945971 0.077813482274333684 0 0.331553548735526 0.076279946474528862 0 0.34728403416549081 0.09481484608369628 0 0.35788675631945971 0.077813482274333684 0 0.331553548735526 0.076279946474528862 0 0.35788675631945971 0.077813482274333684 0 0.35047595944260213 0.062051723859389521 0 0.35788675631945971 0.077813482274333684 0 0.37022050058159039 0.066931597565453763 0 0.35047595944260213 0.062051723859389521 0 0.35788675631945971 0.077813482274333684 0 0.37022050058159039 0.066931597565453763 0 0.37765205629240978 0.081310460583812194 0 0.37022050058159039 0.066931597565453763 0 0.36159980176474771 0.050703508886296482 0 0.35047595944260213 0.062051723859389521 0 0.37022050058159039 0.066931597565453763 0 0.36159980176474771 0.050703508886296482 0 0.3827718378248664 0.055075394415006113 0 0.36159980176474771 0.050703508886296482 0 0.36073836183919072 0.035982233083327438 0 0.37536652942896481 0.034764562291021303 0 0.36159980176474771 0.050703508886296482 0 0.37536652942896481 0.034764562291021303 0 0.3827718378248664 0.055075394415006113 0 0.36159980176474771 0.050703508886296482 0 0.36073836183919072 0.035982233083327438 0 0.34604965846900809 0.034544787960232373 0 0.36159980176474771 0.050703508886296482 0 0.34604965846900809 0.034544787960232373 0 0.3379442616130276 0.049236932389642989 0 0.36159980176474771 0.050703508886296482 0 0.35047595944260213 0.062051723859389521 0 0.3379442616130276 0.049236932389642989 0 0.37050391496600799 0.01021011951764548 0 0.35485592375002289 0.0052624303010918774 0 0.36801596977072248 -0.010996938905334539 0 0.37050391496600799 0.01021011951764548 0 0.35903829340281701 0.022703524216724929 0 0.35485592375002289 0.0052624303010918774 0 0.37050391496600799 0.01021011951764548 0 0.35903829340281701 0.022703524216724929 0 0.37536652942896481 0.034764562291021303 0 0.36073836183919072 0.035982233083327438 0 0.35903829340281701 0.022703524216724929 0 0.37536652942896481 0.034764562291021303 0 0.34604965846900809 0.034544787960232373 0 0.34570919434036801 0.01635000980626659 0 0.35903829340281701 0.022703524216724929 0 0.36073836183919072 0.035982233083327438 0 0.34604965846900809 0.034544787960232373 0 0.35903829340281701 0.022703524216724929 0 0.34570919434036801 0.01635000980626659 0 0.35903829340281701 0.022703524216724929 0 0.35485592375002289 0.0052624303010918774 0 0.34570919434036801 0.01635000980626659 0 0.35485592375002289 0.0052624303010918774 0 0.33880154088073788 0.001854769857611121 0 0.33880154088073788 0.001854769857611121 0 0.32589704801467118 0.0039597422256149673 0 0.32924853545458488 -0.0036933257099089289 0 0.33880154088073788 0.001854769857611121 0 0.3330539986393779 0.01335833305291733 0 0.32589704801467118 0.0039597422256149673 0 0.34570919434036801 0.01635000980626659 0 0.33880154088073788 0.001854769857611121 0 0.3330539986393779 0.01335833305291733 0 0.34604965846900809 0.034544787960232373 0 0.34570919434036801 0.01635000980626659 0 0.33000648720020148 0.026330108714620919 0 0.34570919434036801 0.01635000980626659 0 0.3330539986393779 0.01335833305291733 0 0.33000648720020148 0.026330108714620919 0 0.3330539986393779 0.01335833305291733 0 0.33000648720020148 0.026330108714620919 0 0.32557023454734391 0.018449748548998189 0 0.33000648720020148 0.026330108714620919 0 0.31721745146744013 0.020869346154957381 0 0.31533508083297501 0.034253306863519607 0 0.31721745146744013 0.020869346154957381 0 0.31533508083297501 0.034253306863519607 0 0.30992786864902239 0.024640406941542101 0 0.31721745146744013 0.020869346154957381 0 0.31329219714994377 0.013818499484855929 0 0.30838446594822122 0.017813702517282339 0 0.31721745146744013 0.020869346154957381 0 0.32557023454734391 0.018449748548998189 0 0.31959409000504041 0.01165159194970993 0 0.33000648720020148 0.026330108714620919 0 0.31721745146744013 0.020869346154957381 0 0.32557023454734391 0.018449748548998189 0 0.3330539986393779 0.01335833305291733 0 0.32557023454734391 0.018449748548998189 0 0.31959409000504041 0.01165159194970993 0 0.3330539986393779 0.01335833305291733 0 0.31959409000504041 0.01165159194970993 0 0.32589704801467118 0.0039597422256149673 0 0.31721745146744013 0.020869346154957381 0 0.31959409000504041 0.01165159194970993 0 0.31329219714994377 0.013818499484855929 0 0.31959409000504041 0.01165159194970993 0 0.31726950114039698 0.0043408169835761571 0 0.31060169020648992 0.0079212827529443128 0 0.31959409000504041 0.01165159194970993 0 0.31329219714994377 0.013818499484855929 0 0.31060169020648992 0.0079212827529443128 0 0.31726950114039698 0.0043408169835761571 0 0.30977756725023609 0.0024579883069990611 0 0.32047711022554731 -0.0042865203173874872 0 0.31726950114039698 0.0043408169835761571 0 0.30977756725023609 0.0024579883069990611 0 0.31060169020648992 0.0079212827529443128 0 0.31726950114039698 0.0043408169835761571 0 0.32589704801467118 0.0039597422256149673 0 0.32047711022554731 -0.0042865203173874872 0 0.31959409000504041 0.01165159194970993 0 0.31726950114039698 0.0043408169835761571 0 0.32589704801467118 0.0039597422256149673 0 0.331553548735526 0.076279946474528862 0 0.3379442616130276 0.049236932389642989 0 0.31582306330556131 0.057745046865361492 0 0.34604965846900809 0.034544787960232373 0 0.33000648720020148 0.026330108714620919 0 0.32739221405044822 0.040587637175883581 0 0.34604965846900809 0.034544787960232373 0 0.3379442616130276 0.049236932389642989 0 0.32739221405044822 0.040587637175883581 0 0.32739221405044822 0.040587637175883581 0 0.31533508083297501 0.034253306863519607 0 0.31582306330556131 0.057745046865361492 0 0.33000648720020148 0.026330108714620919 0 0.32739221405044822 0.040587637175883581 0 0.31533508083297501 0.034253306863519607 0 0.3379442616130276 0.049236932389642989 0 0.32739221405044822 0.040587637175883581 0 0.31582306330556131 0.057745046865361492 0 0.30270934527584081 0.054029050153413777 0 0.30009257787559651 0.039210147256194088 0 0.29550330788087348 0.055319485954879691 0 0.31582306330556131 0.057745046865361492 0 0.30270934527584081 0.054029050153413777 0 0.30009257787559651 0.039210147256194088 0 0.31582306330556131 0.057745046865361492 0 0.30270934527584081 0.054029050153413777 0 0.30302825855951798 0.063293164684411984 0 0.31582306330556131 0.057745046865361492 0 0.30009257787559651 0.039210147256194088 0 0.30270934527584081 0.054029050153413777 0 0.29550330788087348 0.055319485954879691 0 0.30302825855951798 0.063293164684411984 0 0.29550330788087348 0.055319485954879691 0 0.29377396132550471 0.064142818017496772 0 0.30302825855951798 0.063293164684411984 0 0.28959724999908798 0.050872792988083407 0 0.30299619836015312 0.025208726934948189 0 0.29845646212387011 0.025446438617704261 0 0.30009257787559651 0.039210147256194088 0 0.28959724999908798 0.050872792988083407 0 0.30299619836015312 0.025208726934948189 0 0.31533508083297501 0.034253306863519607 0 0.31582306330556131 0.057745046865361492 0 0.30009257787559651 0.039210147256194088 0 0.31533508083297501 0.034253306863519607 0 0.30009257787559651 0.039210147256194088 0 0.30748651622559869 0.030753187924077649 0 0.30009257787559651 0.039210147256194088 0 0.30748651622559869 0.030753187924077649 0 0.30299619836015312 0.025208726934948189 0 0.28959724999908798 0.050872792988083407 0 0.30299619836015312 0.025208726934948189 0 0.28713535699750942 0.048434888928412058 0 0.29845646212387011 0.025446438617704261 0 0.28713535699750942 0.048434888928412058 0 0.28959724999908798 0.050872792988083407 0 0.29845646212387011 0.025446438617704261 0 0.28721209878818099 0.033541520700683863 0 0.28713535699750942 0.048434888928412058 0 0.29845646212387011 0.025446438617704261 0 0.28721209878818099 0.033541520700683863 0 0.27753930397379428 0.025938462288938161 0 0.28090510584429002 0.039614197458774481 0 0.28721209878818099 0.033541520700683863 0 0.28713535699750942 0.048434888928412058 0 0.28090510584429002 0.039614197458774481 0 0.28713535699750942 0.048434888928412058 0 0.27728729285611448 0.047102975067794428 0 0.28090510584429002 0.039614197458774481 0 0.28713535699750942 0.048434888928412058 0 0.27581425187114872 0.071423339239119768 0 0.30009257787559651 0.039210147256194088 0 0.29550330788087348 0.055319485954879691 0 0.28959724999908798 0.050872792988083407 0 0.28713535699750942 0.048434888928412058 0 0.28959724999908798 0.050872792988083407 0 0.27581425187114872 0.071423339239119768 0 0.29550330788087348 0.055319485954879691 0 0.28854534754356898 0.063677504960884188 0 0.29377396132550471 0.064142818017496772 0 0.29550330788087348 0.055319485954879691 0 0.28959724999908798 0.050872792988083407 0 0.28854534754356898 0.063677504960884188 0 0.30977756725023609 0.0024579883069990611 0 0.30810247653575218 0.013491582335957181 0 0.29845646212387011 0.025446438617704261 0 0.30977756725023609 0.0024579883069990611 0 0.29845646212387011 0.025446438617704261 0 0.30977756725023609 0.0024579883069990611 0 0.29709145353619248 0.01049234055723609 0 0.29845646212387011 0.025446438617704261 0 0.30146309266114651 0.0033623273610073581 0 0.30977756725023609 0.0024579883069990611 0 0.29709145353619248 0.01049234055723609 0 0.30146309266114651 0.0033623273610073581 0 0.29709145353619248 0.01049234055723609 0 0.29378143222630798 0.0016931317668539929 0 0.30146309266114651 0.0033623273610073581 0 0.29378143222630798 0.0016931317668539929 0 0.30002874695068482 -0.003410289581962597 0 0.30146309266114651 0.0033623273610073581 0 0.30977756725023609 0.0024579883069990611 0 0.3045109746629634 -0.00013427471123989281 0 0.30977756725023609 0.0024579883069990611 0 0.31060169020648992 0.0079212827529443128 0 0.30977756725023609 0.0024579883069990611 0 0.31060169020648992 0.0079212827529443128 0 0.30810247653575218 0.013491582335957181 0 0.31329219714994377 0.013818499484855929 0 0.31060169020648992 0.0079212827529443128 0 0.30810247653575218 0.013491582335957181 0 0.31329219714994377 0.013818499484855929 0 0.30810247653575218 0.013491582335957181 0 0.30838446594822122 0.017813702517282339 0 0.30838446594822122 0.017813702517282339 0 0.30529865759750929 0.022792499418806331 0 0.29845646212387011 0.025446438617704261 0 0.31721745146744013 0.020869346154957381 0 0.30838446594822122 0.017813702517282339 0 0.30992786864902239 0.024640406941542101 0 0.30810247653575218 0.013491582335957181 0 0.30838446594822122 0.017813702517282339 0 0.29845646212387011 0.025446438617704261 0 0.30838446594822122 0.017813702517282339 0 0.30529865759750929 0.022792499418806331 0 0.30992786864902239 0.024640406941542101 0 0.31533508083297501 0.034253306863519607 0 0.30992786864902239 0.024640406941542101 0 0.30748651622559869 0.030753187924077649 0 0.30529865759750929 0.022792499418806331 0 0.30992786864902239 0.024640406941542101 0 0.30299619836015312 0.025208726934948189 0 0.30992786864902239 0.024640406941542101 0 0.30748651622559869 0.030753187924077649 0 0.30299619836015312 0.025208726934948189 0 0.30529865759750929 0.022792499418806331 0 0.30299619836015312 0.025208726934948189 0 0.29845646212387011 0.025446438617704261 0 0.28721209878818099 0.033541520700683863 0 0.29845646212387011 0.025446438617704261 0 0.2878103462989795 0.025901628211322501 0 0.28721209878818099 0.033541520700683863 0 0.2878103462989795 0.025901628211322501 0 0.27753930397379428 0.025938462288938161 0 0.2878103462989795 0.025901628211322501 0 0.28803352031007268 0.018680091237963731 0 0.27753930397379428 0.025938462288938161 0 0.29845646212387011 0.025446438617704261 0 0.2878103462989795 0.025901628211322501 0 0.28803352031007268 0.018680091237963731 0 0.29709145353619248 0.01049234055723609 0 0.29845646212387011 0.025446438617704261 0 0.28803352031007268 0.018680091237963731 0 0.29709145353619248 0.01049234055723609 0 0.28803352031007268 0.018680091237963731 0 0.28650003809200281 0.0077158058554361586 0 0.28803352031007268 0.018680091237963731 0 0.28650003809200281 0.0077158058554361586 0 0.27407601331997899 0.012380298406754661 0 0.28650003809200281 0.0077158058554361586 0 0.27661114912357898 0.0003017806746112348 0 0.28578961296385569 -0.00091827432700006077 0 0.28650003809200281 0.0077158058554361586 0 0.29378143222630798 0.0016931317668539929 0 0.28578961296385569 -0.00091827432700006077 0 0.29709145353619248 0.01049234055723609 0 0.28650003809200281 0.0077158058554361586 0 0.29378143222630798 0.0016931317668539929 0 0.27661114912357898 0.0003017806746112348 0 0.27407601331997899 0.012380298406754661 0 0.26322672287322613 0.0046244286259636098 0 0.28650003809200281 0.0077158058554361586 0 0.27661114912357898 0.0003017806746112348 0 0.27407601331997899 0.012380298406754661 0 0.27407601331997899 0.012380298406754661 0 0.27753930397379428 0.025938462288938161 0 0.25223596470616289 0.017258358774431649 0 0.28803352031007268 0.018680091237963731 0 0.27407601331997899 0.012380298406754661 0 0.27753930397379428 0.025938462288938161 0 0.27753930397379428 0.025938462288938161 0 0.25223596470616289 0.017258358774431649 0 0.27753930397379428 0.025938462288938161 0 0.25223596470616289 0.017258358774431649 0 0.25872887798867622 0.032988318832192047 0 0.27407601331997899 0.012380298406754661 0 0.25223596470616289 0.017258358774431649 0 0.26322672287322613 0.0046244286259636098 0 0.25223596470616289 0.017258358774431649 0 0.26322672287322613 0.0046244286259636098 0 0.24727983912845811 -0.001679955406053003 0 0.28713535699750942 0.048434888928412058 0 0.27506310060840722 0.056735465408865628 0 0.27581425187114872 0.071423339239119768 0 0.26958445816632581 0.049232273603962068 0 0.2669129106706018 0.057945334700090237 0 0.27506310060840722 0.056735465408865628 0 0.2669129106706018 0.057945334700090237 0 0.27506310060840722 0.056735465408865628 0 0.27089520682988089 0.064328756166057821 0 0.28713535699750942 0.048434888928412058 0 0.27506310060840722 0.056735465408865628 0 0.27728729285611448 0.047102975067794428 0 0.26958445816632581 0.049232273603962068 0 0.27506310060840722 0.056735465408865628 0 0.27728729285611448 0.047102975067794428 0 0.27753930397379428 0.025938462288938161 0 0.27194979833906779 0.039956007168555609 0 0.25872887798867622 0.032988318832192047 0 0.27728729285611448 0.047102975067794428 0 0.28090510584429002 0.039614197458774481 0 0.27194979833906779 0.039956007168555609 0 0.27753930397379428 0.025938462288938161 0 0.28090510584429002 0.039614197458774481 0 0.27194979833906779 0.039956007168555609 0 0.26958445816632581 0.049232273603962068 0 0.27728729285611448 0.047102975067794428 0 0.27194979833906779 0.039956007168555609 0 0.26958445816632581 0.049232273603962068 0 0.27194979833906779 0.039956007168555609 0 0.26317495549159092 0.04293615931804573 0 0.27194979833906779 0.039956007168555609 0 0.26317495549159092 0.04293615931804573 0 0.25872887798867622 0.032988318832192047 0 0.2480238906276416 0.045912687195881402 0 0.26317495549159092 0.04293615931804573 0 0.25872887798867622 0.032988318832192047 0 0.2480238906276416 0.045912687195881402 0 0.26317495549159092 0.04293615931804573 0 0.25983625671714738 0.051944038219164067 0 0.2480238906276416 0.045912687195881402 0 0.25983625671714738 0.051944038219164067 0 0.25203525219338968 0.058887004008764288 0 0.26958445816632581 0.049232273603962068 0 0.2669129106706018 0.057945334700090237 0 0.25983625671714738 0.051944038219164067 0 0.26958445816632581 0.049232273603962068 0 0.26317495549159092 0.04293615931804573 0 0.25983625671714738 0.051944038219164067 0 0.2669129106706018 0.057945334700090237 0 0.25984854660388862 0.058811215180615009 0 0.26517788973420642 0.06563168049267637 0 0.2669129106706018 0.057945334700090237 0 0.25983625671714738 0.051944038219164067 0 0.25984854660388862 0.058811215180615009 0 0.25984854660388862 0.058811215180615009 0 0.25203525219338968 0.058887004008764288 0 0.25731836694702009 0.064793014338706101 0 0.25983625671714738 0.051944038219164067 0 0.25984854660388862 0.058811215180615009 0 0.25203525219338968 0.058887004008764288 0 0.2498374806334239 0.065705686959011828 0 0.25203525219338968 0.058887004008764288 0 0.25731836694702009 0.064793014338706101 0 0.2498374806334239 0.065705686959011828 0 0.25731836694702009 0.064793014338706101 0 0.25485115957852961 0.069679202001383167 0 0.25731836694702009 0.064793014338706101 0 0.25485115957852961 0.069679202001383167 0 0.26071424308837637 0.071361434414544012 0 0.2498374806334239 0.065705686959011828 0 0.25485115957852961 0.069679202001383167 0 0.25005827687578769 0.072376352449937023 0 0.25485115957852961 0.069679202001383167 0 0.25005827687578769 0.072376352449937023 0 0.25551279618344053 0.074988530408567594 0 0.25005827687578769 0.072376352449937023 0 0.25551279618344053 0.074988530408567594 0 0.25098622210316501 0.078126964838113058 0 0.25485115957852961 0.069679202001383167 0 0.25551279618344053 0.074988530408567594 0 0.26071424308837637 0.071361434414544012 0 0.25551279618344053 0.074988530408567594 0 0.26071424308837637 0.071361434414544012 0 0.26090667523959682 0.077928397859976795 0 0.26090667523959682 0.077928397859976795 0 0.26578873255391011 0.080211486537688073 0 0.2671370647706609 0.072881678128445246 0 0.26071424308837637 0.071361434414544012 0 0.26090667523959682 0.077928397859976795 0 0.2671370647706609 0.072881678128445246 0 0.25984854660388862 0.058811215180615009 0 0.25731836694702009 0.064793014338706101 0 0.26517788973420642 0.06563168049267637 0 0.26071424308837637 0.071361434414544012 0 0.26517788973420642 0.06563168049267637 0 0.2671370647706609 0.072881678128445246 0 0.25731836694702009 0.064793014338706101 0 0.26071424308837637 0.071361434414544012 0 0.26517788973420642 0.06563168049267637 0 0.24569862948514509 0.091230814225826212 0 0.25536201755562399 0.088042419485091727 0 0.25532167250195609 0.094188187240565935 0 0.25536201755562399 0.088042419485091727 0 0.255432942666935 0.081901970077894445 0 0.26059252414335621 0.084412227911071128 0 0.24874419144224449 0.083537599343049038 0 0.25536201755562399 0.088042419485091727 0 0.255432942666935 0.081901970077894445 0 0.24874419144224449 0.083537599343049038 0 0.25098622210316501 0.078126964838113058 0 0.255432942666935 0.081901970077894445 0 0.25551279618344053 0.074988530408567594 0 0.25098622210316501 0.078126964838113058 0 0.255432942666935 0.081901970077894445 0 0.25551279618344053 0.074988530408567594 0 0.26090667523959682 0.077928397859976795 0 0.255432942666935 0.081901970077894445 0 0.26090667523959682 0.077928397859976795 0 0.255432942666935 0.081901970077894445 0 0.26059252414335621 0.084412227911071128 0 0.26090667523959682 0.077928397859976795 0 0.26059252414335621 0.084412227911071128 0 0.26578873255391011 0.080211486537688073 0 0.26059252414335621 0.084412227911071128 0 0.26578873255391011 0.080211486537688073 0 0.26449314674478802 0.09441178954982743 0 0.25536201755562399 0.088042419485091727 0 0.26449314674478802 0.09441178954982743 0 0.25532167250195609 0.094188187240565935 0 0.25536201755562399 0.088042419485091727 0 0.26059252414335621 0.084412227911071128 0 0.26449314674478802 0.09441178954982743 0 0.27581425187114872 0.071423339239119768 0 0.27619830163802289 0.076536859041218597 0 0.26449314674478802 0.09441178954982743 0 0.26578873255391011 0.080211486537688073 0 0.27581425187114872 0.071423339239119768 0 0.26449314674478802 0.09441178954982743 0 0.27619830163802289 0.076536859041218597 0 0.2627993532769578 0.1022009250943538 0 0.27619830163802289 0.076536859041218597 0 0.27283405103606118 0.09668015668372433 0 0.2627993532769578 0.1022009250943538 0 0.27619830163802289 0.076536859041218597 0 0.26449314674478802 0.09441178954982743 0 0.2627993532769578 0.1022009250943538 0 0.27581425187114872 0.071423339239119768 0 0.26449314674478802 0.09441178954982743 0 0.27804771185795069 0.090144612873940891 0 0.27619830163802289 0.076536859041218597 0 0.27283405103606118 0.09668015668372433 0 0.27804771185795069 0.090144612873940891 0 0.27619830163802289 0.076536859041218597 0 0.28237226173944308 0.083563272611572925 0 0.27619830163802289 0.076536859041218597 0 0.28356744563782399 0.078314058180686652 0 0.28237226173944308 0.083563272611572925 0 0.28959724999908798 0.050872792988083407 0 0.27581425187114872 0.071423339239119768 0 0.27619830163802289 0.076536859041218597 0 0.2710245348797844 0.069358558232148704 0 0.27089520682988089 0.064328756166057821 0 0.27581425187114872 0.071423339239119768 0 0.2669129106706018 0.057945334700090237 0 0.26517788973420642 0.06563168049267637 0 0.27089520682988089 0.064328756166057821 0 0.26517788973420642 0.06563168049267637 0 0.2710245348797844 0.069358558232148704 0 0.2671370647706609 0.072881678128445246 0 0.26517788973420642 0.06563168049267637 0 0.2710245348797844 0.069358558232148704 0 0.27089520682988089 0.064328756166057821 0 0.26578873255391011 0.080211486537688073 0 0.2671370647706609 0.072881678128445246 0 0.27581425187114872 0.071423339239119768 0 0.2710245348797844 0.069358558232148704 0 0.2671370647706609 0.072881678128445246 0 0.27581425187114872 0.071423339239119768 0 0.27506310060840722 0.056735465408865628 0 0.27089520682988089 0.064328756166057821 0 0.27581425187114872 0.071423339239119768 0 0.28959724999908798 0.050872792988083407 0 0.27619830163802289 0.076536859041218597 0 0.28959724999908798 0.050872792988083407 0 0.27619830163802289 0.076536859041218597 0 0.28854534754356898 0.063677504960884188 0 0.29377396132550471 0.064142818017496772 0 0.28765391687435621 0.071515568802742499 0 0.29703705005029479 0.073254713138633701 0 0.28854534754356898 0.063677504960884188 0 0.29377396132550471 0.064142818017496772 0 0.28765391687435621 0.071515568802742499 0 0.28765391687435621 0.071515568802742499 0 0.28965284004210168 0.082160998385165829 0 0.29703705005029479 0.073254713138633701 0 0.27619830163802289 0.076536859041218597 0 0.28765391687435621 0.071515568802742499 0 0.28356744563782399 0.078314058180686652 0 0.28765391687435621 0.071515568802742499 0 0.28356744563782399 0.078314058180686652 0 0.28965284004210168 0.082160998385165829 0 0.27619830163802289 0.076536859041218597 0 0.28854534754356898 0.063677504960884188 0 0.28765391687435621 0.071515568802742499 0 0.28237226173944308 0.083563272611572925 0 0.28539972061045799 0.090985125900573463 0 0.28965284004210168 0.082160998385165829 0 0.28356744563782399 0.078314058180686652 0 0.28237226173944308 0.083563272611572925 0 0.28965284004210168 0.082160998385165829 0 0.27804771185795069 0.090144612873940891 0 0.28539972061045799 0.090985125900573463 0 0.28082738107256261 0.098091310669349507 0 0.27804771185795069 0.090144612873940891 0 0.28237226173944308 0.083563272611572925 0 0.28539972061045799 0.090985125900573463 0 0.29497316340192348 0.092669725225548741 0 0.28965284004210168 0.082160998385165829 0 0.30094150909004258 0.083472174554593381 0 0.28539972061045799 0.090985125900573463 0 0.29497316340192348 0.092669725225548741 0 0.28965284004210168 0.082160998385165829 0 0.28965284004210168 0.082160998385165829 0 0.30094150909004258 0.083472174554593381 0 0.29703705005029479 0.073254713138633701 0 0.31332282351903318 0.075267873976686522 0 0.30094150909004258 0.083472174554593381 0 0.30879541068898642 0.095362619109752231 0 0.29497316340192348 0.092669725225548741 0 0.30094150909004258 0.083472174554593381 0 0.30879541068898642 0.095362619109752231 0 0.31332282351903318 0.075267873976686522 0 0.30094150909004258 0.083472174554593381 0 0.29703705005029479 0.073254713138633701 0 0.31332282351903318 0.075267873976686522 0 0.31582306330556131 0.057745046865361492 0 0.30302825855951798 0.063293164684411984 0 0.31332282351903318 0.075267873976686522 0 0.30302825855951798 0.063293164684411984 0 0.29703705005029479 0.073254713138633701 0 0.29377396132550471 0.064142818017496772 0 0.30302825855951798 0.063293164684411984 0 0.29703705005029479 0.073254713138633701 0 0.32190902364229362 0.1112199605861612 0 0.29993120213624053 0.1231599278919365 0 0.30532860762594433 0.10987975783622519 0 0.32190902364229362 0.1112199605861612 0 0.29993120213624053 0.1231599278919365 0 0.30311275813621602 0.1320368506239811 0 0.29799492097751562 0.1126445766268461 0 0.29993120213624053 0.1231599278919365 0 0.30532860762594433 0.10987975783622519 0 0.32190902364229362 0.1112199605861612 0 0.30532860762594433 0.10987975783622519 0 0.30879541068898642 0.095362619109752231 0 0.29497316340192348 0.092669725225548741 0 0.30879541068898642 0.095362619109752231 0 0.29612641467021589 0.10445483379089281 0 0.29799492097751562 0.1126445766268461 0 0.30532860762594433 0.10987975783622519 0 0.29612641467021589 0.10445483379089281 0 0.30532860762594433 0.10987975783622519 0 0.30879541068898642 0.095362619109752231 0 0.29612641467021589 0.10445483379089281 0 0.29612641467021589 0.10445483379089281 0 0.28495548074444838 0.1064508995524928 0 0.29059345947766202 0.1130837869883301 0 0.29612641467021589 0.10445483379089281 0 0.28882743222874729 0.099460160407156495 0 0.28495548074444838 0.1064508995524928 0 0.28539972061045799 0.090985125900573463 0 0.29497316340192348 0.092669725225548741 0 0.28882743222874729 0.099460160407156495 0 0.29497316340192348 0.092669725225548741 0 0.29612641467021589 0.10445483379089281 0 0.28882743222874729 0.099460160407156495 0 0.28539972061045799 0.090985125900573463 0 0.28882743222874729 0.099460160407156495 0 0.28082738107256261 0.098091310669349507 0 0.28882743222874729 0.099460160407156495 0 0.28495548074444838 0.1064508995524928 0 0.28082738107256261 0.098091310669349507 0 0.28495548074444838 0.1064508995524928 0 0.29059345947766202 0.1130837869883301 0 0.27756124710803393 0.1174293012524974 0 0.29993120213624053 0.1231599278919365 0 0.29059345947766202 0.1130837869883301 0 0.27756124710803393 0.1174293012524974 0 0.29799492097751562 0.1126445766268461 0 0.29612641467021589 0.10445483379089281 0 0.29059345947766202 0.1130837869883301 0 0.29799492097751562 0.1126445766268461 0 0.29993120213624053 0.1231599278919365 0 0.29059345947766202 0.1130837869883301 0 0.28495548074444838 0.1064508995524928 0 0.27756124710803393 0.1174293012524974 0 0.27563261250098009 0.1055718261231496 0 0.27756124710803393 0.1174293012524974 0 0.26728014342453432 0.1122296976907068 0 0.27563261250098009 0.1055718261231496 0 0.27756124710803393 0.1174293012524974 0 0.26728014342453432 0.1122296976907068 0 0.26504064852199732 0.12521831349561671 0 0.27804771185795069 0.090144612873940891 0 0.28082738107256261 0.098091310669349507 0 0.27283405103606118 0.09668015668372433 0 0.28082738107256261 0.098091310669349507 0 0.27563261250098009 0.1055718261231496 0 0.27283405103606118 0.09668015668372433 0 0.28495548074444838 0.1064508995524928 0 0.28082738107256261 0.098091310669349507 0 0.27563261250098009 0.1055718261231496 0 0.27563261250098009 0.1055718261231496 0 0.26928354146688283 0.1045409890690248 0 0.27283405103606118 0.09668015668372433 0 0.26728014342453432 0.1122296976907068 0 0.26928354146688283 0.1045409890690248 0 0.2627993532769578 0.1022009250943538 0 0.26728014342453432 0.1122296976907068 0 0.27563261250098009 0.1055718261231496 0 0.26928354146688283 0.1045409890690248 0 0.26928354146688283 0.1045409890690248 0 0.27283405103606118 0.09668015668372433 0 0.2627993532769578 0.1022009250943538 0 0.26449314674478802 0.09441178954982743 0 0.2627993532769578 0.1022009250943538 0 0.25317204161842732 0.1174002398605351 0 0.26449314674478802 0.09441178954982743 0 0.25317204161842732 0.1174002398605351 0 0.26449314674478802 0.09441178954982743 0 0.25286483021549921 0.1013522659841926 0 0.25317204161842732 0.1174002398605351 0 0.24569862948514509 0.091230814225826212 0 0.25286483021549921 0.1013522659841926 0 0.25532167250195609 0.094188187240565935 0 0.26449314674478802 0.09441178954982743 0 0.25286483021549921 0.1013522659841926 0 0.25532167250195609 0.094188187240565935 0 0.26728014342453432 0.1122296976907068 0 0.25317204161842732 0.1174002398605351 0 0.26504064852199732 0.12521831349561671 0 0.26728014342453432 0.1122296976907068 0 0.2627993532769578 0.1022009250943538 0 0.25317204161842732 0.1174002398605351 0 0.25317204161842732 0.1174002398605351 0 0.25447365927535059 0.13334183285330251 0 0.26504064852199732 0.12521831349561671 0 0.25447365927535059 0.13334183285330251 0 0.26504064852199732 0.12521831349561671 0 0.27440324337117977 0.1384017584831583 0 0.27756124710803393 0.1174293012524974 0 0.26504064852199732 0.12521831349561671 0 0.27440324337117977 0.1384017584831583 0 0.27440324337117977 0.1384017584831583 0 0.26632669142009829 0.15904504765057551 0 0.28431649263013847 0.15285374066180091 0 0.2488752846061219 0.15364358907438461 0 0.27440324337117977 0.1384017584831583 0 0.2488752846061219 0.15364358907438461 0 0.27440324337117977 0.1384017584831583 0 0.26632669142009829 0.15904504765057551 0 0.2488752846061219 0.15364358907438461 0 0.25447365927535059 0.13334183285330251 0 0.27440324337117977 0.1384017584831583 0 0.2477365591857453 0.16793806492643179 0 0.2488752846061219 0.15364358907438461 0 0.25851820936899039 0.17665551933391299 0 0.2488752846061219 0.15364358907438461 0 0.25851820936899039 0.17665551933391299 0 0.26632669142009829 0.15904504765057551 0 0.2488752846061219 0.15364358907438461 0 0.25851820936899039 0.17665551933391299 0 0.26552022712406098 0.1736706306996208 0 0.25851820936899039 0.17665551933391299 0 0.26632669142009829 0.15904504765057551 0 0.25851820936899039 0.17665551933391299 0 0.26651773168998888 0.18446110209268091 0 0.26816113413185821 0.19966744959344149 0 0.24828453414083809 0.18270870522598159 0 0.25851820936899039 0.17665551933391299 0 0.25346340239848258 0.19429911864016761 0 0.24860549358682249 0.17609136961635369 0 0.24828453414083809 0.18270870522598159 0 0.25851820936899039 0.17665551933391299 0 0.24860549358682249 0.17609136961635369 0 0.2477365591857453 0.16793806492643179 0 0.25851820936899039 0.17665551933391299 0 0.26552022712406098 0.1736706306996208 0 0.25851820936899039 0.17665551933391299 0 0.26651773168998888 0.18446110209268091 0 0.26651773168998888 0.18446110209268091 0 0.28107489948377051 0.16999881818896151 0 0.29292917209341901 0.1805645172298759 0 0.26651773168998888 0.18446110209268091 0 0.29292917209341901 0.1805645172298759 0 0.27947839225604998 0.19222166887066919 0 0.26651773168998888 0.18446110209268091 0 0.29292917209341901 0.1805645172298759 0 0.26552022712406098 0.1736706306996208 0 0.26651773168998888 0.18446110209268091 0 0.28107489948377051 0.16999881818896151 0 0.26552022712406098 0.1736706306996208 0 0.26632669142009829 0.15904504765057551 0 0.28431649263013847 0.15285374066180091 0 0.26552022712406098 0.1736706306996208 0 0.28431649263013847 0.15285374066180091 0 0.26552022712406098 0.1736706306996208 0 0.28107489948377051 0.16999881818896151 0 0.28431649263013847 0.15285374066180091 0 0.28107489948377051 0.16999881818896151 0 0.29292917209341901 0.1805645172298759 0 0.29903218705801909 0.16338656494504711 0 0.28107489948377051 0.16999881818896151 0 0.29903218705801909 0.16338656494504711 0 0.28431649263013847 0.15285374066180091 0 0.29292917209341901 0.1805645172298759 0 0.30676178760602468 0.19560095974312069 0 0.31934061249684881 0.1766679323670711 0 0.29292917209341901 0.1805645172298759 0 0.29903218705801909 0.16338656494504711 0 0.31934061249684881 0.1766679323670711 0 0.29292917209341901 0.1805645172298759 0 0.31934061249684881 0.1766679323670711 0 0.29903218705801909 0.16338656494504711 0 0.31500510042158197 0.15578491890592031 0 0.31934061249684881 0.1766679323670711 0 0.30317660797993862 0.14915617470879669 0 0.30311275813621602 0.1320368506239811 0 0.31441650165373741 0.141718798407234 0 0.29903218705801909 0.16338656494504711 0 0.30317660797993862 0.14915617470879669 0 0.31500510042158197 0.15578491890592031 0 0.30317660797993862 0.14915617470879669 0 0.31441650165373741 0.141718798407234 0 0.31500510042158197 0.15578491890592031 0 0.29993120213624053 0.1231599278919365 0 0.30311275813621602 0.1320368506239811 0 0.28952040317330341 0.13865819228090681 0 0.29993120213624053 0.1231599278919365 0 0.27756124710803393 0.1174293012524974 0 0.27440324337117977 0.1384017584831583 0 0.29993120213624053 0.1231599278919365 0 0.27440324337117977 0.1384017584831583 0 0.29993120213624053 0.1231599278919365 0 0.27440324337117977 0.1384017584831583 0 0.28952040317330341 0.13865819228090681 0 0.27440324337117977 0.1384017584831583 0 0.28952040317330341 0.13865819228090681 0 0.28431649263013847 0.15285374066180091 0 0.30311275813621602 0.1320368506239811 0 0.28952040317330341 0.13865819228090681 0 0.28431649263013847 0.15285374066180091 0 0.29903218705801909 0.16338656494504711 0 0.30317660797993862 0.14915617470879669 0 0.28431649263013847 0.15285374066180091 0 0.30317660797993862 0.14915617470879669 0 0.30311275813621602 0.1320368506239811 0 0.28431649263013847 0.15285374066180091 0 0.30311275813621602 0.1320368506239811 0 0.28431649263013847 0.15285374066180091 0 0.27274650067125872 0.23950261280184809 0 0.27780405889472598 0.22267937985297009 0 0.2874469836575938 0.24569131011249859 0 0.27895730928881718 0.25219701727381849 0 0.27274650067125872 0.23950261280184809 0 0.2874469836575938 0.24569131011249859 0 0.26790441657201608 0.25086920593660988 0 0.27895730928881718 0.25219701727381849 0 0.27274650067125872 0.23950261280184809 0 0.26790441657201608 0.25086920593660988 0 0.27274650067125872 0.23950261280184809 0 0.26003692363495678 0.23926571198872351 0 0.24325396879045211 0.2398476797085656 0 0.25562675326591239 0.25012877547937301 0 0.26003692363495678 0.23926571198872351 0 0.24325396879045211 0.2398476797085656 0 0.26003692363495678 0.23926571198872351 0 0.252219714153534 0.23102059151017329 0 0.25562675326591239 0.25012877547937301 0 0.26790441657201608 0.25086920593660988 0 0.26003692363495678 0.23926571198872351 0 0.27274650067125872 0.23950261280184809 0 0.26003692363495678 0.23926571198872351 0 0.26225442715876868 0.22731476717094909 0 0.26225442715876868 0.22731476717094909 0 0.25064340427912452 0.21993090778693361 0 0.26007596131901239 0.21148939908504641 0 0.26003692363495678 0.23926571198872351 0 0.26225442715876868 0.22731476717094909 0 0.252219714153534 0.23102059151017329 0 0.26225442715876868 0.22731476717094909 0 0.252219714153534 0.23102059151017329 0 0.25064340427912452 0.21993090778693361 0 0.26225442715876868 0.22731476717094909 0 0.27780405889472598 0.22267937985297009 0 0.26007596131901239 0.21148939908504641 0 0.27274650067125872 0.23950261280184809 0 0.26225442715876868 0.22731476717094909 0 0.27780405889472598 0.22267937985297009 0 0.27780405889472598 0.22267937985297009 0 0.26816113413185821 0.19966744959344149 0 0.29030553110893431 0.20419360656667851 0 0.27780405889472598 0.22267937985297009 0 0.26007596131901239 0.21148939908504641 0 0.26816113413185821 0.19966744959344149 0 0.27780405889472598 0.22267937985297009 0 0.26816113413185821 0.19966744959344149 0 0.24511120893490149 0.2053334976865909 0 0.26007596131901239 0.21148939908504641 0 0.25346340239848258 0.19429911864016761 0 0.24511120893490149 0.2053334976865909 0 0.25064340427912452 0.21993090778693361 0 0.26007596131901239 0.21148939908504641 0 0.26007596131901239 0.21148939908504641 0 0.25346340239848258 0.19429911864016761 0 0.26816113413185821 0.19966744959344149 0 0.25851820936899039 0.17665551933391299 0 0.26816113413185821 0.19966744959344149 0 0.25851820936899039 0.17665551933391299 0 0.25346340239848258 0.19429911864016761 0 0.26816113413185821 0.19966744959344149 0 0.26651773168998888 0.18446110209268091 0 0.26816113413185821 0.19966744959344149 0 0.27947839225604998 0.19222166887066919 0 0.26816113413185821 0.19966744959344149 0 0.27947839225604998 0.19222166887066919 0 0.29030553110893431 0.20419360656667851 0 0.29292917209341901 0.1805645172298759 0 0.30676178760602468 0.19560095974312069 0 0.29030553110893431 0.20419360656667851 0 0.29292917209341901 0.1805645172298759 0 0.27947839225604998 0.19222166887066919 0 0.29030553110893431 0.20419360656667851 0 0.30676178760602468 0.19560095974312069 0 0.29030553110893431 0.20419360656667851 0 0.31080396519466058 0.22058817880468209 0 0.29030553110893431 0.20419360656667851 0 0.29424484562267689 0.22419340550433889 0 0.31080396519466058 0.22058817880468209 0 0.27780405889472598 0.22267937985297009 0 0.29030553110893431 0.20419360656667851 0 0.29424484562267689 0.22419340550433889 0 0.27780405889472598 0.22267937985297009 0 0.2874469836575938 0.24569131011249859 0 0.27780405889472598 0.22267937985297009 0 0.29424484562267689 0.22419340550433889 0 0.2874469836575938 0.24569131011249859 0 0.29424484562267689 0.22419340550433889 0 0.31080396519466058 0.22058817880468209 0 0.30229089077876531 0.236301168885583 0 0.31080396519466058 0.22058817880468209 0 0.30229089077876531 0.236301168885583 0 0.31499291857156619 0.24110592051106711 0 0.30378465987332082 0.25052434204464691 0 0.30229089077876531 0.236301168885583 0 0.2874469836575938 0.24569131011249859 0 0.30378465987332082 0.25052434204464691 0 0.30229089077876531 0.236301168885583 0 0.31499291857156619 0.24110592051106711 0 0.30378465987332082 0.25052434204464691 0 0.31641615293184278 0.25424500962241209 0 0.31499291857156619 0.24110592051106711 0 0.29424484562267689 0.22419340550433889 0 0.30229089077876531 0.236301168885583 0 0.2874469836575938 0.24569131011249859 0 0.33965015832584611 0.23510196282362991 0 0.33188621015895542 0.24739286881936881 0 0.35232017727377429 0.2431264211294224 0 0.34365390121996647 0.25890189437814398 0 0.33188621015895542 0.24739286881936881 0 0.35232017727377429 0.2431264211294224 0 0.33965015832584611 0.23510196282362991 0 0.33188621015895542 0.24739286881936881 0 0.32661129998392852 0.23307293267232981 0 0.31641615293184278 0.25424500962241209 0 0.33188621015895542 0.24739286881936881 0 0.31499291857156619 0.24110592051106711 0 0.33188621015895542 0.24739286881936881 0 0.31499291857156619 0.24110592051106711 0 0.32661129998392852 0.23307293267232981 0 0.31080396519466058 0.22058817880468209 0 0.32661129998392852 0.23307293267232981 0 0.33082808773218653 0.21923539306397971 0 0.31080396519466058 0.22058817880468209 0 0.31499291857156619 0.24110592051106711 0 0.32661129998392852 0.23307293267232981 0 0.33965015832584611 0.23510196282362991 0 0.33082808773218653 0.21923539306397971 0 0.34949474788962331 0.22424562649919089 0 0.33965015832584611 0.23510196282362991 0 0.32661129998392852 0.23307293267232981 0 0.33082808773218653 0.21923539306397971 0 0.33082808773218653 0.21923539306397971 0 0.32348930549183103 0.20073954969400831 0 0.34522539185338158 0.20503850629089901 0 0.33082808773218653 0.21923539306397971 0 0.34522539185338158 0.20503850629089901 0 0.34949474788962331 0.22424562649919089 0 0.31080396519466058 0.22058817880468209 0 0.33082808773218653 0.21923539306397971 0 0.32348930549183103 0.20073954969400831 0 0.30676178760602468 0.19560095974312069 0 0.31080396519466058 0.22058817880468209 0 0.32348930549183103 0.20073954969400831 0 0.30676178760602468 0.19560095974312069 0 0.32348930549183103 0.20073954969400831 0 0.31934061249684881 0.1766679323670711 0 0.32348930549183103 0.20073954969400831 0 0.33610353159320561 0.18856241711958399 0 0.31934061249684881 0.1766679323670711 0 0.32348930549183103 0.20073954969400831 0 0.33610353159320561 0.18856241711958399 0 0.34522539185338158 0.20503850629089901 0 0.33610353159320561 0.18856241711958399 0 0.34522539185338158 0.20503850629089901 0 0.35506815254131968 0.1858253850134928 0 0.36450815716140561 0.1997552145494767 0 0.34522539185338158 0.20503850629089901 0 0.35506815254131968 0.1858253850134928 0 0.36450815716140561 0.1997552145494767 0 0.35506815254131968 0.1858253850134928 0 0.37251097601886712 0.18366562941543479 0 0.36450815716140561 0.1997552145494767 0 0.37251097601886712 0.18366562941543479 0 0.3778872076309594 0.19722926842711491 0 0.36450815716140561 0.1997552145494767 0 0.3767100794127457 0.21054572050040721 0 0.3778872076309594 0.19722926842711491 0 0.36450815716140561 0.1997552145494767 0 0.36285146600205159 0.2161674524259298 0 0.3767100794127457 0.21054572050040721 0 0.36285146600205159 0.2161674524259298 0 0.3777119047821168 0.2240998632053611 0 0.3767100794127457 0.21054572050040721 0 0.36450815716140561 0.1997552145494767 0 0.36285146600205159 0.2161674524259298 0 0.34522539185338158 0.20503850629089901 0 0.36285146600205159 0.2161674524259298 0 0.34522539185338158 0.20503850629089901 0 0.34949474788962331 0.22424562649919089 0 0.33965015832584611 0.23510196282362991 0 0.34949474788962331 0.22424562649919089 0 0.35232017727377429 0.2431264211294224 0 0.34949474788962331 0.22424562649919089 0 0.36517006665437851 0.23165868117432101 0 0.35232017727377429 0.2431264211294224 0 0.36285146600205159 0.2161674524259298 0 0.34949474788962331 0.22424562649919089 0 0.36517006665437851 0.23165868117432101 0 0.36517006665437851 0.23165868117432101 0 0.38104696462031362 0.23956565240144209 0 0.3777119047821168 0.2240998632053611 0 0.36285146600205159 0.2161674524259298 0 0.36517006665437851 0.23165868117432101 0 0.3777119047821168 0.2240998632053611 0 0.36149504179621889 0.25929401175910433 0 0.36774152093137391 0.2453274693210358 0 0.35232017727377429 0.2431264211294224 0 0.36517006665437851 0.23165868117432101 0 0.36774152093137391 0.2453274693210358 0 0.38104696462031362 0.23956565240144209 0 0.36517006665437851 0.23165868117432101 0 0.36774152093137391 0.2453274693210358 0 0.35232017727377429 0.2431264211294224 0 0.32938527560185371 0.14532826413169811 0 0.34363113371878617 0.1368257126061016 0 0.35369056734931148 0.15009896131937239 0 0.32938527560185371 0.14532826413169811 0 0.35369056734931148 0.15009896131937239 0 0.32938527560185371 0.14532826413169811 0 0.33082762845874147 0.1630700913695676 0 0.35369056734931148 0.15009896131937239 0 0.32938527560185371 0.14532826413169811 0 0.34363113371878617 0.1368257126061016 0 0.32431644955958172 0.13056782224814301 0 0.34138319674297768 0.1187944945962696 0 0.34363113371878617 0.1368257126061016 0 0.32431644955958172 0.13056782224814301 0 0.32938527560185371 0.14532826413169811 0 0.32431644955958172 0.13056782224814301 0 0.31441650165373741 0.141718798407234 0 0.30311275813621602 0.1320368506239811 0 0.32431644955958172 0.13056782224814301 0 0.31441650165373741 0.141718798407234 0 0.32938527560185371 0.14532826413169811 0 0.31500510042158197 0.15578491890592031 0 0.33082762845874147 0.1630700913695676 0 0.32938527560185371 0.14532826413169811 0 0.31441650165373741 0.141718798407234 0 0.31500510042158197 0.15578491890592031 0 0.31500510042158197 0.15578491890592031 0 0.31934061249684881 0.1766679323670711 0 0.33082762845874147 0.1630700913695676 0 0.31934061249684881 0.1766679323670711 0 0.34575205290027872 0.17277134750426609 0 0.33610353159320561 0.18856241711958399 0 0.31934061249684881 0.1766679323670711 0 0.34575205290027872 0.17277134750426609 0 0.31934061249684881 0.1766679323670711 0 0.33082762845874147 0.1630700913695676 0 0.34575205290027872 0.17277134750426609 0 0.33082762845874147 0.1630700913695676 0 0.34575205290027872 0.17277134750426609 0 0.35369056734931148 0.15009896131937239 0 0.34575205290027872 0.17277134750426609 0 0.36363786316473717 0.16699758204131671 0 0.35369056734931148 0.15009896131937239 0 0.34575205290027872 0.17277134750426609 0 0.35506815254131968 0.1858253850134928 0 0.36363786316473717 0.16699758204131671 0 0.33610353159320561 0.18856241711958399 0 0.34575205290027872 0.17277134750426609 0 0.35506815254131968 0.1858253850134928 0 0.37251097601886712 0.18366562941543479 0 0.36363786316473717 0.16699758204131671 0 0.37652311743534639 0.16915310715173301 0 0.35506815254131968 0.1858253850134928 0 0.37251097601886712 0.18366562941543479 0 0.36363786316473717 0.16699758204131671 0 0.36363786316473717 0.16699758204131671 0 0.35369056734931148 0.15009896131937239 0 0.3779958590967693 0.1548696585070469 0 0.36363786316473717 0.16699758204131671 0 0.3779958590967693 0.1548696585070469 0 0.37652311743534639 0.16915310715173301 0 0.37291626949256063 0.14142282927479621 0 0.35369056734931148 0.15009896131937239 0 0.36008942375607911 0.13465923792833359 0 0.37291626949256063 0.14142282927479621 0 0.35369056734931148 0.15009896131937239 0 0.3779958590967693 0.1548696585070469 0 0.35369056734931148 0.15009896131937239 0 0.3779958590967693 0.1548696585070469 0 0.34363113371878617 0.1368257126061016 0 0.35369056734931148 0.15009896131937239 0 0.36008942375607911 0.13465923792833359 0 0.34138319674297768 0.1187944945962696 0 0.34363113371878617 0.1368257126061016 0 0.36008942375607911 0.13465923792833359 0 0.36301451959545572 0.1133497456928638 0 0.37645368379295618 0.131261972093622 0 0.37874500502542269 0.1318846453020294 0 0.36301451959545572 0.1133497456928638 0 0.36008942375607911 0.13465923792833359 0 0.37645368379295618 0.131261972093622 0 0.37291626949256063 0.14142282927479621 0 0.36008942375607911 0.13465923792833359 0 0.37645368379295618 0.131261972093622 0 0.37874500502542269 0.1318846453020294 0 0.39479965023711983 0.13624754182745619 0 0.3919548609628648 0.1231773373981685 0 0.37291626949256063 0.14142282927479621 0 0.37874500502542269 0.1318846453020294 0 0.39052307793482433 0.14576250049837541 0 0.37874500502542269 0.1318846453020294 0 0.39479965023711983 0.13624754182745619 0 0.37874500502542269 0.1318846453020294 0 0.39479965023711983 0.13624754182745619 0 0.39052307793482433 0.14576250049837541 0 0.37645368379295618 0.131261972093622 0 0.37874500502542269 0.1318846453020294 0 0.37291626949256063 0.14142282927479621 0 0.37645368379295618 0.131261972093622 0 0.37874500502542269 0.1318846453020294 0 0.37874500502542269 0.1318846453020294 0 0.39052307793482433 0.14576250049837541 0 0.39479965023711983 0.13624754182745619 0 0.41085429544881619 0.14061043835288539 0 0.39479965023711983 0.13624754182745619 0 0.4031927334647647 0.1308017199576231 0 0.3919548609628648 0.1231773373981685 0 0.39479965023711983 0.13624754182745619 0 0.4031927334647647 0.1308017199576231 0 0.41085429544881619 0.14061043835288539 0 0.4031927334647647 0.1308017199576231 0 0.3919548609628648 0.1231773373981685 0 0.40477716925009999 0.12130405579618569 0 0.40191612020585782 0.14803020326523439 0 0.40374475112359992 0.16134131949351641 0 0.41085429544881619 0.14061043835288539 0 0.39479965023711983 0.13624754182745619 0 0.40191612020585782 0.14803020326523439 0 0.41085429544881619 0.14061043835288539 0 0.39479965023711983 0.13624754182745619 0 0.40191612020585782 0.14803020326523439 0 0.39052307793482433 0.14576250049837541 0 0.39052307793482433 0.14576250049837541 0 0.4023011508442273 0.1596403556947201 0 0.40191612020585782 0.14803020326523439 0 0.39052307793482433 0.14576250049837541 0 0.4023011508442273 0.1596403556947201 0 0.37291626949256063 0.14142282927479621 0 0.39052307793482433 0.14576250049837541 0 0.3779958590967693 0.1548696585070469 0 0.39052307793482433 0.14576250049837541 0 0.3779958590967693 0.1548696585070469 0 0.4023011508442273 0.1596403556947201 0 0.3779958590967693 0.1548696585070469 0 0.4023011508442273 0.1596403556947201 0 0.3779958590967693 0.1548696585070469 0 0.37652311743534639 0.16915310715173301 0 0.38872788243111978 0.1644926589417586 0 0.3779958590967693 0.1548696585070469 0 0.38872788243111978 0.1644926589417586 0 0.4023011508442273 0.1596403556947201 0 0.37652311743534639 0.16915310715173301 0 0.38872788243111978 0.1644926589417586 0 0.387267380499973 0.17444489646477979 0 0.37251097601886712 0.18366562941543479 0 0.387267380499973 0.17444489646477979 0 0.38970629240893928 0.18932661279705629 0 0.37251097601886712 0.18366562941543479 0 0.37652311743534639 0.16915310715173301 0 0.387267380499973 0.17444489646477979 0 0.39930588313979792 0.17428471507020851 0 0.38970629240893928 0.18932661279705629 0 0.40600630293647089 0.18783470950556461 0 0.387267380499973 0.17444489646477979 0 0.39930588313979792 0.17428471507020851 0 0.38970629240893928 0.18932661279705629 0 0.38872788243111978 0.1644926589417586 0 0.39683013156576807 0.16574665541248779 0 0.4023011508442273 0.1596403556947201 0 0.387267380499973 0.17444489646477979 0 0.39930588313979792 0.17428471507020851 0 0.39683013156576807 0.16574665541248779 0 0.38872788243111978 0.1644926589417586 0 0.387267380499973 0.17444489646477979 0 0.39683013156576807 0.16574665541248779 0 0.39930588313979792 0.17428471507020851 0 0.40374475112359992 0.16134131949351641 0 0.39930588313979792 0.17428471507020851 0 0.39683013156576807 0.16574665541248779 0 0.40374475112359992 0.16134131949351641 0 0.40191612020585782 0.14803020326523439 0 0.40374475112359992 0.16134131949351641 0 0.4023011508442273 0.1596403556947201 0 0.40374475112359992 0.16134131949351641 0 0.4023011508442273 0.1596403556947201 0 0.39683013156576807 0.16574665541248779 0 0.40374475112359992 0.16134131949351641 0 0.4023011508442273 0.1596403556947201 0 0.40374475112359992 0.16134131949351641 0 0.41940381869459642 0.17979206894392871 0 0.40374475112359992 0.16134131949351641 0 0.41136577630159871 0.16141958071395299 0 0.41621734450832598 0.15581143266828429 0 0.41136577630159871 0.16141958071395299 0 0.42142617138294242 0.16399565456240331 0 0.41940381869459642 0.17979206894392871 0 0.40374475112359992 0.16134131949351641 0 0.41136577630159871 0.16141958071395299 0 0.41940381869459642 0.17979206894392871 0 0.39930588313979792 0.17428471507020851 0 0.40374475112359992 0.16134131949351641 0 0.41940381869459642 0.17979206894392871 0 0.40374475112359992 0.16134131949351641 0 0.41136577630159871 0.16141958071395299 0 0.42142617138294242 0.16399565456240331 0 0.42349997485812951 0.15596030296245059 0 0.41621734450832598 0.15581143266828429 0 0.41136577630159871 0.16141958071395299 0 0.42142617138294242 0.16399565456240331 0 0.41621734450832598 0.15581143266828429 0 0.39930588313979792 0.17428471507020851 0 0.41940381869459642 0.17979206894392871 0 0.40600630293647089 0.18783470950556461 0 0.41940381869459642 0.17979206894392871 0 0.43486346393085712 0.18274906762166379 0 0.43506288626559447 0.1982428183943396 0 0.41940381869459642 0.17979206894392871 0 0.43486346393085712 0.18274906762166379 0 0.43004217478263201 0.17155876443929849 0 0.43486346393085712 0.18274906762166379 0 0.43004217478263201 0.17155876443929849 0 0.44331274450444491 0.1710696695743954 0 0.42772890765216792 0.15094439050812261 0 0.44331274450444491 0.1710696695743954 0 0.43001273691244679 0.1595810608032848 0 0.42772890765216792 0.15094439050812261 0 0.44331274450444491 0.1710696695743954 0 0.42142617138294242 0.16399565456240331 0 0.41940381869459642 0.17979206894392871 0 0.43004217478263201 0.17155876443929849 0 0.42142617138294242 0.16399565456240331 0 0.43001273691244679 0.1595810608032848 0 0.42349997485812951 0.15596030296245059 0 0.42142617138294242 0.16399565456240331 0 0.43004217478263201 0.17155876443929849 0 0.43001273691244679 0.1595810608032848 0 0.43004217478263201 0.17155876443929849 0 0.43001273691244679 0.1595810608032848 0 0.44331274450444491 0.1710696695743954 0 0.42772890765216792 0.15094439050812261 0 0.42609119365776149 0.14475110975219699 0 0.4507274624385077 0.15144608743907281 0 0.43001273691244679 0.1595810608032848 0 0.42772890765216792 0.15094439050812261 0 0.42349997485812951 0.15596030296245059 0 0.43001273691244679 0.1595810608032848 0 0.42772890765216792 0.15094439050812261 0 0.42772890765216792 0.15094439050812261 0 0.42349997485812951 0.15596030296245059 0 0.42127749372389078 0.15059502408684769 0 0.42209155102073442 0.14366419523406199 0 0.42609119365776149 0.14475110975219699 0 0.42772890765216792 0.15094439050812261 0 0.42209155102073442 0.14366419523406199 0 0.42609119365776149 0.14475110975219699 0 0.42772890765216792 0.15094439050812261 0 0.42209155102073442 0.14366419523406199 0 0.42127749372389078 0.15059502408684769 0 0.42772890765216792 0.15094439050812261 0 0.42209155102073442 0.14366419523406199 0 0.42772890765216792 0.15094439050812261 0 0.42609119365776149 0.14475110975219699 0 0.42609119365776149 0.14475110975219699 0 0.43555321628293081 0.12757806525810039 0 0.44124614952744412 0.1396373031085007 0 0.42609119365776149 0.14475110975219699 0 0.43555321628293081 0.12757806525810039 0 0.41883928264302828 0.117326833544959 0 0.42609119365776149 0.14475110975219699 0 0.41883928264302828 0.117326833544959 0 0.42209155102073442 0.14366419523406199 0 0.41357769142492329 0.13266922641342019 0 0.42209155102073442 0.14366419523406199 0 0.41357769142492329 0.13266922641342019 0 0.41085429544881619 0.14061043835288539 0 0.42209155102073442 0.14366419523406199 0 0.42609119365776149 0.14475110975219699 0 0.41357769142492329 0.13266922641342019 0 0.42609119365776149 0.14475110975219699 0 0.41357769142492329 0.13266922641342019 0 0.41883928264302828 0.117326833544959 0 0.4031927334647647 0.1308017199576231 0 0.41357769142492329 0.13266922641342019 0 0.40477716925009999 0.12130405579618569 0 0.41357769142492329 0.13266922641342019 0 0.40477716925009999 0.12130405579618569 0 0.41357769142492329 0.13266922641342019 0 0.41085429544881619 0.14061043835288539 0 0.4031927334647647 0.1308017199576231 0 0.41357769142492329 0.13266922641342019 0 0.41085429544881619 0.14061043835288539 0 0.40374475112359992 0.16134131949351641 0 0.41085429544881619 0.14061043835288539 0 0.41517525035834968 0.14884689469469789 0 0.40374475112359992 0.16134131949351641 0 0.41085429544881619 0.14061043835288539 0 0.40374475112359992 0.16134131949351641 0 0.41517525035834968 0.14884689469469789 0 0.41621734450832598 0.15581143266828429 0 0.41517525035834968 0.14884689469469789 0 0.41621734450832598 0.15581143266828429 0 0.42127749372389078 0.15059502408684769 0 0.42349997485812951 0.15596030296245059 0 0.41621734450832598 0.15581143266828429 0 0.42127749372389078 0.15059502408684769 0 0.42209155102073442 0.14366419523406199 0 0.41517525035834968 0.14884689469469789 0 0.42127749372389078 0.15059502408684769 0 0.42209155102073442 0.14366419523406199 0 0.41085429544881619 0.14061043835288539 0 0.41517525035834968 0.14884689469469789 0 0.42209155102073442 0.14366419523406199 0 0.41085429544881619 0.14061043835288539 0 0.39756755710874409 0.24094065695621861 0 0.38104696462031362 0.23956565240144209 0 0.39374611113990932 0.22835342517954621 0 0.39180911311579358 0.25330853568770378 0 0.39756755710874409 0.24094065695621861 0 0.40869693152792502 0.24735339784321941 0 0.39756755710874409 0.24094065695621861 0 0.40801502357323122 0.23275856225991601 0 0.40869693152792502 0.24735339784321941 0 0.37728098021804812 0.25673691851632408 0 0.36774152093137391 0.2453274693210358 0 0.38104696462031362 0.23956565240144209 0 0.39180911311579358 0.25330853568770378 0 0.37728098021804812 0.25673691851632408 0 0.38104696462031362 0.23956565240144209 0 0.39180911311579358 0.25330853568770378 0 0.39756755710874409 0.24094065695621861 0 0.38104696462031362 0.23956565240144209 0 0.38104696462031362 0.23956565240144209 0 0.3777119047821168 0.2240998632053611 0 0.39374611113990932 0.22835342517954621 0 0.3777119047821168 0.2240998632053611 0 0.39374611113990932 0.22835342517954621 0 0.39085446504252142 0.21432160194430561 0 0.39374611113990932 0.22835342517954621 0 0.39085446504252142 0.21432160194430561 0 0.40646283032085168 0.21850275285060111 0 0.39756755710874409 0.24094065695621861 0 0.39374611113990932 0.22835342517954621 0 0.40801502357323122 0.23275856225991601 0 0.39374611113990932 0.22835342517954621 0 0.40646283032085168 0.21850275285060111 0 0.40801502357323122 0.23275856225991601 0 0.39085446504252142 0.21432160194430561 0 0.40255716338257391 0.20184513025652509 0 0.40646283032085168 0.21850275285060111 0 0.39085446504252142 0.21432160194430561 0 0.38815906920536702 0.2021535041304926 0 0.40255716338257391 0.20184513025652509 0 0.3777119047821168 0.2240998632053611 0 0.39085446504252142 0.21432160194430561 0 0.3767100794127457 0.21054572050040721 0 0.3767100794127457 0.21054572050040721 0 0.38815906920536702 0.2021535041304926 0 0.3778872076309594 0.19722926842711491 0 0.39085446504252142 0.21432160194430561 0 0.3767100794127457 0.21054572050040721 0 0.38815906920536702 0.2021535041304926 0 0.37251097601886712 0.18366562941543479 0 0.3778872076309594 0.19722926842711491 0 0.38970629240893928 0.18932661279705629 0 0.38815906920536702 0.2021535041304926 0 0.3778872076309594 0.19722926842711491 0 0.38970629240893928 0.18932661279705629 0 0.38970629240893928 0.18932661279705629 0 0.40255716338257391 0.20184513025652509 0 0.40600630293647089 0.18783470950556461 0 0.38815906920536702 0.2021535041304926 0 0.38970629240893928 0.18932661279705629 0 0.40255716338257391 0.20184513025652509 0 0.40255716338257391 0.20184513025652509 0 0.41662357650434118 0.1954257526083365 0 0.42008771124247057 0.20941403594132429 0 0.41940381869459642 0.17979206894392871 0 0.40600630293647089 0.18783470950556461 0 0.41662357650434118 0.1954257526083365 0 0.40255716338257391 0.20184513025652509 0 0.40600630293647089 0.18783470950556461 0 0.41662357650434118 0.1954257526083365 0 0.41940381869459642 0.17979206894392871 0 0.43506288626559447 0.1982428183943396 0 0.41940381869459642 0.17979206894392871 0 0.41662357650434118 0.1954257526083365 0 0.43506288626559447 0.1982428183943396 0 0.41662357650434118 0.1954257526083365 0 0.43506288626559447 0.1982428183943396 0 0.42008771124247057 0.20941403594132429 0 0.43505780651220149 0.21864949452543081 0 0.42008771124247057 0.20941403594132429 0 0.42147773561197832 0.2260298831887704 0 0.43506288626559447 0.1982428183943396 0 0.43505780651220149 0.21864949452543081 0 0.42008771124247057 0.20941403594132429 0 0.42008771124247057 0.20941403594132429 0 0.40646283032085168 0.21850275285060111 0 0.42147773561197832 0.2260298831887704 0 0.40255716338257391 0.20184513025652509 0 0.42008771124247057 0.20941403594132429 0 0.40646283032085168 0.21850275285060111 0 0.40801502357323122 0.23275856225991601 0 0.42147773561197832 0.2260298831887704 0 0.4239581367398656 0.24260598300228189 0 0.40646283032085168 0.21850275285060111 0 0.40801502357323122 0.23275856225991601 0 0.42147773561197832 0.2260298831887704 0 0.42147773561197832 0.2260298831887704 0 0.4239581367398656 0.24260598300228189 0 0.43898893160593389 0.2337593665004998 0 0.43505780651220149 0.21864949452543081 0 0.42147773561197832 0.2260298831887704 0 0.43898893160593389 0.2337593665004998 0 0.4239581367398656 0.24260598300228189 0 0.43842801881241139 0.2479000485257995 0 0.43898893160593389 0.2337593665004998 0 0.42906412197389571 0.2570425244516783 0 0.4239581367398656 0.24260598300228189 0 0.43842801881241139 0.2479000485257995 0 0.40801502357323122 0.23275856225991601 0 0.4239581367398656 0.24260598300228189 0 0.40869693152792502 0.24735339784321941 0 0.41660256780910371 0.25681781563404321 0 0.4239581367398656 0.24260598300228189 0 0.40869693152792502 0.24735339784321941 0 0.47074335819047369 0.25387354887021418 0 0.46638102140759191 0.2351443172951605 0 0.45807897969436961 0.2452435564163632 0 0.47074335819047369 0.25387354887021418 0 0.46638102140759191 0.2351443172951605 0 0.46638102140759191 0.2351443172951605 0 0.45807897969436961 0.2452435564163632 0 0.45122453833138021 0.2328505701894133 0 0.44987052808673089 0.25251401573437487 0 0.45807897969436961 0.2452435564163632 0 0.44731819930616518 0.24245351147329011 0 0.44987052808673089 0.25251401573437487 0 0.44731819930616518 0.24245351147329011 0 0.43842801881241139 0.2479000485257995 0 0.44731819930616518 0.24245351147329011 0 0.43842801881241139 0.2479000485257995 0 0.43898893160593389 0.2337593665004998 0 0.44731819930616518 0.24245351147329011 0 0.45122453833138021 0.2328505701894133 0 0.43898893160593389 0.2337593665004998 0 0.45807897969436961 0.2452435564163632 0 0.44731819930616518 0.24245351147329011 0 0.45122453833138021 0.2328505701894133 0 0.45122453833138021 0.2328505701894133 0 0.44429011478042257 0.22497282638375971 0 0.45072195383659269 0.21669356784475061 0 0.43505780651220149 0.21864949452543081 0 0.44429011478042257 0.22497282638375971 0 0.45072195383659269 0.21669356784475061 0 0.45122453833138021 0.2328505701894133 0 0.43898893160593389 0.2337593665004998 0 0.44429011478042257 0.22497282638375971 0 0.43505780651220149 0.21864949452543081 0 0.43898893160593389 0.2337593665004998 0 0.44429011478042257 0.22497282638375971 0 0.46638102140759191 0.2351443172951605 0 0.4621074073920447 0.21679600753747899 0 0.46638102140759191 0.2351443172951605 0 0.45122453833138021 0.2328505701894133 0 0.45072195383659269 0.21669356784475061 0 0.46638102140759191 0.2351443172951605 0 0.4621074073920447 0.21679600753747899 0 0.45072195383659269 0.21669356784475061 0 0.46638102140759191 0.2351443172951605 0 0.45072195383659269 0.21669356784475061 0 0.46638102140759191 0.2351443172951605 0 0.4621074073920447 0.21679600753747899 0 0.47267921775682281 0.2239671036185725 0 0.4621074073920447 0.21679600753747899 0 0.45072195383659269 0.21669356784475061 0 0.45783379337649582 0.19844769777979801 0 0.4621074073920447 0.21679600753747899 0 0.45783379337649582 0.19844769777979801 0 0.4621074073920447 0.21679600753747899 0 0.4633295500835653 0.2044397204162216 0 0.45783379337649582 0.19844769777979801 0 0.4621074073920447 0.21679600753747899 0 0.4633295500835653 0.2044397204162216 0 0.47448041820899889 0.21132022770694109 0 0.43506288626559447 0.1982428183943396 0 0.43505780651220149 0.21864949452543081 0 0.45072195383659269 0.21669356784475061 0 0.43506288626559447 0.1982428183943396 0 0.45072195383659269 0.21669356784475061 0 0.43506288626559447 0.1982428183943396 0 0.45072195383659269 0.21669356784475061 0 0.44649569540701772 0.1930820167563565 0 0.45072195383659269 0.21669356784475061 0 0.44649569540701772 0.1930820167563565 0 0.45783379337649582 0.19844769777979801 0 0.43486346393085712 0.18274906762166379 0 0.43506288626559447 0.1982428183943396 0 0.44649569540701772 0.1930820167563565 0 0.4588965813567219 0.1911949486406683 0 0.47448041820899889 0.21132022770694109 0 0.4633295500835653 0.2044397204162216 0 0.4588965813567219 0.1911949486406683 0 0.47448041820899889 0.21132022770694109 0 0.4588965813567219 0.1911949486406683 0 0.47070054789293447 0.19489808488886479 0 0.47448041820899889 0.21132022770694109 0 0.44649569540701772 0.1930820167563565 0 0.4588965813567219 0.1911949486406683 0 0.45783379337649582 0.19844769777979801 0 0.4633295500835653 0.2044397204162216 0 0.4588965813567219 0.1911949486406683 0 0.45783379337649582 0.19844769777979801 0 0.4588965813567219 0.1911949486406683 0 0.47070054789293447 0.19489808488886479 0 0.46961915790691511 0.18369355570865889 0 0.47070054789293447 0.19489808488886479 0 0.47864398782599082 0.20054534918901229 0 0.47448041820899889 0.21132022770694109 0 0.47070054789293447 0.19489808488886479 0 0.48137568315835222 0.19119416152326821 0 0.46961915790691511 0.18369355570865889 0 0.47070054789293447 0.19489808488886479 0 0.47864398782599082 0.20054534918901229 0 0.48137568315835222 0.19119416152326821 0 0.47864398782599082 0.20054534918901229 0 0.48137568315835222 0.19119416152326821 0 0.48801930204367783 0.2047689226369751 0 0.48137568315835222 0.19119416152326821 0 0.5 0.19008116206772629 0 0.48801930204367783 0.2047689226369751 0 0.5 0.19008116206772629 0 0.48801930204367783 0.2047689226369751 0 0.5 0.21532628132262371 0 0.48801930204367783 0.2047689226369751 0 0.5 0.21532628132262371 0 0.48476484243833379 0.22810539667861099 0 0.48801930204367783 0.2047689226369751 0 0.47448041820899889 0.21132022770694109 0 0.48476484243833379 0.22810539667861099 0 0.47864398782599082 0.20054534918901229 0 0.48801930204367783 0.2047689226369751 0 0.47448041820899889 0.21132022770694109 0 0.4621074073920447 0.21679600753747899 0 0.47448041820899889 0.21132022770694109 0 0.47267921775682281 0.2239671036185725 0 0.46638102140759191 0.2351443172951605 0 0.48476484243833379 0.22810539667861099 0 0.4834799970964162 0.23957026998390729 0 0.47448041820899889 0.21132022770694109 0 0.47267921775682281 0.2239671036185725 0 0.48476484243833379 0.22810539667861099 0 0.46638102140759191 0.2351443172951605 0 0.47267921775682281 0.2239671036185725 0 0.48476484243833379 0.22810539667861099 0 0.5 0.21532628132262371 0 0.48476484243833379 0.22810539667861099 0 0.5 0.24057140057752111 0 0.48476484243833379 0.22810539667861099 0 0.5 0.24057140057752111 0 0.4834799970964162 0.23957026998390729 0 0.482774124539739 0.25445996538433652 0 0.5 0.24057140057752111 0 0.4834799970964162 0.23957026998390729 0 0.482774124539739 0.25445996538433652 0 0.46638102140759191 0.2351443172951605 0 0.4834799970964162 0.23957026998390729 0 0.482774124539739 0.25445996538433652 0 0.46638102140759191 0.2351443172951605 0 0.482774124539739 0.25445996538433652 0 0.47074335819047369 0.25387354887021418 0 0.46638102140759191 0.2351443172951605 0 0.46429652631908869 0.1432828489514264 0 0.4507274624385077 0.15144608743907281 0 0.47536373121925318 0.15814106512595091 0 0.4507274624385077 0.15144608743907281 0 0.47536373121925318 0.15814106512595091 0 0.46429652631908869 0.1432828489514264 0 0.45261272573058148 0.13477394998463149 0 0.4507274624385077 0.15144608743907281 0 0.45261272573058148 0.13477394998463149 0 0.47584594666863578 0.1289541629512892 0 0.4528311420384073 0.1173622778597519 0 0.46429652631908869 0.1432828489514264 0 0.45261272573058148 0.13477394998463149 0 0.47584594666863578 0.1289541629512892 0 0.43555321628293081 0.12757806525810039 0 0.45261272573058148 0.13477394998463149 0 0.4528311420384073 0.1173622778597519 0 0.43555321628293081 0.12757806525810039 0 0.44124614952744412 0.1396373031085007 0 0.45261272573058148 0.13477394998463149 0 0.44124614952744412 0.1396373031085007 0 0.45261272573058148 0.13477394998463149 0 0.4507274624385077 0.15144608743907281 0 0.42609119365776149 0.14475110975219699 0 0.44124614952744412 0.1396373031085007 0 0.4507274624385077 0.15144608743907281 0 0.42609119365776149 0.14475110975219699 0 0.4507274624385077 0.15144608743907281 0 0.4507274624385077 0.15144608743907281 0 0.44331274450444491 0.1710696695743954 0 0.46384758234072671 0.16996862128801579 0 0.42772890765216792 0.15094439050812261 0 0.4507274624385077 0.15144608743907281 0 0.44331274450444491 0.1710696695743954 0 0.44649569540701772 0.1930820167563565 0 0.4588965813567219 0.1911949486406683 0 0.44331274450444491 0.1710696695743954 0 0.43486346393085712 0.18274906762166379 0 0.44649569540701772 0.1930820167563565 0 0.44331274450444491 0.1710696695743954 0 0.4588965813567219 0.1911949486406683 0 0.44331274450444491 0.1710696695743954 0 0.44331274450444491 0.1710696695743954 0 0.45891901652720207 0.1789816988029346 0 0.46384758234072671 0.16996862128801579 0 0.4588965813567219 0.1911949486406683 0 0.44331274450444491 0.1710696695743954 0 0.45891901652720207 0.1789816988029346 0 0.45891901652720207 0.1789816988029346 0 0.46384758234072671 0.16996862128801579 0 0.46961915790691511 0.18369355570865889 0 0.4588965813567219 0.1911949486406683 0 0.45891901652720207 0.1789816988029346 0 0.46961915790691511 0.18369355570865889 0 0.4507274624385077 0.15144608743907281 0 0.46384758234072671 0.16996862128801579 0 0.47536373121925318 0.15814106512595091 0 0.46384758234072671 0.16996862128801579 0 0.47536373121925318 0.15814106512595091 0 0.48358107641641801 0.17495374687333029 0 0.46384758234072671 0.16996862128801579 0 0.48358107641641801 0.17495374687333029 0 0.46961915790691511 0.18369355570865889 0 0.48137568315835222 0.19119416152326821 0 0.48358107641641801 0.17495374687333029 0 0.46961915790691511 0.18369355570865889 0 0.5 0.19008116206772629 0 0.48358107641641801 0.17495374687333029 0 0.49999999999999889 0.16483604281282879 0 0.48137568315835222 0.19119416152326821 0 0.5 0.19008116206772629 0 0.48358107641641801 0.17495374687333029 0 0.47536373121925318 0.15814106512595091 0 0.49999999999999889 0.16483604281282879 0 0.47536373121925318 0.15814106512595091 0 0.48358107641641801 0.17495374687333029 0 0.49999999999999889 0.16483604281282879 0 0.47536373121925318 0.15814106512595091 0 0.49999999999999889 0.16483604281282879 0 0.5 0.13813646209558339 0 0.47536373121925318 0.15814106512595091 0 0.47584594666863578 0.1289541629512892 0 0.5 0.13813646209558339 0 0.46429652631908869 0.1432828489514264 0 0.47536373121925318 0.15814106512595091 0 0.47584594666863578 0.1289541629512892 0 0.47584594666863578 0.1289541629512892 0 0.5 0.13813646209558339 0 0.5 0.1114368813783382 0 0.5 0.1114368813783382 0 0.47312159656510339 0.10009548397910741 0 0.5 0.084737300661092863 0 0.47584594666863578 0.1289541629512892 0 0.5 0.1114368813783382 0 0.47312159656510339 0.10009548397910741 0 0.5 0.084737300661092863 0 0.47841621511768251 0.074271225799716484 0 0.5 0.058037719943847647 0 0.47312159656510339 0.10009548397910741 0 0.47841621511768251 0.074271225799716484 0 0.45766461664005059 0.082746006290742108 0 0.47312159656510339 0.10009548397910741 0 0.5 0.084737300661092863 0 0.47841621511768251 0.074271225799716484 0 0.47841621511768251 0.074271225799716484 0 0.45777369188105432 0.063720386704980037 0 0.47107492019562952 0.055980164086120679 0 0.47841621511768251 0.074271225799716484 0 0.45777369188105432 0.063720386704980037 0 0.45766461664005059 0.082746006290742108 0 0.45777369188105432 0.063720386704980037 0 0.45766461664005059 0.082746006290742108 0 0.44494876220222379 0.073838147120698056 0 0.45766461664005059 0.082746006290742108 0 0.44494876220222379 0.073838147120698056 0 0.4367550055421362 0.08599184791727503 0 0.45766461664005059 0.082746006290742108 0 0.44614812904508339 0.098708407172644896 0 0.4367550055421362 0.08599184791727503 0 0.44494876220222379 0.073838147120698056 0 0.42854031860516129 0.067144665373912393 0 0.4434012350573025 0.049484510457563122 0 0.47584594666863578 0.1289541629512892 0 0.47312159656510339 0.10009548397910741 0 0.4528311420384073 0.1173622778597519 0 0.47312159656510339 0.10009548397910741 0 0.44614812904508339 0.098708407172644896 0 0.4528311420384073 0.1173622778597519 0 0.47312159656510339 0.10009548397910741 0 0.45766461664005059 0.082746006290742108 0 0.44614812904508339 0.098708407172644896 0 0.44614812904508339 0.098708407172644896 0 0.4528311420384073 0.1173622778597519 0 0.43580414736477668 0.1116891810492307 0 0.43555321628293081 0.12757806525810039 0 0.4528311420384073 0.1173622778597519 0 0.43580414736477668 0.1116891810492307 0 0.43555321628293081 0.12757806525810039 0 0.43580414736477668 0.1116891810492307 0 0.41883928264302828 0.117326833544959 0 0.41357769142492329 0.13266922641342019 0 0.41883928264302828 0.117326833544959 0 0.41883928264302828 0.117326833544959 0 0.40477716925009999 0.12130405579618569 0 0.4059692411659987 0.10606560423006629 0 0.41357769142492329 0.13266922641342019 0 0.41883928264302828 0.117326833544959 0 0.40477716925009999 0.12130405579618569 0 0.41883928264302828 0.117326833544959 0 0.41129686114418917 0.088803944883544692 0 0.41883928264302828 0.117326833544959 0 0.42564896681443382 0.097470321410697308 0 0.41129686114418917 0.088803944883544692 0 0.41883928264302828 0.117326833544959 0 0.41129686114418917 0.088803944883544692 0 0.4059692411659987 0.10606560423006629 0 0.43580414736477668 0.1116891810492307 0 0.41883928264302828 0.117326833544959 0 0.42564896681443382 0.097470321410697308 0 0.44614812904508339 0.098708407172644896 0 0.43580414736477668 0.1116891810492307 0 0.42564896681443382 0.097470321410697308 0 0.44614812904508339 0.098708407172644896 0 0.42564896681443382 0.097470321410697308 0 0.4367550055421362 0.08599184791727503 0 0.41883928264302828 0.117326833544959 0 0.42564896681443382 0.097470321410697308 0 0.42564896681443382 0.097470321410697308 0 0.4367550055421362 0.08599184791727503 0 0.42119911835025409 0.079938367161511981 0 0.4367550055421362 0.08599184791727503 0 0.42854031860516129 0.067144665373912393 0 0.42119911835025409 0.079938367161511981 0 0.44494876220222379 0.073838147120698056 0 0.4367550055421362 0.08599184791727503 0 0.42854031860516129 0.067144665373912393 0 0.41129686114418917 0.088803944883544692 0 0.40375443964535013 0.060281056222130529 0 0.41129686114418917 0.088803944883544692 0 0.42119911835025409 0.079938367161511981 0 0.40375443964535013 0.060281056222130529 0 0.42854031860516129 0.067144665373912393 0 0.42119911835025409 0.079938367161511981 0 0.40375443964535013 0.060281056222130529 0 0.42564896681443382 0.097470321410697308 0 0.41129686114418917 0.088803944883544692 0 0.42119911835025409 0.079938367161511981 0 0.41129686114418917 0.088803944883544692 0 0.39093659184545693 0.074635015373884589 0 0.39216909137681522 0.096119967051529781 0 0.39093659184545693 0.074635015373884589 0 0.3827718378248664 0.055075394415006113 0 0.40375443964535013 0.060281056222130529 0 0.41129686114418917 0.088803944883544692 0 0.39093659184545693 0.074635015373884589 0 0.40375443964535013 0.060281056222130529 0 0.37022050058159039 0.066931597565453763 0 0.39093659184545693 0.074635015373884589 0 0.37765205629240978 0.081310460583812194 0 0.37022050058159039 0.066931597565453763 0 0.39093659184545693 0.074635015373884589 0 0.3827718378248664 0.055075394415006113 0 0.37251928656450478 0.099695357822203068 0 0.37765205629240978 0.081310460583812194 0 0.39216909137681522 0.096119967051529781 0 0.39093659184545693 0.074635015373884589 0 0.37765205629240978 0.081310460583812194 0 0.39216909137681522 0.096119967051529781 0 0.37251928656450478 0.099695357822203068 0 0.37841980346381793 0.1168776898494201 0 0.38603736828992741 0.1098864994078403 0 0.37251928656450478 0.099695357822203068 0 0.38603736828992741 0.1098864994078403 0 0.39216909137681522 0.096119967051529781 0 0.37874500502542269 0.1318846453020294 0 0.37841980346381793 0.1168776898494201 0 0.3919548609628648 0.1231773373981685 0 0.37841980346381793 0.1168776898494201 0 0.38603736828992741 0.1098864994078403 0 0.3919548609628648 0.1231773373981685 0 0.38603736828992741 0.1098864994078403 0 0.3961815462091412 0.11131069277675811 0 0.3919548609628648 0.1231773373981685 0 0.3961815462091412 0.11131069277675811 0 0.3919548609628648 0.1231773373981685 0 0.40477716925009999 0.12130405579618569 0 0.3961815462091412 0.11131069277675811 0 0.40477716925009999 0.12130405579618569 0 0.4059692411659987 0.10606560423006629 0 0.41129686114418917 0.088803944883544692 0 0.4059692411659987 0.10606560423006629 0 0.39216909137681522 0.096119967051529781 0 0.38603736828992741 0.1098864994078403 0 0.3961815462091412 0.11131069277675811 0 0.39216909137681522 0.096119967051529781 0 0.3961815462091412 0.11131069277675811 0 0.4059692411659987 0.10606560423006629 0 0.39216909137681522 0.096119967051529781 0 0.38866959664767198 0.00323527889930196 0 0.39621201814651102 0.031758167560716213 0 0.39621201814651102 0.031758167560716213 0 0.40985337053862603 0.028227696929137649 0 0.40712362952988551 0.0079662557155371922 0 0.38866959664767198 0.00323527889930196 0 0.39621201814651102 0.031758167560716213 0 0.40712362952988551 0.0079662557155371922 0 0.37050391496600799 0.01021011951764548 0 0.38866959664767198 0.00323527889930196 0 0.38268801479728898 0.01999203206717123 0 0.37050391496600799 0.01021011951764548 0 0.38866959664767198 0.00323527889930196 0 0.36801596977072248 -0.010996938905334539 0 0.37050391496600799 0.01021011951764548 0 0.38268801479728898 0.01999203206717123 0 0.37536652942896481 0.034764562291021303 0 0.38866959664767198 0.00323527889930196 0 0.38268801479728898 0.01999203206717123 0 0.39621201814651102 0.031758167560716213 0 0.38268801479728898 0.01999203206717123 0 0.37536652942896481 0.034764562291021303 0 0.39621201814651102 0.031758167560716213 0 0.38952620626142298 0.045469795122218527 0 0.37536652942896481 0.034764562291021303 0 0.3827718378248664 0.055075394415006113 0 0.38952620626142298 0.045469795122218527 0 0.37536652942896481 0.034764562291021303 0 0.39621201814651102 0.031758167560716213 0 0.38952620626142298 0.045469795122218527 0 0.3827718378248664 0.055075394415006113 0 0.40375443964535013 0.060281056222130529 0 0.38952620626142298 0.045469795122218527 0 0.40375443964535013 0.060281056222130529 0 0.39621201814651102 0.031758167560716213 0 0.40375443964535013 0.060281056222130529 0 0.39621201814651102 0.031758167560716213 0 0.41837387538757581 0.044196561736944757 0 0.40375443964535013 0.060281056222130529 0 0.39621201814651102 0.031758167560716213 0 0.41837387538757581 0.044196561736944757 0 0.42848187033250401 0.028283273878208729 0 0.40985337053862603 0.028227696929137649 0 0.39621201814651102 0.031758167560716213 0 0.41837387538757581 0.044196561736944757 0 0.40985337053862603 0.028227696929137649 0 0.42854031860516129 0.067144665373912393 0 0.40375443964535013 0.060281056222130529 0 0.41837387538757581 0.044196561736944757 0 0.42854031860516129 0.067144665373912393 0 0.41837387538757581 0.044196561736944757 0 0.4434012350573025 0.049484510457563122 0 0.41837387538757581 0.044196561736944757 0 0.42848187033250401 0.028283273878208729 0 0.4434012350573025 0.049484510457563122 0 0.42848187033250401 0.028283273878208729 0 0.42136420325037333 0.01631907333858074 0 0.43880103244387358 0.0131721611429892 0 0.42136420325037333 0.01631907333858074 0 0.40985337053862603 0.028227696929137649 0 0.40712362952988551 0.0079662557155371922 0 0.42848187033250401 0.028283273878208729 0 0.42136420325037333 0.01631907333858074 0 0.40985337053862603 0.028227696929137649 0 0.42848187033250401 0.028283273878208729 0 0.40985337053862603 0.028227696929137649 0 0.42136420325037333 0.01631907333858074 0 0.40712362952988551 0.0079662557155371922 0 0.42688953342586061 0.001774842671203252 0 0.42136420325037333 0.01631907333858074 0 0.42688953342586061 0.001774842671203252 0 0.43880103244387358 0.0131721611429892 0 0.42688953342586061 0.001774842671203252 0 0.44014151266686752 0.0016474404042982739 0 0.43880103244387358 0.0131721611429892 0 0.44014151266686752 0.0016474404042982739 0 0.45193078663810149 0.00085781146508991102 0 0.43880103244387358 0.0131721611429892 0 0.45193078663810149 0.00085781146508991102 0 0.44711037012638177 0.028338850827279719 0 0.45193078663810149 0.00085781146508991102 0 0.43880103244387358 0.0131721611429892 0 0.44711037012638177 0.028338850827279719 0 0.45193078663810149 0.00085781146508991102 0 0.44711037012638177 0.028338850827279719 0 0.45326583644911339 0.0081432258845518593 0 0.42848187033250401 0.028283273878208729 0 0.44711037012638177 0.028338850827279719 0 0.42848187033250401 0.028283273878208729 0 0.43880103244387358 0.0131721611429892 0 0.44711037012638177 0.028338850827279719 0 0.44711037012638177 0.028338850827279719 0 0.46971346500320948 0.028406285729001259 0 0.44711037012638177 0.028338850827279719 0 0.4596175908377767 0.020901290977930819 0 0.46971346500320948 0.028406285729001259 0 0.4596175908377767 0.020901290977930819 0 0.45326583644911339 0.0081432258845518593 0 0.476632918224557 0.01974068255557699 0 0.44711037012638177 0.028338850827279719 0 0.4596175908377767 0.020901290977930819 0 0.45326583644911339 0.0081432258845518593 0 0.4596175908377767 0.020901290977930819 0 0.46971346500320948 0.028406285729001259 0 0.476632918224557 0.01974068255557699 0 0.45326583644911339 0.0081432258845518593 0 0.476632918224557 0.01974068255557699 0 0.46376020242552268 0.0035782874702215521 0 0.45326583644911339 0.0081432258845518593 0 0.476632918224557 0.01974068255557699 0 0.45193078663810149 0.00085781146508991102 0 0.46376020242552268 0.0035782874702215521 0 0.45326583644911339 0.0081432258845518593 0 0.45777369188105432 0.063720386704980037 0 0.44494876220222379 0.073838147120698056 0 0.4434012350573025 0.049484510457563122 0 0.42848187033250401 0.028283273878208729 0 0.44711037012638177 0.028338850827279719 0 0.4434012350573025 0.049484510457563122 0 0.44711037012638177 0.028338850827279719 0 0.4434012350573025 0.049484510457563122 0 0.44711037012638177 0.028338850827279719 0 0.4434012350573025 0.049484510457563122 0 0.45982142685285893 0.043019988862829178 0 0.44711037012638177 0.028338850827279719 0 0.45982142685285893 0.043019988862829178 0 0.46971346500320948 0.028406285729001259 0 0.45982142685285893 0.043019988862829178 0 0.47107492019562952 0.055980164086120679 0 0.47059394561857287 0.039804996572793933 0 0.45982142685285893 0.043019988862829178 0 0.47059394561857287 0.039804996572793933 0 0.46971346500320948 0.028406285729001259 0 0.45777369188105432 0.063720386704980037 0 0.45982142685285893 0.043019988862829178 0 0.47107492019562952 0.055980164086120679 0 0.45777369188105432 0.063720386704980037 0 0.4434012350573025 0.049484510457563122 0 0.45982142685285893 0.043019988862829178 0 0.47841621511768251 0.074271225799716484 0 0.48405746962176349 0.054690115666887799 0 0.47107492019562952 0.055980164086120679 0 0.48405746962176349 0.054690115666887799 0 0.47107492019562952 0.055980164086120679 0 0.48022343470334772 0.043244902008402357 0 0.47107492019562952 0.055980164086120679 0 0.48022343470334772 0.043244902008402357 0 0.47059394561857287 0.039804996572793933 0 0.48022343470334772 0.043244902008402357 0 0.47059394561857287 0.039804996572793933 0 0.47875154978106099 0.034842626009907153 0 0.47059394561857287 0.039804996572793933 0 0.47875154978106099 0.034842626009907153 0 0.46971346500320948 0.028406285729001259 0 0.48022343470334772 0.043244902008402357 0 0.47875154978106099 0.034842626009907153 0 0.48495988762370501 0.036804317266598163 0 0.50000000000000056 0.031338139226602349 0 0.49057277809215771 0.041916566496351788 0 0.5 0.058037719943847647 0 0.48495988762370501 0.036804317266598163 0 0.49057277809215771 0.041916566496351788 0 0.49269447096155983 0.027712288241167251 0 0.47875154978106099 0.034842626009907153 0 0.48495988762370501 0.036804317266598163 0 0.49269447096155983 0.027712288241167251 0 0.50000000000000056 0.031338139226602349 0 0.49057277809215771 0.041916566496351788 0 0.49269447096155983 0.027712288241167251 0 0.48405746962176349 0.054690115666887799 0 0.48022343470334772 0.043244902008402357 0 0.49057277809215771 0.041916566496351788 0 0.48022343470334772 0.043244902008402357 0 0.48495988762370501 0.036804317266598163 0 0.49057277809215771 0.041916566496351788 0 0.47841621511768251 0.074271225799716484 0 0.48405746962176349 0.054690115666887799 0 0.5 0.058037719943847647 0 0.48405746962176349 0.054690115666887799 0 0.49057277809215771 0.041916566496351788 0 0.5 0.058037719943847647 0 0.47289526663478743 0.00068714239079570609 0 0.476632918224557 0.01974068255557699 0 0.48535160169088359 0.0071820809687210951 0 0.46376020242552268 0.0035782874702215521 0 0.47289526663478743 0.00068714239079570609 0 0.476632918224557 0.01974068255557699 0 0.476632918224557 0.01974068255557699 0 0.49061091439649851 0.016715565937483259 0 0.48535160169088359 0.0071820809687210951 0 0.47875154978106099 0.034842626009907153 0 0.46971346500320948 0.028406285729001259 0 0.49269447096155983 0.027712288241167251 0 0.46971346500320948 0.028406285729001259 0 0.49269447096155983 0.027712288241167251 0 0.46971346500320948 0.028406285729001259 0 0.476632918224557 0.01974068255557699 0 0.49269447096155983 0.027712288241167251 0 0.50000000000000056 0.031338139226602349 0 0.49061091439649851 0.016715565937483259 0 0.5 0.0028050566163951851 0 0.476632918224557 0.01974068255557699 0 0.49269447096155983 0.027712288241167251 0 0.476632918224557 0.01974068255557699 0 0.49061091439649851 0.016715565937483259 0 0.49269447096155983 0.027712288241167251 0 0.50000000000000056 0.031338139226602349 0 0.49061091439649851 0.016715565937483259 0 0.49269447096155983 0.027712288241167251 0 0.50000000000000056 0.031338139226602349 0 0.49269447096155983 0.027712288241167251 0 0.48535160169088359 0.0071820809687210951 0 0.5 0.0028050566163951851 0 0.48296088022747252 -0.0097645056121204877 0 0.49061091439649851 0.016715565937483259 0 0.48535160169088359 0.0071820809687210951 0 0.5 0.0028050566163951851 0 0.5 0.0028050566163951851 0 0.48296088022747252 -0.0097645056121204877 0 0.5 -0.025728025993811961 0 0.47289526663478743 0.00068714239079570609 0 0.48535160169088359 0.0071820809687210951 0 0.48296088022747252 -0.0097645056121204877 0 0.47289526663478743 0.00068714239079570609 0 0.48296088022747252 -0.0097645056121204877 0 0.46407620418105411 -0.011537424944906709 0 0.48296088022747252 -0.0097645056121204877 0 0.47544220885811028 -0.03199586270991623 0 0.46407620418105411 -0.011537424944906709 0 0.48296088022747252 -0.0097645056121204877 0 0.5 -0.025728025993811961 0 0.47544220885811028 -0.03199586270991623 0 0.5 -0.025728025993811961 0 0.48346623535848399 -0.0467720193461197 0 0.47544220885811028 -0.03199586270991623 0 0.5 -0.025728025993811961 0 0.5 -0.05426110860401917 0 0.48346623535848399 -0.0467720193461197 0 0.5 -0.05426110860401917 0 0.48346623535848399 -0.0467720193461197 0 0.48031734827276629 -0.067770832163561903 0 0.48346623535848399 -0.0467720193461197 0 0.46157161966154248 -0.054104267259288963 0 0.48031734827276629 -0.067770832163561903 0 0.48346623535848399 -0.0467720193461197 0 0.47544220885811028 -0.03199586270991623 0 0.46157161966154248 -0.054104267259288963 0 0.46157161966154248 -0.054104267259288963 0 0.44830603307934702 -0.042127323290874957 0 0.45675120314982159 -0.026623227897099581 0 0.47544220885811028 -0.03199586270991623 0 0.46157161966154248 -0.054104267259288963 0 0.45675120314982159 -0.026623227897099581 0 0.46157161966154248 -0.054104267259288963 0 0.45675120314982159 -0.026623227897099581 0 0.47544220885811028 -0.03199586270991623 0 0.46157161966154248 -0.054104267259288963 0 0.46157161966154248 -0.054104267259288963 0 0.44538148905436392 -0.056373758438539458 0 0.44830603307934702 -0.042127323290874957 0 0.46157161966154248 -0.054104267259288963 0 0.44538148905436392 -0.056373758438539458 0 0.44955709500025642 -0.073254280853944226 0 0.44538148905436392 -0.056373758438539458 0 0.44830603307934702 -0.042127323290874957 0 0.43506782365628222 -0.042918809936858322 0 0.44830603307934702 -0.042127323290874957 0 0.44109445823245902 -0.031342825082604768 0 0.45675120314982159 -0.026623227897099581 0 0.44830603307934702 -0.042127323290874957 0 0.44109445823245902 -0.031342825082604768 0 0.43506782365628222 -0.042918809936858322 0 0.44539897638579329 -0.0082604628531807219 0 0.45675120314982159 -0.026623227897099581 0 0.43717990410694257 -0.015892914791477249 0 0.44109445823245902 -0.031342825082604768 0 0.45675120314982159 -0.026623227897099581 0 0.43717990410694257 -0.015892914791477249 0 0.45193078663810149 0.00085781146508991102 0 0.44539897638579329 -0.0082604628531807219 0 0.45675120314982159 -0.026623227897099581 0 0.44014151266686752 0.0016474404042982739 0 0.44539897638579329 -0.0082604628531807219 0 0.43717990410694257 -0.015892914791477249 0 0.44014151266686752 0.0016474404042982739 0 0.45193078663810149 0.00085781146508991102 0 0.44539897638579329 -0.0082604628531807219 0 0.45193078663810149 0.00085781146508991102 0 0.46407620418105411 -0.011537424944906709 0 0.45675120314982159 -0.026623227897099581 0 0.45193078663810149 0.00085781146508991102 0 0.45675120314982159 -0.026623227897099581 0 0.45193078663810149 0.00085781146508991102 0 0.46376020242552268 0.0035782874702215521 0 0.46407620418105411 -0.011537424944906709 0 0.46376020242552268 0.0035782874702215521 0 0.47289526663478743 0.00068714239079570609 0 0.46407620418105411 -0.011537424944906709 0 0.47544220885811028 -0.03199586270991623 0 0.46407620418105411 -0.011537424944906709 0 0.45675120314982159 -0.026623227897099581 0 0.47217021238497647 -0.11452650320266961 0 0.48457245793499482 -0.1223877188882263 0 0.49228622896749719 -0.10352009227328759 0 0.48457245793499482 -0.1223877188882263 0 0.49228622896749719 -0.10352009227328759 0 0.48457245793499482 -0.1223877188882263 0 0.5 -0.1100323677266881 0 0.49228622896749719 -0.10352009227328759 0 0.48457245793499482 -0.1223877188882263 0 0.5 -0.1100323677266881 0 0.5 -0.13541226979502721 0 0.5 -0.1100323677266881 0 0.49228622896749719 -0.10352009227328759 0 0.49999999999999978 -0.084652465658348997 0 0.49228622896749719 -0.10352009227328759 0 0.4789197620384168 -0.097785045609082882 0 0.48374086893373103 -0.085295926058200189 0 0.49228622896749719 -0.10352009227328759 0 0.49999999999999978 -0.084652465658348997 0 0.47217021238497647 -0.11452650320266961 0 0.49228622896749719 -0.10352009227328759 0 0.4789197620384168 -0.097785045609082882 0 0.47217021238497647 -0.11452650320266961 0 0.4789197620384168 -0.097785045609082882 0 0.46748173786746261 -0.087797660902174196 0 0.47217021238497647 -0.11452650320266961 0 0.46748173786746261 -0.087797660902174196 0 0.48374086893373103 -0.085295926058200189 0 0.47401665845961533 -0.077953845801167015 0 0.46748173786746261 -0.087797660902174196 0 0.48374086893373103 -0.085295926058200189 0 0.46748173786746261 -0.087797660902174196 0 0.4789197620384168 -0.097785045609082882 0 0.48374086893373103 -0.085295926058200189 0 0.46748173786746261 -0.087797660902174196 0 0.48374086893373103 -0.085295926058200189 0 0.49999999999999961 -0.082794191214226279 0 0.48031734827276629 -0.067770832163561903 0 0.49228622896749719 -0.10352009227328759 0 0.48374086893373103 -0.085295926058200189 0 0.49999999999999978 -0.084652465658348997 0 0.48374086893373103 -0.085295926058200189 0 0.49999999999999961 -0.082794191214226279 0 0.48374086893373103 -0.085295926058200189 0 0.49999999999999978 -0.084652465658348997 0 0.49999999999999961 -0.082794191214226279 0 0.5 -0.05426110860401917 0 0.49999999999999961 -0.082794191214226279 0 0.48031734827276629 -0.067770832163561903 0 0.48374086893373103 -0.085295926058200189 0 0.48031734827276629 -0.067770832163561903 0 0.47401665845961533 -0.077953845801167015 0 0.46157161966154248 -0.054104267259288963 0 0.48031734827276629 -0.067770832163561903 0 0.46452667876450132 -0.070950964080731829 0 0.48031734827276629 -0.067770832163561903 0 0.47401665845961533 -0.077953845801167015 0 0.46452667876450132 -0.070950964080731829 0 0.46157161966154248 -0.054104267259288963 0 0.44955709500025642 -0.073254280853944226 0 0.46157161966154248 -0.054104267259288963 0 0.46452667876450132 -0.070950964080731829 0 0.46157161966154248 -0.054104267259288963 0 0.46452667876450132 -0.070950964080731829 0 0.44955709500025642 -0.073254280853944226 0 0.46452667876450132 -0.070950964080731829 0 0.44955709500025642 -0.073254280853944226 0 0.45477702049279772 -0.081101800071362459 0 0.44538148905436392 -0.056373758438539458 0 0.44955709500025642 -0.073254280853944226 0 0.42921014738633451 -0.059688970405270242 0 0.44955709500025642 -0.073254280853944226 0 0.43754257033897043 -0.092404294448599406 0 0.43754257033897043 -0.092404294448599406 0 0.46748173786746261 -0.087797660902174196 0 0.44955709500025642 -0.073254280853944226 0 0.43754257033897043 -0.092404294448599406 0 0.45477702049279772 -0.081101800071362459 0 0.47401665845961533 -0.077953845801167015 0 0.46452667876450132 -0.070950964080731829 0 0.46748173786746261 -0.087797660902174196 0 0.43754257033897043 -0.092404294448599406 0 0.46748173786746261 -0.087797660902174196 0 0.45477702049279772 -0.081101800071362459 0 0.46452667876450132 -0.070950964080731829 0 0.46748173786746261 -0.087797660902174196 0 0.46452667876450132 -0.070950964080731829 0 0.46748173786746261 -0.087797660902174196 0 0.45477702049279772 -0.081101800071362459 0 0.47217021238497647 -0.11452650320266961 0 0.46748173786746261 -0.087797660902174196 0 0.44975971092485162 -0.1137132984808801 0 0.43754257033897043 -0.092404294448599406 0 0.46748173786746261 -0.087797660902174196 0 0.44975971092485162 -0.1137132984808801 0 0.43754257033897043 -0.092404294448599406 0 0.44975971092485162 -0.1137132984808801 0 0.42610030697488488 -0.11064217777343049 0 0.47217021238497647 -0.11452650320266961 0 0.44975971092485162 -0.1137132984808801 0 0.46243224528387611 -0.12936119723619621 0 0.42610030697488488 -0.11064217777343049 0 0.40543237136523769 -0.1138400317772346 0 0.41710822639705508 -0.12570255783994991 0 0.40543237136523769 -0.1138400317772346 0 0.40437047291737721 -0.12730443185503901 0 0.41710822639705508 -0.12570255783994991 0 0.42610030697488488 -0.11064217777343049 0 0.4330531352883123 -0.12722417339136269 0 0.41710822639705508 -0.12570255783994991 0 0.44975971092485162 -0.1137132984808801 0 0.42610030697488488 -0.11064217777343049 0 0.4330531352883123 -0.12722417339136269 0 0.43754257033897043 -0.092404294448599406 0 0.42610030697488488 -0.11064217777343049 0 0.43754257033897043 -0.092404294448599406 0 0.41353291185391777 -0.096098575463935451 0 0.43754257033897043 -0.092404294448599406 0 0.42610030697488488 -0.11064217777343049 0 0.41353291185391777 -0.096098575463935451 0 0.42610030697488488 -0.11064217777343049 0 0.41353291185391777 -0.096098575463935451 0 0.40543237136523769 -0.1138400317772346 0 0.41353291185391777 -0.096098575463935451 0 0.40026997620945709 -0.1047838700413781 0 0.40543237136523769 -0.1138400317772346 0 0.41353291185391777 -0.096098575463935451 0 0.42414020086496912 -0.077156833161509231 0 0.40608657907930878 -0.078475359536160028 0 0.44955709500025642 -0.073254280853944226 0 0.43754257033897043 -0.092404294448599406 0 0.42414020086496912 -0.077156833161509231 0 0.43754257033897043 -0.092404294448599406 0 0.41353291185391777 -0.096098575463935451 0 0.42414020086496912 -0.077156833161509231 0 0.44955709500025642 -0.073254280853944226 0 0.42414020086496912 -0.077156833161509231 0 0.42921014738633451 -0.059688970405270242 0 0.42414020086496912 -0.077156833161509231 0 0.40608657907930878 -0.078475359536160028 0 0.40876901767485418 -0.060472900854199992 0 0.42414020086496912 -0.077156833161509231 0 0.42921014738633451 -0.059688970405270242 0 0.40876901767485418 -0.060472900854199992 0 0.39682771509980103 -0.068590270524760188 0 0.40608657907930878 -0.078475359536160028 0 0.40876901767485418 -0.060472900854199992 0 0.39682771509980103 -0.068590270524760188 0 0.39234318502070231 -0.078745641304177869 0 0.40608657907930878 -0.078475359536160028 0 0.39682771509980103 -0.068590270524760188 0 0.378951202620469 -0.072700704403321589 0 0.39234318502070231 -0.078745641304177869 0 0.39682771509980103 -0.068590270524760188 0 0.378951202620469 -0.072700704403321589 0 0.39199698339974492 -0.057134173700174123 0 0.378951202620469 -0.072700704403321589 0 0.38792451098097458 -0.090549435616619628 0 0.38411417834017281 -0.098414564069970678 0 0.378951202620469 -0.072700704403321589 0 0.38411417834017281 -0.098414564069970678 0 0.37170951734450719 -0.089109138617822381 0 0.378951202620469 -0.072700704403321589 0 0.38411417834017281 -0.098414564069970678 0 0.378951202620469 -0.072700704403321589 0 0.38792451098097458 -0.090549435616619628 0 0.39234318502070231 -0.078745641304177869 0 0.41353291185391777 -0.096098575463935451 0 0.39759391116704262 -0.088557721416884588 0 0.40608657907930878 -0.078475359536160028 0 0.38792451098097458 -0.090549435616619628 0 0.39759391116704262 -0.088557721416884588 0 0.39234318502070231 -0.078745641304177869 0 0.38792451098097458 -0.090549435616619628 0 0.39759391116704262 -0.088557721416884588 0 0.38952325336886512 -0.099792856479271205 0 0.39759391116704262 -0.088557721416884588 0 0.39234318502070231 -0.078745641304177869 0 0.40608657907930878 -0.078475359536160028 0 0.41353291185391777 -0.096098575463935451 0 0.38952325336886512 -0.099792856479271205 0 0.41353291185391777 -0.096098575463935451 0 0.39759391116704262 -0.088557721416884588 0 0.38952325336886512 -0.099792856479271205 0 0.41353291185391777 -0.096098575463935451 0 0.40026997620945709 -0.1047838700413781 0 0.38952325336886512 -0.099792856479271205 0 0.40026997620945709 -0.1047838700413781 0 0.39259136824980789 -0.109404016445071 0 0.40543237136523769 -0.1138400317772346 0 0.40026997620945709 -0.1047838700413781 0 0.38952325336886512 -0.099792856479271205 0 0.39259136824980789 -0.109404016445071 0 0.38792451098097458 -0.090549435616619628 0 0.38411417834017281 -0.098414564069970678 0 0.38952325336886512 -0.099792856479271205 0 0.38792451098097458 -0.090549435616619628 0 0.38411417834017281 -0.098414564069970678 0 0.38411417834017281 -0.098414564069970678 0 0.37188528678964461 -0.12365692791427731 0 0.37178943875945508 -0.099032417605290871 0 0.38411417834017281 -0.098414564069970678 0 0.37170951734450719 -0.089109138617822381 0 0.37178943875945508 -0.099032417605290871 0 0.38411417834017281 -0.098414564069970678 0 0.38952325336886512 -0.099792856479271205 0 0.39259136824980789 -0.109404016445071 0 0.38411417834017281 -0.098414564069970678 0 0.38893995291847788 -0.1224490157168735 0 0.39259136824980789 -0.109404016445071 0 0.38411417834017281 -0.098414564069970678 0 0.38893995291847788 -0.1224490157168735 0 0.38411417834017281 -0.098414564069970678 0 0.38893995291847788 -0.1224490157168735 0 0.37188528678964461 -0.12365692791427731 0 0.38411417834017281 -0.098414564069970678 0 0.37188528678964461 -0.12365692791427731 0 0.38893995291847788 -0.1224490157168735 0 0.39259136824980789 -0.109404016445071 0 0.40543237136523769 -0.1138400317772346 0 0.38893995291847788 -0.1224490157168735 0 0.40543237136523769 -0.1138400317772346 0 0.40437047291737721 -0.12730443185503901 0 0.41414652216201331 -0.013657836000206749 0 0.42816732716990102 -0.029151849496713771 0 0.41410578264788972 -0.038866330709188511 0 0.41414652216201331 -0.013657836000206749 0 0.41410578264788972 -0.038866330709188511 0 0.39396737453138769 -0.030322340368439251 0 0.40712362952988551 0.0079662557155371922 0 0.42688953342586061 0.001774842671203252 0 0.41414652216201331 -0.013657836000206749 0 0.42688953342586061 0.001774842671203252 0 0.41414652216201331 -0.013657836000206749 0 0.43717990410694257 -0.015892914791477249 0 0.42688953342586061 0.001774842671203252 0 0.44014151266686752 0.0016474404042982739 0 0.43717990410694257 -0.015892914791477249 0 0.41414652216201331 -0.013657836000206749 0 0.43717990410694257 -0.015892914791477249 0 0.42816732716990102 -0.029151849496713771 0 0.44109445823245902 -0.031342825082604768 0 0.43717990410694257 -0.015892914791477249 0 0.42816732716990102 -0.029151849496713771 0 0.42816732716990102 -0.029151849496713771 0 0.43506782365628222 -0.042918809936858322 0 0.41410578264788972 -0.038866330709188511 0 0.44109445823245902 -0.031342825082604768 0 0.42816732716990102 -0.029151849496713771 0 0.43506782365628222 -0.042918809936858322 0 0.43506782365628222 -0.042918809936858322 0 0.42921014738633451 -0.059688970405270242 0 0.41410578264788972 -0.038866330709188511 0 0.44538148905436392 -0.056373758438539458 0 0.43506782365628222 -0.042918809936858322 0 0.42921014738633451 -0.059688970405270242 0 0.42921014738633451 -0.059688970405270242 0 0.40876901767485418 -0.060472900854199992 0 0.41410578264788972 -0.038866330709188511 0 0.40876901767485418 -0.060472900854199992 0 0.41410578264788972 -0.038866330709188511 0 0.39912010537514281 -0.044740046444107777 0 0.41410578264788972 -0.038866330709188511 0 0.39912010537514281 -0.044740046444107777 0 0.39396737453138769 -0.030322340368439251 0 0.39682771509980103 -0.068590270524760188 0 0.40876901767485418 -0.060472900854199992 0 0.39199698339974492 -0.057134173700174123 0 0.40876901767485418 -0.060472900854199992 0 0.39912010537514281 -0.044740046444107777 0 0.39199698339974492 -0.057134173700174123 0 0.39912010537514281 -0.044740046444107777 0 0.39199698339974492 -0.057134173700174123 0 0.37378822690076319 -0.046986844736672972 0 0.378951202620469 -0.072700704403321589 0 0.39199698339974492 -0.057134173700174123 0 0.37378822690076319 -0.046986844736672972 0 0.378951202620469 -0.072700704403321589 0 0.37378822690076319 -0.046986844736672972 0 0.39396737453138769 -0.030322340368439251 0 0.37378822690076319 -0.046986844736672972 0 0.39912010537514281 -0.044740046444107777 0 0.39396737453138769 -0.030322340368439251 0 0.37378822690076319 -0.046986844736672972 0 0.39396737453138769 -0.030322340368439251 0 0.37154797989195659 -0.035829442430238313 0 0.37378822690076319 -0.046986844736672972 0 0.38002621511807039 -0.021956118071751289 0 0.39396737453138769 -0.030322340368439251 0 0.37154797989195659 -0.035829442430238313 0 0.38002621511807039 -0.021956118071751289 0 0.39396737453138769 -0.030322340368439251 0 0.39489437254758442 -0.012979001567886511 0 0.41414652216201331 -0.013657836000206749 0 0.39396737453138769 -0.030322340368439251 0 0.39489437254758442 -0.012979001567886511 0 0.41414652216201331 -0.013657836000206749 0 0.39396737453138769 -0.030322340368439251 0 0.38866959664767198 0.00323527889930196 0 0.40712362952988551 0.0079662557155371922 0 0.39489437254758442 -0.012979001567886511 0 0.40712362952988551 0.0079662557155371922 0 0.41414652216201331 -0.013657836000206749 0 0.39489437254758442 -0.012979001567886511 0 0.38866959664767198 0.00323527889930196 0 0.38002621511807039 -0.021956118071751289 0 0.39489437254758442 -0.012979001567886511 0 0.38866959664767198 0.00323527889930196 0 0.38002621511807039 -0.021956118071751289 0 0.36801596977072248 -0.010996938905334539 0 0.38002621511807039 -0.021956118071751289 0 0.36742354856206833 -0.024367642048481249 0 0.37154797989195659 -0.035829442430238313 0 0.38002621511807039 -0.021956118071751289 0 0.36801596977072248 -0.010996938905334539 0 0.36742354856206833 -0.024367642048481249 0 0.36801596977072248 -0.010996938905334539 0 0.36742354856206833 -0.024367642048481249 0 0.35811390960877632 -0.021261521387043871 0 0.36742354856206833 -0.024367642048481249 0 0.35941366842081551 -0.03179418944803819 0 0.37154797989195659 -0.035829442430238313 0 0.36742354856206833 -0.024367642048481249 0 0.35811390960877632 -0.021261521387043871 0 0.35941366842081551 -0.03179418944803819 0 0.35811390960877632 -0.021261521387043871 0 0.34765993407508589 -0.025461892616750779 0 0.35941366842081551 -0.03179418944803819 0 0.35811390960877632 -0.021261521387043871 0 0.34765993407508589 -0.025461892616750779 0 0.3488306403280822 -0.010893743318241351 0 0.34765993407508589 -0.025461892616750779 0 0.3488306403280822 -0.010893743318241351 0 0.33795265408867381 -0.018937592279039579 0 0.35485592375002289 0.0052624303010918774 0 0.33880154088073788 0.001854769857611121 0 0.3488306403280822 -0.010893743318241351 0 0.36801596977072248 -0.010996938905334539 0 0.35811390960877632 -0.021261521387043871 0 0.3488306403280822 -0.010893743318241351 0 0.35485592375002289 0.0052624303010918774 0 0.36801596977072248 -0.010996938905334539 0 0.3488306403280822 -0.010893743318241351 0 0.33880154088073788 0.001854769857611121 0 0.3488306403280822 -0.010893743318241351 0 0.33507723757649399 -0.0095060880361464168 0 0.33880154088073788 0.001854769857611121 0 0.32924853545458488 -0.0036933257099089289 0 0.33507723757649399 -0.0095060880361464168 0 0.33507723757649399 -0.0095060880361464168 0 0.33795265408867381 -0.018937592279039579 0 0.3306463569490527 -0.01700685660921877 0 0.32924853545458488 -0.0036933257099089289 0 0.33507723757649399 -0.0095060880361464168 0 0.32598974057547392 -0.01048853227923683 0 0.33507723757649399 -0.0095060880361464168 0 0.3306463569490527 -0.01700685660921877 0 0.32598974057547392 -0.01048853227923683 0 0.3488306403280822 -0.010893743318241351 0 0.33507723757649399 -0.0095060880361464168 0 0.33795265408867381 -0.018937592279039579 0 0.33795265408867381 -0.018937592279039579 0 0.33883867425213587 -0.026124028950296599 0 0.33201304134650811 -0.023337075514412931 0 0.34765993407508589 -0.025461892616750779 0 0.33795265408867381 -0.018937592279039579 0 0.33883867425213587 -0.026124028950296599 0 0.34765993407508589 -0.025461892616750779 0 0.33883867425213587 -0.026124028950296599 0 0.3421737991240984 -0.031827026719402129 0 0.33883867425213587 -0.026124028950296599 0 0.33439394262631311 -0.031056557621877579 0 0.3421737991240984 -0.031827026719402129 0 0.33439394262631311 -0.031056557621877579 0 0.33201304134650811 -0.023337075514412931 0 0.32219911115811378 -0.02276499493725807 0 0.33439394262631311 -0.031056557621877579 0 0.32219911115811378 -0.02276499493725807 0 0.33548390204492101 -0.038014678759930948 0 0.33883867425213587 -0.026124028950296599 0 0.33439394262631311 -0.031056557621877579 0 0.33201304134650811 -0.023337075514412931 0 0.33201304134650811 -0.023337075514412931 0 0.3306463569490527 -0.01700685660921877 0 0.32219911115811378 -0.02276499493725807 0 0.33795265408867381 -0.018937592279039579 0 0.33201304134650811 -0.023337075514412931 0 0.3306463569490527 -0.01700685660921877 0 0.3306463569490527 -0.01700685660921877 0 0.32219911115811378 -0.02276499493725807 0 0.32598974057547392 -0.01048853227923683 0 0.31698094753487549 -0.029385876559149982 0 0.31563891357406643 -0.015743234959867219 0 0.30925292872250443 -0.02954865333080994 0 0.32219911115811378 -0.02276499493725807 0 0.31698094753487549 -0.029385876559149982 0 0.32067231022229142 -0.037287720781128172 0 0.32219911115811378 -0.02276499493725807 0 0.31698094753487549 -0.029385876559149982 0 0.31563891357406643 -0.015743234959867219 0 0.30977756725023609 0.0024579883069990611 0 0.32219911115811378 -0.02276499493725807 0 0.32047711022554731 -0.0042865203173874872 0 0.30977756725023609 0.0024579883069990611 0 0.32219911115811378 -0.02276499493725807 0 0.31563891357406643 -0.015743234959867219 0 0.32219911115811378 -0.02276499493725807 0 0.32047711022554731 -0.0042865203173874872 0 0.32598974057547392 -0.01048853227923683 0 0.30977756725023609 0.0024579883069990611 0 0.32219911115811378 -0.02276499493725807 0 0.32589704801467118 0.0039597422256149673 0 0.32924853545458488 -0.0036933257099089289 0 0.32047711022554731 -0.0042865203173874872 0 0.32924853545458488 -0.0036933257099089289 0 0.32047711022554731 -0.0042865203173874872 0 0.32598974057547392 -0.01048853227923683 0 0.31680063504551881 -0.049746231872616717 0 0.33224411705307549 -0.046129652680221879 0 0.32978891195336851 -0.051450368202922182 0 0.31680063504551881 -0.049746231872616717 0 0.33224411705307549 -0.046129652680221879 0 0.32500129772382569 -0.055971400683054257 0 0.31680063504551881 -0.049746231872616717 0 0.32978891195336851 -0.051450368202922182 0 0.32500129772382569 -0.055971400683054257 0 0.31680063504551881 -0.049746231872616717 0 0.32213320874068302 -0.063313097898030121 0 0.32500129772382569 -0.055971400683054257 0 0.33051363149205609 -0.059071067669546749 0 0.32213320874068302 -0.063313097898030121 0 0.31680063504551881 -0.049746231872616717 0 0.32213320874068302 -0.063313097898030121 0 0.31174365329763248 -0.060220926159806669 0 0.31680063504551881 -0.049746231872616717 0 0.32067231022229142 -0.037287720781128172 0 0.31210587935553802 -0.039248039860610012 0 0.32219911115811378 -0.02276499493725807 0 0.32067231022229142 -0.037287720781128172 0 0.33224411705307549 -0.046129652680221879 0 0.31698094753487549 -0.029385876559149982 0 0.32067231022229142 -0.037287720781128172 0 0.31210587935553802 -0.039248039860610012 0 0.31698094753487549 -0.029385876559149982 0 0.30925292872250443 -0.02954865333080994 0 0.31210587935553802 -0.039248039860610012 0 0.31680063504551881 -0.049746231872616717 0 0.32067231022229142 -0.037287720781128172 0 0.33224411705307549 -0.046129652680221879 0 0.32219911115811378 -0.02276499493725807 0 0.33224411705307549 -0.046129652680221879 0 0.33462065506599681 -0.047987978181512722 0 0.32219911115811378 -0.02276499493725807 0 0.33548390204492101 -0.038014678759930948 0 0.33462065506599681 -0.047987978181512722 0 0.32219911115811378 -0.02276499493725807 0 0.33462065506599681 -0.047987978181512722 0 0.33548390204492101 -0.038014678759930948 0 0.33889049998672283 -0.035207822916402773 0 0.34351035615155878 -0.03993302856440039 0 0.33889049998672283 -0.035207822916402773 0 0.3421737991240984 -0.031827026719402129 0 0.34351035615155878 -0.03993302856440039 0 0.33439394262631311 -0.031056557621877579 0 0.33889049998672283 -0.035207822916402773 0 0.3421737991240984 -0.031827026719402129 0 0.33439394262631311 -0.031056557621877579 0 0.33548390204492101 -0.038014678759930948 0 0.33889049998672283 -0.035207822916402773 0 0.33548390204492101 -0.038014678759930948 0 0.3390466371966368 -0.044082276313541807 0 0.34351035615155878 -0.03993302856440039 0 0.33548390204492101 -0.038014678759930948 0 0.3390466371966368 -0.044082276313541807 0 0.33462065506599681 -0.047987978181512722 0 0.3390466371966368 -0.044082276313541807 0 0.33955189647574902 -0.047536471788207718 0 0.33462065506599681 -0.047987978181512722 0 0.3390466371966368 -0.044082276313541807 0 0.34351035615155878 -0.03993302856440039 0 0.3431476085123859 -0.04606978285044034 0 0.3390466371966368 -0.044082276313541807 0 0.3431476085123859 -0.04606978285044034 0 0.33955189647574902 -0.047536471788207718 0 0.34185353444282213 -0.052338886557913807 0 0.33462065506599681 -0.047987978181512722 0 0.34704219897387972 -0.073210961425767357 0 0.3431476085123859 -0.04606978285044034 0 0.34185353444282213 -0.052338886557913807 0 0.33955189647574902 -0.047536471788207718 0 0.33462065506599681 -0.047987978181512722 0 0.34704219897387972 -0.073210961425767357 0 0.33462065506599681 -0.047987978181512722 0 0.33619767169056042 -0.05740028562114121 0 0.34704219897387972 -0.073210961425767357 0 0.34185353444282213 -0.052338886557913807 0 0.33955189647574902 -0.047536471788207718 0 0.33462065506599681 -0.047987978181512722 0 0.33462065506599681 -0.047987978181512722 0 0.33327355739649139 -0.053006012759445983 0 0.33619767169056042 -0.05740028562114121 0 0.33462065506599681 -0.047987978181512722 0 0.33248181036723312 -0.049643502956025702 0 0.33327355739649139 -0.053006012759445983 0 0.33224411705307549 -0.046129652680221879 0 0.33462065506599681 -0.047987978181512722 0 0.33248181036723312 -0.049643502956025702 0 0.33327355739649139 -0.053006012759445983 0 0.32978891195336851 -0.051450368202922182 0 0.33051363149205609 -0.059071067669546749 0 0.33248181036723312 -0.049643502956025702 0 0.33327355739649139 -0.053006012759445983 0 0.32978891195336851 -0.051450368202922182 0 0.33224411705307549 -0.046129652680221879 0 0.33248181036723312 -0.049643502956025702 0 0.32978891195336851 -0.051450368202922182 0 0.33051363149205609 -0.059071067669546749 0 0.33619767169056042 -0.05740028562114121 0 0.33643320141942112 -0.065610523072625368 0 0.32500129772382569 -0.055971400683054257 0 0.32978891195336851 -0.051450368202922182 0 0.33051363149205609 -0.059071067669546749 0 0.33327355739649139 -0.053006012759445983 0 0.33051363149205609 -0.059071067669546749 0 0.33619767169056042 -0.05740028562114121 0 0.34185353444282213 -0.052338886557913807 0 0.34646174615185821 -0.055867715680146909 0 0.34704219897387972 -0.073210961425767357 0 0.35001946538622197 -0.060497157401846323 0 0.34646174615185821 -0.055867715680146909 0 0.35060546015398469 -0.053425209092664599 0 0.34185353444282213 -0.052338886557913807 0 0.34646174615185821 -0.055867715680146909 0 0.34815439795545611 -0.049038552804059263 0 0.3431476085123859 -0.04606978285044034 0 0.34185353444282213 -0.052338886557913807 0 0.34815439795545611 -0.049038552804059263 0 0.34815439795545611 -0.049038552804059263 0 0.35060546015398469 -0.053425209092664599 0 0.35429481532151758 -0.046954209398467353 0 0.34646174615185821 -0.055867715680146909 0 0.34815439795545611 -0.049038552804059263 0 0.35060546015398469 -0.053425209092664599 0 0.35429481532151758 -0.046954209398467353 0 0.35409687595486988 -0.054768410178803163 0 0.36043389615384258 -0.050515307302710297 0 0.35060546015398469 -0.053425209092664599 0 0.35429481532151758 -0.046954209398467353 0 0.35409687595486988 -0.054768410178803163 0 0.35409687595486988 -0.054768410178803163 0 0.36043389615384258 -0.050515307302710297 0 0.35193098222136371 -0.065037168571190906 0 0.35001946538622197 -0.060497157401846323 0 0.35409687595486988 -0.054768410178803163 0 0.35193098222136371 -0.065037168571190906 0 0.35001946538622197 -0.060497157401846323 0 0.35060546015398469 -0.053425209092664599 0 0.35409687595486988 -0.054768410178803163 0 0.34765993407508589 -0.025461892616750779 0 0.3421737991240984 -0.031827026719402129 0 0.3515336388603173 -0.037506469570389368 0 0.3421737991240984 -0.031827026719402129 0 0.34351035615155878 -0.03993302856440039 0 0.3515336388603173 -0.037506469570389368 0 0.34351035615155878 -0.03993302856440039 0 0.3515336388603173 -0.037506469570389368 0 0.3481281633602471 -0.04390040863755134 0 0.35429481532151758 -0.046954209398467353 0 0.3515336388603173 -0.037506469570389368 0 0.3481281633602471 -0.04390040863755134 0 0.3431476085123859 -0.04606978285044034 0 0.34815439795545611 -0.049038552804059263 0 0.3481281633602471 -0.04390040863755134 0 0.34351035615155878 -0.03993302856440039 0 0.3431476085123859 -0.04606978285044034 0 0.3481281633602471 -0.04390040863755134 0 0.34815439795545611 -0.049038552804059263 0 0.35429481532151758 -0.046954209398467353 0 0.3481281633602471 -0.04390040863755134 0 0.35429481532151758 -0.046954209398467353 0 0.3515336388603173 -0.037506469570389368 0 0.36146742578461999 -0.041167976307000247 0 0.35429481532151758 -0.046954209398467353 0 0.36146742578461999 -0.041167976307000247 0 0.36043389615384258 -0.050515307302710297 0 0.34765993407508589 -0.025461892616750779 0 0.3515336388603173 -0.037506469570389368 0 0.35941366842081551 -0.03179418944803819 0 0.3515336388603173 -0.037506469570389368 0 0.35941366842081551 -0.03179418944803819 0 0.36146742578461999 -0.041167976307000247 0 0.35941366842081551 -0.03179418944803819 0 0.36146742578461999 -0.041167976307000247 0 0.37154797989195659 -0.035829442430238313 0 0.36146742578461999 -0.041167976307000247 0 0.36043389615384258 -0.050515307302710297 0 0.37378822690076319 -0.046986844736672972 0 0.36146742578461999 -0.041167976307000247 0 0.37154797989195659 -0.035829442430238313 0 0.37378822690076319 -0.046986844736672972 0 0.37154797989195659 -0.035829442430238313 0 0.37378822690076319 -0.046986844736672972 0 0.37378822690076319 -0.046986844736672972 0 0.35193098222136371 -0.065037168571190906 0 0.378951202620469 -0.072700704403321589 0 0.37378822690076319 -0.046986844736672972 0 0.36708901768928598 -0.062756238975847659 0 0.36043389615384258 -0.050515307302710297 0 0.37378822690076319 -0.046986844736672972 0 0.35193098222136371 -0.065037168571190906 0 0.37378822690076319 -0.046986844736672972 0 0.36708901768928598 -0.062756238975847659 0 0.35193098222136371 -0.065037168571190906 0 0.36708901768928598 -0.062756238975847659 0 0.35993837611968499 -0.068504223442517054 0 0.35193098222136371 -0.065037168571190906 0 0.36708901768928598 -0.062756238975847659 0 0.35993837611968499 -0.068504223442517054 0 0.36422902412067643 -0.076964062340506706 0 0.378951202620469 -0.072700704403321589 0 0.36708901768928598 -0.062756238975847659 0 0.36422902412067643 -0.076964062340506706 0 0.36422902412067643 -0.076964062340506706 0 0.37170951734450719 -0.089109138617822381 0 0.35946374288176258 -0.098433944670022047 0 0.378951202620469 -0.072700704403321589 0 0.36422902412067643 -0.076964062340506706 0 0.37170951734450719 -0.089109138617822381 0 0.36422902412067643 -0.076964062340506706 0 0.34704219897387972 -0.073210961425767357 0 0.35946374288176258 -0.098433944670022047 0 0.34704219897387972 -0.073210961425767357 0 0.35946374288176258 -0.098433944670022047 0 0.34354363691132428 -0.089144060305340819 0 0.34704219897387972 -0.073210961425767357 0 0.35946374288176258 -0.098433944670022047 0 0.35993837611968499 -0.068504223442517054 0 0.36422902412067643 -0.076964062340506706 0 0.34704219897387972 -0.073210961425767357 0 0.35001946538622197 -0.060497157401846323 0 0.34646174615185821 -0.055867715680146909 0 0.34704219897387972 -0.073210961425767357 0 0.35001946538622197 -0.060497157401846323 0 0.34704219897387972 -0.073210961425767357 0 0.35193098222136371 -0.065037168571190906 0 0.35993837611968499 -0.068504223442517054 0 0.34704219897387972 -0.073210961425767357 0 0.35193098222136371 -0.065037168571190906 0 0.37188528678964461 -0.12365692791427731 0 0.35946374288176258 -0.098433944670022047 0 0.37188528678964461 -0.12365692791427731 0 0.35946374288176258 -0.098433944670022047 0 0.3568543505257542 -0.11678416148060609 0 0.37188528678964461 -0.12365692791427731 0 0.3568543505257542 -0.11678416148060609 0 0.3598876515495143 -0.13213281424189011 0 0.37188528678964461 -0.12365692791427731 0 0.37178943875945508 -0.099032417605290871 0 0.35946374288176258 -0.098433944670022047 0 0.37170951734450719 -0.089109138617822381 0 0.37178943875945508 -0.099032417605290871 0 0.35946374288176258 -0.098433944670022047 0 0.35946374288176258 -0.098433944670022047 0 0.3568543505257542 -0.11678416148060609 0 0.34365211785895572 -0.1061020836398069 0 0.35946374288176258 -0.098433944670022047 0 0.34365211785895572 -0.1061020836398069 0 0.34354363691132428 -0.089144060305340819 0 0.3568543505257542 -0.11678416148060609 0 0.34543414423679453 -0.1222259420170595 0 0.34365211785895572 -0.1061020836398069 0 0.3568543505257542 -0.11678416148060609 0 0.34543414423679453 -0.1222259420170595 0 0.3598876515495143 -0.13213281424189011 0 0.34543414423679453 -0.1222259420170595 0 0.33372925645713147 -0.1172363729978006 0 0.34365211785895572 -0.1061020836398069 0 0.33372925645713147 -0.1172363729978006 0 0.33224576134919892 -0.1055189877861923 0 0.34365211785895572 -0.1061020836398069 0 0.33372925645713147 -0.1172363729978006 0 0.33224576134919892 -0.1055189877861923 0 0.32196922168570702 -0.11093251639024281 0 0.34365211785895572 -0.1061020836398069 0 0.33447706917970033 -0.096335436047409101 0 0.34354363691132428 -0.089144060305340819 0 0.33224576134919892 -0.1055189877861923 0 0.34365211785895572 -0.1061020836398069 0 0.33447706917970033 -0.096335436047409101 0 0.33224576134919892 -0.1055189877861923 0 0.33447706917970033 -0.096335436047409101 0 0.3260178130429654 -0.099195888817253969 0 0.3260178130429654 -0.099195888817253969 0 0.32957731003678292 -0.083168164112233822 0 0.31181970296343781 -0.1000243397501918 0 0.3260178130429654 -0.099195888817253969 0 0.32196922168570702 -0.11093251639024281 0 0.31181970296343781 -0.1000243397501918 0 0.33224576134919892 -0.1055189877861923 0 0.3260178130429654 -0.099195888817253969 0 0.32196922168570702 -0.11093251639024281 0 0.32196922168570702 -0.11093251639024281 0 0.31009823360406602 -0.1175710069616353 0 0.3205558559981681 -0.12750050645216501 0 0.33372925645713147 -0.1172363729978006 0 0.32196922168570702 -0.11093251639024281 0 0.3205558559981681 -0.12750050645216501 0 0.32196922168570702 -0.11093251639024281 0 0.31009823360406602 -0.1175710069616353 0 0.31181970296343781 -0.1000243397501918 0 0.33619767169056042 -0.05740028562114121 0 0.34704219897387972 -0.073210961425767357 0 0.33643320141942112 -0.065610523072625368 0 0.33202907188378089 -0.074438072294241778 0 0.33076757152004282 -0.066745785449608103 0 0.32309480829951043 -0.073792261081947058 0 0.33202907188378089 -0.074438072294241778 0 0.32957731003678292 -0.083168164112233822 0 0.32309480829951043 -0.073792261081947058 0 0.33202907188378089 -0.074438072294241778 0 0.33076757152004282 -0.066745785449608103 0 0.33729400487687 -0.071053214616438085 0 0.33202907188378089 -0.074438072294241778 0 0.33729400487687 -0.071053214616438085 0 0.33789724453652759 -0.078202894550804369 0 0.33051363149205609 -0.059071067669546749 0 0.33076757152004282 -0.066745785449608103 0 0.33643320141942112 -0.065610523072625368 0 0.33076757152004282 -0.066745785449608103 0 0.33643320141942112 -0.065610523072625368 0 0.33729400487687 -0.071053214616438085 0 0.34704219897387972 -0.073210961425767357 0 0.33643320141942112 -0.065610523072625368 0 0.33729400487687 -0.071053214616438085 0 0.34704219897387972 -0.073210961425767357 0 0.33729400487687 -0.071053214616438085 0 0.33789724453652759 -0.078202894550804369 0 0.33447706917970033 -0.096335436047409101 0 0.3260178130429654 -0.099195888817253969 0 0.32957731003678292 -0.083168164112233822 0 0.33789724453652759 -0.078202894550804369 0 0.34354363691132428 -0.089144060305340819 0 0.32957731003678292 -0.083168164112233822 0 0.34704219897387972 -0.073210961425767357 0 0.33789724453652759 -0.078202894550804369 0 0.34354363691132428 -0.089144060305340819 0 0.33447706917970033 -0.096335436047409101 0 0.34354363691132428 -0.089144060305340819 0 0.32957731003678292 -0.083168164112233822 0 0.33202907188378089 -0.074438072294241778 0 0.33789724453652759 -0.078202894550804369 0 0.32957731003678292 -0.083168164112233822 0 0.32957731003678292 -0.083168164112233822 0 0.31793429848044918 -0.084388366144535876 0 0.31181970296343781 -0.1000243397501918 0 0.32957731003678292 -0.083168164112233822 0 0.31793429848044918 -0.084388366144535876 0 0.32309480829951043 -0.073792261081947058 0 0.32957731003678292 -0.083168164112233822 0 0.31181970296343781 -0.1000243397501918 0 0.31793429848044918 -0.084388366144535876 0 0.31258935359022771 -0.075275832021603845 0 0.32309480829951043 -0.073792261081947058 0 0.31258935359022771 -0.075275832021603845 0 0.32309480829951043 -0.073792261081947058 0 0.31511513017506138 -0.06845616449137551 0 0.33051363149205609 -0.059071067669546749 0 0.33076757152004282 -0.066745785449608103 0 0.32213320874068302 -0.063313097898030121 0 0.33076757152004282 -0.066745785449608103 0 0.32309480829951043 -0.073792261081947058 0 0.32213320874068302 -0.063313097898030121 0 0.32309480829951043 -0.073792261081947058 0 0.32213320874068302 -0.063313097898030121 0 0.31511513017506138 -0.06845616449137551 0 0.32213320874068302 -0.063313097898030121 0 0.31511513017506138 -0.06845616449137551 0 0.31174365329763248 -0.060220926159806669 0 0.31511513017506138 -0.06845616449137551 0 0.30773684915209643 -0.06674725782595535 0 0.31174365329763248 -0.060220926159806669 0 0.30773684915209643 -0.06674725782595535 0 0.29787895565959749 -0.076420555391978437 0 0.30135715303796218 -0.053362811065011867 0 0.31258935359022771 -0.075275832021603845 0 0.31511513017506138 -0.06845616449137551 0 0.30773684915209643 -0.06674725782595535 0 0.29787895565959749 -0.076420555391978437 0 0.30135715303796218 -0.053362811065011867 0 0.31258935359022771 -0.075275832021603845 0 0.30773684915209643 -0.06674725782595535 0 0.29787895565959749 -0.076420555391978437 0 0.31793429848044918 -0.084388366144535876 0 0.29787895565959749 -0.076420555391978437 0 0.31793429848044918 -0.084388366144535876 0 0.30607612050873062 -0.087076132036236861 0 0.31181970296343781 -0.1000243397501918 0 0.31793429848044918 -0.084388366144535876 0 0.29787895565959749 -0.076420555391978437 0 0.30607612050873062 -0.087076132036236861 0 0.31793429848044918 -0.084388366144535876 0 0.31258935359022771 -0.075275832021603845 0 0.29787895565959749 -0.076420555391978437 0 0.30607612050873062 -0.087076132036236861 0 0.29705901291889503 -0.081856138258985606 0 0.29553089637785279 -0.088916013410637096 0 0.30607612050873062 -0.087076132036236861 0 0.29553089637785279 -0.088916013410637096 0 0.29952655211810031 -0.096333631282862431 0 0.29787895565959749 -0.076420555391978437 0 0.30607612050873062 -0.087076132036236861 0 0.29705901291889503 -0.081856138258985606 0 0.29787895565959749 -0.076420555391978437 0 0.29705901291889503 -0.081856138258985606 0 0.28742517294603198 -0.089360886171396148 0 0.28739597988282278 -0.07679967726180098 0 0.2779958877067531 -0.097121085506971933 0 0.29705901291889503 -0.081856138258985606 0 0.29066202708484917 -0.083580182722960056 0 0.29278807066450152 -0.078704458159879823 0 0.28739597988282278 -0.07679967726180098 0 0.2779958877067531 -0.097121085506971933 0 0.29787895565959749 -0.076420555391978437 0 0.29705901291889503 -0.081856138258985606 0 0.29278807066450152 -0.078704458159879823 0 0.29705901291889503 -0.081856138258985606 0 0.29066202708484917 -0.083580182722960056 0 0.29553089637785279 -0.088916013410637096 0 0.29066202708484917 -0.083580182722960056 0 0.29278807066450152 -0.078704458159879823 0 0.28739597988282278 -0.07679967726180098 0 0.29553089637785279 -0.088916013410637096 0 0.28742517294603198 -0.089360886171396148 0 0.2885775727651585 -0.10050257333487141 0 0.29066202708484917 -0.083580182722960056 0 0.29553089637785279 -0.088916013410637096 0 0.28742517294603198 -0.089360886171396148 0 0.29066202708484917 -0.083580182722960056 0 0.28742517294603198 -0.089360886171396148 0 0.28739597988282278 -0.07679967726180098 0 0.28917155595828858 -0.072961182316851669 0 0.29785816198788972 -0.054182210357208577 0 0.28739597988282278 -0.07679967726180098 0 0.28917155595828858 -0.072961182316851669 0 0.26871426518193692 -0.071090882714298156 0 0.29787895565959749 -0.076420555391978437 0 0.28917155595828858 -0.072961182316851669 0 0.29785816198788972 -0.054182210357208577 0 0.28739597988282278 -0.07679967726180098 0 0.28917155595828858 -0.072961182316851669 0 0.29787895565959749 -0.076420555391978437 0 0.29278807066450152 -0.078704458159879823 0 0.28917155595828858 -0.072961182316851669 0 0.29787895565959749 -0.076420555391978437 0 0.28917155595828858 -0.072961182316851669 0 0.29278807066450152 -0.078704458159879823 0 0.28739597988282278 -0.07679967726180098 0 0.28917155595828858 -0.072961182316851669 0 0.31009823360406602 -0.1175710069616353 0 0.31181970296343781 -0.1000243397501918 0 0.29406209589009258 -0.11688051538814979 0 0.31009823360406602 -0.1175710069616353 0 0.29406209589009258 -0.11688051538814979 0 0.30181534244378799 -0.13167728645938889 0 0.31181970296343781 -0.1000243397501918 0 0.29952655211810031 -0.096333631282862431 0 0.29406209589009258 -0.11688051538814979 0 0.31181970296343781 -0.1000243397501918 0 0.29406209589009258 -0.11688051538814979 0 0.30607612050873062 -0.087076132036236861 0 0.31181970296343781 -0.1000243397501918 0 0.29952655211810031 -0.096333631282862431 0 0.29952655211810031 -0.096333631282862431 0 0.2885775727651585 -0.10050257333487141 0 0.29406209589009258 -0.11688051538814979 0 0.29553089637785279 -0.088916013410637096 0 0.29952655211810031 -0.096333631282862431 0 0.2885775727651585 -0.10050257333487141 0 0.28742517294603198 -0.089360886171396148 0 0.2885775727651585 -0.10050257333487141 0 0.2779958877067531 -0.097121085506971933 0 0.29406209589009258 -0.11688051538814979 0 0.27692483155212022 -0.11440330824921111 0 0.27630448881674741 -0.1337366910261078 0 0.2885775727651585 -0.10050257333487141 0 0.29406209589009258 -0.11688051538814979 0 0.27692483155212022 -0.11440330824921111 0 0.27692483155212022 -0.11440330824921111 0 0.2779958877067531 -0.097121085506971933 0 0.26233176661289659 -0.1019704058630251 0 0.2885775727651585 -0.10050257333487141 0 0.27692483155212022 -0.11440330824921111 0 0.2779958877067531 -0.097121085506971933 0 0.2779958877067531 -0.097121085506971933 0 0.26233176661289659 -0.1019704058630251 0 0.26423841531695552 -0.089123655845136568 0 0.26233176661289659 -0.1019704058630251 0 0.25476571432189338 -0.1126602784672653 0 0.2377339841667612 -0.096543701246540464 0 0.26233176661289659 -0.1019704058630251 0 0.26423841531695552 -0.089123655845136568 0 0.2377339841667612 -0.096543701246540464 0 0.27692483155212022 -0.11440330824921111 0 0.25476571432189338 -0.1126602784672653 0 0.25695038574270829 -0.1310127092774904 0 0.27692483155212022 -0.11440330824921111 0 0.26233176661289659 -0.1019704058630251 0 0.25476571432189338 -0.1126602784672653 0 0.28917155595828858 -0.072961182316851669 0 0.26265461084486702 -0.062426233984779617 0 0.28025638641637862 -0.058304222170995137 0 0.28917155595828858 -0.072961182316851669 0 0.26265461084486702 -0.062426233984779617 0 0.28739597988282278 -0.07679967726180098 0 0.26871426518193692 -0.071090882714298156 0 0.28739597988282278 -0.07679967726180098 0 0.26871426518193692 -0.071090882714298156 0 0.27458613702211698 -0.083533825332051892 0 0.28917155595828858 -0.072961182316851669 0 0.26871426518193692 -0.071090882714298156 0 0.26265461084486702 -0.062426233984779617 0 0.26871426518193692 -0.071090882714298156 0 0.27458613702211698 -0.083533825332051892 0 0.26423841531695552 -0.089123655845136568 0 0.28739597988282278 -0.07679967726180098 0 0.2779958877067531 -0.097121085506971933 0 0.27458613702211698 -0.083533825332051892 0 0.2779958877067531 -0.097121085506971933 0 0.27458613702211698 -0.083533825332051892 0 0.26423841531695552 -0.089123655845136568 0 0.26423841531695552 -0.089123655845136568 0 0.2377339841667612 -0.096543701246540464 0 0.26423841531695552 -0.089123655845136568 0 0.25229650452316787 -0.080216704106708836 0 0.2377339841667612 -0.096543701246540464 0 0.26871426518193692 -0.071090882714298156 0 0.26423841531695552 -0.089123655845136568 0 0.25229650452316787 -0.080216704106708836 0 0.26871426518193692 -0.071090882714298156 0 0.25003255048105077 -0.065382088166795888 0 0.26871426518193692 -0.071090882714298156 0 0.25229650452316787 -0.080216704106708836 0 0.25003255048105077 -0.065382088166795888 0 0.26871426518193692 -0.071090882714298156 0 0.25003255048105077 -0.065382088166795888 0 0.26265461084486702 -0.062426233984779617 0 0.25003255048105077 -0.065382088166795888 0 0.26265461084486702 -0.062426233984779617 0 0.25003255048105077 -0.065382088166795888 0 0.26265461084486702 -0.062426233984779617 0 0.2443777089061322 -0.05516498210333428 0 0.26265461084486702 -0.062426233984779617 0 0.26414541545669551 -0.042320504326048052 0 0.2443777089061322 -0.05516498210333428 0 0.26414541545669551 -0.042320504326048052 0 0.2443777089061322 -0.05516498210333428 0 0.24351424611744721 -0.04374789226813075 0 0.26414541545669551 -0.042320504326048052 0 0.2443777089061322 -0.05516498210333428 0 0.26265461084486702 -0.062426233984779617 0 0.2443777089061322 -0.05516498210333428 0 0.26265461084486702 -0.062426233984779617 0 0.28025638641637862 -0.058304222170995137 0 0.27625448752338633 -0.043228532395575961 0 0.26265461084486702 -0.062426233984779617 0 0.28025638641637862 -0.058304222170995137 0 0.26265461084486702 -0.062426233984779617 0 0.27625448752338633 -0.043228532395575961 0 0.26414541545669551 -0.042320504326048052 0 0.27625448752338633 -0.043228532395575961 0 0.26414541545669551 -0.042320504326048052 0 0.28391312200725999 -0.029476026548763998 0 0.26414541545669551 -0.042320504326048052 0 0.27973042437367729 -0.022328988860650031 0 0.28391312200725999 -0.029476026548763998 0 0.26414541545669551 -0.042320504326048052 0 0.28391312200725999 -0.029476026548763998 0 0.26414541545669551 -0.042320504326048052 0 0.24351424611744721 -0.04374789226813075 0 0.24383099308668099 -0.032073942242577001 0 0.26414541545669551 -0.042320504326048052 0 0.25310378437915132 -0.018891517159713218 0 0.24383099308668099 -0.032073942242577001 0 0.25310378437915132 -0.018891517159713218 0 0.26560469553604937 -0.0078630999825647675 0 0.24727983912845811 -0.001679955406053003 0 0.26322672287322613 0.0046244286259636098 0 0.26560469553604937 -0.0078630999825647675 0 0.24727983912845811 -0.001679955406053003 0 0.27661114912357898 0.0003017806746112348 0 0.26322672287322613 0.0046244286259636098 0 0.26560469553604937 -0.0078630999825647675 0 0.26560469553604937 -0.0078630999825647675 0 0.27919499236902873 -0.010085383249006249 0 0.27973042437367729 -0.022328988860650031 0 0.27661114912357898 0.0003017806746112348 0 0.26560469553604937 -0.0078630999825647675 0 0.27919499236902873 -0.010085383249006249 0 0.27661114912357898 0.0003017806746112348 0 0.27919499236902873 -0.010085383249006249 0 0.28578961296385569 -0.00091827432700006077 0 0.25310378437915132 -0.018891517159713218 0 0.26560469553604937 -0.0078630999825647675 0 0.27973042437367729 -0.022328988860650031 0 0.25310378437915132 -0.018891517159713218 0 0.27973042437367729 -0.022328988860650031 0 0.26414541545669551 -0.042320504326048052 0 0.25310378437915132 -0.018891517159713218 0 0.27973042437367729 -0.022328988860650031 0 0.27919499236902873 -0.010085383249006249 0 0.27973042437367729 -0.022328988860650031 0 0.28382453026387522 -0.016630851562212719 0 0.28391312200725999 -0.029476026548763998 0 0.28834198324695109 -0.019947209907360101 0 0.30368082855782458 -0.016631548771479959 0 0.27973042437367729 -0.022328988860650031 0 0.28391312200725999 -0.029476026548763998 0 0.28834198324695109 -0.019947209907360101 0 0.28391312200725999 -0.029476026548763998 0 0.30368082855782458 -0.016631548771479959 0 0.28391312200725999 -0.029476026548763998 0 0.29524951635882651 -0.02528925462471928 0 0.30368082855782458 -0.016631548771479959 0 0.27973042437367729 -0.022328988860650031 0 0.28382453026387522 -0.016630851562212719 0 0.28834198324695109 -0.019947209907360101 0 0.28382453026387522 -0.016630851562212719 0 0.28834198324695109 -0.019947209907360101 0 0.2905610110321184 -0.014668633793693811 0 0.28834198324695109 -0.019947209907360101 0 0.2905610110321184 -0.014668633793693811 0 0.30368082855782458 -0.016631548771479959 0 0.28391312200725999 -0.029476026548763998 0 0.29524951635882651 -0.02528925462471928 0 0.29081139705631343 -0.03071328484143258 0 0.29524951635882651 -0.02528925462471928 0 0.29081139705631343 -0.03071328484143258 0 0.29575896845951238 -0.033377866140787027 0 0.27919499236902873 -0.010085383249006249 0 0.28578961296385569 -0.00091827432700006077 0 0.29140060549134372 -0.0065107218885869711 0 0.27919499236902873 -0.010085383249006249 0 0.28382453026387522 -0.016630851562212719 0 0.2905610110321184 -0.014668633793693811 0 0.27919499236902873 -0.010085383249006249 0 0.2905610110321184 -0.014668633793693811 0 0.29140060549134372 -0.0065107218885869711 0 0.2905610110321184 -0.014668633793693811 0 0.29140060549134372 -0.0065107218885869711 0 0.29805173261577428 -0.010301128446698679 0 0.29378143222630798 0.0016931317668539929 0 0.29140060549134372 -0.0065107218885869711 0 0.30002874695068482 -0.003410289581962597 0 0.29140060549134372 -0.0065107218885869711 0 0.30002874695068482 -0.003410289581962597 0 0.29805173261577428 -0.010301128446698679 0 0.29378143222630798 0.0016931317668539929 0 0.28578961296385569 -0.00091827432700006077 0 0.29140060549134372 -0.0065107218885869711 0 0.30977756725023609 0.0024579883069990611 0 0.30632225556059239 -0.020448041697377191 0 0.30977756725023609 0.0024579883069990611 0 0.31563891357406643 -0.015743234959867219 0 0.30632225556059239 -0.020448041697377191 0 0.30977756725023609 0.0024579883069990611 0 0.30527997693184972 -0.0052397323001263998 0 0.30632225556059239 -0.020448041697377191 0 0.3045109746629634 -0.00013427471123989281 0 0.30002874695068482 -0.003410289581962597 0 0.30527997693184972 -0.0052397323001263998 0 0.30146309266114651 0.0033623273610073581 0 0.3045109746629634 -0.00013427471123989281 0 0.30002874695068482 -0.003410289581962597 0 0.30002874695068482 -0.003410289581962597 0 0.30347614818306229 -0.010261849170707649 0 0.30527997693184972 -0.0052397323001263998 0 0.2905610110321184 -0.014668633793693811 0 0.29805173261577428 -0.010301128446698679 0 0.30368082855782458 -0.016631548771479959 0 0.30002874695068482 -0.003410289581962597 0 0.30347614818306229 -0.010261849170707649 0 0.29805173261577428 -0.010301128446698679 0 0.30347614818306229 -0.010261849170707649 0 0.29805173261577428 -0.010301128446698679 0 0.30368082855782458 -0.016631548771479959 0 0.30347614818306229 -0.010261849170707649 0 0.30527997693184972 -0.0052397323001263998 0 0.30632225556059239 -0.020448041697377191 0 0.30977756725023609 0.0024579883069990611 0 0.3045109746629634 -0.00013427471123989281 0 0.30527997693184972 -0.0052397323001263998 0 0.30632225556059239 -0.020448041697377191 0 0.30925292872250443 -0.02954865333080994 0 0.30286694387094221 -0.043354071701752442 0 0.30028479565830968 -0.022784521886963859 0 0.30632225556059239 -0.020448041697377191 0 0.29575896845951238 -0.033377866140787027 0 0.29524951635882651 -0.02528925462471928 0 0.30028479565830968 -0.022784521886963859 0 0.29575896845951238 -0.033377866140787027 0 0.29524951635882651 -0.02528925462471928 0 0.30028479565830968 -0.022784521886963859 0 0.30368082855782458 -0.016631548771479959 0 0.30347614818306229 -0.010261849170707649 0 0.30368082855782458 -0.016631548771479959 0 0.30632225556059239 -0.020448041697377191 0 0.30028479565830968 -0.022784521886963859 0 0.30368082855782458 -0.016631548771479959 0 0.30632225556059239 -0.020448041697377191 0 0.31563891357406643 -0.015743234959867219 0 0.30925292872250443 -0.02954865333080994 0 0.31563891357406643 -0.015743234959867219 0 0.30632225556059239 -0.020448041697377191 0 0.30925292872250443 -0.02954865333080994 0 0.30925292872250443 -0.02954865333080994 0 0.30286694387094221 -0.043354071701752442 0 0.30632225556059239 -0.020448041697377191 0 0.30286694387094221 -0.043354071701752442 0 0.30632225556059239 -0.020448041697377191 0 0.30286694387094221 -0.043354071701752442 0 0.29575896845951238 -0.033377866140787027 0 0.30925292872250443 -0.02954865333080994 0 0.30286694387094221 -0.043354071701752442 0 0.31210587935553802 -0.039248039860610012 0 0.30286694387094221 -0.043354071701752442 0 0.29575896845951238 -0.033377866140787027 0 0.29609948925532098 -0.043716248597039063 0 0.31680063504551881 -0.049746231872616717 0 0.30286694387094221 -0.043354071701752442 0 0.31210587935553802 -0.039248039860610012 0 0.31680063504551881 -0.049746231872616717 0 0.30286694387094221 -0.043354071701752442 0 0.30135715303796218 -0.053362811065011867 0 0.29787895565959749 -0.076420555391978437 0 0.30135715303796218 -0.053362811065011867 0 0.29785816198788972 -0.054182210357208577 0 0.31680063504551881 -0.049746231872616717 0 0.30135715303796218 -0.053362811065011867 0 0.31680063504551881 -0.049746231872616717 0 0.31174365329763248 -0.060220926159806669 0 0.30135715303796218 -0.053362811065011867 0 0.30773684915209643 -0.06674725782595535 0 0.31174365329763248 -0.060220926159806669 0 0.30135715303796218 -0.053362811065011867 0 0.30286694387094221 -0.043354071701752442 0 0.29785816198788972 -0.054182210357208577 0 0.30286694387094221 -0.043354071701752442 0 0.29785816198788972 -0.054182210357208577 0 0.29609948925532098 -0.043716248597039063 0 0.30286694387094221 -0.043354071701752442 0 0.30135715303796218 -0.053362811065011867 0 0.29785816198788972 -0.054182210357208577 0 0.30286694387094221 -0.043354071701752442 0 0.30135715303796218 -0.053362811065011867 0 0.30135715303796218 -0.053362811065011867 0 0.29785816198788972 -0.054182210357208577 0 0.29785816198788972 -0.054182210357208577 0 0.28865729735152768 -0.045126925058088782 0 0.29609948925532098 -0.043716248597039063 0 0.28025638641637862 -0.058304222170995137 0 0.29785816198788972 -0.054182210357208577 0 0.28865729735152768 -0.045126925058088782 0 0.28917155595828858 -0.072961182316851669 0 0.28025638641637862 -0.058304222170995137 0 0.29785816198788972 -0.054182210357208577 0 0.28025638641637862 -0.058304222170995137 0 0.29785816198788972 -0.054182210357208577 0 0.28025638641637862 -0.058304222170995137 0 0.27625448752338633 -0.043228532395575961 0 0.28865729735152768 -0.045126925058088782 0 0.27625448752338633 -0.043228532395575961 0 0.28865729735152768 -0.045126925058088782 0 0.28707905447960003 -0.036384526996929671 0 0.27625448752338633 -0.043228532395575961 0 0.28391312200725999 -0.029476026548763998 0 0.28707905447960003 -0.036384526996929671 0 0.28391312200725999 -0.029476026548763998 0 0.29081139705631343 -0.03071328484143258 0 0.28707905447960003 -0.036384526996929671 0 0.28865729735152768 -0.045126925058088782 0 0.28707905447960003 -0.036384526996929671 0 0.29575896845951238 -0.033377866140787027 0 0.29081139705631343 -0.03071328484143258 0 0.28707905447960003 -0.036384526996929671 0 0.29575896845951238 -0.033377866140787027 0 0.28865729735152768 -0.045126925058088782 0 0.29575896845951238 -0.033377866140787027 0 0.29609948925532098 -0.043716248597039063 0 0.29087529316794358 -0.20572695878187061 0 0.28324337490000723 -0.21275283766242339 0 0.27446095915304008 -0.2028336797065548 0 0.29087529316794358 -0.20572695878187061 0 0.29501963916990648 -0.21575390455516941 0 0.30364223973383142 -0.2092533102348578 0 0.29087529316794358 -0.20572695878187061 0 0.29501963916990648 -0.21575390455516941 0 0.28324337490000723 -0.21275283766242339 0 0.29501963916990648 -0.21575390455516941 0 0.28324337490000723 -0.21275283766242339 0 0.28741002841078978 -0.22170143858131969 0 0.29087529316794358 -0.20572695878187061 0 0.28973027419055802 -0.1940510858558134 0 0.27446095915304008 -0.2028336797065548 0 0.29087529316794358 -0.20572695878187061 0 0.28973027419055802 -0.1940510858558134 0 0.30054409733324527 -0.20067687027044359 0 0.28973027419055802 -0.1940510858558134 0 0.30735661830211702 -0.19257160069792331 0 0.30023982936510202 -0.17727656252204901 0 0.28973027419055802 -0.1940510858558134 0 0.30054409733324527 -0.20067687027044359 0 0.30735661830211702 -0.19257160069792331 0 0.30054409733324527 -0.20067687027044359 0 0.30735661830211702 -0.19257160069792331 0 0.31111606127177649 -0.20178139578175311 0 0.30054409733324527 -0.20067687027044359 0 0.31111606127177649 -0.20178139578175311 0 0.30364223973383142 -0.2092533102348578 0 0.31111606127177649 -0.20178139578175311 0 0.30364223973383142 -0.2092533102348578 0 0.31300827355338112 -0.21018490794370009 0 0.29087529316794358 -0.20572695878187061 0 0.30054409733324527 -0.20067687027044359 0 0.30364223973383142 -0.2092533102348578 0 0.29501963916990648 -0.21575390455516941 0 0.30364223973383142 -0.2092533102348578 0 0.30717399236319698 -0.21963164060350879 0 0.30364223973383142 -0.2092533102348578 0 0.30717399236319698 -0.21963164060350879 0 0.31300827355338112 -0.21018490794370009 0 0.30717399236319698 -0.21963164060350879 0 0.30673561255184217 -0.23554980433560041 0 0.29598634510677152 -0.22458444833115451 0 0.29501963916990648 -0.21575390455516941 0 0.30717399236319698 -0.21963164060350879 0 0.29598634510677152 -0.22458444833115451 0 0.31045690666907799 -0.2457929107903 0 0.29742992933170243 -0.24509639421639479 0 0.30697547898335831 -0.25698108825629812 0 0.31045690666907799 -0.2457929107903 0 0.30673561255184217 -0.23554980433560041 0 0.29742992933170243 -0.24509639421639479 0 0.30673561255184217 -0.23554980433560041 0 0.29947907764116333 -0.2377851097571835 0 0.29742992933170243 -0.24509639421639479 0 0.30673561255184217 -0.23554980433560041 0 0.29742992933170243 -0.24509639421639479 0 0.29947907764116333 -0.2377851097571835 0 0.29742992933170243 -0.24509639421639479 0 0.29592192733873668 -0.24070790716615739 0 0.29742992933170243 -0.24509639421639479 0 0.29360651724728343 -0.2472538276421708 0 0.30697547898335831 -0.25698108825629812 0 0.28023755551120832 -0.23752656702804401 0 0.28420643169806681 -0.25031113764635282 0 0.28054652475274172 -0.2604007735142394 0 0.29360651724728343 -0.2472538276421708 0 0.28599370446479322 -0.2459334700025447 0 0.28904947714479368 -0.25068788448250667 0 0.29742992933170243 -0.24509639421639479 0 0.29172724461865868 -0.24091253762858439 0 0.29592192733873668 -0.24070790716615739 0 0.29742992933170243 -0.24509639421639479 0 0.29360651724728343 -0.2472538276421708 0 0.29172724461865868 -0.24091253762858439 0 0.29947907764116333 -0.2377851097571835 0 0.29592192733873668 -0.24070790716615739 0 0.29108062112130068 -0.23693270586621629 0 0.29172724461865868 -0.24091253762858439 0 0.29592192733873668 -0.24070790716615739 0 0.29108062112130068 -0.23693270586621629 0 0.29172724461865868 -0.24091253762858439 0 0.29108062112130068 -0.23693270586621629 0 0.2871281023083942 -0.23642816347453929 0 0.29172724461865868 -0.24091253762858439 0 0.2871281023083942 -0.23642816347453929 0 0.28023755551120832 -0.23752656702804401 0 0.29360651724728343 -0.2472538276421708 0 0.29172724461865868 -0.24091253762858439 0 0.28023755551120832 -0.23752656702804401 0 0.29360651724728343 -0.2472538276421708 0 0.28599370446479322 -0.2459334700025447 0 0.28023755551120832 -0.23752656702804401 0 0.28599370446479322 -0.2459334700025447 0 0.28023755551120832 -0.23752656702804401 0 0.28420643169806681 -0.25031113764635282 0 0.29360651724728343 -0.2472538276421708 0 0.28023755551120832 -0.23752656702804401 0 0.28599370446479322 -0.2459334700025447 0 0.28904947714479368 -0.25068788448250667 0 0.28420643169806681 -0.25031113764635282 0 0.29947907764116333 -0.2377851097571835 0 0.29108062112130068 -0.23693270586621629 0 0.2801126816573315 -0.2282816651597597 0 0.29598634510677152 -0.22458444833115451 0 0.28741002841078978 -0.22170143858131969 0 0.2801126816573315 -0.2282816651597597 0 0.30673561255184217 -0.23554980433560041 0 0.29598634510677152 -0.22458444833115451 0 0.2801126816573315 -0.2282816651597597 0 0.30673561255184217 -0.23554980433560041 0 0.29947907764116333 -0.2377851097571835 0 0.2801126816573315 -0.2282816651597597 0 0.30673561255184217 -0.23554980433560041 0 0.2801126816573315 -0.2282816651597597 0 0.29501963916990648 -0.21575390455516941 0 0.29598634510677152 -0.22458444833115451 0 0.28741002841078978 -0.22170143858131969 0 0.29108062112130068 -0.23693270586621629 0 0.2871281023083942 -0.23642816347453929 0 0.2801126816573315 -0.2282816651597597 0 0.2871281023083942 -0.23642816347453929 0 0.2801126816573315 -0.2282816651597597 0 0.28023755551120832 -0.23752656702804401 0 0.28324337490000723 -0.21275283766242339 0 0.28741002841078978 -0.22170143858131969 0 0.28008444702408691 -0.22619134436377161 0 0.28741002841078978 -0.22170143858131969 0 0.28008444702408691 -0.22619134436377161 0 0.2801126816573315 -0.2282816651597597 0 0.28324337490000723 -0.21275283766242339 0 0.27645874756283378 -0.22728413030368719 0 0.27384740628471138 -0.23287709251263619 0 0.27645874756283378 -0.22728413030368719 0 0.25997608400921762 -0.22278431421765951 0 0.27645874756283378 -0.22728413030368719 0 0.25997608400921762 -0.22278431421765951 0 0.2707471521101103 -0.2157678896123788 0 0.27645874756283378 -0.22728413030368719 0 0.25997608400921762 -0.22278431421765951 0 0.28324337490000723 -0.21275283766242339 0 0.28008444702408691 -0.22619134436377161 0 0.27645874756283378 -0.22728413030368719 0 0.2801126816573315 -0.2282816651597597 0 0.27737519133552829 -0.23111811155054451 0 0.28023755551120832 -0.23752656702804401 0 0.2801126816573315 -0.2282816651597597 0 0.28023755551120832 -0.23752656702804401 0 0.28008444702408691 -0.22619134436377161 0 0.2801126816573315 -0.2282816651597597 0 0.2801126816573315 -0.2282816651597597 0 0.27737519133552829 -0.23111811155054451 0 0.27645874756283378 -0.22728413030368719 0 0.28008444702408691 -0.22619134436377161 0 0.2801126816573315 -0.2282816651597597 0 0.27645874756283378 -0.22728413030368719 0 0.2801126816573315 -0.2282816651597597 0 0.27645874756283378 -0.22728413030368719 0 0.27737519133552829 -0.23111811155054451 0 0.27384740628471138 -0.23287709251263619 0 0.28023755551120832 -0.23752656702804401 0 0.27737519133552829 -0.23111811155054451 0 0.27384740628471138 -0.23287709251263619 0 0.27645874756283378 -0.22728413030368719 0 0.27384740628471138 -0.23287709251263619 0 0.27645874756283378 -0.22728413030368719 0 0.27384740628471138 -0.23287709251263619 0 0.25997608400921762 -0.22278431421765951 0 0.28023755551120832 -0.23752656702804401 0 0.28054652475274172 -0.2604007735142394 0 0.27384740628471138 -0.23287709251263619 0 0.26333692210481308 -0.25538841315403249 0 0.2745197859875832 -0.24904298869078559 0 0.28023755551120832 -0.23752656702804401 0 0.28054652475274172 -0.2604007735142394 0 0.27384740628471138 -0.23287709251263619 0 0.2745197859875832 -0.24904298869078559 0 0.26333692210481308 -0.25538841315403249 0 0.27384740628471138 -0.23287709251263619 0 0.2745197859875832 -0.24904298869078559 0 0.28023755551120832 -0.23752656702804401 0 0.27384740628471138 -0.23287709251263619 0 0.26149455009887362 -0.24498224903395149 0 0.26333692210481308 -0.25538841315403249 0 0.27384740628471138 -0.23287709251263619 0 0.28023755551120832 -0.23752656702804401 0 0.27384740628471138 -0.23287709251263619 0 0.26149455009887362 -0.24498224903395149 0 0.26232001185463211 -0.23804404663053019 0 0.26232001185463211 -0.23804404663053019 0 0.25486334444659259 -0.2408766748622668 0 0.25906973050685528 -0.23204449664779531 0 0.26149455009887362 -0.24498224903395149 0 0.26232001185463211 -0.23804404663053019 0 0.25486334444659259 -0.2408766748622668 0 0.25486334444659259 -0.2408766748622668 0 0.25906973050685528 -0.23204449664779531 0 0.2490619156855412 -0.2335319319965723 0 0.25486334444659259 -0.2408766748622668 0 0.25308098861243489 -0.25102578537603681 0 0.24312646163795509 -0.245353091718022 0 0.26149455009887362 -0.24498224903395149 0 0.25486334444659259 -0.2408766748622668 0 0.25308098861243489 -0.25102578537603681 0 0.27384740628471138 -0.23287709251263619 0 0.25997608400921762 -0.22278431421765951 0 0.25906973050685528 -0.23204449664779531 0 0.27384740628471138 -0.23287709251263619 0 0.26232001185463211 -0.23804404663053019 0 0.25906973050685528 -0.23204449664779531 0 0.25997608400921762 -0.22278431421765951 0 0.25906973050685528 -0.23204449664779531 0 0.25552106456812568 -0.22622234616634809 0 0.25906973050685528 -0.23204449664779531 0 0.25552106456812568 -0.22622234616634809 0 0.2490619156855412 -0.2335319319965723 0 0.25552106456812568 -0.22622234616634809 0 0.2490619156855412 -0.2335319319965723 0 0.24812357358753001 -0.22267929854847721 0 0.25997608400921762 -0.22278431421765951 0 0.25552106456812568 -0.22622234616634809 0 0.24812357358753001 -0.22267929854847721 0 0.25996955869180649 -0.20913058167408069 0 0.27446095915304008 -0.2028336797065548 0 0.25767459407281651 -0.1982081169202663 0 0.25997608400921762 -0.22278431421765951 0 0.25996955869180649 -0.20913058167408069 0 0.2369890041138483 -0.20605890791354339 0 0.25996955869180649 -0.20913058167408069 0 0.25767459407281651 -0.1982081169202663 0 0.2369890041138483 -0.20605890791354339 0 0.25997608400921762 -0.22278431421765951 0 0.25996955869180649 -0.20913058167408069 0 0.2707471521101103 -0.2157678896123788 0 0.25996955869180649 -0.20913058167408069 0 0.2707471521101103 -0.2157678896123788 0 0.27446095915304008 -0.2028336797065548 0 0.28324337490000723 -0.21275283766242339 0 0.2707471521101103 -0.2157678896123788 0 0.27446095915304008 -0.2028336797065548 0 0.28324337490000723 -0.21275283766242339 0 0.27645874756283378 -0.22728413030368719 0 0.2707471521101103 -0.2157678896123788 0 0.27446095915304008 -0.2028336797065548 0 0.25767459407281651 -0.1982081169202663 0 0.26847009620103929 -0.18368937482723921 0 0.28973027419055802 -0.1940510858558134 0 0.27446095915304008 -0.2028336797065548 0 0.26847009620103929 -0.18368937482723921 0 0.25767459407281651 -0.1982081169202663 0 0.2505817717972898 -0.17180033415122581 0 0.26847009620103929 -0.18368937482723921 0 0.2505817717972898 -0.17180033415122581 0 0.27771546699934291 -0.16600626541577801 0 0.26847009620103929 -0.18368937482723921 0 0.25767459407281651 -0.1982081169202663 0 0.2505817717972898 -0.17180033415122581 0 0.2505817717972898 -0.17180033415122581 0 0.27771546699934291 -0.16600626541577801 0 0.25854688174340218 -0.15059286666406579 0 0.28973027419055802 -0.1940510858558134 0 0.27771546699934291 -0.16600626541577801 0 0.26847009620103929 -0.18368937482723921 0 0.25695038574270829 -0.1310127092774904 0 0.25854688174340218 -0.15059286666406579 0 0.27630448881674741 -0.1337366910261078 0 0.2505817717972898 -0.17180033415122581 0 0.25854688174340218 -0.15059286666406579 0 0.24348894952176309 -0.14539255138218549 0 0.25695038574270829 -0.1310127092774904 0 0.25854688174340218 -0.15059286666406579 0 0.24348894952176309 -0.14539255138218549 0 0.25854688174340218 -0.15059286666406579 0 0.27630448881674741 -0.1337366910261078 0 0.27771546699934291 -0.16600626541577801 0 0.25854688174340218 -0.15059286666406579 0 0.27705765658734999 -0.15082960620811839 0 0.25854688174340218 -0.15059286666406579 0 0.27705765658734999 -0.15082960620811839 0 0.27630448881674741 -0.1337366910261078 0 0.27692483155212022 -0.11440330824921111 0 0.25695038574270829 -0.1310127092774904 0 0.27630448881674741 -0.1337366910261078 0 0.27630448881674741 -0.1337366910261078 0 0.2956637887899079 -0.15298260172652209 0 0.30181534244378799 -0.13167728645938889 0 0.29406209589009258 -0.11688051538814979 0 0.27630448881674741 -0.1337366910261078 0 0.29406209589009258 -0.11688051538814979 0 0.27630448881674741 -0.1337366910261078 0 0.30181534244378799 -0.13167728645938889 0 0.27705765658734999 -0.15082960620811839 0 0.27630448881674741 -0.1337366910261078 0 0.2956637887899079 -0.15298260172652209 0 0.2956637887899079 -0.15298260172652209 0 0.31351320541427602 -0.1653927192132697 0 0.31690451987643231 -0.1466116195496153 0 0.2956637887899079 -0.15298260172652209 0 0.30181534244378799 -0.13167728645938889 0 0.31690451987643231 -0.1466116195496153 0 0.31009823360406602 -0.1175710069616353 0 0.30181534244378799 -0.13167728645938889 0 0.3205558559981681 -0.12750050645216501 0 0.30181534244378799 -0.13167728645938889 0 0.31690451987643231 -0.1466116195496153 0 0.28973027419055802 -0.1940510858558134 0 0.27771546699934291 -0.16600626541577801 0 0.30023982936510202 -0.17727656252204901 0 0.27771546699934291 -0.16600626541577801 0 0.2956637887899079 -0.15298260172652209 0 0.30023982936510202 -0.17727656252204901 0 0.27771546699934291 -0.16600626541577801 0 0.27705765658734999 -0.15082960620811839 0 0.2956637887899079 -0.15298260172652209 0 0.27771546699934291 -0.16600626541577801 0 0.30023982936510202 -0.17727656252204901 0 0.2956637887899079 -0.15298260172652209 0 0.30023982936510202 -0.17727656252204901 0 0.31351320541427602 -0.1653927192132697 0 0.30023982936510202 -0.17727656252204901 0 0.32276419173086113 -0.18854685962832021 0 0.30735661830211702 -0.19257160069792331 0 0.30023982936510202 -0.17727656252204901 0 0.32276419173086113 -0.18854685962832021 0 0.30023982936510202 -0.17727656252204901 0 0.31351320541427602 -0.1653927192132697 0 0.32276419173086113 -0.18854685962832021 0 0.33199369730907807 -0.1615459526398402 0 0.32276419173086113 -0.18854685962832021 0 0.31351320541427602 -0.1653927192132697 0 0.33199369730907807 -0.1615459526398402 0 0.31690451987643231 -0.1466116195496153 0 0.31351320541427602 -0.1653927192132697 0 0.33199369730907807 -0.1615459526398402 0 0.32276419173086113 -0.18854685962832021 0 0.33199369730907807 -0.1615459526398402 0 0.34366465390379519 -0.15543058431264001 0 0.34392345967531318 -0.17335329241432029 0 0.33199369730907807 -0.1615459526398402 0 0.34392345967531318 -0.17335329241432029 0 0.33199369730907807 -0.1615459526398402 0 0.33743890292034939 -0.1845603837143743 0 0.34392345967531318 -0.17335329241432029 0 0.33199369730907807 -0.1615459526398402 0 0.33743890292034939 -0.1845603837143743 0 0.32276419173086113 -0.18854685962832021 0 0.30181534244378799 -0.13167728645938889 0 0.3205558559981681 -0.12750050645216501 0 0.31690451987643231 -0.1466116195496153 0 0.3205558559981681 -0.12750050645216501 0 0.31690451987643231 -0.1466116195496153 0 0.3387139207729386 -0.14188594732845061 0 0.33199369730907807 -0.1615459526398402 0 0.31690451987643231 -0.1466116195496153 0 0.33199369730907807 -0.1615459526398402 0 0.31690451987643231 -0.1466116195496153 0 0.3387139207729386 -0.14188594732845061 0 0.33199369730907807 -0.1615459526398402 0 0.34366465390379519 -0.15543058431264001 0 0.3387139207729386 -0.14188594732845061 0 0.33199369730907807 -0.1615459526398402 0 0.3387139207729386 -0.14188594732845061 0 0.34543414423679453 -0.1222259420170595 0 0.3387139207729386 -0.14188594732845061 0 0.33372925645713147 -0.1172363729978006 0 0.3205558559981681 -0.12750050645216501 0 0.3387139207729386 -0.14188594732845061 0 0.34543414423679453 -0.1222259420170595 0 0.33372925645713147 -0.1172363729978006 0 0.3387139207729386 -0.14188594732845061 0 0.34543414423679453 -0.1222259420170595 0 0.3387139207729386 -0.14188594732845061 0 0.35155375597078148 -0.1423937155052569 0 0.34543414423679453 -0.1222259420170595 0 0.35155375597078148 -0.1423937155052569 0 0.3598876515495143 -0.13213281424189011 0 0.35155375597078148 -0.1423937155052569 0 0.36479650049243628 -0.13828930258120861 0 0.3598876515495143 -0.13213281424189011 0 0.34366465390379519 -0.15543058431264001 0 0.35155375597078148 -0.1423937155052569 0 0.35409020821352788 -0.16038878101807691 0 0.35155375597078148 -0.1423937155052569 0 0.36479650049243628 -0.13828930258120861 0 0.35409020821352788 -0.16038878101807691 0 0.34366465390379519 -0.15543058431264001 0 0.3387139207729386 -0.14188594732845061 0 0.35155375597078148 -0.1423937155052569 0 0.36668581576804671 -0.15284771776002359 0 0.36479650049243628 -0.13828930258120861 0 0.35409020821352788 -0.16038878101807691 0 0.36479650049243628 -0.13828930258120861 0 0.38045801486546638 -0.15793136770375851 0 0.36479650049243628 -0.13828930258120861 0 0.35409020821352788 -0.16038878101807691 0 0.36668581576804671 -0.15284771776002359 0 0.36479650049243628 -0.13828930258120861 0 0.38045801486546638 -0.15793136770375851 0 0.37188528678964461 -0.12365692791427731 0 0.36479650049243628 -0.13828930258120861 0 0.38034708790638899 -0.14083932241906821 0 0.36479650049243628 -0.13828930258120861 0 0.3598876515495143 -0.13213281424189011 0 0.37188528678964461 -0.12365692791427731 0 0.36479650049243628 -0.13828930258120861 0 0.37188528678964461 -0.12365692791427731 0 0.36479650049243628 -0.13828930258120861 0 0.3598876515495143 -0.13213281424189011 0 0.33743890292034939 -0.1845603837143743 0 0.35585322204154979 -0.18516063218879891 0 0.34392345967531318 -0.17335329241432029 0 0.35494780133525022 -0.17386695926776391 0 0.35585322204154979 -0.18516063218879891 0 0.36487637775964599 -0.17590388391643891 0 0.35494780133525022 -0.17386695926776391 0 0.35585322204154979 -0.18516063218879891 0 0.34392345967531318 -0.17335329241432029 0 0.35585322204154979 -0.18516063218879891 0 0.34392345967531318 -0.17335329241432029 0 0.35494780133525022 -0.17386695926776391 0 0.34392345967531318 -0.17335329241432029 0 0.35409020821352788 -0.16038878101807691 0 0.34366465390379519 -0.15543058431264001 0 0.34392345967531318 -0.17335329241432029 0 0.35409020821352788 -0.16038878101807691 0 0.35494780133525022 -0.17386695926776391 0 0.35409020821352788 -0.16038878101807691 0 0.36119324774184769 -0.16676221415209469 0 0.36119324774184769 -0.16676221415209469 0 0.37012892051824642 -0.16471701617740239 0 0.36487637775964599 -0.17590388391643891 0 0.36668581576804671 -0.15284771776002359 0 0.36119324774184769 -0.16676221415209469 0 0.37012892051824642 -0.16471701617740239 0 0.36668581576804671 -0.15284771776002359 0 0.35409020821352788 -0.16038878101807691 0 0.36119324774184769 -0.16676221415209469 0 0.36668581576804671 -0.15284771776002359 0 0.37401857135176009 -0.16059963520537421 0 0.38045801486546638 -0.15793136770375851 0 0.36668581576804671 -0.15284771776002359 0 0.37401857135176009 -0.16059963520537421 0 0.37012892051824642 -0.16471701617740239 0 0.37012892051824642 -0.16471701617740239 0 0.37390300339936272 -0.17214732901377419 0 0.37880153425528118 -0.16690243918031211 0 0.37012892051824642 -0.16471701617740239 0 0.37390300339936272 -0.17214732901377419 0 0.36487637775964599 -0.17590388391643891 0 0.37401857135176009 -0.16059963520537421 0 0.37012892051824642 -0.16471701617740239 0 0.37880153425528118 -0.16690243918031211 0 0.37390300339936272 -0.17214732901377419 0 0.36487637775964599 -0.17590388391643891 0 0.37573363247309832 -0.17974342077995389 0 0.35494780133525022 -0.17386695926776391 0 0.36119324774184769 -0.16676221415209469 0 0.36487637775964599 -0.17590388391643891 0 0.35585322204154979 -0.18516063218879891 0 0.36487637775964599 -0.17590388391643891 0 0.36936598355422912 -0.18623758716006639 0 0.35585322204154979 -0.18516063218879891 0 0.36487637775964599 -0.17590388391643891 0 0.36487637775964599 -0.17590388391643891 0 0.36936598355422912 -0.18623758716006639 0 0.37573363247309832 -0.17974342077995389 0 0.36936598355422912 -0.18623758716006639 0 0.37194903326998952 -0.20109126905193769 0 0.38071135490869318 -0.1889951510089411 0 0.35585322204154979 -0.18516063218879891 0 0.36936598355422912 -0.18623758716006639 0 0.37194903326998952 -0.20109126905193769 0 0.35585322204154979 -0.18516063218879891 0 0.37194903326998952 -0.20109126905193769 0 0.35585322204154979 -0.18516063218879891 0 0.37194903326998952 -0.20109126905193769 0 0.35273293289416652 -0.20354202847380251 0 0.37194903326998952 -0.20109126905193769 0 0.36330396994325198 -0.21160545235350281 0 0.35273293289416652 -0.20354202847380251 0 0.37194903326998952 -0.20109126905193769 0 0.37452569986005169 -0.21827524713466531 0 0.36330396994325198 -0.21160545235350281 0 0.37452569986005169 -0.21827524713466531 0 0.36330396994325198 -0.21160545235350281 0 0.36271704846290292 -0.22534892326508901 0 0.36330396994325198 -0.21160545235350281 0 0.35329649091349591 -0.21501987353963861 0 0.36271704846290292 -0.22534892326508901 0 0.36330396994325198 -0.21160545235350281 0 0.35329649091349591 -0.21501987353963861 0 0.35273293289416652 -0.20354202847380251 0 0.35329649091349591 -0.21501987353963861 0 0.35273293289416652 -0.20354202847380251 0 0.34357692517511851 -0.21157452909824859 0 0.35273293289416652 -0.20354202847380251 0 0.34278676140558911 -0.19856535894922639 0 0.34357692517511851 -0.21157452909824859 0 0.35329649091349591 -0.21501987353963861 0 0.34357692517511851 -0.21157452909824859 0 0.34446292927520961 -0.22434717126477299 0 0.35585322204154979 -0.18516063218879891 0 0.35273293289416652 -0.20354202847380251 0 0.34278676140558911 -0.19856535894922639 0 0.33743890292034939 -0.1845603837143743 0 0.35585322204154979 -0.18516063218879891 0 0.34278676140558911 -0.19856535894922639 0 0.35273293289416652 -0.20354202847380251 0 0.34278676140558911 -0.19856535894922639 0 0.35585322204154979 -0.18516063218879891 0 0.34278676140558911 -0.19856535894922639 0 0.34278676140558911 -0.19856535894922639 0 0.32276419173086113 -0.18854685962832021 0 0.33743890292034939 -0.1845603837143743 0 0.34278676140558911 -0.19856535894922639 0 0.32276419173086113 -0.18854685962832021 0 0.32869463524465381 -0.2002912155736272 0 0.34278676140558911 -0.19856535894922639 0 0.32276419173086113 -0.18854685962832021 0 0.34278676140558911 -0.19856535894922639 0 0.32476118697871642 -0.21705758164241409 0 0.34357692517511851 -0.21157452909824859 0 0.32476118697871642 -0.21705758164241409 0 0.34446292927520961 -0.22434717126477299 0 0.34278676140558911 -0.19856535894922639 0 0.34357692517511851 -0.21157452909824859 0 0.32476118697871642 -0.21705758164241409 0 0.32869463524465381 -0.2002912155736272 0 0.34278676140558911 -0.19856535894922639 0 0.32476118697871642 -0.21705758164241409 0 0.32869463524465381 -0.2002912155736272 0 0.32054687466952408 -0.2051705166099124 0 0.32476118697871642 -0.21705758164241409 0 0.30717399236319698 -0.21963164060350879 0 0.32476118697871642 -0.21705758164241409 0 0.31300827355338112 -0.21018490794370009 0 0.31111606127177649 -0.20178139578175311 0 0.32054687466952408 -0.2051705166099124 0 0.31300827355338112 -0.21018490794370009 0 0.32054687466952408 -0.2051705166099124 0 0.32476118697871642 -0.21705758164241409 0 0.31300827355338112 -0.21018490794370009 0 0.31111606127177649 -0.20178139578175311 0 0.32054687466952408 -0.2051705166099124 0 0.32055564111406848 -0.1950079716865927 0 0.30735661830211702 -0.19257160069792331 0 0.31111606127177649 -0.20178139578175311 0 0.32055564111406848 -0.1950079716865927 0 0.30735661830211702 -0.19257160069792331 0 0.32055564111406848 -0.1950079716865927 0 0.32276419173086113 -0.18854685962832021 0 0.32869463524465381 -0.2002912155736272 0 0.32055564111406848 -0.1950079716865927 0 0.32276419173086113 -0.18854685962832021 0 0.32055564111406848 -0.1950079716865927 0 0.32276419173086113 -0.18854685962832021 0 0.32869463524465381 -0.2002912155736272 0 0.32054687466952408 -0.2051705166099124 0 0.32055564111406848 -0.1950079716865927 0 0.32198004994720819 -0.2397115810042143 0 0.33722448734257388 -0.2438733576728285 0 0.31967497454266808 -0.25184281364455768 0 0.31045690666907799 -0.2457929107903 0 0.32198004994720819 -0.2397115810042143 0 0.31967497454266808 -0.25184281364455768 0 0.30673561255184217 -0.23554980433560041 0 0.32198004994720819 -0.2397115810042143 0 0.31045690666907799 -0.2457929107903 0 0.30673561255184217 -0.23554980433560041 0 0.32198004994720819 -0.2397115810042143 0 0.30673561255184217 -0.23554980433560041 0 0.32476118697871642 -0.21705758164241409 0 0.32198004994720819 -0.2397115810042143 0 0.30673561255184217 -0.23554980433560041 0 0.32476118697871642 -0.21705758164241409 0 0.30717399236319698 -0.21963164060350879 0 0.30673561255184217 -0.23554980433560041 0 0.32476118697871642 -0.21705758164241409 0 0.32476118697871642 -0.21705758164241409 0 0.32198004994720819 -0.2397115810042143 0 0.33273041632268618 -0.23033417754760691 0 0.32476118697871642 -0.21705758164241409 0 0.33273041632268618 -0.23033417754760691 0 0.34446292927520961 -0.22434717126477299 0 0.33273041632268618 -0.23033417754760691 0 0.33722448734257388 -0.2438733576728285 0 0.34446292927520961 -0.22434717126477299 0 0.32198004994720819 -0.2397115810042143 0 0.33722448734257388 -0.2438733576728285 0 0.32198004994720819 -0.2397115810042143 0 0.33273041632268618 -0.23033417754760691 0 0.33722448734257388 -0.2438733576728285 0 0.33722448734257388 -0.2438733576728285 0 0.3547866675123601 -0.24369493949141899 0 0.34266650773359042 -0.25844354670096348 0 0.33722448734257388 -0.2438733576728285 0 0.3547866675123601 -0.24369493949141899 0 0.34446292927520961 -0.22434717126477299 0 0.35329649091349591 -0.21501987353963861 0 0.34446292927520961 -0.22434717126477299 0 0.36271704846290292 -0.22534892326508901 0 0.3547866675123601 -0.24369493949141899 0 0.34446292927520961 -0.22434717126477299 0 0.36271704846290292 -0.22534892326508901 0 0.37452569986005169 -0.21827524713466531 0 0.36271704846290292 -0.22534892326508901 0 0.3832062220783552 -0.24631551002547131 0 0.3547866675123601 -0.24369493949141899 0 0.36271704846290292 -0.22534892326508901 0 0.3832062220783552 -0.24631551002547131 0 0.3832062220783552 -0.24631551002547131 0 0.40843946377751272 -0.23720723668753141 0 0.4030783970408689 -0.25963528910475242 0 0.38804484449842691 -0.217021905915079 0 0.40353418706157701 -0.211458436082054 0 0.40843946377751272 -0.23720723668753141 0 0.3832062220783552 -0.24631551002547131 0 0.38804484449842691 -0.217021905915079 0 0.40843946377751272 -0.23720723668753141 0 0.38804484449842691 -0.217021905915079 0 0.40843946377751272 -0.23720723668753141 0 0.37452569986005169 -0.21827524713466531 0 0.3832062220783552 -0.24631551002547131 0 0.38804484449842691 -0.217021905915079 0 0.3832062220783552 -0.24631551002547131 0 0.38804484449842691 -0.217021905915079 0 0.38804484449842691 -0.217021905915079 0 0.39065669872185999 -0.20120942521846569 0 0.37194903326998952 -0.20109126905193769 0 0.37452569986005169 -0.21827524713466531 0 0.38804484449842691 -0.217021905915079 0 0.37194903326998952 -0.20109126905193769 0 0.38804484449842691 -0.217021905915079 0 0.37194903326998952 -0.20109126905193769 0 0.38804484449842691 -0.217021905915079 0 0.39065669872185999 -0.20120942521846569 0 0.37194903326998952 -0.20109126905193769 0 0.38071135490869318 -0.1889951510089411 0 0.39065669872185999 -0.20120942521846569 0 0.38071135490869318 -0.1889951510089411 0 0.39065669872185999 -0.20120942521846569 0 0.39326855294529922 -0.18539694452185329 0 0.39065669872185999 -0.20120942521846569 0 0.40036398981588323 -0.19469089489623559 0 0.40353418706157701 -0.211458436082054 0 0.39065669872185999 -0.20120942521846569 0 0.39326855294529922 -0.18539694452185329 0 0.39065669872185999 -0.20120942521846569 0 0.40036398981588323 -0.19469089489623559 0 0.39326855294529922 -0.18539694452185329 0 0.40036398981588323 -0.19469089489623559 0 0.4117810436115269 -0.19721549794885829 0 0.39611952923849669 -0.17757343282630841 0 0.40036398981588323 -0.19469089489623559 0 0.40353418706157701 -0.211458436082054 0 0.4117810436115269 -0.19721549794885829 0 0.38804484449842691 -0.217021905915079 0 0.39065669872185999 -0.20120942521846569 0 0.40353418706157701 -0.211458436082054 0 0.40353418706157701 -0.211458436082054 0 0.4117810436115269 -0.19721549794885829 0 0.41980772060089339 -0.22059530396836821 0 0.4117810436115269 -0.19721549794885829 0 0.43128760226532731 -0.19193769951976131 0 0.41435950382551717 -0.1840658731456925 0 0.43128760226532731 -0.19193769951976131 0 0.43415145246965148 -0.2098480424972558 0 0.44586237915078542 -0.19993411866812391 0 0.4117810436115269 -0.19721549794885829 0 0.43128760226532731 -0.19193769951976131 0 0.43415145246965148 -0.2098480424972558 0 0.4117810436115269 -0.19721549794885829 0 0.43415145246965148 -0.2098480424972558 0 0.41980772060089339 -0.22059530396836821 0 0.43415145246965148 -0.2098480424972558 0 0.4371765437173154 -0.2323070269068713 0 0.41980772060089339 -0.22059530396836821 0 0.4371765437173154 -0.2323070269068713 0 0.40843946377751272 -0.23720723668753141 0 0.42883408305659632 -0.25739256745998629 0 0.40843946377751272 -0.23720723668753141 0 0.42883408305659632 -0.25739256745998629 0 0.40353418706157701 -0.211458436082054 0 0.40843946377751272 -0.23720723668753141 0 0.41980772060089339 -0.22059530396836821 0 0.4371765437173154 -0.2323070269068713 0 0.40843946377751272 -0.23720723668753141 0 0.41980772060089339 -0.22059530396836821 0 0.38893995291847788 -0.1224490157168735 0 0.39376572749678179 -0.14648346736377671 0 0.38893995291847788 -0.1224490157168735 0 0.40079770932166481 -0.13659327622738129 0 0.39376572749678179 -0.14648346736377671 0 0.40437047291737721 -0.12730443185503901 0 0.40079770932166481 -0.13659327622738129 0 0.41156364637677673 -0.13745332923961989 0 0.38893995291847788 -0.1224490157168735 0 0.40437047291737721 -0.12730443185503901 0 0.40079770932166481 -0.13659327622738129 0 0.37188528678964461 -0.12365692791427731 0 0.38034708790638899 -0.14083932241906821 0 0.38893995291847788 -0.1224490157168735 0 0.38034708790638899 -0.14083932241906821 0 0.39376572749678179 -0.14648346736377671 0 0.38893995291847788 -0.1224490157168735 0 0.37188528678964461 -0.12365692791427731 0 0.38034708790638899 -0.14083932241906821 0 0.38034708790638899 -0.14083932241906821 0 0.38880888902313249 -0.15802171692385969 0 0.38045801486546638 -0.15793136770375851 0 0.36479650049243628 -0.13828930258120861 0 0.38034708790638899 -0.14083932241906821 0 0.38045801486546638 -0.15793136770375851 0 0.38034708790638899 -0.14083932241906821 0 0.38880888902313249 -0.15802171692385969 0 0.38034708790638899 -0.14083932241906821 0 0.39376572749678179 -0.14648346736377671 0 0.38880888902313249 -0.15802171692385969 0 0.39376572749678179 -0.14648346736377671 0 0.39846797132633022 -0.15533740901906179 0 0.38880888902313249 -0.15802171692385969 0 0.40079770932166481 -0.13659327622738129 0 0.40635871101328119 -0.14839356601429299 0 0.41156364637677673 -0.13745332923961989 0 0.40079770932166481 -0.13659327622738129 0 0.39376572749678179 -0.14648346736377671 0 0.40635871101328119 -0.14839356601429299 0 0.39376572749678179 -0.14648346736377671 0 0.39846797132633022 -0.15533740901906179 0 0.40635871101328119 -0.14839356601429299 0 0.39846797132633022 -0.15533740901906179 0 0.40614558477464757 -0.15869852179402261 0 0.40635871101328119 -0.14839356601429299 0 0.39846797132633022 -0.15533740901906179 0 0.40614558477464757 -0.15869852179402261 0 0.39951278347363239 -0.16497268302997059 0 0.40614558477464757 -0.15869852179402261 0 0.39951278347363239 -0.16497268302997059 0 0.40721118585937821 -0.16694567749298131 0 0.40126173987394148 -0.1709911060745454 0 0.39951278347363239 -0.16497268302997059 0 0.40721118585937821 -0.16694567749298131 0 0.40126173987394148 -0.1709911060745454 0 0.4093942511218181 -0.1748548275038235 0 0.40721118585937821 -0.16694567749298131 0 0.40126173987394148 -0.1709911060745454 0 0.39951278347363239 -0.16497268302997059 0 0.3947444138524851 -0.1699066579904514 0 0.39951278347363239 -0.16497268302997059 0 0.3947444138524851 -0.1699066579904514 0 0.39226538261006089 -0.16215098662908359 0 0.39846797132633022 -0.15533740901906179 0 0.39226538261006089 -0.16215098662908359 0 0.38880888902313249 -0.15802171692385969 0 0.39846797132633022 -0.15533740901906179 0 0.39951278347363239 -0.16497268302997059 0 0.39226538261006089 -0.16215098662908359 0 0.3947444138524851 -0.1699066579904514 0 0.39226538261006089 -0.16215098662908359 0 0.38045801486546638 -0.15793136770375851 0 0.39226538261006089 -0.16215098662908359 0 0.38880888902313249 -0.15802171692385969 0 0.38045801486546638 -0.15793136770375851 0 0.3947444138524851 -0.1699066579904514 0 0.38045801486546638 -0.15793136770375851 0 0.39611952923849669 -0.17757343282630841 0 0.38045801486546638 -0.15793136770375851 0 0.39611952923849669 -0.17757343282630841 0 0.38045801486546638 -0.15793136770375851 0 0.37880153425528118 -0.16690243918031211 0 0.39611952923849669 -0.17757343282630841 0 0.37401857135176009 -0.16059963520537421 0 0.38045801486546638 -0.15793136770375851 0 0.37880153425528118 -0.16690243918031211 0 0.37390300339936272 -0.17214732901377419 0 0.37880153425528118 -0.16690243918031211 0 0.38121417977805211 -0.17434446496408251 0 0.38121417977805211 -0.17434446496408251 0 0.38495070933236158 -0.18126939859108021 0 0.39611952923849669 -0.17757343282630841 0 0.37880153425528118 -0.16690243918031211 0 0.38121417977805211 -0.17434446496408251 0 0.39611952923849669 -0.17757343282630841 0 0.38121417977805211 -0.17434446496408251 0 0.37573363247309832 -0.17974342077995389 0 0.38495070933236158 -0.18126939859108021 0 0.37390300339936272 -0.17214732901377419 0 0.38121417977805211 -0.17434446496408251 0 0.37573363247309832 -0.17974342077995389 0 0.36936598355422912 -0.18623758716006639 0 0.38071135490869318 -0.1889951510089411 0 0.37573363247309832 -0.17974342077995389 0 0.38071135490869318 -0.1889951510089411 0 0.37573363247309832 -0.17974342077995389 0 0.38495070933236158 -0.18126939859108021 0 0.38071135490869318 -0.1889951510089411 0 0.38495070933236158 -0.18126939859108021 0 0.39326855294529922 -0.18539694452185329 0 0.38495070933236158 -0.18126939859108021 0 0.39326855294529922 -0.18539694452185329 0 0.39611952923849669 -0.17757343282630841 0 0.4117810436115269 -0.19721549794885829 0 0.39611952923849669 -0.17757343282630841 0 0.40036398981588323 -0.19469089489623559 0 0.39326855294529922 -0.18539694452185329 0 0.39611952923849669 -0.17757343282630841 0 0.40126173987394148 -0.1709911060745454 0 0.3947444138524851 -0.1699066579904514 0 0.39611952923849669 -0.17757343282630841 0 0.40126173987394148 -0.1709911060745454 0 0.39611952923849669 -0.17757343282630841 0 0.4093942511218181 -0.1748548275038235 0 0.4117810436115269 -0.19721549794885829 0 0.39611952923849669 -0.17757343282630841 0 0.41435950382551717 -0.1840658731456925 0 0.39611952923849669 -0.17757343282630841 0 0.4093942511218181 -0.1748548275038235 0 0.41435950382551717 -0.1840658731456925 0 0.4093942511218181 -0.1748548275038235 0 0.41435950382551717 -0.1840658731456925 0 0.42321509289041709 -0.17874790792971099 0 0.4093942511218181 -0.1748548275038235 0 0.42321509289041709 -0.17874790792971099 0 0.41715702265944582 -0.16873892627348339 0 0.43128760226532731 -0.19193769951976131 0 0.41435950382551717 -0.1840658731456925 0 0.42321509289041709 -0.17874790792971099 0 0.43128760226532731 -0.19193769951976131 0 0.4356098811607404 -0.1810863959667752 0 0.42321509289041709 -0.17874790792971099 0 0.4356098811607404 -0.1810863959667752 0 0.42976774792496159 -0.1697563780927816 0 0.44035862461779779 -0.1719397772709243 0 0.42321509289041709 -0.17874790792971099 0 0.42976774792496159 -0.1697563780927816 0 0.41715702265944582 -0.16873892627348339 0 0.4356098811607404 -0.1810863959667752 0 0.42321509289041709 -0.17874790792971099 0 0.42976774792496159 -0.1697563780927816 0 0.42976774792496159 -0.1697563780927816 0 0.42212665008827122 -0.1603378395887527 0 0.41715702265944582 -0.16873892627348339 0 0.42976774792496159 -0.1697563780927816 0 0.43532396988114341 -0.15908172879020829 0 0.44035862461779779 -0.1719397772709243 0 0.42976774792496159 -0.1697563780927816 0 0.43532396988114341 -0.15908172879020829 0 0.42212665008827122 -0.1603378395887527 0 0.43532396988114341 -0.15908172879020829 0 0.42212665008827122 -0.1603378395887527 0 0.42834137530642868 -0.15258844948726949 0 0.42212665008827122 -0.1603378395887527 0 0.41221297510169053 -0.16204737232583141 0 0.41310988187357328 -0.15449442288199741 0 0.42212665008827122 -0.1603378395887527 0 0.41715702265944582 -0.16873892627348339 0 0.41221297510169053 -0.16204737232583141 0 0.4093942511218181 -0.1748548275038235 0 0.41715702265944582 -0.16873892627348339 0 0.40721118585937821 -0.16694567749298131 0 0.41715702265944582 -0.16873892627348339 0 0.40721118585937821 -0.16694567749298131 0 0.41221297510169053 -0.16204737232583141 0 0.40614558477464757 -0.15869852179402261 0 0.40721118585937821 -0.16694567749298131 0 0.41221297510169053 -0.16204737232583141 0 0.40614558477464757 -0.15869852179402261 0 0.41221297510169053 -0.16204737232583141 0 0.41310988187357328 -0.15449442288199741 0 0.40614558477464757 -0.15869852179402261 0 0.41310988187357328 -0.15449442288199741 0 0.40635871101328119 -0.14839356601429299 0 0.41310988187357328 -0.15449442288199741 0 0.40635871101328119 -0.14839356601429299 0 0.42003128291166009 -0.14773934117181731 0 0.40635871101328119 -0.14839356601429299 0 0.42003128291166009 -0.14773934117181731 0 0.41156364637677673 -0.13745332923961989 0 0.42003128291166009 -0.14773934117181731 0 0.42313938957411279 -0.13686863205570801 0 0.41156364637677673 -0.13745332923961989 0 0.42212665008827122 -0.1603378395887527 0 0.41310988187357328 -0.15449442288199741 0 0.42003128291166009 -0.14773934117181731 0 0.42212665008827122 -0.1603378395887527 0 0.42003128291166009 -0.14773934117181731 0 0.42834137530642868 -0.15258844948726949 0 0.43532396988114341 -0.15908172879020829 0 0.42834137530642868 -0.15258844948726949 0 0.43423002557707008 -0.14479959983591159 0 0.42003128291166009 -0.14773934117181731 0 0.42834137530642868 -0.15258844948726949 0 0.43423002557707008 -0.14479959983591159 0 0.42003128291166009 -0.14773934117181731 0 0.43423002557707008 -0.14479959983591159 0 0.42313938957411279 -0.13686863205570801 0 0.43423002557707008 -0.14479959983591159 0 0.4330531352883123 -0.12722417339136269 0 0.42313938957411279 -0.13686863205570801 0 0.4330531352883123 -0.12722417339136269 0 0.42313938957411279 -0.13686863205570801 0 0.41710822639705508 -0.12570255783994991 0 0.42313938957411279 -0.13686863205570801 0 0.41710822639705508 -0.12570255783994991 0 0.41156364637677673 -0.13745332923961989 0 0.40437047291737721 -0.12730443185503901 0 0.41710822639705508 -0.12570255783994991 0 0.41156364637677673 -0.13745332923961989 0 0.44975971092485162 -0.1137132984808801 0 0.46243224528387611 -0.12936119723619621 0 0.44931832268890681 -0.13563082996127579 0 0.46243224528387611 -0.12936119723619621 0 0.46405429351815319 -0.14168000903299049 0 0.47685868690249228 -0.1412553455031649 0 0.46243224528387611 -0.12936119723619621 0 0.44931832268890681 -0.13563082996127579 0 0.46405429351815319 -0.14168000903299049 0 0.43423002557707008 -0.14479959983591159 0 0.4330531352883123 -0.12722417339136269 0 0.44931832268890681 -0.13563082996127579 0 0.44975971092485162 -0.1137132984808801 0 0.4330531352883123 -0.12722417339136269 0 0.44931832268890681 -0.13563082996127579 0 0.44931832268890681 -0.13563082996127579 0 0.44709727684459322 -0.1513075553548669 0 0.45515690724388819 -0.14543293285130041 0 0.43423002557707008 -0.14479959983591159 0 0.44931832268890681 -0.13563082996127579 0 0.44709727684459322 -0.1513075553548669 0 0.43532396988114341 -0.15908172879020829 0 0.43423002557707008 -0.14479959983591159 0 0.44709727684459322 -0.1513075553548669 0 0.44709727684459322 -0.1513075553548669 0 0.46015773592389969 -0.15311333705606861 0 0.45515690724388819 -0.14543293285130041 0 0.46015773592389969 -0.15311333705606861 0 0.45515690724388819 -0.14543293285130041 0 0.46405429351815319 -0.14168000903299049 0 0.44931832268890681 -0.13563082996127579 0 0.45515690724388819 -0.14543293285130041 0 0.46405429351815319 -0.14168000903299049 0 0.46015773592389969 -0.15311333705606861 0 0.46405429351815319 -0.14168000903299049 0 0.47308028348712272 -0.15049719421003249 0 0.46015773592389969 -0.15311333705606861 0 0.46898662194292629 -0.16350018580746661 0 0.47308028348712272 -0.15049719421003249 0 0.46015773592389969 -0.15311333705606861 0 0.45553348888060968 -0.1652678943305535 0 0.46898662194292629 -0.16350018580746661 0 0.45553348888060968 -0.1652678943305535 0 0.46716444644906208 -0.1733529052177514 0 0.46898662194292629 -0.16350018580746661 0 0.44709727684459322 -0.1513075553548669 0 0.46015773592389969 -0.15311333705606861 0 0.45553348888060968 -0.1652678943305535 0 0.44709727684459322 -0.1513075553548669 0 0.45553348888060968 -0.1652678943305535 0 0.44465830499257419 -0.1629174574677977 0 0.43532396988114341 -0.15908172879020829 0 0.44709727684459322 -0.1513075553548669 0 0.44465830499257419 -0.1629174574677977 0 0.43532396988114341 -0.15908172879020829 0 0.44465830499257419 -0.1629174574677977 0 0.44035862461779779 -0.1719397772709243 0 0.44465830499257419 -0.1629174574677977 0 0.45016035731594189 -0.17268720971735591 0 0.44035862461779779 -0.1719397772709243 0 0.45553348888060968 -0.1652678943305535 0 0.44465830499257419 -0.1629174574677977 0 0.45016035731594189 -0.17268720971735591 0 0.45016035731594189 -0.17268720971735591 0 0.44035862461779779 -0.1719397772709243 0 0.44620868140601611 -0.18578216587874541 0 0.45016035731594189 -0.17268720971735591 0 0.44620868140601611 -0.18578216587874541 0 0.45753869263707508 -0.178909277559128 0 0.4356098811607404 -0.1810863959667752 0 0.44035862461779779 -0.1719397772709243 0 0.44620868140601611 -0.18578216587874541 0 0.43128760226532731 -0.19193769951976131 0 0.4356098811607404 -0.1810863959667752 0 0.44620868140601611 -0.18578216587874541 0 0.44620868140601611 -0.18578216587874541 0 0.45753869263707508 -0.178909277559128 0 0.46045355826677042 -0.19538967964114201 0 0.45753869263707508 -0.178909277559128 0 0.47095763416249908 -0.18506274798234931 0 0.46045355826677042 -0.19538967964114201 0 0.45553348888060968 -0.1652678943305535 0 0.45016035731594189 -0.17268720971735591 0 0.45753869263707508 -0.178909277559128 0 0.45553348888060968 -0.1652678943305535 0 0.45753869263707508 -0.178909277559128 0 0.46716444644906208 -0.1733529052177514 0 0.45753869263707508 -0.178909277559128 0 0.46716444644906208 -0.1733529052177514 0 0.47095763416249908 -0.18506274798234931 0 0.47095763416249908 -0.18506274798234931 0 0.48164719374145909 -0.16855446884817341 0 0.48643570058042601 -0.19585359219318171 0 0.48164719374145909 -0.16855446884817341 0 0.48643570058042601 -0.19585359219318171 0 0.46716444644906208 -0.1733529052177514 0 0.47095763416249908 -0.18506274798234931 0 0.48164719374145909 -0.16855446884817341 0 0.49999999999999939 -0.18617207393170551 0 0.48164719374145909 -0.16855446884817341 0 0.48643570058042601 -0.19585359219318171 0 0.49999999999999939 -0.18617207393170551 0 0.5 -0.16079217186336639 0 0.48164719374145909 -0.16855446884817341 0 0.5 -0.16079217186336639 0 0.48164719374145909 -0.16855446884817341 0 0.4904332309199404 -0.14934177737921001 0 0.48164719374145909 -0.16855446884817341 0 0.46898662194292629 -0.16350018580746661 0 0.47308028348712272 -0.15049719421003249 0 0.46716444644906208 -0.1733529052177514 0 0.48164719374145909 -0.16855446884817341 0 0.46898662194292629 -0.16350018580746661 0 0.48164719374145909 -0.16855446884817341 0 0.47308028348712272 -0.15049719421003249 0 0.47685868690249228 -0.1412553455031649 0 0.48164719374145909 -0.16855446884817341 0 0.47685868690249228 -0.1412553455031649 0 0.48164719374145909 -0.16855446884817341 0 0.47685868690249228 -0.1412553455031649 0 0.4904332309199404 -0.14934177737921001 0 0.46405429351815319 -0.14168000903299049 0 0.47308028348712272 -0.15049719421003249 0 0.47685868690249228 -0.1412553455031649 0 0.47308028348712272 -0.15049719421003249 0 0.47685868690249228 -0.1412553455031649 0 0.47685868690249228 -0.1412553455031649 0 0.4904332309199404 -0.14934177737921001 0 0.5 -0.13541226979502721 0 0.5 -0.16079217186336639 0 0.4904332309199404 -0.14934177737921001 0 0.5 -0.13541226979502721 0 0.48457245793499482 -0.1223877188882263 0 0.47685868690249228 -0.1412553455031649 0 0.5 -0.13541226979502721 0 0.47217021238497647 -0.11452650320266961 0 0.46243224528387611 -0.12936119723619621 0 0.47685868690249228 -0.1412553455031649 0 0.47217021238497647 -0.11452650320266961 0 0.48457245793499482 -0.1223877188882263 0 0.47685868690249228 -0.1412553455031649 0 0.48457245793499482 -0.1223877188882263 0 0.47685868690249228 -0.1412553455031649 0 0.47217021238497647 -0.11452650320266961 0 0.47685868690249228 -0.1412553455031649 0 0.45583146012490178 -0.23402989529510221 0 0.46733797856648102 -0.22769393214316899 0 0.45721060134616193 -0.21671300580371489 0 0.46733797856648102 -0.22769393214316899 0 0.45721060134616193 -0.21671300580371489 0 0.47254933552584372 -0.218386655161278 0 0.45583146012490178 -0.23402989529510221 0 0.46733797856648102 -0.22769393214316899 0 0.46773241423355261 -0.24248568044986901 0 0.45583146012490178 -0.23402989529510221 0 0.46773241423355261 -0.24248568044986901 0 0.45126780426983631 -0.25339121524521158 0 0.4371765437173154 -0.2323070269068713 0 0.45583146012490178 -0.23402989529510221 0 0.45126780426983631 -0.25339121524521158 0 0.4371765437173154 -0.2323070269068713 0 0.45126780426983631 -0.25339121524521158 0 0.42883408305659632 -0.25739256745998629 0 0.4371765437173154 -0.2323070269068713 0 0.45583146012490178 -0.23402989529510221 0 0.45721060134616193 -0.21671300580371489 0 0.43415145246965148 -0.2098480424972558 0 0.4371765437173154 -0.2323070269068713 0 0.45721060134616193 -0.21671300580371489 0 0.43415145246965148 -0.2098480424972558 0 0.44586237915078542 -0.19993411866812391 0 0.45721060134616193 -0.21671300580371489 0 0.43128760226532731 -0.19193769951976131 0 0.44620868140601611 -0.18578216587874541 0 0.44586237915078542 -0.19993411866812391 0 0.44620868140601611 -0.18578216587874541 0 0.44586237915078542 -0.19993411866812391 0 0.46045355826677042 -0.19538967964114201 0 0.46045355826677042 -0.19538967964114201 0 0.47182315096329402 -0.20628329899844841 0 0.47241751099324741 -0.19564732970378029 0 0.47095763416249908 -0.18506274798234931 0 0.46045355826677042 -0.19538967964114201 0 0.47241751099324741 -0.19564732970378029 0 0.46045355826677042 -0.19538967964114201 0 0.45721060134616193 -0.21671300580371489 0 0.47182315096329402 -0.20628329899844841 0 0.44586237915078542 -0.19993411866812391 0 0.46045355826677042 -0.19538967964114201 0 0.45721060134616193 -0.21671300580371489 0 0.45721060134616193 -0.21671300580371489 0 0.47182315096329402 -0.20628329899844841 0 0.45721060134616193 -0.21671300580371489 0 0.47254933552584372 -0.218386655161278 0 0.47182315096329402 -0.20628329899844841 0 0.47254933552584372 -0.218386655161278 0 0.47182315096329402 -0.20628329899844841 0 0.48441326089035308 -0.21323795181972671 0 0.47182315096329402 -0.20628329899844841 0 0.48383887234763712 -0.2060484192517088 0 0.48441326089035308 -0.21323795181972671 0 0.47182315096329402 -0.20628329899844841 0 0.48383887234763712 -0.2060484192517088 0 0.48700548173314989 -0.19910189620337851 0 0.47182315096329402 -0.20628329899844841 0 0.47241751099324741 -0.19564732970378029 0 0.48643570058042601 -0.19585359219318171 0 0.47182315096329402 -0.20628329899844841 0 0.48643570058042601 -0.19585359219318171 0 0.48700548173314989 -0.19910189620337851 0 0.47182315096329402 -0.20628329899844841 0 0.48643570058042601 -0.19585359219318171 0 0.47095763416249908 -0.18506274798234931 0 0.47241751099324741 -0.19564732970378029 0 0.48643570058042601 -0.19585359219318171 0 0.49999999999999939 -0.18617207393170551 0 0.49211359580375152 -0.2055705299852815 0 0.5 -0.2145032958493252 0 0.49999999999999939 -0.18617207393170551 0 0.48700548173314989 -0.19910189620337851 0 0.49211359580375152 -0.2055705299852815 0 0.49999999999999939 -0.18617207393170551 0 0.48643570058042601 -0.19585359219318171 0 0.48700548173314989 -0.19910189620337851 0 0.48643570058042601 -0.19585359219318171 0 0.48700548173314989 -0.19910189620337851 0 0.49999999999999939 -0.18617207393170551 0 0.48643570058042601 -0.19585359219318171 0 0.48441326089035308 -0.21323795181972671 0 0.5 -0.2145032958493252 0 0.48196168586292809 -0.22800508704133099 0 0.48441326089035308 -0.21323795181972671 0 0.49211359580375152 -0.2055705299852815 0 0.5 -0.2145032958493252 0 0.48383887234763712 -0.2060484192517088 0 0.48441326089035308 -0.21323795181972671 0 0.49211359580375152 -0.2055705299852815 0 0.48383887234763712 -0.2060484192517088 0 0.48700548173314989 -0.19910189620337851 0 0.49211359580375152 -0.2055705299852815 0 0.5 -0.2145032958493252 0 0.48196168586292809 -0.22800508704133099 0 0.5 -0.24283451776694459 0 0.47254933552584372 -0.218386655161278 0 0.48441326089035308 -0.21323795181972671 0 0.48196168586292809 -0.22800508704133099 0 0.46733797856648102 -0.22769393214316899 0 0.46773241423355261 -0.24248568044986901 0 0.48196168586292809 -0.22800508704133099 0 0.46733797856648102 -0.22769393214316899 0 0.47254933552584372 -0.218386655161278 0 0.48196168586292809 -0.22800508704133099 0 0.46773241423355261 -0.24248568044986901 0 0.48196168586292809 -0.22800508704133099 0 0.48394827284980302 -0.25156032550138968 0 0.48196168586292809 -0.22800508704133099 0 0.5 -0.24283451776694459 0 0.48394827284980302 -0.25156032550138968 0 0.5 -0.27116573968456409 0 0.47731377763744481 -0.2666647650474615 0 0.48394827284980302 -0.25156032550138968 0 0.5 -0.24283451776694459 0 0.5 -0.27116573968456409 0 0.48394827284980302 -0.25156032550138968 0 0.5 -0.27116573968456409 0 0.47731377763744481 -0.2666647650474615 0 0.48394590691724071 -0.28620530347100109 0 0.47731377763744481 -0.2666647650474615 0 0.46603964434558792 -0.27773026829760622 0 0.48394590691724071 -0.28620530347100109 0 0.47731377763744481 -0.2666647650474615 0 0.46546203425642069 -0.26894936958706889 0 0.46603964434558792 -0.27773026829760622 0 0.46773241423355261 -0.24248568044986901 0 0.48394827284980302 -0.25156032550138968 0 0.46367449885599471 -0.25935593757741782 0 0.47731377763744481 -0.2666647650474615 0 0.48394827284980302 -0.25156032550138968 0 0.46367449885599471 -0.25935593757741782 0 0.47731377763744481 -0.2666647650474615 0 0.46367449885599471 -0.25935593757741782 0 0.46546203425642069 -0.26894936958706889 0 0.46367449885599471 -0.25935593757741782 0 0.45482021618665541 -0.27204650742579001 0 0.45126780426983631 -0.25339121524521158 0 0.46773241423355261 -0.24248568044986901 0 0.46367449885599471 -0.25935593757741782 0 0.45126780426983631 -0.25339121524521158 0 0.46546203425642069 -0.26894936958706889 0 0.46603964434558792 -0.27773026829760622 0 0.45482021618665541 -0.27204650742579001 0 0.46367449885599471 -0.25935593757741782 0 0.46546203425642069 -0.26894936958706889 0 0.45482021618665541 -0.27204650742579001 0 0.46603964434558792 -0.27773026829760622 0 0.45482021618665541 -0.27204650742579001 0 0.44922870233567991 -0.27757789823244122 0 0.45482021618665541 -0.27204650742579001 0 0.44922870233567991 -0.27757789823244122 0 0.45126780426983631 -0.25339121524521158 0 0.44922870233567991 -0.27757789823244122 0 0.42883408305659632 -0.25739256745998629 0 0.45482021618665541 -0.27204650742579001 0 0.44922870233567991 -0.27757789823244122 0 0.44922870233567991 -0.27757789823244122 0 0.45126780426983631 -0.25339121524521158 0 0.42883408305659632 -0.25739256745998629 0 0.44115076913195839 -0.30638597779452348 0 0.4513105274730414 -0.29581634657136091 0 0.46210678615946682 -0.3103634293479699 0 0.44115076913195839 -0.30638597779452348 0 0.4513105274730414 -0.29581634657136091 0 0.43690481741869669 -0.2897692699340445 0 0.44922870233567991 -0.27757789823244122 0 0.4513105274730414 -0.29581634657136091 0 0.43690481741869669 -0.2897692699340445 0 0.44922870233567991 -0.27757789823244122 0 0.43690481741869669 -0.2897692699340445 0 0.44922870233567991 -0.27757789823244122 0 0.43605775637645011 -0.28606323555963642 0 0.43690481741869669 -0.2897692699340445 0 0.44922870233567991 -0.27757789823244122 0 0.4513105274730414 -0.29581634657136091 0 0.4661524682237867 -0.29432799332822862 0 0.44922870233567991 -0.27757789823244122 0 0.4661524682237867 -0.29432799332822862 0 0.46603964434558792 -0.27773026829760622 0 0.44922870233567991 -0.27757789823244122 0 0.4661524682237867 -0.29432799332822862 0 0.4513105274730414 -0.29581634657136091 0 0.4661524682237867 -0.29432799332822862 0 0.46210678615946682 -0.3103634293479699 0 0.4661524682237867 -0.29432799332822862 0 0.46210678615946682 -0.3103634293479699 0 0.48307623411189349 -0.31107808842401569 0 0.4661524682237867 -0.29432799332822862 0 0.48307623411189349 -0.31107808842401569 0 0.48394590691724071 -0.28620530347100109 0 0.4661524682237867 -0.29432799332822862 0 0.48307623411189349 -0.31107808842401569 0 0.46603964434558792 -0.27773026829760622 0 0.4661524682237867 -0.29432799332822862 0 0.48394590691724071 -0.28620530347100109 0 0.5 -0.27116573968456409 0 0.48394590691724071 -0.28620530347100109 0 0.5 -0.29949696160218359 0 0.48307623411189349 -0.31107808842401569 0 0.48394590691724071 -0.28620530347100109 0 0.5 -0.29949696160218359 0 0.48307623411189349 -0.31107808842401569 0 0.5 -0.29949696160218359 0 0.50000000000000022 -0.3278281835198032 0 0.48307623411189349 -0.31107808842401569 0 0.50000000000000022 -0.3278281835198032 0 0.50000000000000022 -0.3278281835198032 0 0.5 -0.39111080564534428 0 0.48340950675655958 -0.37667097730610688 0 0.48307623411189349 -0.31107808842401569 0 0.50000000000000022 -0.3278281835198032 0 0.47105917816385168 -0.32608056231672122 0 0.50000000000000022 -0.3278281835198032 0 0.47105917816385168 -0.32608056231672122 0 0.47512588860457078 -0.34661821654758029 0 0.46210678615946682 -0.3103634293479699 0 0.48307623411189349 -0.31107808842401569 0 0.47105917816385168 -0.32608056231672122 0 0.50000000000000022 -0.3278281835198032 0 0.47512588860457078 -0.34661821654758029 0 0.48340950675655958 -0.37667097730610688 0 0.47512588860457078 -0.34661821654758029 0 0.46981981131821438 -0.36478475876474531 0 0.48340950675655958 -0.37667097730610688 0 0.46981981131821438 -0.36478475876474531 0 0.47238355287175299 -0.37492016552114432 0 0.48340950675655958 -0.37667097730610688 0 0.46981981131821438 -0.36478475876474531 0 0.45813391572099987 -0.37246331103737929 0 0.46024477279699449 -0.35426315797089741 0 0.45813391572099987 -0.37246331103737929 0 0.46024477279699449 -0.35426315797089741 0 0.44339274633241438 -0.35398401880756031 0 0.46981981131821438 -0.36478475876474531 0 0.47238355287175299 -0.37492016552114432 0 0.45813391572099987 -0.37246331103737929 0 0.47512588860457078 -0.34661821654758029 0 0.46024477279699449 -0.35426315797089741 0 0.4557046867758433 -0.33832325058225321 0 0.47512588860457078 -0.34661821654758029 0 0.46981981131821438 -0.36478475876474531 0 0.46024477279699449 -0.35426315797089741 0 0.46024477279699449 -0.35426315797089741 0 0.44339274633241438 -0.35398401880756031 0 0.4557046867758433 -0.33832325058225321 0 0.45813391572099987 -0.37246331103737929 0 0.44339274633241438 -0.35398401880756031 0 0.43698348041629381 -0.37210158698376589 0 0.46210678615946682 -0.3103634293479699 0 0.47105917816385168 -0.32608056231672122 0 0.44933237923571712 -0.32161504125910878 0 0.47105917816385168 -0.32608056231672122 0 0.4557046867758433 -0.33832325058225321 0 0.44933237923571712 -0.32161504125910878 0 0.47105917816385168 -0.32608056231672122 0 0.47512588860457078 -0.34661821654758029 0 0.4557046867758433 -0.33832325058225321 0 0.44339274633241438 -0.35398401880756031 0 0.4557046867758433 -0.33832325058225321 0 0.43243583203292468 -0.33452143984916471 0 0.4557046867758433 -0.33832325058225321 0 0.44933237923571712 -0.32161504125910878 0 0.43243583203292468 -0.33452143984916471 0 0.44115076913195839 -0.30638597779452348 0 0.44933237923571712 -0.32161504125910878 0 0.43113777795462271 -0.31782989288190949 0 0.44115076913195839 -0.30638597779452348 0 0.46210678615946682 -0.3103634293479699 0 0.44933237923571712 -0.32161504125910878 0 0.44933237923571712 -0.32161504125910878 0 0.43113777795462271 -0.31782989288190949 0 0.43243583203292468 -0.33452143984916471 0 0.43113777795462271 -0.31782989288190949 0 0.43243583203292468 -0.33452143984916471 0 0.40818897687079547 -0.32466636387109871 0 0.43243583203292468 -0.33452143984916471 0 0.40818897687079547 -0.32466636387109871 0 0.41807708170801711 -0.35076500450134468 0 0.43113777795462271 -0.31782989288190949 0 0.40818897687079547 -0.32466636387109871 0 0.42458093250171741 -0.30196064163565173 0 0.40818897687079547 -0.32466636387109871 0 0.41181252559841719 -0.314591755577734 0 0.42458093250171741 -0.30196064163565173 0 0.40818897687079547 -0.32466636387109871 0 0.41181252559841719 -0.314591755577734 0 0.39904411869511752 -0.32722286951981677 0 0.40818897687079547 -0.32466636387109871 0 0.42458093250171741 -0.30196064163565173 0 0.43698348041629381 -0.37210158698376589 0 0.41807708170801711 -0.35076500450134468 0 0.41550010796316111 -0.37713757888765381 0 0.44339274633241438 -0.35398401880756031 0 0.43243583203292468 -0.33452143984916471 0 0.41807708170801711 -0.35076500450134468 0 0.44339274633241438 -0.35398401880756031 0 0.43698348041629381 -0.37210158698376589 0 0.41807708170801711 -0.35076500450134468 0 0.41807708170801711 -0.35076500450134468 0 0.40431254266912348 -0.36273220483549601 0 0.41550010796316111 -0.37713757888765381 0 0.40431254266912348 -0.36273220483549601 0 0.41550010796316111 -0.37713757888765381 0 0.39715281607584307 -0.38014423042973911 0 0.40431254266912348 -0.36273220483549601 0 0.37540506560895071 -0.37007780834199172 0 0.39715281607584307 -0.38014423042973911 0 0.41807708170801711 -0.35076500450134468 0 0.40431254266912348 -0.36273220483549601 0 0.39179702123987309 -0.34737208610654507 0 0.39179702123987309 -0.34737208610654507 0 0.37695825524830728 -0.35392931518406168 0 0.38681970911252661 -0.33509645749659811 0 0.39179702123987309 -0.34737208610654507 0 0.37695825524830728 -0.35392931518406168 0 0.37540506560895071 -0.37007780834199172 0 0.39179702123987309 -0.34737208610654507 0 0.37540506560895071 -0.37007780834199172 0 0.40431254266912348 -0.36273220483549601 0 0.39179702123987309 -0.34737208610654507 0 0.37540506560895071 -0.37007780834199172 0 0.39971137618591768 -0.31493642254373688 0 0.39904411869511752 -0.32722286951981677 0 0.3853709248810061 -0.32104020430768693 0 0.39971137618591768 -0.31493642254373688 0 0.3853709248810061 -0.32104020430768693 0 0.39069668668074542 -0.30612878915119202 0 0.41181252559841719 -0.314591755577734 0 0.39971137618591768 -0.31493642254373688 0 0.39904411869511752 -0.32722286951981677 0 0.41181252559841719 -0.314591755577734 0 0.39904411869511752 -0.32722286951981677 0 0.39179702123987309 -0.34737208610654507 0 0.39904411869511752 -0.32722286951981677 0 0.38681970911252661 -0.33509645749659811 0 0.40818897687079547 -0.32466636387109871 0 0.41807708170801711 -0.35076500450134468 0 0.39179702123987309 -0.34737208610654507 0 0.40818897687079547 -0.32466636387109871 0 0.39179702123987309 -0.34737208610654507 0 0.39904411869511752 -0.32722286951981677 0 0.40818897687079547 -0.32466636387109871 0 0.39179702123987309 -0.34737208610654507 0 0.37695825524830728 -0.35392931518406168 0 0.38681970911252661 -0.33509645749659811 0 0.36869035481815809 -0.33419632235665109 0 0.38681970911252661 -0.33509645749659811 0 0.3853709248810061 -0.32104020430768693 0 0.36869035481815809 -0.33419632235665109 0 0.3853709248810061 -0.32104020430768693 0 0.37352897723822381 -0.30490271824625781 0 0.36869035481815809 -0.33419632235665109 0 0.39904411869511752 -0.32722286951981677 0 0.38681970911252661 -0.33509645749659811 0 0.3853709248810061 -0.32104020430768693 0 0.3853709248810061 -0.32104020430768693 0 0.39069668668074542 -0.30612878915119202 0 0.37352897723822381 -0.30490271824625781 0 0.39069668668074542 -0.30612878915119202 0 0.39042911077898618 -0.29159780494456411 0 0.37352897723822381 -0.30490271824625781 0 0.39069668668074542 -0.30612878915119202 0 0.39042911077898618 -0.29159780494456411 0 0.40625459042601852 -0.29934134357846021 0 0.41181252559841719 -0.314591755577734 0 0.39971137618591768 -0.31493642254373688 0 0.40625459042601852 -0.29934134357846021 0 0.39971137618591768 -0.31493642254373688 0 0.39069668668074542 -0.30612878915119202 0 0.40625459042601852 -0.29934134357846021 0 0.39042911077898618 -0.29159780494456411 0 0.37836759965828948 -0.27560911413586442 0 0.40527468982112058 -0.27942203964146362 0 0.39042911077898618 -0.29159780494456411 0 0.40527468982112058 -0.27942203964146362 0 0.40625459042601852 -0.29934134357846021 0 0.39042911077898618 -0.29159780494456411 0 0.37836759965828948 -0.27560911413586442 0 0.37352897723822381 -0.30490271824625781 0 0.37836759965828948 -0.27560911413586442 0 0.37352897723822381 -0.30490271824625781 0 0.3832062220783552 -0.24631551002547131 0 0.37836759965828948 -0.27560911413586442 0 0.3832062220783552 -0.24631551002547131 0 0.37836759965828948 -0.27560911413586442 0 0.4030783970408689 -0.25963528910475242 0 0.37836759965828948 -0.27560911413586442 0 0.4030783970408689 -0.25963528910475242 0 0.40527468982112058 -0.27942203964146362 0 0.40527468982112058 -0.27942203964146362 0 0.4234711609635472 -0.27431353883985632 0 0.41993716303775669 -0.28795136140225708 0 0.4030783970408689 -0.25963528910475242 0 0.40527468982112058 -0.27942203964146362 0 0.4234711609635472 -0.27431353883985632 0 0.4030783970408689 -0.25963528910475242 0 0.42883408305659632 -0.25739256745998629 0 0.4234711609635472 -0.27431353883985632 0 0.40843946377751272 -0.23720723668753141 0 0.4030783970408689 -0.25963528910475242 0 0.42883408305659632 -0.25739256745998629 0 0.44922870233567991 -0.27757789823244122 0 0.4234711609635472 -0.27431353883985632 0 0.43605775637645011 -0.28606323555963642 0 0.44922870233567991 -0.27757789823244122 0 0.42883408305659632 -0.25739256745998629 0 0.4234711609635472 -0.27431353883985632 0 0.43605775637645011 -0.28606323555963642 0 0.42458093250171741 -0.30196064163565173 0 0.43605775637645011 -0.28606323555963642 0 0.42458093250171741 -0.30196064163565173 0 0.41993716303775669 -0.28795136140225708 0 0.4234711609635472 -0.27431353883985632 0 0.43605775637645011 -0.28606323555963642 0 0.41993716303775669 -0.28795136140225708 0 0.43605775637645011 -0.28606323555963642 0 0.43690481741869669 -0.2897692699340445 0 0.42458093250171741 -0.30196064163565173 0 0.43690481741869669 -0.2897692699340445 0 0.42458093250171741 -0.30196064163565173 0 0.44115076913195839 -0.30638597779452348 0 0.43690481741869669 -0.2897692699340445 0 0.42458093250171741 -0.30196064163565173 0 0.44115076913195839 -0.30638597779452348 0 0.43113777795462271 -0.31782989288190949 0 0.42458093250171741 -0.30196064163565173 0 0.41181252559841719 -0.314591755577734 0 0.42458093250171741 -0.30196064163565173 0 0.40625459042601852 -0.29934134357846021 0 0.41181252559841719 -0.314591755577734 0 0.42458093250171741 -0.30196064163565173 0 0.42458093250171741 -0.30196064163565173 0 0.40625459042601852 -0.29934134357846021 0 0.41993716303775669 -0.28795136140225708 0 0.40527468982112058 -0.27942203964146362 0 0.40625459042601852 -0.29934134357846021 0 0.41993716303775669 -0.28795136140225708 0 0.45197879422633053 -0.5 0 0.44722612546529839 -0.48426476858388862 0 0.42955882957365538 -0.50000000000000355 0 0.44722612546529839 -0.48426476858388862 0 0.44449133223046361 -0.46632856139316797 0 0.43396213269241868 -0.47455642867473541 0 0.44722612546529839 -0.48426476858388862 0 0.45882834697093178 -0.47036992461870009 0 0.44449133223046361 -0.46632856139316797 0 0.44722612546529839 -0.48426476858388862 0 0.45882834697093178 -0.47036992461870009 0 0.46132673538539309 -0.48703828699361079 0 0.45882834697093178 -0.47036992461870009 0 0.46132673538539309 -0.48703828699361079 0 0.47420165138539938 -0.48055674176546581 0 0.45882834697093178 -0.47036992461870009 0 0.47420165138539938 -0.48055674176546581 0 0.47318289244934181 -0.46659381122510613 0 0.45197879422633053 -0.5 0 0.44722612546529839 -0.48426476858388862 0 0.46132673538539309 -0.48703828699361079 0 0.45197879422633053 -0.5 0 0.46132673538539309 -0.48703828699361079 0 0.47439875887900551 -0.5 0 0.5 -0.5 0 0.4923128178210483 -0.47185622116849829 0 0.5 -0.43821341982673451 0 0.46132673538539309 -0.48703828699361079 0 0.47439875887900551 -0.5 0 0.47420165138539938 -0.48055674176546581 0 0.47439875887900551 -0.5 0 0.48443298790428352 -0.48810324073349098 0 0.47420165138539938 -0.48055674176546581 0 0.49681872353168061 -0.49999999999999661 0 0.5 -0.5 0 0.4923128178210483 -0.47185622116849829 0 0.47439875887900551 -0.5 0 0.49681872353168061 -0.49999999999999661 0 0.48443298790428352 -0.48810324073349098 0 0.49681872353168061 -0.49999999999999661 0 0.48443298790428352 -0.48810324073349098 0 0.4923128178210483 -0.47185622116849829 0 0.49681872353168061 -0.49999999999999661 0 0.4923128178210483 -0.47185622116849829 0 0.48443298790428352 -0.48810324073349098 0 0.4923128178210483 -0.47185622116849829 0 0.47420165138539938 -0.48055674176546581 0 0.4923128178210483 -0.47185622116849829 0 0.47420165138539938 -0.48055674176546581 0 0.47318289244934181 -0.46659381122510613 0 0.4923128178210483 -0.47185622116849829 0 0.5 -0.43821341982673451 0 0.4878069121104156 -0.44371244233700008 0 0.4923128178210483 -0.47185622116849829 0 0.47318289244934181 -0.46659381122510613 0 0.47673711042726691 -0.45465056968974671 0 0.47318289244934181 -0.46659381122510613 0 0.47673711042726691 -0.45465056968974671 0 0.46449146210618902 -0.45826777977435618 0 0.47673711042726691 -0.45465056968974671 0 0.46685454022383349 -0.44840916899138622 0 0.46449146210618902 -0.45826777977435618 0 0.4923128178210483 -0.47185622116849829 0 0.4878069121104156 -0.44371244233700008 0 0.4923128178210483 -0.47185622116849829 0 0.47673711042726691 -0.45465056968974671 0 0.4878069121104156 -0.44371244233700008 0 0.4878069121104156 -0.44371244233700008 0 0.47324132752107939 -0.44358399934944059 0 0.47190647882682202 -0.43110726303835278 0 0.47673711042726691 -0.45465056968974671 0 0.4878069121104156 -0.44371244233700008 0 0.47324132752107939 -0.44358399934944059 0 0.47673711042726691 -0.45465056968974671 0 0.47324132752107939 -0.44358399934944059 0 0.46685454022383349 -0.44840916899138622 0 0.47324132752107939 -0.44358399934944059 0 0.46290159601705888 -0.44004055269071712 0 0.47190647882682202 -0.43110726303835278 0 0.47324132752107939 -0.44358399934944059 0 0.46290159601705888 -0.44004055269071712 0 0.46685454022383349 -0.44840916899138622 0 0.46290159601705888 -0.44004055269071712 0 0.45343633618095602 -0.44426928691517209 0 0.45801140911076998 -0.45040451896573741 0 0.45343633618095602 -0.44426928691517209 0 0.45801140911076998 -0.45040451896573741 0 0.45064418219593572 -0.45328671239512652 0 0.46290159601705888 -0.44004055269071712 0 0.45801140911076998 -0.45040451896573741 0 0.46685454022383349 -0.44840916899138622 0 0.45801140911076998 -0.45040451896573741 0 0.46685454022383349 -0.44840916899138622 0 0.46449146210618902 -0.45826777977435618 0 0.45882834697093178 -0.47036992461870009 0 0.47318289244934181 -0.46659381122510613 0 0.46449146210618902 -0.45826777977435618 0 0.45882834697093178 -0.47036992461870009 0 0.46449146210618902 -0.45826777977435618 0 0.45333447345499001 -0.45917868515546101 0 0.45801140911076998 -0.45040451896573741 0 0.46449146210618902 -0.45826777977435618 0 0.45333447345499001 -0.45917868515546101 0 0.45801140911076998 -0.45040451896573741 0 0.45333447345499001 -0.45917868515546101 0 0.45064418219593572 -0.45328671239512652 0 0.45333447345499001 -0.45917868515546101 0 0.45064418219593572 -0.45328671239512652 0 0.44746309647487331 -0.45831051126372607 0 0.45064418219593572 -0.45328671239512652 0 0.44746309647487331 -0.45831051126372607 0 0.44218141871972683 -0.45316702111522239 0 0.44218141871972683 -0.45316702111522239 0 0.43836543581118131 -0.44911285734946688 0 0.43396213269241868 -0.47455642867473541 0 0.44449133223046361 -0.46632856139316797 0 0.44218141871972683 -0.45316702111522239 0 0.43396213269241868 -0.47455642867473541 0 0.45333447345499001 -0.45917868515546101 0 0.44746309647487331 -0.45831051126372607 0 0.44449133223046361 -0.46632856139316797 0 0.45882834697093178 -0.47036992461870009 0 0.45333447345499001 -0.45917868515546101 0 0.44449133223046361 -0.46632856139316797 0 0.44746309647487331 -0.45831051126372607 0 0.44449133223046361 -0.46632856139316797 0 0.44218141871972683 -0.45316702111522239 0 0.45343633618095602 -0.44426928691517209 0 0.44218141871972683 -0.45316702111522239 0 0.45592411473200439 -0.42766833984551722 0 0.44218141871972683 -0.45316702111522239 0 0.44480992704821398 -0.43840437608360128 0 0.45592411473200439 -0.42766833984551722 0 0.44218141871972683 -0.45316702111522239 0 0.43836543581118131 -0.44911285734946688 0 0.44480992704821398 -0.43840437608360128 0 0.44218141871972683 -0.45316702111522239 0 0.45592411473200439 -0.42766833984551722 0 0.45343633618095602 -0.44426928691517209 0 0.45064418219593572 -0.45328671239512652 0 0.44218141871972683 -0.45316702111522239 0 0.43836543581118131 -0.44911285734946688 0 0.44276873892994378 -0.42366928602419862 0 0.43836543581118131 -0.44911285734946688 0 0.44480992704821398 -0.43840437608360128 0 0.44276873892994378 -0.42366928602419862 0 0.44480992704821398 -0.43840437608360128 0 0.44276873892994378 -0.42366928602419862 0 0.45592411473200439 -0.42766833984551722 0 0.44276873892994378 -0.42366928602419862 0 0.44717204204870642 -0.39822571469893048 0 0.44276873892994378 -0.42366928602419862 0 0.45337913401294949 -0.41240273029407348 0 0.44717204204870642 -0.39822571469893048 0 0.44276873892994378 -0.42366928602419862 0 0.44717204204870642 -0.39822571469893048 0 0.43432812674438809 -0.4085075156693827 0 0.44276873892994378 -0.42366928602419862 0 0.45337913401294949 -0.41240273029407348 0 0.45592411473200439 -0.42766833984551722 0 0.45592411473200439 -0.42766833984551722 0 0.46966681074428213 -0.40216965857581199 0 0.45592411473200439 -0.42766833984551722 0 0.47019960267572281 -0.41912848124129592 0 0.46966681074428213 -0.40216965857581199 0 0.45337913401294949 -0.41240273029407348 0 0.45592411473200439 -0.42766833984551722 0 0.46966681074428213 -0.40216965857581199 0 0.46290159601705888 -0.44004055269071712 0 0.45592411473200439 -0.42766833984551722 0 0.47190647882682202 -0.43110726303835278 0 0.45592411473200439 -0.42766833984551722 0 0.47190647882682202 -0.43110726303835278 0 0.47019960267572281 -0.41912848124129592 0 0.46290159601705888 -0.44004055269071712 0 0.45343633618095602 -0.44426928691517209 0 0.45592411473200439 -0.42766833984551722 0 0.5 -0.43821341982673451 0 0.48330100639978291 -0.41556866350550192 0 0.5 -0.39111080564534428 0 0.4878069121104156 -0.44371244233700008 0 0.47190647882682202 -0.43110726303835278 0 0.48330100639978291 -0.41556866350550192 0 0.47190647882682202 -0.43110726303835278 0 0.48330100639978291 -0.41556866350550192 0 0.47019960267572281 -0.41912848124129592 0 0.5 -0.43821341982673451 0 0.4878069121104156 -0.44371244233700008 0 0.48330100639978291 -0.41556866350550192 0 0.4878069121104156 -0.44371244233700008 0 0.48330100639978291 -0.41556866350550192 0 0.48330100639978291 -0.41556866350550192 0 0.47019960267572281 -0.41912848124129592 0 0.46966681074428213 -0.40216965857581199 0 0.48330100639978291 -0.41556866350550192 0 0.46966681074428213 -0.40216965857581199 0 0.47879510068915021 -0.38742488467400382 0 0.48330100639978291 -0.41556866350550192 0 0.47879510068915021 -0.38742488467400382 0 0.48330100639978291 -0.41556866350550192 0 0.5 -0.39111080564534428 0 0.47879510068915021 -0.38742488467400382 0 0.5 -0.39111080564534428 0 0.47879510068915021 -0.38742488467400382 0 0.48340950675655958 -0.37667097730610688 0 0.46966681074428213 -0.40216965857581199 0 0.48340950675655958 -0.37667097730610688 0 0.46850543139715373 -0.38371438962682092 0 0.46966681074428213 -0.40216965857581199 0 0.48340950675655958 -0.37667097730610688 0 0.46966681074428213 -0.40216965857581199 0 0.47879510068915021 -0.38742488467400382 0 0.48340950675655958 -0.37667097730610688 0 0.47238355287175299 -0.37492016552114432 0 0.48340950675655958 -0.37667097730610688 0 0.46850543139715373 -0.38371438962682092 0 0.47238355287175299 -0.37492016552114432 0 0.45813391572099987 -0.37246331103737929 0 0.46850543139715373 -0.38371438962682092 0 0.45813391572099987 -0.37246331103737929 0 0.45412313878660832 -0.38744582931504451 0 0.46850543139715373 -0.38371438962682092 0 0.46966681074428213 -0.40216965857581199 0 0.45412313878660832 -0.38744582931504451 0 0.46850543139715373 -0.38371438962682092 0 0.45337913401294949 -0.41240273029407348 0 0.46966681074428213 -0.40216965857581199 0 0.44717204204870642 -0.39822571469893048 0 0.46966681074428213 -0.40216965857581199 0 0.45412313878660832 -0.38744582931504451 0 0.44717204204870642 -0.39822571469893048 0 0.45412313878660832 -0.38744582931504451 0 0.44717204204870642 -0.39822571469893048 0 0.43119433285724051 -0.39150533870088361 0 0.44717204204870642 -0.39822571469893048 0 0.43119433285724051 -0.39150533870088361 0 0.43432812674438809 -0.4085075156693827 0 0.45813391572099987 -0.37246331103737929 0 0.43698348041629381 -0.37210158698376589 0 0.45412313878660832 -0.38744582931504451 0 0.43698348041629381 -0.37210158698376589 0 0.45412313878660832 -0.38744582931504451 0 0.43119433285724051 -0.39150533870088361 0 0.43698348041629381 -0.37210158698376589 0 0.43119433285724051 -0.39150533870088361 0 0.41550010796316111 -0.37713757888765381 0 0.43119433285724051 -0.39150533870088361 0 0.42292022935366602 -0.40713146596699701 0 0.43432812674438809 -0.4085075156693827 0 0.43119433285724051 -0.39150533870088361 0 0.40798444019459651 -0.39686467628279898 0 0.42292022935366602 -0.40713146596699701 0 0.40798444019459651 -0.39686467628279898 0 0.41550010796316111 -0.37713757888765381 0 0.39715281607584307 -0.38014423042973911 0 0.43119433285724051 -0.39150533870088361 0 0.40798444019459651 -0.39686467628279898 0 0.41550010796316111 -0.37713757888765381 0 0.40798444019459651 -0.39686467628279898 0 0.39715281607584307 -0.38014423042973911 0 0.38256192394338401 -0.39390888380075489 0 0.37540506560895071 -0.37007780834199172 0 0.39715281607584307 -0.38014423042973911 0 0.38256192394338401 -0.39390888380075489 0 0.38256192394338401 -0.39390888380075489 0 0.37677283152576491 -0.41607738560835628 0 0.36804936646151071 -0.40634821623618439 0 0.40798444019459651 -0.39686467628279898 0 0.38256192394338401 -0.39390888380075489 0 0.39709459374500938 -0.41247268102786078 0 0.40798444019459651 -0.39686467628279898 0 0.39709459374500938 -0.41247268102786078 0 0.41189997015207819 -0.41836456965613128 0 0.39709459374500938 -0.41247268102786078 0 0.39929781533427278 -0.43248783825559972 0 0.41189997015207819 -0.41836456965613128 0 0.38256192394338401 -0.39390888380075489 0 0.39709459374500938 -0.41247268102786078 0 0.37677283152576491 -0.41607738560835628 0 0.39709459374500938 -0.41247268102786078 0 0.37677283152576491 -0.41607738560835628 0 0.38832936006099988 -0.42353796718600423 0 0.38086580010867022 -0.4369800386283163 0 0.38832936006099988 -0.42353796718600423 0 0.39929781533427278 -0.43248783825559972 0 0.38086580010867022 -0.4369800386283163 0 0.37823559536684143 -0.42702084034891719 0 0.36845417358669069 -0.43442694886142408 0 0.37677283152576491 -0.41607738560835628 0 0.37823559536684143 -0.42702084034891719 0 0.37025878688655678 -0.42442895026258659 0 0.38086580010867022 -0.4369800386283163 0 0.37823559536684143 -0.42702084034891719 0 0.38832936006099988 -0.42353796718600423 0 0.37677283152576491 -0.41607738560835628 0 0.37823559536684143 -0.42702084034891719 0 0.38832936006099988 -0.42353796718600423 0 0.39709459374500938 -0.41247268102786078 0 0.38832936006099988 -0.42353796718600423 0 0.39929781533427278 -0.43248783825559972 0 0.41767885887750761 -0.43480978818651522 0 0.41189997015207819 -0.41836456965613128 0 0.42758529053238381 -0.42200577295590369 0 0.39929781533427278 -0.43248783825559972 0 0.41767885887750761 -0.43480978818651522 0 0.41189997015207819 -0.41836456965613128 0 0.40798444019459651 -0.39686467628279898 0 0.41189997015207819 -0.41836456965613128 0 0.42292022935366602 -0.40713146596699701 0 0.41189997015207819 -0.41836456965613128 0 0.42292022935366602 -0.40713146596699701 0 0.42758529053238381 -0.42200577295590369 0 0.42292022935366602 -0.40713146596699701 0 0.43432812674438809 -0.4085075156693827 0 0.42758529053238381 -0.42200577295590369 0 0.44276873892994378 -0.42366928602419862 0 0.43432812674438809 -0.4085075156693827 0 0.42758529053238381 -0.42200577295590369 0 0.44276873892994378 -0.42366928602419862 0 0.43035668399862681 -0.43540642658601841 0 0.42758529053238381 -0.42200577295590369 0 0.43836543581118131 -0.44911285734946688 0 0.44276873892994378 -0.42366928602419862 0 0.43035668399862681 -0.43540642658601841 0 0.41767885887750761 -0.43480978818651522 0 0.43035668399862681 -0.43540642658601841 0 0.42758529053238381 -0.42200577295590369 0 0.43836543581118131 -0.44911285734946688 0 0.42403961222112452 -0.44674585309398263 0 0.42306282965704339 -0.46014965661405433 0 0.41767885887750761 -0.43480978818651522 0 0.43035668399862681 -0.43540642658601841 0 0.42403961222112452 -0.44674585309398263 0 0.43836543581118131 -0.44911285734946688 0 0.43035668399862681 -0.43540642658601841 0 0.42403961222112452 -0.44674585309398263 0 0.43836543581118131 -0.44911285734946688 0 0.42306282965704339 -0.46014965661405433 0 0.43396213269241868 -0.47455642867473541 0 0.43836543581118131 -0.44911285734946688 0 0.43396213269241868 -0.47455642867473541 0 0.42306282965704339 -0.46014965661405433 0 0.40649593251830579 -0.45429942941479551 0 0.41040928063923737 -0.47803672730209967 0 0.42403961222112452 -0.44674585309398263 0 0.42306282965704339 -0.46014965661405433 0 0.40649593251830579 -0.45429942941479551 0 0.41767885887750761 -0.43480978818651522 0 0.42403961222112452 -0.44674585309398263 0 0.40649593251830579 -0.45429942941479551 0 0.39929781533427278 -0.43248783825559972 0 0.41767885887750761 -0.43480978818651522 0 0.40649593251830579 -0.45429942941479551 0 0.39929781533427278 -0.43248783825559972 0 0.40649593251830579 -0.45429942941479551 0 0.38910954282512011 -0.45001515683320231 0 0.38086580010867022 -0.4369800386283163 0 0.38910954282512011 -0.45001515683320231 0 0.36900166020863318 -0.45225004835381788 0 0.38086580010867022 -0.4369800386283163 0 0.39929781533427278 -0.43248783825559972 0 0.38910954282512011 -0.45001515683320231 0 0.38910954282512011 -0.45001515683320231 0 0.38938623009592049 -0.46953295294319602 0 0.36900166020863318 -0.45225004835381788 0 0.40649593251830579 -0.45429942941479551 0 0.38938623009592049 -0.46953295294319602 0 0.41040928063923737 -0.47803672730209967 0 0.40649593251830579 -0.45429942941479551 0 0.38938623009592049 -0.46953295294319602 0 0.40649593251830579 -0.45429942941479551 0 0.38910954282512011 -0.45001515683320231 0 0.38938623009592049 -0.46953295294319602 0 0.38938623009592049 -0.46953295294319602 0 0.39135953864669992 -0.48646723134337838 0 0.41040928063923737 -0.47803672730209967 0 0.38938623009592049 -0.46953295294319602 0 0.39135953864669992 -0.48646723134337838 0 0.37227652767353531 -0.4847664764715966 0 0.38938623009592049 -0.46953295294319602 0 0.37227652767353531 -0.4847664764715966 0 0.38938623009592049 -0.46953295294319602 0 0.37227652767353531 -0.4847664764715966 0 0.36657018094850508 -0.46950748011893978 0 0.37996416002531908 -0.5 0 0.39135953864669992 -0.48646723134337838 0 0.37227652767353531 -0.4847664764715966 0 0.37996416002531908 -0.5 0 0.39135953864669992 -0.48646723134337838 0 0.4047614947994872 -0.5 0 0.39135953864669992 -0.48646723134337838 0 0.4047614947994872 -0.5 0 0.41040928063923737 -0.47803672730209967 0 0.4047614947994872 -0.5 0 0.41040928063923737 -0.47803672730209967 0 0.42955882957365538 -0.50000000000000355 0 0.42306282965704339 -0.46014965661405433 0 0.41040928063923737 -0.47803672730209967 0 0.43396213269241868 -0.47455642867473541 0 0.41040928063923737 -0.47803672730209967 0 0.43396213269241868 -0.47455642867473541 0 0.42955882957365538 -0.50000000000000355 0 0.43396213269241868 -0.47455642867473541 0 0.42955882957365538 -0.50000000000000355 0 0.44722612546529839 -0.48426476858388862 0 0.43396213269241868 -0.47455642867473541 0 0.42955882957365538 -0.50000000000000355 0 0.31445850746853282 -0.5 0 0.31596819860229219 -0.48185170714963349 0 0.32878351664121569 -0.4922837911954614 0 0.31596819860229219 -0.48185170714963349 0 0.31828655954579899 -0.46744380448976341 0 0.30472225360656618 -0.46288551740184458 0 0.31596819860229219 -0.48185170714963349 0 0.33081688485596189 -0.46995718713978779 0 0.31828655954579899 -0.46744380448976341 0 0.33081688485596189 -0.46995718713978779 0 0.34340391883791771 -0.48728345763221431 0 0.34704277679065132 -0.46525337240810422 0 0.31596819860229219 -0.48185170714963349 0 0.33081688485596189 -0.46995718713978779 0 0.34340391883791771 -0.48728345763221431 0 0.31596819860229219 -0.48185170714963349 0 0.34340391883791771 -0.48728345763221431 0 0.32878351664121569 -0.4922837911954614 0 0.31596819860229219 -0.48185170714963349 0 0.34340391883791771 -0.48728345763221431 0 0.31445850746853282 -0.5 0 0.32878351664121569 -0.4922837911954614 0 0.34130344165612092 -0.49999999999999789 0 0.34340391883791771 -0.48728345763221431 0 0.32878351664121569 -0.4922837911954614 0 0.34130344165612092 -0.49999999999999789 0 0.34340391883791771 -0.48728345763221431 0 0.34130344165612092 -0.49999999999999789 0 0.34130344165612092 -0.49999999999999789 0 0.34858259716537587 -0.48852504737675168 0 0.35161666878567088 -0.49197855857223599 0 0.34130344165612092 -0.49999999999999789 0 0.35161666878567088 -0.49197855857223599 0 0.35516682525115101 -0.49999999999999811 0 0.34340391883791771 -0.48728345763221431 0 0.34130344165612092 -0.49999999999999789 0 0.34858259716537587 -0.48852504737675168 0 0.34858259716537587 -0.48852504737675168 0 0.35161666878567088 -0.49197855857223599 0 0.34989628224967212 -0.48336595329564269 0 0.34340391883791771 -0.48728345763221431 0 0.34858259716537587 -0.48852504737675168 0 0.34989628224967212 -0.48336595329564269 0 0.35797395511652941 -0.48655037133146639 0 0.35161666878567088 -0.49197855857223599 0 0.34989628224967212 -0.48336595329564269 0 0.35797395511652941 -0.48655037133146639 0 0.35161666878567088 -0.49197855857223599 0 0.35516682525115101 -0.49999999999999811 0 0.35797395511652941 -0.48655037133146639 0 0.35516682525115101 -0.49999999999999811 0 0.37227652767353531 -0.4847664764715966 0 0.37996416002531908 -0.5 0 0.35516682525115101 -0.49999999999999811 0 0.37227652767353531 -0.4847664764715966 0 0.35516682525115101 -0.49999999999999811 0 0.37227652767353531 -0.4847664764715966 0 0.35797395511652941 -0.48655037133146639 0 0.37227652767353531 -0.4847664764715966 0 0.35875194455577858 -0.47788873072514998 0 0.37227652767353531 -0.4847664764715966 0 0.36657018094850508 -0.46950748011893978 0 0.35875194455577858 -0.47788873072514998 0 0.34340391883791771 -0.48728345763221431 0 0.34704277679065132 -0.46525337240810422 0 0.35875194455577858 -0.47788873072514998 0 0.34989628224967212 -0.48336595329564269 0 0.34704277679065132 -0.46525337240810422 0 0.36657018094850508 -0.46950748011893978 0 0.35875194455577858 -0.47788873072514998 0 0.34704277679065132 -0.46525337240810422 0 0.34340391883791771 -0.48728345763221431 0 0.34989628224967212 -0.48336595329564269 0 0.34704277679065132 -0.46525337240810422 0 0.35797395511652941 -0.48655037133146639 0 0.35875194455577858 -0.47788873072514998 0 0.34989628224967212 -0.48336595329564269 0 0.34704277679065132 -0.46525337240810422 0 0.36900166020863318 -0.45225004835381788 0 0.35068163474338487 -0.44322328718399417 0 0.34704277679065132 -0.46525337240810422 0 0.35068163474338487 -0.44322328718399417 0 0.34704277679065132 -0.46525337240810422 0 0.35068163474338487 -0.44322328718399417 0 0.33746851863499028 -0.45235635754720982 0 0.36657018094850508 -0.46950748011893978 0 0.34704277679065132 -0.46525337240810422 0 0.36900166020863318 -0.45225004835381788 0 0.38938623009592049 -0.46953295294319602 0 0.36657018094850508 -0.46950748011893978 0 0.36900166020863318 -0.45225004835381788 0 0.38086580010867022 -0.4369800386283163 0 0.36900166020863318 -0.45225004835381788 0 0.36845417358669069 -0.43442694886142408 0 0.36900166020863318 -0.45225004835381788 0 0.35068163474338487 -0.44322328718399417 0 0.36845417358669069 -0.43442694886142408 0 0.35068163474338487 -0.44322328718399417 0 0.33746851863499028 -0.45235635754720982 0 0.32691449358918928 -0.42709624727077078 0 0.33746851863499028 -0.45235635754720982 0 0.32163890111837568 -0.45508080626778769 0 0.32691449358918928 -0.42709624727077078 0 0.33081688485596189 -0.46995718713978779 0 0.33746851863499028 -0.45235635754720982 0 0.32163890111837568 -0.45508080626778769 0 0.33081688485596189 -0.46995718713978779 0 0.34704277679065132 -0.46525337240810422 0 0.33746851863499028 -0.45235635754720982 0 0.32163890111837568 -0.45508080626778769 0 0.31828655954579899 -0.46744380448976341 0 0.30472225360656618 -0.46288551740184458 0 0.33081688485596189 -0.46995718713978779 0 0.32163890111837568 -0.45508080626778769 0 0.31828655954579899 -0.46744380448976341 0 0.32163890111837568 -0.45508080626778769 0 0.32691449358918928 -0.42709624727077078 0 0.30973064373759401 -0.44478729406233541 0 0.32691449358918928 -0.42709624727077078 0 0.3152060825533024 -0.42099527662843822 0 0.29950849448225991 -0.43299929258165798 0 0.32691449358918928 -0.42709624727077078 0 0.29950849448225991 -0.43299929258165798 0 0.3152060825533024 -0.42099527662843822 0 0.31529069216449579 -0.41101059835746728 0 0.32305664902802911 -0.41383544440033482 0 0.3152060825533024 -0.42099527662843822 0 0.31529069216449579 -0.41101059835746728 0 0.30716738541399619 -0.41817481515378219 0 0.32691449358918928 -0.42709624727077078 0 0.32305664902802911 -0.41383544440033482 0 0.33388573948577538 -0.40724633083225031 0 0.31529069216449579 -0.41101059835746728 0 0.32305664902802911 -0.41383544440033482 0 0.32163851225960782 -0.40329190678054477 0 0.32305664902802911 -0.41383544440033482 0 0.33388573948577538 -0.40724633083225031 0 0.32163851225960782 -0.40329190678054477 0 0.32691449358918928 -0.42709624727077078 0 0.3152060825533024 -0.42099527662843822 0 0.32305664902802911 -0.41383544440033482 0 0.32691449358918928 -0.42709624727077078 0 0.34243382181774717 -0.41574874109317622 0 0.33388573948577538 -0.40724633083225031 0 0.32691449358918928 -0.42709624727077078 0 0.34243382181774717 -0.41574874109317622 0 0.35432049269611893 -0.42119320195988419 0 0.34243382181774717 -0.41574874109317622 0 0.33388573948577538 -0.40724633083225031 0 0.34137413543433198 -0.39930253518811609 0 0.32691449358918928 -0.42709624727077078 0 0.35432049269611893 -0.42119320195988419 0 0.35068163474338487 -0.44322328718399417 0 0.3611766817673584 -0.4267621704398315 0 0.35432049269611893 -0.42119320195988419 0 0.35068163474338487 -0.44322328718399417 0 0.35432049269611893 -0.42119320195988419 0 0.35068163474338487 -0.44322328718399417 0 0.32691449358918928 -0.42709624727077078 0 0.35432049269611893 -0.42119320195988419 0 0.35068163474338487 -0.44322328718399417 0 0.3611766817673584 -0.4267621704398315 0 0.36845417358669069 -0.43442694886142408 0 0.3611766817673584 -0.4267621704398315 0 0.37025878688655678 -0.42442895026258659 0 0.36665465218612842 -0.4178574060544038 0 0.3611766817673584 -0.4267621704398315 0 0.36665465218612842 -0.4178574060544038 0 0.35432049269611893 -0.42119320195988419 0 0.3611766817673584 -0.4267621704398315 0 0.37025878688655678 -0.42442895026258659 0 0.36845417358669069 -0.43442694886142408 0 0.37823559536684143 -0.42702084034891719 0 0.37025878688655678 -0.42442895026258659 0 0.36845417358669069 -0.43442694886142408 0 0.36804936646151071 -0.40634821623618439 0 0.35432049269611893 -0.42119320195988419 0 0.3590131099780276 -0.3927835305774377 0 0.37677283152576491 -0.41607738560835628 0 0.36804936646151071 -0.40634821623618439 0 0.36665465218612842 -0.4178574060544038 0 0.37677283152576491 -0.41607738560835628 0 0.37025878688655678 -0.42442895026258659 0 0.36665465218612842 -0.4178574060544038 0 0.36804936646151071 -0.40634821623618439 0 0.36665465218612842 -0.4178574060544038 0 0.35432049269611893 -0.42119320195988419 0 0.35432049269611893 -0.42119320195988419 0 0.3590131099780276 -0.3927835305774377 0 0.34243382181774717 -0.41574874109317622 0 0.35432049269611893 -0.42119320195988419 0 0.3590131099780276 -0.3927835305774377 0 0.34243382181774717 -0.41574874109317622 0 0.3590131099780276 -0.3927835305774377 0 0.34243382181774717 -0.41574874109317622 0 0.3590131099780276 -0.3927835305774377 0 0.34137413543433198 -0.39930253518811609 0 0.3590131099780276 -0.3927835305774377 0 0.34051357958174161 -0.386171355150631 0 0.34137413543433198 -0.39930253518811609 0 0.38256192394338401 -0.39390888380075489 0 0.36804936646151071 -0.40634821623618439 0 0.3590131099780276 -0.3927835305774377 0 0.37540506560895071 -0.37007780834199172 0 0.38256192394338401 -0.39390888380075489 0 0.3590131099780276 -0.3927835305774377 0 0.37540506560895071 -0.37007780834199172 0 0.3590131099780276 -0.3927835305774377 0 0.3590131099780276 -0.3927835305774377 0 0.36385173239809238 -0.36348992646704431 0 0.37540506560895071 -0.37007780834199172 0 0.3590131099780276 -0.3927835305774377 0 0.36385173239809238 -0.36348992646704431 0 0.3590131099780276 -0.3927835305774377 0 0.34933905594857922 -0.37632153567236021 0 0.34051357958174161 -0.386171355150631 0 0.3590131099780276 -0.3927835305774377 0 0.34933905594857922 -0.37632153567236021 0 0.36385173239809238 -0.36348992646704431 0 0.34933905594857922 -0.37632153567236021 0 0.34051357958174161 -0.386171355150631 0 0.33511009453954399 -0.373768175302025 0 0.32384193805578049 -0.37791733151586793 0 0.32786485420635159 -0.38464381233323219 0 0.33511009453954399 -0.373768175302025 0 0.34051357958174161 -0.386171355150631 0 0.32786485420635159 -0.38464381233323219 0 0.33511009453954399 -0.373768175302025 0 0.34051357958174161 -0.386171355150631 0 0.33102442630836931 -0.3945627182870855 0 0.32786485420635159 -0.38464381233323219 0 0.34051357958174161 -0.386171355150631 0 0.34137413543433198 -0.39930253518811609 0 0.33102442630836931 -0.3945627182870855 0 0.33388573948577538 -0.40724633083225031 0 0.34137413543433198 -0.39930253518811609 0 0.33102442630836931 -0.3945627182870855 0 0.33388573948577538 -0.40724633083225031 0 0.33102442630836931 -0.3945627182870855 0 0.32163851225960782 -0.40329190678054477 0 0.33102442630836931 -0.3945627182870855 0 0.32163851225960782 -0.40329190678054477 0 0.31807983485075192 -0.39188448319646457 0 0.31807983485075192 -0.39188448319646457 0 0.31479518372886228 -0.37891897113875261 0 0.30849373172022593 -0.40121186560966698 0 0.31529069216449579 -0.41101059835746728 0 0.32163851225960782 -0.40329190678054477 0 0.30849373172022593 -0.40121186560966698 0 0.32163851225960782 -0.40329190678054477 0 0.31807983485075192 -0.39188448319646457 0 0.30849373172022593 -0.40121186560966698 0 0.31807983485075192 -0.39188448319646457 0 0.31479518372886228 -0.37891897113875261 0 0.32114545271043649 -0.38334114954607929 0 0.31479518372886228 -0.37891897113875261 0 0.32384193805578049 -0.37791733151586793 0 0.32114545271043649 -0.38334114954607929 0 0.31479518372886228 -0.37891897113875261 0 0.31043382337269249 -0.37639958494273029 0 0.31237026987182331 -0.37624599540278242 0 0.31479518372886228 -0.37891897113875261 0 0.32384193805578049 -0.37791733151586793 0 0.32438136841715293 -0.36959161177918881 0 0.32384193805578049 -0.37791733151586793 0 0.32786485420635159 -0.38464381233323219 0 0.32114545271043649 -0.38334114954607929 0 0.33102442630836931 -0.3945627182870855 0 0.31807983485075192 -0.39188448319646457 0 0.32786485420635159 -0.38464381233323219 0 0.31807983485075192 -0.39188448319646457 0 0.32786485420635159 -0.38464381233323219 0 0.32114545271043649 -0.38334114954607929 0 0.31043382337269249 -0.37639958494273029 0 0.30849373172022593 -0.40121186560966698 0 0.31043382337269249 -0.37639958494273029 0 0.29463449852688189 -0.37765271072523721 0 0.30202562592868532 -0.38751443654120221 0 0.31043382337269249 -0.37639958494273029 0 0.30849373172022593 -0.40121186560966698 0 0.30202562592868532 -0.38751443654120221 0 0.29454045009494118 -0.39479358488717398 0 0.29463449852688189 -0.37765271072523721 0 0.31479518372886228 -0.37891897113875261 0 0.30849373172022593 -0.40121186560966698 0 0.31479518372886228 -0.37891897113875261 0 0.31043382337269249 -0.37639958494273029 0 0.30849373172022593 -0.40121186560966698 0 0.30202562592868532 -0.38751443654120221 0 0.31043382337269249 -0.37639958494273029 0 0.29463449852688189 -0.37765271072523721 0 0.31043382337269249 -0.37639958494273029 0 0.31237026987182331 -0.37624599540278242 0 0.30849373172022593 -0.40121186560966698 0 0.29454045009494118 -0.39479358488717398 0 0.29444640166300412 -0.41193445904911102 0 0.30202562592868532 -0.38751443654120221 0 0.30849373172022593 -0.40121186560966698 0 0.29454045009494118 -0.39479358488717398 0 0.29454045009494118 -0.39479358488717398 0 0.28628759501615131 -0.40362675519340718 0 0.29444640166300412 -0.41193445904911102 0 0.29454045009494118 -0.39479358488717398 0 0.29444640166300412 -0.41193445904911102 0 0.28628759501615131 -0.40362675519340718 0 0.28315105999486961 -0.395606702910137 0 0.27584252808124948 -0.40296076880882181 0 0.29454045009494118 -0.39479358488717398 0 0.28628759501615131 -0.40362675519340718 0 0.28315105999486961 -0.395606702910137 0 0.29454045009494118 -0.39479358488717398 0 0.28315105999486961 -0.395606702910137 0 0.28598847201025029 -0.38622030821112457 0 0.29454045009494118 -0.39479358488717398 0 0.29463449852688189 -0.37765271072523721 0 0.29454045009494118 -0.39479358488717398 0 0.28598847201025029 -0.38622030821112457 0 0.29463449852688189 -0.37765271072523721 0 0.28598847201025029 -0.38622030821112457 0 0.29463449852688189 -0.37765271072523721 0 0.28997251874770569 -0.37802247633964631 0 0.29463449852688189 -0.37765271072523721 0 0.28997251874770569 -0.37802247633964631 0 0.28598847201025029 -0.38622030821112457 0 0.28997251874770569 -0.37802247633964631 0 0.28598847201025029 -0.38622030821112457 0 0.27309625477175581 -0.39043209745015739 0 0.26436505190743242 -0.38005353635236561 0 0.28598847201025029 -0.38622030821112457 0 0.28997251874770569 -0.37802247633964631 0 0.26436505190743242 -0.38005353635236561 0 0.28997251874770569 -0.37802247633964631 0 0.26436505190743242 -0.38005353635236561 0 0.28047506355323942 -0.36741250485126342 0 0.28997251874770569 -0.37802247633964631 0 0.26436505190743242 -0.38005353635236561 0 0.27309625477175581 -0.39043209745015739 0 0.26436505190743242 -0.38005353635236561 0 0.26460840887471893 -0.39593104244578731 0 0.26436505190743242 -0.38005353635236561 0 0.25255985205164672 -0.39365850979115169 0 0.26460840887471893 -0.39593104244578731 0 0.26436505190743242 -0.38005353635236561 0 0.25255985205164672 -0.39365850979115169 0 0.23875758506715919 -0.38208459636508668 0 0.26436505190743242 -0.38005353635236561 0 0.23875758506715919 -0.38208459636508668 0 0.25255985205164672 -0.39365850979115169 0 0.26460840887471893 -0.39593104244578731 0 0.25717835756151008 -0.41255029982643993 0 0.26460840887471893 -0.39593104244578731 0 0.27584252808124948 -0.40296076880882181 0 0.25717835756151008 -0.41255029982643993 0 0.27309625477175581 -0.39043209745015739 0 0.26460840887471893 -0.39593104244578731 0 0.27584252808124948 -0.40296076880882181 0 0.28315105999486961 -0.395606702910137 0 0.27309625477175581 -0.39043209745015739 0 0.27584252808124948 -0.40296076880882181 0 0.28315105999486961 -0.395606702910137 0 0.28598847201025029 -0.38622030821112457 0 0.27309625477175581 -0.39043209745015739 0 0.28628759501615131 -0.40362675519340718 0 0.27584252808124948 -0.40296076880882181 0 0.28077784599972488 -0.41351531953233017 0 0.25717835756151008 -0.41255029982643993 0 0.27919247722882218 -0.42676762155075593 0 0.28077784599972488 -0.41351531953233017 0 0.25717835756151008 -0.41255029982643993 0 0.27919247722882218 -0.42676762155075593 0 0.27584252808124948 -0.40296076880882181 0 0.28077784599972488 -0.41351531953233017 0 0.25717835756151008 -0.41255029982643993 0 0.25717835756151008 -0.41255029982643993 0 0.25654682225186859 -0.4370929087839881 0 0.26761356307623818 -0.43221212320596669 0 0.25717835756151008 -0.41255029982643993 0 0.25654682225186859 -0.4370929087839881 0 0.24343545727900509 -0.43041085472781121 0 0.25717835756151008 -0.41255029982643993 0 0.26761356307623818 -0.43221212320596669 0 0.27919247722882218 -0.42676762155075593 0 0.26761356307623818 -0.43221212320596669 0 0.27919247722882218 -0.42676762155075593 0 0.27933407508768981 -0.43734471021603472 0 0.27933407508768981 -0.43734471021603472 0 0.29950849448225991 -0.43299929258165798 0 0.27933407508768981 -0.43734471021603472 0 0.28986882904688432 -0.4235496142513373 0 0.29950849448225991 -0.43299929258165798 0 0.27933407508768981 -0.43734471021603472 0 0.29950849448225991 -0.43299929258165798 0 0.28957325770214493 -0.44140532766866092 0 0.27919247722882218 -0.42676762155075593 0 0.27933407508768981 -0.43734471021603472 0 0.28986882904688432 -0.4235496142513373 0 0.28077784599972488 -0.41351531953233017 0 0.27919247722882218 -0.42676762155075593 0 0.28986882904688432 -0.4235496142513373 0 0.28077784599972488 -0.41351531953233017 0 0.28986882904688432 -0.4235496142513373 0 0.29444640166300412 -0.41193445904911102 0 0.28628759501615131 -0.40362675519340718 0 0.28077784599972488 -0.41351531953233017 0 0.29444640166300412 -0.41193445904911102 0 0.28986882904688432 -0.4235496142513373 0 0.29444640166300412 -0.41193445904911102 0 0.30400111310124323 -0.41710557909566259 0 0.30849373172022593 -0.40121186560966698 0 0.30400111310124323 -0.41710557909566259 0 0.31529069216449579 -0.41101059835746728 0 0.30849373172022593 -0.40121186560966698 0 0.30716738541399619 -0.41817481515378219 0 0.30849373172022593 -0.40121186560966698 0 0.30400111310124323 -0.41710557909566259 0 0.30716738541399619 -0.41817481515378219 0 0.30849373172022593 -0.40121186560966698 0 0.30716738541399619 -0.41817481515378219 0 0.30849373172022593 -0.40121186560966698 0 0.29444640166300412 -0.41193445904911102 0 0.30400111310124323 -0.41710557909566259 0 0.30400111310124323 -0.41710557909566259 0 0.29950849448225991 -0.43299929258165798 0 0.32691449358918928 -0.42709624727077078 0 0.29950849448225991 -0.43299929258165798 0 0.30973064373759401 -0.44478729406233541 0 0.28986882904688432 -0.4235496142513373 0 0.30400111310124323 -0.41710557909566259 0 0.29950849448225991 -0.43299929258165798 0 0.3152060825533024 -0.42099527662843822 0 0.30716738541399619 -0.41817481515378219 0 0.29950849448225991 -0.43299929258165798 0 0.30400111310124323 -0.41710557909566259 0 0.30716738541399619 -0.41817481515378219 0 0.29950849448225991 -0.43299929258165798 0 0.30973064373759401 -0.44478729406233541 0 0.30472225360656618 -0.46288551740184458 0 0.29586907589157851 -0.44587460678961649 0 0.29950849448225991 -0.43299929258165798 0 0.30973064373759401 -0.44478729406233541 0 0.29586907589157851 -0.44587460678961649 0 0.29950849448225991 -0.43299929258165798 0 0.29586907589157851 -0.44587460678961649 0 0.32163890111837568 -0.45508080626778769 0 0.30973064373759401 -0.44478729406233541 0 0.30472225360656618 -0.46288551740184458 0 0.30472225360656618 -0.46288551740184458 0 0.29223768222891561 -0.45638905154174592 0 0.29586907589157851 -0.44587460678961649 0 0.29223768222891561 -0.45638905154174592 0 0.28301238187642569 -0.46234194431871639 0 0.28853247836666601 -0.47641995666705628 0 0.30472225360656618 -0.46288551740184458 0 0.29223768222891561 -0.45638905154174592 0 0.28853247836666601 -0.47641995666705628 0 0.28301238187642569 -0.46234194431871639 0 0.27380666493962791 -0.46522110719174831 0 0.28853247836666601 -0.47641995666705628 0 0.29223768222891561 -0.45638905154174592 0 0.28301238187642569 -0.46234194431871639 0 0.28358138534705152 -0.44940270108733488 0 0.29223768222891561 -0.45638905154174592 0 0.28358138534705152 -0.44940270108733488 0 0.29586907589157851 -0.44587460678961649 0 0.28358138534705152 -0.44940270108733488 0 0.29586907589157851 -0.44587460678961649 0 0.28957325770214493 -0.44140532766866092 0 0.29950849448225991 -0.43299929258165798 0 0.29586907589157851 -0.44587460678961649 0 0.28957325770214493 -0.44140532766866092 0 0.27933407508768981 -0.43734471021603472 0 0.28358138534705152 -0.44940270108733488 0 0.28957325770214493 -0.44140532766866092 0 0.27933407508768981 -0.43734471021603472 0 0.28358138534705152 -0.44940270108733488 0 0.27003800853999582 -0.443861179281416 0 0.28358138534705152 -0.44940270108733488 0 0.27003800853999582 -0.443861179281416 0 0.27221227485154692 -0.4552489062524544 0 0.27003800853999582 -0.443861179281416 0 0.25986013689990312 -0.4512526378910412 0 0.27221227485154692 -0.4552489062524544 0 0.26761356307623818 -0.43221212320596669 0 0.27933407508768981 -0.43734471021603472 0 0.27003800853999582 -0.443861179281416 0 0.25654682225186859 -0.4370929087839881 0 0.27003800853999582 -0.443861179281416 0 0.25986013689990312 -0.4512526378910412 0 0.25654682225186859 -0.4370929087839881 0 0.26761356307623818 -0.43221212320596669 0 0.27003800853999582 -0.443861179281416 0 0.25654682225186859 -0.4370929087839881 0 0.25986013689990312 -0.4512526378910412 0 0.2422184529278846 -0.44859775653869449 0 0.25986013689990312 -0.4512526378910412 0 0.25392320036528199 -0.46131438469606861 0 0.2422184529278846 -0.44859775653869449 0 0.25986013689990312 -0.4512526378910412 0 0.25392320036528199 -0.46131438469606861 0 0.26417943147246098 -0.46110652253603551 0 0.25986013689990312 -0.4512526378910412 0 0.26417943147246098 -0.46110652253603551 0 0.27221227485154692 -0.4552489062524544 0 0.25392320036528199 -0.46131438469606861 0 0.26417943147246098 -0.46110652253603551 0 0.26109675813103977 -0.47098820618447912 0 0.26417943147246098 -0.46110652253603551 0 0.27380666493962791 -0.46522110719174831 0 0.26109675813103977 -0.47098820618447912 0 0.26417943147246098 -0.46110652253603551 0 0.27221227485154692 -0.4552489062524544 0 0.27380666493962791 -0.46522110719174831 0 0.28301238187642569 -0.46234194431871639 0 0.27221227485154692 -0.4552489062524544 0 0.27380666493962791 -0.46522110719174831 0 0.28301238187642569 -0.46234194431871639 0 0.28358138534705152 -0.44940270108733488 0 0.27221227485154692 -0.4552489062524544 0 0.26109675813103977 -0.47098820618447912 0 0.28853247836666601 -0.47641995666705628 0 0.26109675813103977 -0.47098820618447912 0 0.27185885153741879 -0.48604013726011308 0 0.28853247836666601 -0.47641995666705628 0 0.27380666493962791 -0.46522110719174831 0 0.26109675813103977 -0.47098820618447912 0 0.28853247836666601 -0.47641995666705628 0 0.26109675813103977 -0.47098820618447912 0 0.2597833405763656 -0.48526463279207699 0 0.24540911354364731 -0.48403018772371592 0 0.26109675813103977 -0.47098820618447912 0 0.2597833405763656 -0.48526463279207699 0 0.27185885153741879 -0.48604013726011308 0 0.2597833405763656 -0.48526463279207699 0 0.26076863909335662 -0.5 0 0.24540911354364731 -0.48403018772371592 0 0.2597833405763656 -0.48526463279207699 0 0.26076863909335662 -0.5 0 0.27185885153741879 -0.48604013726011308 0 0.26076863909335662 -0.5 0 0.27185885153741879 -0.48604013726011308 0 0.28761357328094472 -0.5 0 0.28761357328094472 -0.5 0 0.28853247836666601 -0.47641995666705628 0 0.3010360403747388 -0.48974649398431241 0 0.27185885153741879 -0.48604013726011308 0 0.28761357328094472 -0.5 0 0.28853247836666601 -0.47641995666705628 0 0.31596819860229219 -0.48185170714963349 0 0.28853247836666601 -0.47641995666705628 0 0.31596819860229219 -0.48185170714963349 0 0.30472225360656618 -0.46288551740184458 0 0.28853247836666601 -0.47641995666705628 0 0.31596819860229219 -0.48185170714963349 0 0.28853247836666601 -0.47641995666705628 0 0.3010360403747388 -0.48974649398431241 0 0.31445850746853282 -0.5 0 0.28761357328094472 -0.5 0 0.3010360403747388 -0.48974649398431241 0 0.31445850746853282 -0.5 0 0.31596819860229219 -0.48185170714963349 0 0.3010360403747388 -0.48974649398431241 0 0.32606276884261659 -0.30376084690239402 0 0.33791970115141801 -0.27936325721921879 0 0.34543617362784013 -0.29809612896396842 0 0.32606276884261659 -0.30376084690239402 0 0.33791970115141801 -0.27936325721921879 0 0.32606276884261659 -0.30376084690239402 0 0.34543617362784013 -0.29809612896396842 0 0.33700664671025732 -0.31272492395086537 0 0.32606276884261659 -0.30376084690239402 0 0.33700664671025732 -0.31272492395086537 0 0.32805851825978039 -0.32070736582948822 0 0.32606276884261659 -0.30376084690239402 0 0.31538605332727671 -0.30002852868650293 0 0.31919768336279869 -0.28737056683258971 0 0.32606276884261659 -0.30376084690239402 0 0.31549013519365637 -0.31173324411197267 0 0.31538605332727671 -0.30002852868650293 0 0.31538605332727671 -0.30002852868650293 0 0.31919768336279869 -0.28737056683258971 0 0.31009405696128739 -0.29346618077409492 0 0.32606276884261659 -0.30376084690239402 0 0.31919768336279869 -0.28737056683258971 0 0.33791970115141801 -0.27936325721921879 0 0.31919768336279869 -0.28737056683258971 0 0.31378915953959757 -0.27583622989526441 0 0.30819682166849871 -0.28225013829618661 0 0.31919768336279869 -0.28737056683258971 0 0.32308762146232339 -0.27381511355881261 0 0.33791970115141801 -0.27936325721921879 0 0.31919768336279869 -0.28737056683258971 0 0.31378915953959757 -0.27583622989526441 0 0.32308762146232339 -0.27381511355881261 0 0.31378915953959757 -0.27583622989526441 0 0.32308762146232339 -0.27381511355881261 0 0.31593124396577682 -0.26487429488741282 0 0.32308762146232339 -0.27381511355881261 0 0.31593124396577682 -0.26487429488741282 0 0.32860031929202599 -0.26163121895957731 0 0.31967497454266808 -0.25184281364455768 0 0.31593124396577682 -0.26487429488741282 0 0.30697547898335831 -0.25698108825629812 0 0.31967497454266808 -0.25184281364455768 0 0.31593124396577682 -0.26487429488741282 0 0.32860031929202599 -0.26163121895957731 0 0.33722448734257388 -0.2438733576728285 0 0.31967497454266808 -0.25184281364455768 0 0.32860031929202599 -0.26163121895957731 0 0.33722448734257388 -0.2438733576728285 0 0.34266650773359042 -0.25844354670096348 0 0.32860031929202599 -0.26163121895957731 0 0.34266650773359042 -0.25844354670096348 0 0.32860031929202599 -0.26163121895957731 0 0.33791970115141801 -0.27936325721921879 0 0.32308762146232339 -0.27381511355881261 0 0.32860031929202599 -0.26163121895957731 0 0.33791970115141801 -0.27936325721921879 0 0.33791970115141801 -0.27936325721921879 0 0.35940108565835899 -0.26389011956086639 0 0.35865511112652398 -0.28258541889764238 0 0.34266650773359042 -0.25844354670096348 0 0.33791970115141801 -0.27936325721921879 0 0.35940108565835899 -0.26389011956086639 0 0.3547866675123601 -0.24369493949141899 0 0.34266650773359042 -0.25844354670096348 0 0.35940108565835899 -0.26389011956086639 0 0.3547866675123601 -0.24369493949141899 0 0.3832062220783552 -0.24631551002547131 0 0.35940108565835899 -0.26389011956086639 0 0.3832062220783552 -0.24631551002547131 0 0.37836759965828948 -0.27560911413586442 0 0.35940108565835899 -0.26389011956086639 0 0.37836759965828948 -0.27560911413586442 0 0.35940108565835899 -0.26389011956086639 0 0.35865511112652398 -0.28258541889764238 0 0.37836759965828948 -0.27560911413586442 0 0.35865511112652398 -0.28258541889764238 0 0.37352897723822381 -0.30490271824625781 0 0.35865511112652398 -0.28258541889764238 0 0.34543617362784013 -0.29809612896396842 0 0.37352897723822381 -0.30490271824625781 0 0.33791970115141801 -0.27936325721921879 0 0.35865511112652398 -0.28258541889764238 0 0.34543617362784013 -0.29809612896396842 0 0.34543617362784013 -0.29809612896396842 0 0.34994128945705749 -0.31812598044320162 0 0.33700664671025732 -0.31272492395086537 0 0.34543617362784013 -0.29809612896396842 0 0.37352897723822381 -0.30490271824625781 0 0.34994128945705749 -0.31812598044320162 0 0.37352897723822381 -0.30490271824625781 0 0.36869035481815809 -0.33419632235665109 0 0.37352897723822381 -0.30490271824625781 0 0.36869035481815809 -0.33419632235665109 0 0.34994128945705749 -0.31812598044320162 0 0.36869035481815809 -0.33419632235665109 0 0.34404773416058099 -0.33429449047343301 0 0.34994128945705749 -0.31812598044320162 0 0.36869035481815809 -0.33419632235665109 0 0.34404773416058099 -0.33429449047343301 0 0.34801303155733521 -0.3505743252978899 0 0.37695825524830728 -0.35392931518406168 0 0.37540506560895071 -0.37007780834199172 0 0.36385173239809238 -0.36348992646704431 0 0.36869035481815809 -0.33419632235665109 0 0.36385173239809238 -0.36348992646704431 0 0.34801303155733521 -0.3505743252978899 0 0.36869035481815809 -0.33419632235665109 0 0.36385173239809238 -0.36348992646704431 0 0.37695825524830728 -0.35392931518406168 0 0.36869035481815809 -0.33419632235665109 0 0.36385173239809238 -0.36348992646704431 0 0.34933905594857922 -0.37632153567236021 0 0.36385173239809238 -0.36348992646704431 0 0.3466385375723976 -0.36430190629190151 0 0.36385173239809238 -0.36348992646704431 0 0.34801303155733521 -0.3505743252978899 0 0.3466385375723976 -0.36430190629190151 0 0.33511009453954399 -0.373768175302025 0 0.33435367679921629 -0.36029353454029489 0 0.32438136841715293 -0.36959161177918881 0 0.34933905594857922 -0.37632153567236021 0 0.3466385375723976 -0.36430190629190151 0 0.33511009453954399 -0.373768175302025 0 0.3466385375723976 -0.36430190629190151 0 0.33511009453954399 -0.373768175302025 0 0.33435367679921629 -0.36029353454029489 0 0.34404773416058099 -0.33429449047343301 0 0.34801303155733521 -0.3505743252978899 0 0.33498183320015368 -0.34722432183527618 0 0.33435367679921629 -0.36029353454029489 0 0.33498183320015368 -0.34722432183527618 0 0.32109663573749941 -0.35662607666783852 0 0.34801303155733521 -0.3505743252978899 0 0.33435367679921629 -0.36029353454029489 0 0.33498183320015368 -0.34722432183527618 0 0.34801303155733521 -0.3505743252978899 0 0.3466385375723976 -0.36430190629190151 0 0.33435367679921629 -0.36029353454029489 0 0.32109663573749941 -0.35662607666783852 0 0.32739808774613638 -0.33433318219692432 0 0.31231982995325358 -0.35227901076414958 0 0.33498183320015368 -0.34722432183527618 0 0.32109663573749941 -0.35662607666783852 0 0.32739808774613638 -0.33433318219692432 0 0.32109663573749941 -0.35662607666783852 0 0.32739808774613638 -0.33433318219692432 0 0.31479518372886228 -0.37891897113875261 0 0.32109663573749941 -0.35662607666783852 0 0.32438136841715293 -0.36959161177918881 0 0.31479518372886228 -0.37891897113875261 0 0.31237026987182331 -0.37624599540278242 0 0.32109663573749941 -0.35662607666783852 0 0.31479518372886228 -0.37891897113875261 0 0.32109663573749941 -0.35662607666783852 0 0.31237026987182331 -0.37624599540278242 0 0.32109663573749941 -0.35662607666783852 0 0.31231982995325358 -0.35227901076414958 0 0.33435367679921629 -0.36029353454029489 0 0.32109663573749941 -0.35662607666783852 0 0.32438136841715293 -0.36959161177918881 0 0.32384193805578049 -0.37791733151586793 0 0.33511009453954399 -0.373768175302025 0 0.32438136841715293 -0.36959161177918881 0 0.34404773416058099 -0.33429449047343301 0 0.34994128945705749 -0.31812598044320162 0 0.33628216668864253 -0.32540200384639612 0 0.33628216668864253 -0.32540200384639612 0 0.32739808774613638 -0.33433318219692432 0 0.32805851825978039 -0.32070736582948822 0 0.33700664671025732 -0.31272492395086537 0 0.33628216668864253 -0.32540200384639612 0 0.32805851825978039 -0.32070736582948822 0 0.34994128945705749 -0.31812598044320162 0 0.33700664671025732 -0.31272492395086537 0 0.33628216668864253 -0.32540200384639612 0 0.34404773416058099 -0.33429449047343301 0 0.33498183320015368 -0.34722432183527618 0 0.32739808774613638 -0.33433318219692432 0 0.34404773416058099 -0.33429449047343301 0 0.33628216668864253 -0.32540200384639612 0 0.32739808774613638 -0.33433318219692432 0 0.31420583653381468 -0.32815843658556898 0 0.31231982995325358 -0.35227901076414958 0 0.32739808774613638 -0.33433318219692432 0 0.31420583653381468 -0.32815843658556898 0 0.31231982995325358 -0.35227901076414958 0 0.31549013519365637 -0.31173324411197267 0 0.31420583653381468 -0.32815843658556898 0 0.32606276884261659 -0.30376084690239402 0 0.31549013519365637 -0.31173324411197267 0 0.31420583653381468 -0.32815843658556898 0 0.32606276884261659 -0.30376084690239402 0 0.31420583653381468 -0.32815843658556898 0 0.32805851825978039 -0.32070736582948822 0 0.32606276884261659 -0.30376084690239402 0 0.31420583653381468 -0.32815843658556898 0 0.32739808774613638 -0.33433318219692432 0 0.31420583653381468 -0.32815843658556898 0 0.32805851825978039 -0.32070736582948822 0 0.30649106200516069 -0.31751893398323489 0 0.30299588756537221 -0.32914847439359513 0 0.294995959874221 -0.3117742761612739 0 0.30299588756537221 -0.32914847439359513 0 0.29484082054193311 -0.34004932251287479 0 0.294995959874221 -0.3117742761612739 0 0.31549013519365637 -0.31173324411197267 0 0.31420583653381468 -0.32815843658556898 0 0.30649106200516069 -0.31751893398323489 0 0.31420583653381468 -0.32815843658556898 0 0.30649106200516069 -0.31751893398323489 0 0.30299588756537221 -0.32914847439359513 0 0.31420583653381468 -0.32815843658556898 0 0.31231982995325358 -0.35227901076414958 0 0.30444575887173131 -0.34824140272502258 0 0.31420583653381468 -0.32815843658556898 0 0.30444575887173131 -0.34824140272502258 0 0.30299588756537221 -0.32914847439359513 0 0.29484082054193311 -0.34004932251287479 0 0.30444575887173131 -0.34824140272502258 0 0.31420583653381468 -0.32815843658556898 0 0.30299588756537221 -0.32914847439359513 0 0.30444575887173131 -0.34824140272502258 0 0.29484082054193311 -0.34004932251287479 0 0.28231175043825701 -0.34215813949167201 0 0.28614387355425369 -0.32866137696966502 0 0.28231175043825701 -0.34215813949167201 0 0.28614387355425369 -0.32866137696966502 0 0.2759571118868 -0.33009117657723769 0 0.28614387355425369 -0.32866137696966502 0 0.28261372503005727 -0.31923397010526638 0 0.2759571118868 -0.33009117657723769 0 0.29484082054193311 -0.34004932251287479 0 0.294995959874221 -0.3117742761612739 0 0.29484082054193311 -0.34004932251287479 0 0.28614387355425369 -0.32866137696966502 0 0.294995959874221 -0.3117742761612739 0 0.28614387355425369 -0.32866137696966502 0 0.28261372503005727 -0.31923397010526638 0 0.294995959874221 -0.3117742761612739 0 0.31043382337269249 -0.37639958494273029 0 0.31237026987182331 -0.37624599540278242 0 0.31231982995325358 -0.35227901076414958 0 0.31043382337269249 -0.37639958494273029 0 0.29463449852688189 -0.37765271072523721 0 0.29468568120964628 -0.36832436886447562 0 0.31043382337269249 -0.37639958494273029 0 0.31231982995325358 -0.35227901076414958 0 0.31043382337269249 -0.37639958494273029 0 0.31231982995325358 -0.35227901076414958 0 0.29468568120964628 -0.36832436886447562 0 0.30444575887173131 -0.34824140272502258 0 0.29468568120964628 -0.36832436886447562 0 0.31231982995325358 -0.35227901076414958 0 0.30444575887173131 -0.34824140272502258 0 0.29468568120964628 -0.36832436886447562 0 0.29484082054193311 -0.34004932251287479 0 0.30444575887173131 -0.34824140272502258 0 0.29468568120964628 -0.36832436886447562 0 0.29484082054193311 -0.34004932251287479 0 0.29468568120964628 -0.36832436886447562 0 0.29484082054193311 -0.34004932251287479 0 0.2882819986029711 -0.35241113844673277 0 0.29468568120964628 -0.36832436886447562 0 0.29484082054193311 -0.34004932251287479 0 0.28231175043825701 -0.34215813949167201 0 0.2882819986029711 -0.35241113844673277 0 0.28231175043825701 -0.34215813949167201 0 0.2882819986029711 -0.35241113844673277 0 0.278702211371053 -0.35511168708178859 0 0.2882819986029711 -0.35241113844673277 0 0.28553623868422767 -0.3608149248110652 0 0.278702211371053 -0.35511168708178859 0 0.2882819986029711 -0.35241113844673277 0 0.28553623868422767 -0.3608149248110652 0 0.29468568120964628 -0.36832436886447562 0 0.28553623868422767 -0.3608149248110652 0 0.29468568120964628 -0.36832436886447562 0 0.28047506355323942 -0.36741250485126342 0 0.28553623868422767 -0.3608149248110652 0 0.28047506355323942 -0.36741250485126342 0 0.278702211371053 -0.35511168708178859 0 0.28997251874770569 -0.37802247633964631 0 0.29468568120964628 -0.36832436886447562 0 0.28047506355323942 -0.36741250485126342 0 0.28997251874770569 -0.37802247633964631 0 0.29468568120964628 -0.36832436886447562 0 0.29463449852688189 -0.37765271072523721 0 0.29468568120964628 -0.36832436886447562 0 0.29463449852688189 -0.37765271072523721 0 0.28997251874770569 -0.37802247633964631 0 0.29468568120964628 -0.36832436886447562 0 0.28047506355323942 -0.36741250485126342 0 0.278702211371053 -0.35511168708178859 0 0.26444533341754678 -0.36082517336543962 0 0.26436505190743242 -0.38005353635236561 0 0.28047506355323942 -0.36741250485126342 0 0.26444533341754678 -0.36082517336543962 0 0.278702211371053 -0.35511168708178859 0 0.26876308088840623 -0.34494190583909162 0 0.26444533341754678 -0.36082517336543962 0 0.28231175043825701 -0.34215813949167201 0 0.278702211371053 -0.35511168708178859 0 0.26876308088840623 -0.34494190583909162 0 0.26876308088840623 -0.34494190583909162 0 0.2515591384600126 -0.35350773620580311 0 0.26444533341754678 -0.36082517336543962 0 0.2515591384600126 -0.35350773620580311 0 0.26444533341754678 -0.36082517336543962 0 0.24280745432513781 -0.36392366986232538 0 0.26436505190743242 -0.38005353635236561 0 0.26444533341754678 -0.36082517336543962 0 0.24280745432513781 -0.36392366986232538 0 0.27100212167725202 -0.3180244077705181 0 0.2759571118868 -0.33009117657723769 0 0.25958051643384988 -0.33094960658001299 0 0.27100212167725202 -0.3180244077705181 0 0.25811758815579638 -0.31381341847016042 0 0.26857932532119938 -0.30790908840380138 0 0.28261372503005727 -0.31923397010526638 0 0.27100212167725202 -0.3180244077705181 0 0.28116446323580918 -0.30614918648662998 0 0.28261372503005727 -0.31923397010526638 0 0.27100212167725202 -0.3180244077705181 0 0.2759571118868 -0.33009117657723769 0 0.26876308088840623 -0.34494190583909162 0 0.2759571118868 -0.33009117657723769 0 0.25958051643384988 -0.33094960658001299 0 0.28231175043825701 -0.34215813949167201 0 0.26876308088840623 -0.34494190583909162 0 0.2759571118868 -0.33009117657723769 0 0.2515591384600126 -0.35350773620580311 0 0.25958051643384988 -0.33094960658001299 0 0.24384905522109859 -0.33357431499004619 0 0.25958051643384988 -0.33094960658001299 0 0.25054538586228142 -0.3214074703158773 0 0.24384905522109859 -0.33357431499004619 0 0.26876308088840623 -0.34494190583909162 0 0.2515591384600126 -0.35350773620580311 0 0.25958051643384988 -0.33094960658001299 0 0.27100212167725202 -0.3180244077705181 0 0.25958051643384988 -0.33094960658001299 0 0.25811758815579638 -0.31381341847016042 0 0.25958051643384988 -0.33094960658001299 0 0.25054538586228142 -0.3214074703158773 0 0.25811758815579638 -0.31381341847016042 0 0.25054538586228142 -0.3214074703158773 0 0.25811758815579638 -0.31381341847016042 0 0.24800625318613331 -0.31112477125182142 0 0.25811758815579638 -0.31381341847016042 0 0.25272925341499253 -0.30360765992465638 0 0.26090352419989887 -0.30073619485234082 0 0.25272925341499253 -0.30360765992465638 0 0.25801243632600268 -0.29370139499700731 0 0.24231595374501561 -0.3004110544368247 0 0.25811758815579638 -0.31381341847016042 0 0.25272925341499253 -0.30360765992465638 0 0.24800625318613331 -0.31112477125182142 0 0.25272925341499253 -0.30360765992465638 0 0.26090352419989887 -0.30073619485234082 0 0.25801243632600268 -0.29370139499700731 0 0.25811758815579638 -0.31381341847016042 0 0.26090352419989887 -0.30073619485234082 0 0.26857932532119938 -0.30790908840380138 0 0.2587927453385464 -0.28262097410045339 0 0.24231595374501561 -0.3004110544368247 0 0.2587927453385464 -0.28262097410045339 0 0.25282643792491449 -0.27789973379542859 0 0.24231595374501561 -0.3004110544368247 0 0.25801243632600268 -0.29370139499700731 0 0.2587927453385464 -0.28262097410045339 0 0.24231595374501561 -0.3004110544368247 0 0.26090352419989887 -0.30073619485234082 0 0.25801243632600268 -0.29370139499700731 0 0.26959046603871539 -0.29083023202779651 0 0.25801243632600268 -0.29370139499700731 0 0.26483557026717602 -0.28601596496259463 0 0.26959046603871539 -0.29083023202779651 0 0.25801243632600268 -0.29370139499700731 0 0.26483557026717602 -0.28601596496259463 0 0.2587927453385464 -0.28262097410045339 0 0.26483557026717602 -0.28601596496259463 0 0.2587927453385464 -0.28262097410045339 0 0.27002113235828101 -0.2812867203450351 0 0.28085549399427551 -0.28327498000043472 0 0.28116446323580918 -0.30614918648662998 0 0.26959046603871539 -0.29083023202779651 0 0.28085549399427551 -0.28327498000043472 0 0.28116446323580918 -0.30614918648662998 0 0.26483557026717602 -0.28601596496259463 0 0.27002113235828101 -0.2812867203450351 0 0.26959046603871539 -0.29083023202779651 0 0.27002113235828101 -0.2812867203450351 0 0.26959046603871539 -0.29083023202779651 0 0.28085549399427551 -0.28327498000043472 0 0.26090352419989887 -0.30073619485234082 0 0.26959046603871539 -0.29083023202779651 0 0.26857932532119938 -0.30790908840380138 0 0.26959046603871539 -0.29083023202779651 0 0.26857932532119938 -0.30790908840380138 0 0.28116446323580918 -0.30614918648662998 0 0.27100212167725202 -0.3180244077705181 0 0.26857932532119938 -0.30790908840380138 0 0.28116446323580918 -0.30614918648662998 0 0.294995959874221 -0.3117742761612739 0 0.28804175407770372 -0.2961744181145029 0 0.295151099206509 -0.28349922980967301 0 0.28116446323580918 -0.30614918648662998 0 0.294995959874221 -0.3117742761612739 0 0.28804175407770372 -0.2961744181145029 0 0.294995959874221 -0.3117742761612739 0 0.295151099206509 -0.28349922980967301 0 0.28261372503005727 -0.31923397010526638 0 0.28116446323580918 -0.30614918648662998 0 0.294995959874221 -0.3117742761612739 0 0.28085549399427551 -0.28327498000043472 0 0.28116446323580918 -0.30614918648662998 0 0.28804175407770372 -0.2961744181145029 0 0.28085549399427551 -0.28327498000043472 0 0.28804175407770372 -0.2961744181145029 0 0.295151099206509 -0.28349922980967301 0 0.295151099206509 -0.28349922980967301 0 0.31009405696128739 -0.29346618077409492 0 0.30608562227602421 -0.30381180481146319 0 0.295151099206509 -0.28349922980967301 0 0.30819682166849871 -0.28225013829618661 0 0.31009405696128739 -0.29346618077409492 0 0.31919768336279869 -0.28737056683258971 0 0.30819682166849871 -0.28225013829618661 0 0.31009405696128739 -0.29346618077409492 0 0.31538605332727671 -0.30002852868650293 0 0.31009405696128739 -0.29346618077409492 0 0.30608562227602421 -0.30381180481146319 0 0.294995959874221 -0.3117742761612739 0 0.295151099206509 -0.28349922980967301 0 0.30608562227602421 -0.30381180481146319 0 0.31549013519365637 -0.31173324411197267 0 0.31538605332727671 -0.30002852868650293 0 0.30608562227602421 -0.30381180481146319 0 0.31549013519365637 -0.31173324411197267 0 0.30649106200516069 -0.31751893398323489 0 0.30608562227602421 -0.30381180481146319 0 0.30649106200516069 -0.31751893398323489 0 0.294995959874221 -0.3117742761612739 0 0.30608562227602421 -0.30381180481146319 0 0.30697547898335831 -0.25698108825629812 0 0.30275210927230101 -0.2710784841693113 0 0.29371240605985099 -0.26161998450717239 0 0.30697547898335831 -0.25698108825629812 0 0.29371240605985099 -0.26161998450717239 0 0.29414974471690258 -0.25408616631032938 0 0.29360651724728343 -0.2472538276421708 0 0.30697547898335831 -0.25698108825629812 0 0.29414974471690258 -0.25408616631032938 0 0.29360651724728343 -0.2472538276421708 0 0.30697547898335831 -0.25698108825629812 0 0.31045690666907799 -0.2457929107903 0 0.31967497454266808 -0.25184281364455768 0 0.30697547898335831 -0.25698108825629812 0 0.31593124396577682 -0.26487429488741282 0 0.30697547898335831 -0.25698108825629812 0 0.30275210927230101 -0.2710784841693113 0 0.31378915953959757 -0.27583622989526441 0 0.31593124396577682 -0.26487429488741282 0 0.30275210927230101 -0.2710784841693113 0 0.31378915953959757 -0.27583622989526441 0 0.30819682166849871 -0.28225013829618661 0 0.30275210927230101 -0.2710784841693113 0 0.295151099206509 -0.28349922980967301 0 0.30819682166849871 -0.28225013829618661 0 0.30275210927230101 -0.2710784841693113 0 0.30275210927230101 -0.2710784841693113 0 0.28791436340232063 -0.27121179009117519 0 0.29371240605985099 -0.26161998450717239 0 0.28085549399427551 -0.28327498000043472 0 0.28791436340232063 -0.27121179009117519 0 0.28054652475274172 -0.2604007735142394 0 0.295151099206509 -0.28349922980967301 0 0.30275210927230101 -0.2710784841693113 0 0.28791436340232063 -0.27121179009117519 0 0.28085549399427551 -0.28327498000043472 0 0.295151099206509 -0.28349922980967301 0 0.28791436340232063 -0.27121179009117519 0 0.28791436340232063 -0.27121179009117519 0 0.2875033132805988 -0.26219604141558239 0 0.28054652475274172 -0.2604007735142394 0 0.2875033132805988 -0.26219604141558239 0 0.28783995890748187 -0.25555161754974293 0 0.28054652475274172 -0.2604007735142394 0 0.28791436340232063 -0.27121179009117519 0 0.2875033132805988 -0.26219604141558239 0 0.29371240605985099 -0.26161998450717239 0 0.2875033132805988 -0.26219604141558239 0 0.29371240605985099 -0.26161998450717239 0 0.28783995890748187 -0.25555161754974293 0 0.29371240605985099 -0.26161998450717239 0 0.29414974471690258 -0.25408616631032938 0 0.28783995890748187 -0.25555161754974293 0 0.29360651724728343 -0.2472538276421708 0 0.29414974471690258 -0.25408616631032938 0 0.28904947714479368 -0.25068788448250667 0 0.29414974471690258 -0.25408616631032938 0 0.28904947714479368 -0.25068788448250667 0 0.28783995890748187 -0.25555161754974293 0 0.28783995890748187 -0.25555161754974293 0 0.28420643169806681 -0.25031113764635282 0 0.28054652475274172 -0.2604007735142394 0 0.28904947714479368 -0.25068788448250667 0 0.28783995890748187 -0.25555161754974293 0 0.28420643169806681 -0.25031113764635282 0 0.2745197859875832 -0.24904298869078559 0 0.28054652475274172 -0.2604007735142394 0 0.27215500235846563 -0.25851082918784102 0 0.28054652475274172 -0.2604007735142394 0 0.27526953693207751 -0.26483089376408242 0 0.27215500235846563 -0.25851082918784102 0 0.27215500235846563 -0.25851082918784102 0 0.26814118312189811 -0.26215751381029873 0 0.26333692210481308 -0.25538841315403249 0 0.27526953693207751 -0.26483089376408242 0 0.26814118312189811 -0.26215751381029873 0 0.2634655768630928 -0.26872621832601229 0 0.27526953693207751 -0.26483089376408242 0 0.27215500235846563 -0.25851082918784102 0 0.26814118312189811 -0.26215751381029873 0 0.2745197859875832 -0.24904298869078559 0 0.27215500235846563 -0.25851082918784102 0 0.26333692210481308 -0.25538841315403249 0 0.27002113235828101 -0.2812867203450351 0 0.28085549399427551 -0.28327498000043472 0 0.27526953693207751 -0.26483089376408242 0 0.2587927453385464 -0.28262097410045339 0 0.27002113235828101 -0.2812867203450351 0 0.27526953693207751 -0.26483089376408242 0 0.2587927453385464 -0.28262097410045339 0 0.27526953693207751 -0.26483089376408242 0 0.2634655768630928 -0.26872621832601229 0 0.28085549399427551 -0.28327498000043472 0 0.28054652475274172 -0.2604007735142394 0 0.2587927453385464 -0.28262097410045339 0 0.27526953693207751 -0.26483089376408242 0 0.28085549399427551 -0.28327498000043472 0 0.28054652475274172 -0.2604007735142394 0 0.27526953693207751 -0.26483089376408242 0 0.25282643792491449 -0.27789973379542859 0 0.26333692210481308 -0.25538841315403249 0 0.2634655768630928 -0.26872621832601229 0 0.25282643792491449 -0.27789973379542859 0 0.26333692210481308 -0.25538841315403249 0 0.2587927453385464 -0.28262097410045339 0 0.2634655768630928 -0.26872621832601229 0 0.25282643792491449 -0.27789973379542859 0 0.25282643792491449 -0.27789973379542859 0 0.25175144611523409 -0.26260679249727881 0 0.24677607907892901 -0.26924044477638548 0 0.25282643792491449 -0.27789973379542859 0 0.26333692210481308 -0.25538841315403249 0 0.25175144611523409 -0.26260679249727881 0 0.26149455009887362 -0.24498224903395149 0 0.26333692210481308 -0.25538841315403249 0 0.25308098861243489 -0.25102578537603681 0 0.26814118312189811 -0.26215751381029873 0 0.2634655768630928 -0.26872621832601229 0 0.26333692210481308 -0.25538841315403249 0 0.26333692210481308 -0.25538841315403249 0 0.25175144611523409 -0.26260679249727881 0 0.25308098861243489 -0.25102578537603681 0 0.24273680285507909 -0.25947958538451038 0 0.23600738588133161 -0.27178210793095992 0 0.2250125074815135 -0.26302826589536421 0 0.25308098861243489 -0.25102578537603681 0 0.24273680285507909 -0.25947958538451038 0 0.24312646163795509 -0.245353091718022 0 0.25175144611523409 -0.26260679249727881 0 0.25308098861243489 -0.25102578537603681 0 0.24273680285507909 -0.25947958538451038 0 0.25175144611523409 -0.26260679249727881 0 0.24273680285507909 -0.25947958538451038 0 0.24677607907892901 -0.26924044477638548 0 0.24273680285507909 -0.25947958538451038 0 0.24312646163795509 -0.245353091718022 0 0.23010913448976489 -0.2456271662758337 0 0.25282643792491449 -0.27789973379542859 0 0.24677607907892901 -0.26924044477638548 0 0.24182361271894851 -0.27786742545015969 0 0.25282643792491449 -0.27789973379542859 0 0.24182361271894851 -0.27786742545015969 0 0.2408382382159398 -0.28678985529396112 0 0.24677607907892901 -0.26924044477638548 0 0.23600738588133161 -0.27178210793095992 0 0.24182361271894851 -0.27786742545015969 0 0.24273680285507909 -0.25947958538451038 0 0.24677607907892901 -0.26924044477638548 0 0.23600738588133161 -0.27178210793095992 0 0.23600738588133161 -0.27178210793095992 0 0.24182361271894851 -0.27786742545015969 0 0.23296015810967649 -0.28303457277004113 0 0.23600738588133161 -0.27178210793095992 0 0.22205382661025261 -0.27722557543287107 0 0.23296015810967649 -0.28303457277004113 0 0.23600738588133161 -0.27178210793095992 0 0.22205382661025261 -0.27722557543287107 0 0.2250125074815135 -0.26302826589536421 0 0.24273680285507909 -0.25947958538451038 0 0.2250125074815135 -0.26302826589536421 0 0.23010913448976489 -0.2456271662758337 0 0.2250125074815135 -0.26302826589536421 0 0.21174693665183089 -0.25242233455121449 0 0.23010913448976489 -0.2456271662758337 0 0.2250125074815135 -0.26302826589536421 0 0.21174693665183089 -0.25242233455121449 0 0.2039583995098401 -0.26969265205377191 0 0.22205382661025261 -0.27722557543287107 0 0.2039583995098401 -0.26969265205377191 0 0.21095853944098361 -0.29033707840426431 0 0.22205382661025261 -0.27722557543287107 0 0.2250125074815135 -0.26302826589536421 0 0.2039583995098401 -0.26969265205377191 0 0.2039583995098401 -0.26969265205377191 0 0.1889903724142705 -0.28668890646486572 0 0.18131384528705949 -0.26892950640122848 0 0.2039583995098401 -0.26969265205377191 0 0.18760469472834601 -0.25132031860462889 0 0.18131384528705949 -0.26892950640122848 0 0.21174693665183089 -0.25242233455121449 0 0.2039583995098401 -0.26969265205377191 0 0.18760469472834601 -0.25132031860462889 0 0.2039583995098401 -0.26969265205377191 0 0.1889903724142705 -0.28668890646486572 0 0.21095853944098361 -0.29033707840426431 0 0.1968670036444107 -0.3045471330370404 0 0.1889903724142705 -0.28668890646486572 0 0.21095853944098361 -0.29033707840426431 0 0.21095853944098361 -0.29033707840426431 0 0.21562282788576309 -0.30597447302719649 0 0.22820139475473691 -0.29311931632766253 0 0.1968670036444107 -0.3045471330370404 0 0.21562282788576309 -0.30597447302719649 0 0.20578414410527629 -0.31864634479027831 0 0.1968670036444107 -0.3045471330370404 0 0.21095853944098361 -0.29033707840426431 0 0.21562282788576309 -0.30597447302719649 0 0.21562282788576309 -0.30597447302719649 0 0.22239992027911731 -0.31193884526621402 0 0.21569852153810121 -0.31577331683674092 0 0.23434896289922141 -0.30901305722245381 0 0.22820139475473691 -0.29311931632766253 0 0.21562282788576309 -0.30597447302719649 0 0.2257676997662568 -0.30479183476908828 0 0.22239992027911731 -0.31193884526621402 0 0.2257676997662568 -0.30479183476908828 0 0.23434896289922141 -0.30901305722245381 0 0.22820139475473691 -0.29311931632766253 0 0.21562282788576309 -0.30597447302719649 0 0.2257676997662568 -0.30479183476908828 0 0.22820139475473691 -0.29311931632766253 0 0.2257676997662568 -0.30479183476908828 0 0.22239992027911731 -0.31193884526621402 0 0.23434896289922141 -0.30901305722245381 0 0.22205382661025261 -0.27722557543287107 0 0.21095853944098361 -0.29033707840426431 0 0.22820139475473691 -0.29311931632766253 0 0.22205382661025261 -0.27722557543287107 0 0.22820139475473691 -0.29311931632766253 0 0.22205382661025261 -0.27722557543287107 0 0.22820139475473691 -0.29311931632766253 0 0.23296015810967649 -0.28303457277004113 0 0.22820139475473691 -0.29311931632766253 0 0.23296015810967649 -0.28303457277004113 0 0.2408382382159398 -0.28678985529396112 0 0.25282643792491449 -0.27789973379542859 0 0.2408382382159398 -0.28678985529396112 0 0.24231595374501561 -0.3004110544368247 0 0.25282643792491449 -0.27789973379542859 0 0.24231595374501561 -0.3004110544368247 0 0.24182361271894851 -0.27786742545015969 0 0.23296015810967649 -0.28303457277004113 0 0.2408382382159398 -0.28678985529396112 0 0.22820139475473691 -0.29311931632766253 0 0.2408382382159398 -0.28678985529396112 0 0.24231595374501561 -0.3004110544368247 0 0.23434896289922141 -0.30901305722245381 0 0.22820139475473691 -0.29311931632766253 0 0.24231595374501561 -0.3004110544368247 0 0.24231595374501561 -0.3004110544368247 0 0.24800625318613331 -0.31112477125182142 0 0.23613897198218811 -0.31364089377428789 0 0.23434896289922141 -0.30901305722245381 0 0.24231595374501561 -0.3004110544368247 0 0.23613897198218811 -0.31364089377428789 0 0.24231595374501561 -0.3004110544368247 0 0.23613897198218811 -0.31364089377428789 0 0.23434896289922141 -0.30901305722245381 0 0.24231595374501561 -0.3004110544368247 0 0.23434896289922141 -0.30901305722245381 0 0.23613897198218811 -0.31364089377428789 0 0.25272925341499253 -0.30360765992465638 0 0.24231595374501561 -0.3004110544368247 0 0.24800625318613331 -0.31112477125182142 0 0.24463491656292591 -0.31993686258300852 0 0.23613897198218811 -0.31364089377428789 0 0.24384905522109859 -0.33357431499004619 0 0.25054538586228142 -0.3214074703158773 0 0.24800625318613331 -0.31112477125182142 0 0.24463491656292591 -0.31993686258300852 0 0.23613897198218811 -0.31364089377428789 0 0.24384905522109859 -0.33357431499004619 0 0.22742911290534179 -0.33229564145901552 0 0.24800625318613331 -0.31112477125182142 0 0.24463491656292591 -0.31993686258300852 0 0.23613897198218811 -0.31364089377428789 0 0.23613897198218811 -0.31364089377428789 0 0.24384905522109859 -0.33357431499004619 0 0.25054538586228142 -0.3214074703158773 0 0.24463491656292591 -0.31993686258300852 0 0.24384905522109859 -0.33357431499004619 0 0.24384905522109859 -0.33357431499004619 0 0.22742911290534179 -0.33229564145901552 0 0.23602606433479889 -0.34644843496557709 0 0.2515591384600126 -0.35350773620580311 0 0.24384905522109859 -0.33357431499004619 0 0.22742911290534179 -0.33229564145901552 0 0.218719253828493 -0.35095038914374188 0 0.22742911290534179 -0.33229564145901552 0 0.218719253828493 -0.35095038914374188 0 0.2147834120552041 -0.3424984901375337 0 0.22742911290534179 -0.33229564145901552 0 0.23602606433479889 -0.34644843496557709 0 0.218719253828493 -0.35095038914374188 0 0.22742911290534179 -0.33229564145901552 0 0.21726684025801121 -0.33457432350725652 0 0.2147834120552041 -0.3424984901375337 0 0.22742911290534179 -0.33229564145901552 0 0.22047252291654351 -0.32399552396504522 0 0.21726684025801121 -0.33457432350725652 0 0.23434896289922141 -0.30901305722245381 0 0.23613897198218811 -0.31364089377428789 0 0.22047252291654351 -0.32399552396504522 0 0.23613897198218811 -0.31364089377428789 0 0.22742911290534179 -0.33229564145901552 0 0.22047252291654351 -0.32399552396504522 0 0.23613897198218811 -0.31364089377428789 0 0.22742911290534179 -0.33229564145901552 0 0.22239992027911731 -0.31193884526621402 0 0.22047252291654351 -0.32399552396504522 0 0.21569852153810121 -0.31577331683674092 0 0.22239992027911731 -0.31193884526621402 0 0.23434896289922141 -0.30901305722245381 0 0.22047252291654351 -0.32399552396504522 0 0.23434896289922141 -0.30901305722245381 0 0.22047252291654351 -0.32399552396504522 0 0.24280745432513781 -0.36392366986232538 0 0.22441300526571009 -0.36910932736422991 0 0.23875758506715919 -0.38208459636508668 0 0.2515591384600126 -0.35350773620580311 0 0.24384905522109859 -0.33357431499004619 0 0.23602606433479889 -0.34644843496557709 0 0.2515591384600126 -0.35350773620580311 0 0.24280745432513781 -0.36392366986232538 0 0.23602606433479889 -0.34644843496557709 0 0.24280745432513781 -0.36392366986232538 0 0.23602606433479889 -0.34644843496557709 0 0.218719253828493 -0.35095038914374188 0 0.24280745432513781 -0.36392366986232538 0 0.22441300526571009 -0.36910932736422991 0 0.218719253828493 -0.35095038914374188 0 0.21082567245426551 -0.36687214453933031 0 0.19953787492001701 -0.35703026682997052 0 0.1993591623725727 -0.37520907917964019 0 0.22441300526571009 -0.36910932736422991 0 0.21082567245426551 -0.36687214453933031 0 0.21315011822688609 -0.38411565637780781 0 0.22441300526571009 -0.36910932736422991 0 0.21082567245426551 -0.36687214453933031 0 0.218719253828493 -0.35095038914374188 0 0.218719253828493 -0.35095038914374188 0 0.20689999147760879 -0.34678352086145908 0 0.19953787492001701 -0.35703026682997052 0 0.21082567245426551 -0.36687214453933031 0 0.218719253828493 -0.35095038914374188 0 0.19953787492001701 -0.35703026682997052 0 0.218719253828493 -0.35095038914374188 0 0.20689999147760879 -0.34678352086145908 0 0.2147834120552041 -0.3424984901375337 0 0.19953787492001701 -0.35703026682997052 0 0.19477729386757719 -0.34168976821364239 0 0.17964605660139121 -0.35232928807817399 0 0.20689999147760879 -0.34678352086145908 0 0.19953787492001701 -0.35703026682997052 0 0.19477729386757719 -0.34168976821364239 0 0.19953787492001701 -0.35703026682997052 0 0.185603331837705 -0.36883916157184782 0 0.17964605660139121 -0.35232928807817399 0 0.19953787492001701 -0.35703026682997052 0 0.185603331837705 -0.36883916157184782 0 0.1993591623725727 -0.37520907917964019 0 0.21562282788576309 -0.30597447302719649 0 0.20578414410527629 -0.31864634479027831 0 0.21569852153810121 -0.31577331683674092 0 0.22047252291654351 -0.32399552396504522 0 0.20578414410527629 -0.31864634479027831 0 0.21569852153810121 -0.31577331683674092 0 0.22047252291654351 -0.32399552396504522 0 0.20578414410527629 -0.31864634479027831 0 0.20767373667535141 -0.33360267526115228 0 0.22047252291654351 -0.32399552396504522 0 0.21726684025801121 -0.33457432350725652 0 0.20659608293386489 -0.33897799070763618 0 0.22047252291654351 -0.32399552396504522 0 0.20659608293386489 -0.33897799070763618 0 0.20767373667535141 -0.33360267526115228 0 0.22047252291654351 -0.32399552396504522 0 0.20659608293386489 -0.33897799070763618 0 0.21726684025801121 -0.33457432350725652 0 0.2147834120552041 -0.3424984901375337 0 0.20659608293386489 -0.33897799070763618 0 0.20689999147760879 -0.34678352086145908 0 0.2147834120552041 -0.3424984901375337 0 0.20659608293386489 -0.33897799070763618 0 0.20767373667535141 -0.33360267526115228 0 0.19477729386757719 -0.34168976821364239 0 0.17850092914581739 -0.32776164985402229 0 0.20767373667535141 -0.33360267526115228 0 0.17850092914581739 -0.32776164985402229 0 0.20689999147760879 -0.34678352086145908 0 0.20659608293386489 -0.33897799070763618 0 0.19477729386757719 -0.34168976821364239 0 0.20659608293386489 -0.33897799070763618 0 0.20767373667535141 -0.33360267526115228 0 0.19477729386757719 -0.34168976821364239 0 0.20578414410527629 -0.31864634479027831 0 0.20767373667535141 -0.33360267526115228 0 0.17850092914581739 -0.32776164985402229 0 0.1968670036444107 -0.3045471330370404 0 0.20578414410527629 -0.31864634479027831 0 0.17850092914581739 -0.32776164985402229 0 0.19477729386757719 -0.34168976821364239 0 0.17850092914581739 -0.32776164985402229 0 0.17964605660139121 -0.35232928807817399 0 0.17850092914581739 -0.32776164985402229 0 0.1545764378927893 -0.3514906435555793 0 0.14932812161628339 -0.32192062444689251 0 0.17850092914581739 -0.32776164985402229 0 0.14932812161628339 -0.32192062444689251 0 0.17270013503829351 -0.30413574543636018 0 0.17850092914581739 -0.32776164985402229 0 0.14932812161628339 -0.32192062444689251 0 0.185603331837705 -0.36883916157184782 0 0.17964605660139121 -0.35232928807817399 0 0.1682375733759412 -0.36990321562146061 0 0.17850092914581739 -0.32776164985402229 0 0.17964605660139121 -0.35232928807817399 0 0.1545764378927893 -0.3514906435555793 0 0.17964605660139121 -0.35232928807817399 0 0.1682375733759412 -0.36990321562146061 0 0.1545764378927893 -0.3514906435555793 0 0.1682375733759412 -0.36990321562146061 0 0.15175636244818269 -0.36881786182202692 0 0.1545764378927893 -0.3514906435555793 0 0.15175636244818269 -0.36881786182202692 0 0.1545764378927893 -0.3514906435555793 0 0.13892188541801201 -0.36012239322081951 0 0.15175636244818269 -0.36881786182202692 0 0.13892188541801201 -0.36012239322081951 0 0.1367096767934019 -0.3756300242776226 0 0.1545764378927893 -0.3514906435555793 0 0.13344772967583249 -0.34532645188251587 0 0.13892188541801201 -0.36012239322081951 0 0.13344772967583249 -0.34532645188251587 0 0.13892188541801201 -0.36012239322081951 0 0.11828464400484449 -0.36254289147627339 0 0.13892188541801201 -0.36012239322081951 0 0.1367096767934019 -0.3756300242776226 0 0.11828464400484449 -0.36254289147627339 0 0.1367096767934019 -0.3756300242776226 0 0.11828464400484449 -0.36254289147627339 0 0.1367096767934019 -0.3756300242776226 0 0.12035810991354839 -0.37885082781730312 0 0.11828464400484449 -0.36254289147627339 0 0.1545764378927893 -0.3514906435555793 0 0.13344772967583249 -0.34532645188251587 0 0.14932812161628339 -0.32192062444689251 0 0.13344772967583249 -0.34532645188251587 0 0.12529228534370329 -0.3319563826429347 0 0.1163156295256166 -0.34585476354116362 0 0.13344772967583249 -0.34532645188251587 0 0.14932812161628339 -0.32192062444689251 0 0.12529228534370329 -0.3319563826429347 0 0.14932812161628339 -0.32192062444689251 0 0.12015531408674909 -0.31607959903976363 0 0.14932812161628339 -0.32192062444689251 0 0.12529228534370329 -0.3319563826429347 0 0.12015531408674909 -0.31607959903976363 0 0.14932812161628339 -0.32192062444689251 0 0.12767406806623369 -0.30371505395952819 0 0.12015531408674909 -0.31607959903976363 0 0.14932812161628339 -0.32192062444689251 0 0.12767406806623369 -0.30371505395952819 0 0.15022065509901389 -0.29935542814735561 0 0.15022065509901389 -0.29935542814735561 0 0.13713407602299499 -0.28451738080733457 0 0.16258056097842741 -0.28205716075445197 0 0.12767406806623369 -0.30371505395952819 0 0.15022065509901389 -0.29935542814735561 0 0.13713407602299499 -0.28451738080733457 0 0.12767406806623369 -0.30371505395952819 0 0.13713407602299499 -0.28451738080733457 0 0.122187441835479 -0.28894002913049088 0 0.13713407602299499 -0.28451738080733457 0 0.1203662534409477 -0.27044750582404492 0 0.122187441835479 -0.28894002913049088 0 0.13713407602299499 -0.28451738080733457 0 0.14240043297953919 -0.2657393166040265 0 0.1203662534409477 -0.27044750582404492 0 0.12715097049526741 -0.25025199571667128 0 0.14240043297953919 -0.2657393166040265 0 0.1203662534409477 -0.27044750582404492 0 0.12715097049526741 -0.25025199571667128 0 0.14240043297953919 -0.2657393166040265 0 0.14447780115211609 -0.2485233608866099 0 0.14240043297953919 -0.2657393166040265 0 0.16337905089516561 -0.25909533688449332 0 0.14447780115211609 -0.2485233608866099 0 0.14240043297953919 -0.2657393166040265 0 0.16337905089516561 -0.25909533688449332 0 0.16258056097842741 -0.28205716075445197 0 0.13713407602299499 -0.28451738080733457 0 0.14240043297953919 -0.2657393166040265 0 0.16258056097842741 -0.28205716075445197 0 0.16337905089516561 -0.25909533688449332 0 0.18131384528705949 -0.26892950640122848 0 0.16258056097842741 -0.28205716075445197 0 0.18760469472834601 -0.25132031860462889 0 0.16337905089516561 -0.25909533688449332 0 0.18131384528705949 -0.26892950640122848 0 0.1889903724142705 -0.28668890646486572 0 0.18131384528705949 -0.26892950640122848 0 0.16258056097842741 -0.28205716075445197 0 0.1889903724142705 -0.28668890646486572 0 0.17270013503829351 -0.30413574543636018 0 0.16258056097842741 -0.28205716075445197 0 0.1968670036444107 -0.3045471330370404 0 0.17850092914581739 -0.32776164985402229 0 0.17270013503829351 -0.30413574543636018 0 0.1968670036444107 -0.3045471330370404 0 0.1889903724142705 -0.28668890646486572 0 0.17270013503829351 -0.30413574543636018 0 0.14932812161628339 -0.32192062444689251 0 0.15022065509901389 -0.29935542814735561 0 0.17270013503829351 -0.30413574543636018 0 0.15022065509901389 -0.29935542814735561 0 0.17270013503829351 -0.30413574543636018 0 0.16258056097842741 -0.28205716075445197 0 0.19956161594802271 -0.48466318191450902 0 0.1849946911983277 -0.47574520522903452 0 0.18023383653059219 -0.5 0 0.19956161594802271 -0.48466318191450902 0 0.2070787707181804 -0.5 0 0.18023383653059219 -0.5 0 0.20932786454687069 -0.4706508304654683 0 0.1849946911983277 -0.47574520522903452 0 0.19956161594802271 -0.48466318191450902 0 0.20932786454687069 -0.4706508304654683 0 0.1849946911983277 -0.47574520522903452 0 0.20932786454687069 -0.4706508304654683 0 0.1938637153269859 -0.46418158178720309 0 0.1849946911983277 -0.47574520522903452 0 0.19956161594802271 -0.48466318191450902 0 0.20932786454687069 -0.4706508304654683 0 0.20988423700698769 -0.48479385513475021 0 0.20932786454687069 -0.4706508304654683 0 0.20988423700698769 -0.48479385513475021 0 0.22356869681487709 -0.48386140815902318 0 0.20988423700698769 -0.48479385513475021 0 0.2070787707181804 -0.5 0 0.22356869681487709 -0.48386140815902318 0 0.19956161594802271 -0.48466318191450902 0 0.20988423700698769 -0.48479385513475021 0 0.2070787707181804 -0.5 0 0.2339237049057685 -0.5 0 0.24540911354364731 -0.48403018772371592 0 0.22356869681487709 -0.48386140815902318 0 0.2070787707181804 -0.5 0 0.2339237049057685 -0.5 0 0.22356869681487709 -0.48386140815902318 0 0.26076863909335662 -0.5 0 0.2339237049057685 -0.5 0 0.24540911354364731 -0.48403018772371592 0 0.26109675813103977 -0.47098820618447912 0 0.24540911354364731 -0.48403018772371592 0 0.23366103789541379 -0.46555645570190202 0 0.24540911354364731 -0.48403018772371592 0 0.22356869681487709 -0.48386140815902318 0 0.23366103789541379 -0.46555645570190202 0 0.20932786454687069 -0.4706508304654683 0 0.22356869681487709 -0.48386140815902318 0 0.23366103789541379 -0.46555645570190202 0 0.23366103789541379 -0.46555645570190202 0 0.22405666610899999 -0.45148136463642519 0 0.20795558641086531 -0.46046726550361611 0 0.23366103789541379 -0.46555645570190202 0 0.2422184529278846 -0.44859775653869449 0 0.22405666610899999 -0.45148136463642519 0 0.23366103789541379 -0.46555645570190202 0 0.20795558641086531 -0.46046726550361611 0 0.20932786454687069 -0.4706508304654683 0 0.23366103789541379 -0.46555645570190202 0 0.26109675813103977 -0.47098820618447912 0 0.23366103789541379 -0.46555645570190202 0 0.25392320036528199 -0.46131438469606861 0 0.26109675813103977 -0.47098820618447912 0 0.23366103789541379 -0.46555645570190202 0 0.25392320036528199 -0.46131438469606861 0 0.23366103789541379 -0.46555645570190202 0 0.2422184529278846 -0.44859775653869449 0 0.25392320036528199 -0.46131438469606861 0 0.23366103789541379 -0.46555645570190202 0 0.2422184529278846 -0.44859775653869449 0 0.22532507419489159 -0.43567443062968791 0 0.24343545727900509 -0.43041085472781121 0 0.25654682225186859 -0.4370929087839881 0 0.2422184529278846 -0.44859775653869449 0 0.24343545727900509 -0.43041085472781121 0 0.2422184529278846 -0.44859775653869449 0 0.22405666610899999 -0.45148136463642519 0 0.22532507419489159 -0.43567443062968791 0 0.22405666610899999 -0.45148136463642519 0 0.21163730145910861 -0.4430813305760879 0 0.22532507419489159 -0.43567443062968791 0 0.21163730145910861 -0.4430813305760879 0 0.20795558641086531 -0.46046726550361611 0 0.1969974594168778 -0.44446318587748018 0 0.22405666610899999 -0.45148136463642519 0 0.21163730145910861 -0.4430813305760879 0 0.20795558641086531 -0.46046726550361611 0 0.20932786454687069 -0.4706508304654683 0 0.23366103789541379 -0.46555645570190202 0 0.20795558641086531 -0.46046726550361611 0 0.20932786454687069 -0.4706508304654683 0 0.20795558641086531 -0.46046726550361611 0 0.1938637153269859 -0.46418158178720309 0 0.20795558641086531 -0.46046726550361611 0 0.1969974594168778 -0.44446318587748018 0 0.1822501349263167 -0.45537807530533031 0 0.20795558641086531 -0.46046726550361611 0 0.1938637153269859 -0.46418158178720309 0 0.1822501349263167 -0.45537807530533031 0 0.20795558641086531 -0.46046726550361611 0 0.1822501349263167 -0.45537807530533031 0 0.1969974594168778 -0.44446318587748018 0 0.2038517211639081 -0.42332040623322997 0 0.18023287549183531 -0.43472171046438868 0 0.2038517211639081 -0.42332040623322997 0 0.1794932153729337 -0.40601878165610078 0 0.2038517211639081 -0.42332040623322997 0 0.19985418367803329 -0.40049537485710651 0 0.1794932153729337 -0.40601878165610078 0 0.2038517211639081 -0.42332040623322997 0 0.1794932153729337 -0.40601878165610078 0 0.18023287549183531 -0.43472171046438868 0 0.2038517211639081 -0.42332040623322997 0 0.2188756524361313 -0.41001295401003363 0 0.19985418367803329 -0.40049537485710651 0 0.2038517211639081 -0.42332040623322997 0 0.22532507419489159 -0.43567443062968791 0 0.2188756524361313 -0.41001295401003363 0 0.21163730145910861 -0.4430813305760879 0 0.1969974594168778 -0.44446318587748018 0 0.2038517211639081 -0.42332040623322997 0 0.21163730145910861 -0.4430813305760879 0 0.2038517211639081 -0.42332040623322997 0 0.22532507419489159 -0.43567443062968791 0 0.22532507419489159 -0.43567443062968791 0 0.24343545727900509 -0.43041085472781121 0 0.23590857945887089 -0.41813887786024567 0 0.25717835756151008 -0.41255029982643993 0 0.24343545727900509 -0.43041085472781121 0 0.23590857945887089 -0.41813887786024567 0 0.25717835756151008 -0.41255029982643993 0 0.23590857945887089 -0.41813887786024567 0 0.2351642378941981 -0.39833297810212381 0 0.23590857945887089 -0.41813887786024567 0 0.2188756524361313 -0.41001295401003363 0 0.2351642378941981 -0.39833297810212381 0 0.22532507419489159 -0.43567443062968791 0 0.23590857945887089 -0.41813887786024567 0 0.2188756524361313 -0.41001295401003363 0 0.2351642378941981 -0.39833297810212381 0 0.21315011822688609 -0.38411565637780781 0 0.2188756524361313 -0.41001295401003363 0 0.2351642378941981 -0.39833297810212381 0 0.21315011822688609 -0.38411565637780781 0 0.25255985205164672 -0.39365850979115169 0 0.25717835756151008 -0.41255029982643993 0 0.2351642378941981 -0.39833297810212381 0 0.25255985205164672 -0.39365850979115169 0 0.2351642378941981 -0.39833297810212381 0 0.23875758506715919 -0.38208459636508668 0 0.25717835756151008 -0.41255029982643993 0 0.2351642378941981 -0.39833297810212381 0 0.26436505190743242 -0.38005353635236561 0 0.24280745432513781 -0.36392366986232538 0 0.23875758506715919 -0.38208459636508668 0 0.2351642378941981 -0.39833297810212381 0 0.23875758506715919 -0.38208459636508668 0 0.21315011822688609 -0.38411565637780781 0 0.23875758506715919 -0.38208459636508668 0 0.21315011822688609 -0.38411565637780781 0 0.22441300526571009 -0.36910932736422991 0 0.23875758506715919 -0.38208459636508668 0 0.21315011822688609 -0.38411565637780781 0 0.21082567245426551 -0.36687214453933031 0 0.21315011822688609 -0.38411565637780781 0 0.1993591623725727 -0.37520907917964019 0 0.21315011822688609 -0.38411565637780781 0 0.1993591623725727 -0.37520907917964019 0 0.2188756524361313 -0.41001295401003363 0 0.21315011822688609 -0.38411565637780781 0 0.19985418367803329 -0.40049537485710651 0 0.19985418367803329 -0.40049537485710651 0 0.18414241390442329 -0.38641640672838651 0 0.1794932153729337 -0.40601878165610078 0 0.21315011822688609 -0.38411565637780781 0 0.1993591623725727 -0.37520907917964019 0 0.18414241390442329 -0.38641640672838651 0 0.185603331837705 -0.36883916157184782 0 0.1993591623725727 -0.37520907917964019 0 0.18414241390442329 -0.38641640672838651 0 0.21315011822688609 -0.38411565637780781 0 0.19985418367803329 -0.40049537485710651 0 0.18414241390442329 -0.38641640672838651 0 0.21315011822688609 -0.38411565637780781 0 0.18414241390442329 -0.38641640672838651 0 0.185603331837705 -0.36883916157184782 0 0.1682375733759412 -0.36990321562146061 0 0.18414241390442329 -0.38641640672838651 0 0.18414241390442329 -0.38641640672838651 0 0.1794932153729337 -0.40601878165610078 0 0.15513470958196099 -0.38871715707896909 0 0.1794932153729337 -0.40601878165610078 0 0.15513470958196099 -0.38871715707896909 0 0.1619426849762538 -0.40742564082937599 0 0.1794932153729337 -0.40601878165610078 0 0.15513470958196099 -0.38871715707896909 0 0.18414241390442329 -0.38641640672838651 0 0.15513470958196099 -0.38871715707896909 0 0.1682375733759412 -0.36990321562146061 0 0.18414241390442329 -0.38641640672838651 0 0.15513470958196099 -0.38871715707896909 0 0.1682375733759412 -0.36990321562146061 0 0.15175636244818269 -0.36881786182202692 0 0.15513470958196099 -0.38871715707896909 0 0.15175636244818269 -0.36881786182202692 0 0.15513470958196099 -0.38871715707896909 0 0.1367096767934019 -0.3756300242776226 0 0.15513470958196099 -0.38871715707896909 0 0.1323140157581065 -0.39052718377849349 0 0.15513470958196099 -0.38871715707896909 0 0.1367096767934019 -0.3756300242776226 0 0.15513470958196099 -0.38871715707896909 0 0.1367096767934019 -0.3756300242776226 0 0.1323140157581065 -0.39052718377849349 0 0.1367096767934019 -0.3756300242776226 0 0.1323140157581065 -0.39052718377849349 0 0.12035810991354839 -0.37885082781730312 0 0.1323140157581065 -0.39052718377849349 0 0.1498598962621589 -0.40926783294955532 0 0.132670798467799 -0.40823006516561638 0 0.1323140157581065 -0.39052718377849349 0 0.132670798467799 -0.40823006516561638 0 0.12004785854808959 -0.4020635652949367 0 0.15513470958196099 -0.38871715707896909 0 0.1323140157581065 -0.39052718377849349 0 0.1498598962621589 -0.40926783294955532 0 0.15513470958196099 -0.38871715707896909 0 0.1498598962621589 -0.40926783294955532 0 0.1619426849762538 -0.40742564082937599 0 0.1498598962621589 -0.40926783294955532 0 0.13780713361783181 -0.42672878501226791 0 0.1632829186879621 -0.42569879163288299 0 0.13780713361783181 -0.42672878501226791 0 0.12076229844868711 -0.41586826906736241 0 0.132670798467799 -0.40823006516561638 0 0.13780713361783181 -0.42672878501226791 0 0.12076229844868711 -0.41586826906736241 0 0.1498598962621589 -0.40926783294955532 0 0.132670798467799 -0.40823006516561638 0 0.13780713361783181 -0.42672878501226791 0 0.13780713361783181 -0.42672878501226791 0 0.1174110518902278 -0.43279974005082228 0 0.12076229844868711 -0.41586826906736241 0 0.13780713361783181 -0.42672878501226791 0 0.13083923195721961 -0.44519969490875849 0 0.1174110518902278 -0.43279974005082228 0 0.13780713361783181 -0.42672878501226791 0 0.1632829186879621 -0.42569879163288299 0 0.15654468344176811 -0.4502888851070444 0 0.1632829186879621 -0.42569879163288299 0 0.18023287549183531 -0.43472171046438868 0 0.15654468344176811 -0.4502888851070444 0 0.1794932153729337 -0.40601878165610078 0 0.1632829186879621 -0.42569879163288299 0 0.1619426849762538 -0.40742564082937599 0 0.1498598962621589 -0.40926783294955532 0 0.1632829186879621 -0.42569879163288299 0 0.1619426849762538 -0.40742564082937599 0 0.1794932153729337 -0.40601878165610078 0 0.1632829186879621 -0.42569879163288299 0 0.18023287549183531 -0.43472171046438868 0 0.18023287549183531 -0.43472171046438868 0 0.1822501349263167 -0.45537807530533031 0 0.15654468344176811 -0.4502888851070444 0 0.1969974594168778 -0.44446318587748018 0 0.18023287549183531 -0.43472171046438868 0 0.1822501349263167 -0.45537807530533031 0 0.1822501349263167 -0.45537807530533031 0 0.1686996258897582 -0.46621782565479303 0 0.1849946911983277 -0.47574520522903452 0 0.1938637153269859 -0.46418158178720309 0 0.1822501349263167 -0.45537807530533031 0 0.1849946911983277 -0.47574520522903452 0 0.1686996258897582 -0.46621782565479303 0 0.15654468344176811 -0.4502888851070444 0 0.15232865144568411 -0.46950270120345011 0 0.1822501349263167 -0.45537807530533031 0 0.1686996258897582 -0.46621782565479303 0 0.15654468344176811 -0.4502888851070444 0 0.1822501349263167 -0.45537807530533031 0 0.15654468344176811 -0.4502888851070444 0 0.13780713361783181 -0.42672878501226791 0 0.15654468344176811 -0.4502888851070444 0 0.13083923195721961 -0.44519969490875849 0 0.15654468344176811 -0.4502888851070444 0 0.13083923195721961 -0.44519969490875849 0 0.13083923195721961 -0.44519969490875849 0 0.13940908554586831 -0.46423326050664537 0 0.12324497591638379 -0.46077912420149891 0 0.13940908554586831 -0.46423326050664537 0 0.12468842185637979 -0.47378226501001958 0 0.12324497591638379 -0.46077912420149891 0 0.15654468344176811 -0.4502888851070444 0 0.13083923195721961 -0.44519969490875849 0 0.13940908554586831 -0.46423326050664537 0 0.15654468344176811 -0.4502888851070444 0 0.13940908554586831 -0.46423326050664537 0 0.15232865144568411 -0.46950270120345011 0 0.1363283445012414 -0.48593395475616691 0 0.1606615178497845 -0.48083957999260069 0 0.15232865144568411 -0.46950270120345011 0 0.1363283445012414 -0.48593395475616691 0 0.1606615178497845 -0.48083957999260069 0 0.13940908554586831 -0.46423326050664537 0 0.15232865144568411 -0.46950270120345011 0 0.1363283445012414 -0.48593395475616691 0 0.13940908554586831 -0.46423326050664537 0 0.1363283445012414 -0.48593395475616691 0 0.12468842185637979 -0.47378226501001958 0 0.1363283445012414 -0.48593395475616691 0 0.1190475202416683 -0.48434941104852081 0 0.12468842185637979 -0.47378226501001958 0 0.12654396815541599 -0.5 0 0.1363283445012414 -0.48593395475616691 0 0.1190475202416683 -0.48434941104852081 0 0.12654396815541599 -0.5 0 0.1363283445012414 -0.48593395475616691 0 0.1533889023430042 -0.5 0 0.1363283445012414 -0.48593395475616691 0 0.1533889023430042 -0.5 0 0.1606615178497845 -0.48083957999260069 0 0.1533889023430042 -0.5 0 0.1606615178497845 -0.48083957999260069 0 0.18023383653059219 -0.5 0 0.1686996258897582 -0.46621782565479303 0 0.1606615178497845 -0.48083957999260069 0 0.1849946911983277 -0.47574520522903452 0 0.1686996258897582 -0.46621782565479303 0 0.15232865144568411 -0.46950270120345011 0 0.1606615178497845 -0.48083957999260069 0 0.1606615178497845 -0.48083957999260069 0 0.1849946911983277 -0.47574520522903452 0 0.1606615178497845 -0.48083957999260069 0 0.1849946911983277 -0.47574520522903452 0 0.18023383653059219 -0.5 0 0.070269383387150608 -0.5 0 0.069215909405554249 -0.47372861778646708 0 0.086294400718132144 -0.48328666815208121 0 0.069215909405554249 -0.47372861778646708 0 0.086294400718132144 -0.48328666815208121 0 0.086852738242349597 -0.45578604604321238 0 0.086294400718132144 -0.48328666815208121 0 0.10541218307673721 -0.47361557453726583 0 0.086852738242349597 -0.45578604604321238 0 0.070269383387150608 -0.5 0 0.086294400718132144 -0.48328666815208121 0 0.09969903396782788 -0.50000000000000167 0 0.09969903396782788 -0.50000000000000167 0 0.10541218307673721 -0.47361557453726583 0 0.09969903396782788 -0.50000000000000167 0 0.1190475202416683 -0.48434941104852081 0 0.10541218307673721 -0.47361557453726583 0 0.086294400718132144 -0.48328666815208121 0 0.09969903396782788 -0.50000000000000167 0 0.10541218307673721 -0.47361557453726583 0 0.12654396815541599 -0.5 0 0.09969903396782788 -0.50000000000000167 0 0.1190475202416683 -0.48434941104852081 0 0.1190475202416683 -0.48434941104852081 0 0.12468842185637979 -0.47378226501001958 0 0.10541218307673721 -0.47361557453726583 0 0.12468842185637979 -0.47378226501001958 0 0.10541218307673721 -0.47361557453726583 0 0.12324497591638379 -0.46077912420149891 0 0.10541218307673721 -0.47361557453726583 0 0.1111253321856461 -0.44723114907452971 0 0.10541218307673721 -0.47361557453726583 0 0.1111253321856461 -0.44723114907452971 0 0.086852738242349597 -0.45578604604321238 0 0.10541218307673721 -0.47361557453726583 0 0.12324497591638379 -0.46077912420149891 0 0.1111253321856461 -0.44723114907452971 0 0.13083923195721961 -0.44519969490875849 0 0.1111253321856461 -0.44723114907452971 0 0.1174110518902278 -0.43279974005082228 0 0.13083923195721961 -0.44519969490875849 0 0.12324497591638379 -0.46077912420149891 0 0.1111253321856461 -0.44723114907452971 0 0.1111253321856461 -0.44723114907452971 0 0.097235768374503234 -0.43944558453822391 0 0.086852738242349597 -0.45578604604321238 0 0.1111253321856461 -0.44723114907452971 0 0.097235768374503234 -0.43944558453822391 0 0.1174110518902278 -0.43279974005082228 0 0.097235768374503234 -0.43944558453822391 0 0.086852738242349597 -0.45578604604321238 0 0.080445425996787487 -0.43057194758935308 0 0.069215909405554249 -0.47372861778646708 0 0.086852738242349597 -0.45578604604321238 0 0.058886024699559947 -0.44910725424687681 0 0.086852738242349597 -0.45578604604321238 0 0.080445425996787487 -0.43057194758935308 0 0.058886024699559947 -0.44910725424687681 0 0.080445425996787487 -0.43057194758935308 0 0.058514245435926378 -0.42216467739769942 0 0.058886024699559947 -0.44910725424687681 0 0.073086239396452576 -0.41082941610640838 0 0.063239238724634023 -0.39600585991602011 0 0.058514245435926378 -0.42216467739769942 0 0.073086239396452576 -0.41082941610640838 0 0.080445425996787487 -0.43057194758935308 0 0.058514245435926378 -0.42216467739769942 0 0.087657630686623689 -0.41238756549741362 0 0.080445425996787487 -0.43057194758935308 0 0.1014757996597377 -0.42263881618245291 0 0.073086239396452576 -0.41082941610640838 0 0.087657630686623689 -0.41238756549741362 0 0.080445425996787487 -0.43057194758935308 0 0.097235768374503234 -0.43944558453822391 0 0.080445425996787487 -0.43057194758935308 0 0.1014757996597377 -0.42263881618245291 0 0.097235768374503234 -0.43944558453822391 0 0.1014757996597377 -0.42263881618245291 0 0.1174110518902278 -0.43279974005082228 0 0.1014757996597377 -0.42263881618245291 0 0.1174110518902278 -0.43279974005082228 0 0.12076229844868711 -0.41586826906736241 0 0.12076229844868711 -0.41586826906736241 0 0.1037174632795425 -0.40500775312245668 0 0.12004785854808959 -0.4020635652949367 0 0.12076229844868711 -0.41586826906736241 0 0.1037174632795425 -0.40500775312245668 0 0.132670798467799 -0.40823006516561638 0 0.12076229844868711 -0.41586826906736241 0 0.12004785854808959 -0.4020635652949367 0 0.1014757996597377 -0.42263881618245291 0 0.12076229844868711 -0.41586826906736241 0 0.1037174632795425 -0.40500775312245668 0 0.087657630686623689 -0.41238756549741362 0 0.1014757996597377 -0.42263881618245291 0 0.1037174632795425 -0.40500775312245668 0 0.10949332193425231 -0.39233721047802178 0 0.086672628110398053 -0.39414723717755068 0 0.1037174632795425 -0.40500775312245668 0 0.10949332193425231 -0.39233721047802178 0 0.086672628110398053 -0.39414723717755068 0 0.1037174632795425 -0.40500775312245668 0 0.086672628110398053 -0.39414723717755068 0 0.1323140157581065 -0.39052718377849349 0 0.10949332193425231 -0.39233721047802178 0 0.12004785854808959 -0.4020635652949367 0 0.1037174632795425 -0.40500775312245668 0 0.10949332193425231 -0.39233721047802178 0 0.12004785854808959 -0.4020635652949367 0 0.1323140157581065 -0.39052718377849349 0 0.10949332193425231 -0.39233721047802178 0 0.10949332193425231 -0.39233721047802178 0 0.12035810991354839 -0.37885082781730312 0 0.10461703727178 -0.37270472651888081 0 0.1323140157581065 -0.39052718377849349 0 0.10949332193425231 -0.39233721047802178 0 0.12035810991354839 -0.37885082781730312 0 0.10949332193425231 -0.39233721047802178 0 0.094178716202861112 -0.38236979319802228 0 0.086672628110398053 -0.39414723717755068 0 0.094178716202861112 -0.38236979319802228 0 0.10461703727178 -0.37270472651888081 0 0.08720189005846754 -0.37027130394962232 0 0.10949332193425231 -0.39233721047802178 0 0.094178716202861112 -0.38236979319802228 0 0.10461703727178 -0.37270472651888081 0 0.094178716202861112 -0.38236979319802228 0 0.072750400515958435 -0.38527636378525648 0 0.08720189005846754 -0.37027130394962232 0 0.094178716202861112 -0.38236979319802228 0 0.086672628110398053 -0.39414723717755068 0 0.072750400515958435 -0.38527636378525648 0 0.086672628110398053 -0.39414723717755068 0 0.072750400515958435 -0.38527636378525648 0 0.073086239396452576 -0.41082941610640838 0 0.087657630686623689 -0.41238756549741362 0 0.086672628110398053 -0.39414723717755068 0 0.087657630686623689 -0.41238756549741362 0 0.1037174632795425 -0.40500775312245668 0 0.086672628110398053 -0.39414723717755068 0 0.073086239396452576 -0.41082941610640838 0 0.086672628110398053 -0.39414723717755068 0 0.063239238724634023 -0.39600585991602011 0 0.086672628110398053 -0.39414723717755068 0 0.063239238724634023 -0.39600585991602011 0 0.072750400515958435 -0.38527636378525648 0 0.086672628110398053 -0.39414723717755068 0 0.063239238724634023 -0.39600585991602011 0 0.072750400515958435 -0.38527636378525648 0 0.08720189005846754 -0.37027130394962232 0 0.066425318880545481 -0.37289839887648663 0 0.063239238724634023 -0.39600585991602011 0 0.072750400515958435 -0.38527636378525648 0 0.05892751914180288 -0.38547530011893061 0 0.072750400515958435 -0.38527636378525648 0 0.05892751914180288 -0.38547530011893061 0 0.066425318880545481 -0.37289839887648663 0 0.052416788249006502 -0.3753313953623999 0 0.05892751914180288 -0.38547530011893061 0 0.039805849338869957 -0.39786448265449009 0 0.052416788249006502 -0.3753313953623999 0 0.05892751914180288 -0.38547530011893061 0 0.066425318880545481 -0.37289839887648663 0 0.063239238724634023 -0.39600585991602011 0 0.05892751914180288 -0.38547530011893061 0 0.039805849338869957 -0.39786448265449009 0 0.063239238724634023 -0.39600585991602011 0 0.039805849338869957 -0.39786448265449009 0 0.04202677187953003 -0.41589525553884671 0 0.063239238724634023 -0.39600585991602011 0 0.039805849338869957 -0.39786448265449009 0 0.039805849338869957 -0.39786448265449009 0 0.01637245995310602 -0.39972310539296008 0 0.04202677187953003 -0.41589525553884671 0 0.052416788249006502 -0.3753313953623999 0 0.039805849338869957 -0.39786448265449009 0 0.034545544614948687 -0.37967671056155972 0 0.034545544614948687 -0.37967671056155972 0 0.01637245995310602 -0.39972310539296008 0 0.01745217641611688 -0.37209838925059768 0 0.0049150407501951932 -0.38480258120011468 0 0.01637245995310602 -0.39972310539296008 0 0.01745217641611688 -0.37209838925059768 0 -0.0070609294326578606 -0.40158172813143111 0 0.0049150407501951932 -0.38480258120011468 0 0.01637245995310602 -0.39972310539296008 0 -0.0070609294326578606 -0.40158172813143111 0 0.01637245995310602 -0.39972310539296008 0 0.039805849338869957 -0.39786448265449009 0 0.01637245995310602 -0.39972310539296008 0 0.039805849338869957 -0.39786448265449009 0 0.034545544614948687 -0.37967671056155972 0 0.01637245995310602 -0.39972310539296008 0 0.01637245995310602 -0.39972310539296008 0 0.01632746842096754 -0.42060458219612629 0 0.04202677187953003 -0.41589525553884671 0 -0.0070609294326578606 -0.40158172813143111 0 -0.0029380016472179641 -0.43130039857967489 0 0.01632746842096754 -0.42060458219612629 0 -0.0070609294326578606 -0.40158172813143111 0 0.01637245995310602 -0.39972310539296008 0 0.01632746842096754 -0.42060458219612629 0 -0.0029380016472179641 -0.43130039857967489 0 0.01632746842096754 -0.42060458219612629 0 0.017169733351925471 -0.44411315888832548 0 0.01632746842096754 -0.42060458219612629 0 0.032394776421119653 -0.43101384664552023 0 0.017169733351925471 -0.44411315888832548 0 0.01632746842096754 -0.42060458219612629 0 0.032394776421119653 -0.43101384664552023 0 0.04202677187953003 -0.41589525553884671 0 0.032394776421119653 -0.43101384664552023 0 0.04202677187953003 -0.41589525553884671 0 0.058514245435926378 -0.42216467739769942 0 0.063239238724634023 -0.39600585991602011 0 0.04202677187953003 -0.41589525553884671 0 0.058514245435926378 -0.42216467739769942 0 0.032394776421119653 -0.43101384664552023 0 0.058514245435926378 -0.42216467739769942 0 0.058886024699559947 -0.44910725424687681 0 0.069215909405554249 -0.47372861778646708 0 0.058886024699559947 -0.44910725424687681 0 0.04618029315495735 -0.475088836902683 0 0.058886024699559947 -0.44910725424687681 0 0.036372341208565528 -0.45136922422795789 0 0.04618029315495735 -0.475088836902683 0 0.036372341208565528 -0.45136922422795789 0 0.025822117280835371 -0.4671357517575695 0 0.04618029315495735 -0.475088836902683 0 0.032394776421119653 -0.43101384664552023 0 0.058886024699559947 -0.44910725424687681 0 0.036372341208565528 -0.45136922422795789 0 0.032394776421119653 -0.43101384664552023 0 0.036372341208565528 -0.45136922422795789 0 0.017169733351925471 -0.44411315888832548 0 -0.0029380016472179641 -0.43130039857967489 0 0.017169733351925471 -0.44411315888832548 0 0.001184926138221995 -0.46101906902791878 0 0.017169733351925471 -0.44411315888832548 0 0.001184926138221995 -0.46101906902791878 0 0.025822117280835371 -0.4671357517575695 0 0.036372341208565528 -0.45136922422795789 0 0.017169733351925471 -0.44411315888832548 0 0.025822117280835371 -0.4671357517575695 0 0.001184926138221995 -0.46101906902791878 0 0.025822117280835371 -0.4671357517575695 0 0.021856543296562239 -0.48428101029990961 0 0.001184926138221995 -0.46101906902791878 0 0.0053078539236619754 -0.49073773947616273 0 0.001184926138221995 -0.46101906902791878 0 0.021856543296562239 -0.48428101029990961 0 0.0053078539236619754 -0.49073773947616273 0 0.021856543296562239 -0.48428101029990961 0 0.011410082225796651 -0.5 0 0.0053078539236619754 -0.49073773947616273 0 0.021856543296562239 -0.48428101029990961 0 0.011410082225796651 -0.5 0 0.040839732806473572 -0.5 0 0.021856543296562239 -0.48428101029990961 0 0.040839732806473572 -0.5 0 0.04618029315495735 -0.475088836902683 0 0.025822117280835371 -0.4671357517575695 0 0.021856543296562239 -0.48428101029990961 0 0.04618029315495735 -0.475088836902683 0 0.070269383387150608 -0.5 0 0.069215909405554249 -0.47372861778646708 0 0.04618029315495735 -0.475088836902683 0 0.070269383387150608 -0.5 0 0.040839732806473572 -0.5 0 0.04618029315495735 -0.475088836902683 0 0.088584670330526694 -0.28367145107257302 0 0.077018628527257216 -0.2941928896433792 0 0.068779595756468928 -0.28008141037859169 0 0.088584670330526694 -0.28367145107257302 0 0.093068233800368716 -0.31065618122172972 0 0.077018628527257216 -0.2941928896433792 0 0.093068233800368716 -0.31065618122172972 0 0.0659811535139882 -0.30523276340369693 0 0.093068233800368716 -0.31065618122172972 0 0.0659811535139882 -0.30523276340369693 0 0.077018628527257216 -0.2941928896433792 0 0.077018628527257216 -0.2941928896433792 0 0.068779595756468928 -0.28008141037859169 0 0.058388320045681022 -0.29029095673858651 0 0.0659811535139882 -0.30523276340369693 0 0.077018628527257216 -0.2941928896433792 0 0.058388320045681022 -0.29029095673858651 0 0.068779595756468928 -0.28008141037859169 0 0.083902609981737292 -0.25918961789763528 0 0.061228653572286497 -0.26211160620131352 0 0.083902609981737292 -0.25918961789763528 0 0.061228653572286497 -0.26211160620131352 0 0.068346797549107247 -0.24074457932025989 0 0.088584670330526694 -0.28367145107257302 0 0.083902609981737292 -0.25918961789763528 0 0.1013268267164419 -0.27031554369378691 0 0.088584670330526694 -0.28367145107257302 0 0.068779595756468928 -0.28008141037859169 0 0.083902609981737292 -0.25918961789763528 0 0.088584670330526694 -0.28367145107257302 0 0.1013268267164419 -0.27031554369378691 0 0.10668780504511099 -0.28752045060751419 0 0.083902609981737292 -0.25918961789763528 0 0.1013268267164419 -0.27031554369378691 0 0.1089154323282025 -0.2455405776010087 0 0.12715097049526741 -0.25025199571667128 0 0.1203662534409477 -0.27044750582404492 0 0.1089154323282025 -0.2455405776010087 0 0.1013268267164419 -0.27031554369378691 0 0.1203662534409477 -0.27044750582404492 0 0.1089154323282025 -0.2455405776010087 0 0.1013268267164419 -0.27031554369378691 0 0.1203662534409477 -0.27044750582404492 0 0.10668780504511099 -0.28752045060751419 0 0.1203662534409477 -0.27044750582404492 0 0.122187441835479 -0.28894002913049088 0 0.10668780504511099 -0.28752045060751419 0 0.122187441835479 -0.28894002913049088 0 0.10668780504511099 -0.28752045060751419 0 0.1139545725667883 -0.30138226279180541 0 0.088584670330526694 -0.28367145107257302 0 0.093068233800368716 -0.31065618122172972 0 0.10668780504511099 -0.28752045060751419 0 0.093068233800368716 -0.31065618122172972 0 0.1139545725667883 -0.30138226279180541 0 0.12015531408674909 -0.31607959903976363 0 0.093068233800368716 -0.31065618122172972 0 0.10668780504511099 -0.28752045060751419 0 0.1139545725667883 -0.30138226279180541 0 0.12767406806623369 -0.30371505395952819 0 0.122187441835479 -0.28894002913049088 0 0.1139545725667883 -0.30138226279180541 0 0.12767406806623369 -0.30371505395952819 0 0.12015531408674909 -0.31607959903976363 0 0.12767406806623369 -0.30371505395952819 0 0.1139545725667883 -0.30138226279180541 0 0.12015531408674909 -0.31607959903976363 0 0.12015531408674909 -0.31607959903976363 0 0.1100074626515284 -0.33276767885734942 0 0.1100074626515284 -0.33276767885734942 0 0.09985961121628803 -0.34945575867492318 0 0.0758231148229567 -0.33238285443705368 0 0.12529228534370329 -0.3319563826429347 0 0.12015531408674909 -0.31607959903976363 0 0.1100074626515284 -0.33276767885734942 0 0.12529228534370329 -0.3319563826429347 0 0.1100074626515284 -0.33276767885734942 0 0.1163156295256166 -0.34585476354116362 0 0.1100074626515284 -0.33276767885734942 0 0.1163156295256166 -0.34585476354116362 0 0.09985961121628803 -0.34945575867492318 0 0.1100074626515284 -0.33276767885734942 0 0.09985961121628803 -0.34945575867492318 0 0.093068233800368716 -0.31065618122172972 0 0.12015531408674909 -0.31607959903976363 0 0.093068233800368716 -0.31065618122172972 0 0.12015531408674909 -0.31607959903976363 0 0.1100074626515284 -0.33276767885734942 0 0.12035810991354839 -0.37885082781730312 0 0.11828464400484449 -0.36254289147627339 0 0.10461703727178 -0.37270472651888081 0 0.13344772967583249 -0.34532645188251587 0 0.11828464400484449 -0.36254289147627339 0 0.1163156295256166 -0.34585476354116362 0 0.11828464400484449 -0.36254289147627339 0 0.1163156295256166 -0.34585476354116362 0 0.09985961121628803 -0.34945575867492318 0 0.11828464400484449 -0.36254289147627339 0 0.09985961121628803 -0.34945575867492318 0 0.11828464400484449 -0.36254289147627339 0 0.09985961121628803 -0.34945575867492318 0 0.10461703727178 -0.37270472651888081 0 0.09985961121628803 -0.34945575867492318 0 0.10461703727178 -0.37270472651888081 0 0.08720189005846754 -0.37027130394962232 0 0.09985961121628803 -0.34945575867492318 0 0.08720189005846754 -0.37027130394962232 0 0.08720189005846754 -0.37027130394962232 0 0.082346432883311463 -0.35242068248493058 0 0.066501115435534386 -0.3575728128781222 0 0.09985961121628803 -0.34945575867492318 0 0.08720189005846754 -0.37027130394962232 0 0.082346432883311463 -0.35242068248493058 0 0.09985961121628803 -0.34945575867492318 0 0.082346432883311463 -0.35242068248493058 0 0.0758231148229567 -0.33238285443705368 0 0.082346432883311463 -0.35242068248493058 0 0.066501115435534386 -0.3575728128781222 0 0.0758231148229567 -0.33238285443705368 0 0.08720189005846754 -0.37027130394962232 0 0.066501115435534386 -0.3575728128781222 0 0.066425318880545481 -0.37289839887648663 0 0.093068233800368716 -0.31065618122172972 0 0.1100074626515284 -0.33276767885734942 0 0.0758231148229567 -0.33238285443705368 0 0.093068233800368716 -0.31065618122172972 0 0.0659811535139882 -0.30523276340369693 0 0.0758231148229567 -0.33238285443705368 0 0.09985961121628803 -0.34945575867492318 0 0.0758231148229567 -0.33238285443705368 0 0.066501115435534386 -0.3575728128781222 0 0.0758231148229567 -0.33238285443705368 0 0.055339858093940021 -0.34100507605481789 0 0.0659811535139882 -0.30523276340369693 0 0.0758231148229567 -0.33238285443705368 0 0.051786618429626313 -0.31530995019918329 0 0.0758231148229567 -0.33238285443705368 0 0.051786618429626313 -0.31530995019918329 0 0.051786618429626313 -0.31530995019918329 0 0.055339858093940021 -0.34100507605481789 0 0.035066930424763477 -0.33623076350330688 0 0.0758231148229567 -0.33238285443705368 0 0.051786618429626313 -0.31530995019918329 0 0.055339858093940021 -0.34100507605481789 0 0.051786618429626313 -0.31530995019918329 0 0.035066930424763477 -0.33623076350330688 0 0.025429745942634321 -0.31899352619560079 0 0.052416788249006502 -0.3753313953623999 0 0.066501115435534386 -0.3575728128781222 0 0.045045698034604183 -0.35750562442167649 0 0.052416788249006502 -0.3753313953623999 0 0.066501115435534386 -0.3575728128781222 0 0.066425318880545481 -0.37289839887648663 0 0.066501115435534386 -0.3575728128781222 0 0.055339858093940021 -0.34100507605481789 0 0.045045698034604183 -0.35750562442167649 0 0.055339858093940021 -0.34100507605481789 0 0.035066930424763477 -0.33623076350330688 0 0.045045698034604183 -0.35750562442167649 0 0.035066930424763477 -0.33623076350330688 0 0.045045698034604183 -0.35750562442167649 0 0.02461673446536811 -0.35521341674668111 0 0.034545544614948687 -0.37967671056155972 0 0.045045698034604183 -0.35750562442167649 0 0.02461673446536811 -0.35521341674668111 0 0.052416788249006502 -0.3753313953623999 0 0.034545544614948687 -0.37967671056155972 0 0.045045698034604183 -0.35750562442167649 0 0.034545544614948687 -0.37967671056155972 0 0.01745217641611688 -0.37209838925059768 0 0.02461673446536811 -0.35521341674668111 0 0.035066930424763477 -0.33623076350330688 0 0.02461673446536811 -0.35521341674668111 0 0.0095419102660688482 -0.34083567507412921 0 0.02461673446536811 -0.35521341674668111 0 0.00380338002415618 -0.36127742782091637 0 0.0095419102660688482 -0.34083567507412921 0 0.01745217641611688 -0.37209838925059768 0 0.02461673446536811 -0.35521341674668111 0 0.00380338002415618 -0.36127742782091637 0 0.0049150407501951932 -0.38480258120011468 0 0.01745217641611688 -0.37209838925059768 0 0.00380338002415618 -0.36127742782091637 0 0.035066930424763477 -0.33623076350330688 0 0.025429745942634321 -0.31899352619560079 0 0.0095419102660688482 -0.34083567507412921 0 0.0095419102660688482 -0.34083567507412921 0 0.005605722296558386 -0.31534008027964172 0 0.025429745942634321 -0.31899352619560079 0 0.0095419102660688482 -0.34083567507412921 0 0.005605722296558386 -0.31534008027964172 0 -0.0082311400995859537 -0.30972198543705609 0 0.005605722296558386 -0.31534008027964172 0 0.0027591516204802402 -0.29690218730465873 0 0.005605722296558386 -0.31534008027964172 0 0.0027591516204802402 -0.29690218730465873 0 0.005605722296558386 -0.31534008027964172 0 0.0027591516204802402 -0.29690218730465873 0 0.027750122036295961 -0.2982370459613124 0 -8.7419055607875981e-05 -0.27846429432967718 0 0.0027591516204802402 -0.29690218730465873 0 -8.7419055607875981e-05 -0.27846429432967718 0 0.0027591516204802402 -0.29690218730465873 0 0.01383135149034234 -0.2883506701454972 0 0.0027591516204802402 -0.29690218730465873 0 0.01383135149034234 -0.2883506701454972 0 0.027750122036295961 -0.2982370459613124 0 -8.7419055607875981e-05 -0.27846429432967718 0 0.01383135149034234 -0.2883506701454972 0 0.01383135149034234 -0.2883506701454972 0 0.03106171467267772 -0.28417612861747021 0 0.027750122036295961 -0.2982370459613124 0 0.01383135149034234 -0.2883506701454972 0 0.03106171467267772 -0.28417612861747021 0 0.026201660422546891 -0.27232160699259927 0 0.01383135149034234 -0.2883506701454972 0 0.027750122036295961 -0.2982370459613124 0 0.005605722296558386 -0.31534008027964172 0 0.027750122036295961 -0.2982370459613124 0 0.025429745942634321 -0.31899352619560079 0 0.005605722296558386 -0.31534008027964172 0 0.027750122036295961 -0.2982370459613124 0 0.051786618429626313 -0.31530995019918329 0 0.027750122036295961 -0.2982370459613124 0 0.03889407322760749 -0.29980934558566408 0 0.051786618429626313 -0.31530995019918329 0 0.027750122036295961 -0.2982370459613124 0 0.051786618429626313 -0.31530995019918329 0 0.025429745942634321 -0.31899352619560079 0 0.027750122036295961 -0.2982370459613124 0 0.027750122036295961 -0.2982370459613124 0 0.044269269842108473 -0.28547862599270257 0 0.03106171467267772 -0.28417612861747021 0 0.027750122036295961 -0.2982370459613124 0 0.044269269842108473 -0.28547862599270257 0 0.027750122036295961 -0.2982370459613124 0 0.03889407322760749 -0.29980934558566408 0 0.044269269842108473 -0.28547862599270257 0 0.03889407322760749 -0.29980934558566408 0 0.044269269842108473 -0.28547862599270257 0 0.058388320045681022 -0.29029095673858651 0 0.044269269842108473 -0.28547862599270257 0 0.058388320045681022 -0.29029095673858651 0 0.054788747489388223 -0.27708242294964308 0 0.068779595756468928 -0.28008141037859169 0 0.058388320045681022 -0.29029095673858651 0 0.054788747489388223 -0.27708242294964308 0 0.0659811535139882 -0.30523276340369693 0 0.051786618429626313 -0.31530995019918329 0 0.03889407322760749 -0.29980934558566408 0 0.0659811535139882 -0.30523276340369693 0 0.03889407322760749 -0.29980934558566408 0 0.058388320045681022 -0.29029095673858651 0 0.0659811535139882 -0.30523276340369693 0 0.03889407322760749 -0.29980934558566408 0 0.061228653572286497 -0.26211160620131352 0 0.042375486710180862 -0.26923127752746878 0 0.048495120724278647 -0.24796375611239951 0 0.061228653572286497 -0.26211160620131352 0 0.048495120724278647 -0.24796375611239951 0 0.068346797549107247 -0.24074457932025989 0 0.061228653572286497 -0.26211160620131352 0 0.054788747489388223 -0.27708242294964308 0 0.042375486710180862 -0.26923127752746878 0 0.068779595756468928 -0.28008141037859169 0 0.061228653572286497 -0.26211160620131352 0 0.054788747489388223 -0.27708242294964308 0 0.044269269842108473 -0.28547862599270257 0 0.054788747489388223 -0.27708242294964308 0 0.042375486710180862 -0.26923127752746878 0 0.03106171467267772 -0.28417612861747021 0 0.042375486710180862 -0.26923127752746878 0 0.026201660422546891 -0.27232160699259927 0 0.03106171467267772 -0.28417612861747021 0 0.044269269842108473 -0.28547862599270257 0 0.042375486710180862 -0.26923127752746878 0 0.042375486710180862 -0.26923127752746878 0 0.03052563489025488 -0.25417633124366101 0 0.048495120724278647 -0.24796375611239951 0 0.042375486710180862 -0.26923127752746878 0 0.03052563489025488 -0.25417633124366101 0 0.026201660422546891 -0.27232160699259927 0 0.03052563489025488 -0.25417633124366101 0 0.026201660422546891 -0.27232160699259927 0 0.01165896153325308 -0.26444140382493719 0 0.03052563489025488 -0.25417633124366101 0 0.01165896153325308 -0.26444140382493719 0 0.01282001068756828 -0.24559388107478439 0 0.01383135149034234 -0.2883506701454972 0 0.026201660422546891 -0.27232160699259927 0 0.01165896153325308 -0.26444140382493719 0 -8.7419055607875981e-05 -0.27846429432967718 0 -0.0037695986127568399 -0.25461397044345591 0 0.01165896153325308 -0.26444140382493719 0 -8.7419055607875981e-05 -0.27846429432967718 0 0.01383135149034234 -0.2883506701454972 0 0.01165896153325308 -0.26444140382493719 0 -0.0037695986127568399 -0.25461397044345591 0 0.01165896153325308 -0.26444140382493719 0 0.01282001068756828 -0.24559388107478439 0 -0.0037695986127568399 -0.25461397044345591 0 -0.0074517781699137524 -0.2307636465572358 0 0.01282001068756828 -0.24559388107478439 0 -0.0074517781699137524 -0.2307636465572358 0 0.01282001068756828 -0.24559388107478439 0 0.019332725396748591 -0.22709105266296101 0 -0.0074517781699137524 -0.2307636465572358 0 0.019332725396748591 -0.22709105266296101 0 0.007970675013868337 -0.2115605535251471 0 0.019332725396748591 -0.22709105266296101 0 0.035784938525954567 -0.218599755738838 0 0.033997159993788391 -0.23649510138531379 0 0.01282001068756828 -0.24559388107478439 0 0.019332725396748591 -0.22709105266296101 0 0.033997159993788391 -0.23649510138531379 0 0.03052563489025488 -0.25417633124366101 0 0.01282001068756828 -0.24559388107478439 0 0.033997159993788391 -0.23649510138531379 0 -0.01113395772707068 -0.20691332267101559 0 0.0099013466107155754 -0.18752639761768561 0 0.007970675013868337 -0.2115605535251471 0 0.0099013466107155754 -0.18752639761768561 0 0.007970675013868337 -0.2115605535251471 0 0.025219308312609431 -0.20329616589641539 0 0.019332725396748591 -0.22709105266296101 0 0.025219308312609431 -0.20329616589641539 0 0.035784938525954567 -0.218599755738838 0 0.019332725396748591 -0.22709105266296101 0 0.007970675013868337 -0.2115605535251471 0 0.025219308312609431 -0.20329616589641539 0 0.0099013466107155754 -0.18752639761768561 0 0.025219308312609431 -0.20329616589641539 0 0.035424141555493227 -0.18240136520066419 0 0.025219308312609431 -0.20329616589641539 0 0.046857704791844652 -0.2031700690360714 0 0.035424141555493227 -0.18240136520066419 0 0.025219308312609431 -0.20329616589641539 0 0.035784938525954567 -0.218599755738838 0 0.046857704791844652 -0.2031700690360714 0 0.035784938525954567 -0.218599755738838 0 0.046857704791844652 -0.2031700690360714 0 0.053125314410260679 -0.22530421248987029 0 0.046857704791844652 -0.2031700690360714 0 0.053125314410260679 -0.22530421248987029 0 0.070822078311095688 -0.20736076671461121 0 0.046857704791844652 -0.2031700690360714 0 0.059888730979970717 -0.18213238721152381 0 0.035424141555493227 -0.18240136520066419 0 0.046857704791844652 -0.2031700690360714 0 0.070822078311095688 -0.20736076671461121 0 0.059888730979970717 -0.18213238721152381 0 0.03052563489025488 -0.25417633124366101 0 0.033997159993788391 -0.23649510138531379 0 0.048495120724278647 -0.24796375611239951 0 0.033997159993788391 -0.23649510138531379 0 0.053125314410260679 -0.22530421248987029 0 0.048495120724278647 -0.24796375611239951 0 0.035784938525954567 -0.218599755738838 0 0.033997159993788391 -0.23649510138531379 0 0.053125314410260679 -0.22530421248987029 0 0.053125314410260679 -0.22530421248987029 0 0.048495120724278647 -0.24796375611239951 0 0.068346797549107247 -0.24074457932025989 0 0.083902609981737292 -0.25918961789763528 0 0.087078319433301174 -0.2269579671887556 0 0.1089154323282025 -0.2455405776010087 0 0.083902609981737292 -0.25918961789763528 0 0.068346797549107247 -0.24074457932025989 0 0.087078319433301174 -0.2269579671887556 0 0.068346797549107247 -0.24074457932025989 0 0.087078319433301174 -0.2269579671887556 0 0.070070328023578626 -0.22446332521298601 0 0.053125314410260679 -0.22530421248987029 0 0.068346797549107247 -0.24074457932025989 0 0.070070328023578626 -0.22446332521298601 0 0.053125314410260679 -0.22530421248987029 0 0.070070328023578626 -0.22446332521298601 0 0.070822078311095688 -0.20736076671461121 0 0.087078319433301174 -0.2269579671887556 0 0.070070328023578626 -0.22446332521298601 0 0.070822078311095688 -0.20736076671461121 0 0.070822078311095688 -0.20736076671461121 0 0.080627355390790856 -0.1910691417710596 0 0.059888730979970717 -0.18213238721152381 0 0.070822078311095688 -0.20736076671461121 0 0.080627355390790856 -0.1910691417710596 0 0.092790910739669982 -0.2064091121118983 0 0.080627355390790856 -0.1910691417710596 0 0.092790910739669982 -0.2064091121118983 0 0.099074165772273654 -0.18545333264620101 0 0.087078319433301174 -0.2269579671887556 0 0.070822078311095688 -0.20736076671461121 0 0.092790910739669982 -0.2064091121118983 0 0.092790910739669982 -0.2064091121118983 0 0.1142087108988878 -0.20647667539300391 0 0.1072128093071497 -0.2254192881139091 0 0.1142087108988878 -0.20647667539300391 0 0.099074165772273654 -0.18545333264620101 0 0.092790910739669982 -0.2064091121118983 0 0.1142087108988878 -0.20647667539300391 0 0.099074165772273654 -0.18545333264620101 0 0.1142087108988878 -0.20647667539300391 0 0.12078286551628729 -0.17975479095441971 0 0.099074165772273654 -0.18545333264620101 0 0.1142087108988878 -0.20647667539300391 0 0.12934325602550201 -0.227500018139807 0 0.1142087108988878 -0.20647667539300391 0 0.1072128093071497 -0.2254192881139091 0 0.12934325602550201 -0.227500018139807 0 0.1089154323282025 -0.2455405776010087 0 0.1072128093071497 -0.2254192881139091 0 0.12934325602550201 -0.227500018139807 0 0.12715097049526741 -0.25025199571667128 0 0.1089154323282025 -0.2455405776010087 0 0.12934325602550201 -0.227500018139807 0 0.087078319433301174 -0.2269579671887556 0 0.092790910739669982 -0.2064091121118983 0 0.1072128093071497 -0.2254192881139091 0 0.087078319433301174 -0.2269579671887556 0 0.1089154323282025 -0.2455405776010087 0 0.1072128093071497 -0.2254192881139091 0 0.1028099802789141 -0.13594176675392811 0 0.092304486584276521 -0.15601528680360169 0 0.1028099802789141 -0.13594176675392811 0 0.1184101890006467 -0.14460775347545249 0 0.092304486584276521 -0.15601528680360169 0 0.1028099802789141 -0.13594176675392811 0 0.11331547397355179 -0.1158682467042545 0 0.1028099802789141 -0.13594176675392811 0 0.1179052465306636 -0.13102357456366179 0 0.11331547397355179 -0.1158682467042545 0 0.1028099802789141 -0.13594176675392811 0 0.1179052465306636 -0.13102357456366179 0 0.1184101890006467 -0.14460775347545249 0 0.1179052465306636 -0.13102357456366179 0 0.1236629650190357 -0.1219099957218355 0 0.12942870146992019 -0.13332937806367429 0 0.1179052465306636 -0.13102357456366179 0 0.1184101890006467 -0.14460775347545249 0 0.12942870146992019 -0.13332937806367429 0 0.1184101890006467 -0.14460775347545249 0 0.1235894598099008 -0.16287030272952191 0 0.1059919645685968 -0.1683650778449953 0 0.1235894598099008 -0.16287030272952191 0 0.12078286551628729 -0.17975479095441971 0 0.1059919645685968 -0.1683650778449953 0 0.12078286551628729 -0.17975479095441971 0 0.099074165772273654 -0.18545333264620101 0 0.1059919645685968 -0.1683650778449953 0 0.099074165772273654 -0.18545333264620101 0 0.1059919645685968 -0.1683650778449953 0 0.080560891150944253 -0.17399011017106361 0 0.1184101890006467 -0.14460775347545249 0 0.1059919645685968 -0.1683650778449953 0 0.092304486584276521 -0.15601528680360169 0 0.1059919645685968 -0.1683650778449953 0 0.080560891150944253 -0.17399011017106361 0 0.092304486584276521 -0.15601528680360169 0 0.080560891150944253 -0.17399011017106361 0 0.063153054202735259 -0.15313147773370139 0 0.092304486584276521 -0.15601528680360169 0 0.080627355390790856 -0.1910691417710596 0 0.099074165772273654 -0.18545333264620101 0 0.080560891150944253 -0.17399011017106361 0 0.080627355390790856 -0.1910691417710596 0 0.080560891150944253 -0.17399011017106361 0 0.059888730979970717 -0.18213238721152381 0 0.080560891150944253 -0.17399011017106361 0 0.063153054202735259 -0.15313147773370139 0 0.059888730979970717 -0.18213238721152381 0 0.1028099802789141 -0.13594176675392811 0 0.092304486584276521 -0.15601528680360169 0 0.079914067975669301 -0.13601141014991111 0 0.063153054202735259 -0.15313147773370139 0 0.092304486584276521 -0.15601528680360169 0 0.079914067975669301 -0.13601141014991111 0 0.1028099802789141 -0.13594176675392811 0 0.079914067975669301 -0.13601141014991111 0 0.092414545264188658 -0.11644271486204689 0 0.063153054202735259 -0.15313147773370139 0 0.079914067975669301 -0.13601141014991111 0 0.052930730594287462 -0.1223214194311229 0 0.063153054202735259 -0.15313147773370139 0 0.033112089527658539 -0.1406815305577428 0 0.052930730594287462 -0.1223214194311229 0 0.033112089527658539 -0.1406815305577428 0 0.043518929848148202 -0.16353063444224869 0 0.02601663297488321 -0.15930641150761121 0 0.063153054202735259 -0.15313147773370139 0 0.033112089527658539 -0.1406815305577428 0 0.043518929848148202 -0.16353063444224869 0 0.033112089527658539 -0.1406815305577428 0 0.026140121057406238 -0.115285362417355 0 0.052930730594287462 -0.1223214194311229 0 0.063153054202735259 -0.15313147773370139 0 0.059888730979970717 -0.18213238721152381 0 0.043518929848148202 -0.16353063444224869 0 0.043518929848148202 -0.16353063444224869 0 0.035424141555493227 -0.18240136520066419 0 0.02601663297488321 -0.15930641150761121 0 0.059888730979970717 -0.18213238721152381 0 0.043518929848148202 -0.16353063444224869 0 0.035424141555493227 -0.18240136520066419 0 0.0099013466107155754 -0.18752639761768561 0 0.035424141555493227 -0.18240136520066419 0 0.02601663297488321 -0.15930641150761121 0 -0.00044241734289412332 -0.16545782402513229 0 0.02601663297488321 -0.15930641150761121 0 0.0097655386782121729 -0.14660786738231121 0 -0.00044241734289412332 -0.16545782402513229 0 0.02601663297488321 -0.15930641150761121 0 -0.00044241734289412332 -0.16545782402513229 0 0.0099013466107155754 -0.18752639761768561 0 0.02601663297488321 -0.15930641150761121 0 0.033112089527658539 -0.1406815305577428 0 0.0097655386782121729 -0.14660786738231121 0 0.0099818662807374496 -0.12581095382434751 0 0.033112089527658539 -0.1406815305577428 0 0.0099818662807374496 -0.12581095382434751 0 0.026140121057406238 -0.115285362417355 0 0.033112089527658539 -0.1406815305577428 0 0.02601663297488321 -0.15930641150761121 0 0.0097655386782121729 -0.14660786738231121 0 -0.010033495713689781 -0.13837544561322701 0 0.0097655386782121729 -0.14660786738231121 0 0.0099818662807374496 -0.12581095382434751 0 -0.0069227298259113756 -0.11381869788500459 0 0.0099818662807374496 -0.12581095382434751 0 0.0068733299434700183 -0.1081576760984123 0 0.0099818662807374496 -0.12581095382434751 0 0.026140121057406238 -0.115285362417355 0 0.0068733299434700183 -0.1081576760984123 0 0.026140121057406238 -0.115285362417355 0 0.016700947456400592 -0.096353886410403045 0 0.037241762541883411 -0.098386708182101656 0 0.026140121057406238 -0.115285362417355 0 0.016700947456400592 -0.096353886410403045 0 0.0068733299434700183 -0.1081576760984123 0 0.016700947456400592 -0.096353886410403045 0 0.0068733299434700183 -0.1081576760984123 0 0.002698825122154819 -0.097907731628765635 0 -0.001762203559796746 -0.10412173643267709 0 0.0068733299434700183 -0.1081576760984123 0 0.002698825122154819 -0.097907731628765635 0 -0.0096982394789004427 -0.096602840118525768 0 0.0059272775052894586 -0.085527418525803062 0 0.0061806570431333224 -0.07280993901718269 0 0.016700947456400592 -0.096353886410403045 0 0.0059272775052894586 -0.085527418525803062 0 0.021552794489479419 -0.074451996933080439 0 0.0059272775052894586 -0.085527418525803062 0 0.021552794489479419 -0.074451996933080439 0 0.016700947456400592 -0.096353886410403045 0 0.002698825122154819 -0.097907731628765635 0 0.0059272775052894586 -0.085527418525803062 0 0.0059272775052894586 -0.085527418525803062 0 0.0061806570431333224 -0.07280993901718269 0 0.021552794489479419 -0.074451996933080439 0 -0.0042577302106490194 -0.069697466595407376 0 0.0061806570431333224 -0.07280993901718269 0 0.01134827152096681 -0.058884222821384433 0 -0.0042577302106490194 -0.069697466595407376 0 0.0012510057799814029 -0.059227124445018327 0 0.01134827152096681 -0.058884222821384433 0 -0.0042577302106490194 -0.069697466595407376 0 0.01134827152096681 -0.058884222821384433 0 0.0061806570431333224 -0.07280993901718269 0 0.021552794489479419 -0.074451996933080439 0 0.01134827152096681 -0.058884222821384433 0 0.021552794489479419 -0.074451996933080439 0 0.027177024457391091 -0.059153573087127667 0 0.042228958618880187 -0.059796658816259521 0 0.021552794489479419 -0.074451996933080439 0 0.01134827152096681 -0.058884222821384433 0 0.027177024457391091 -0.059153573087127667 0 0.021552794489479419 -0.074451996933080439 0 0.01134827152096681 -0.058884222821384433 0 0.021552794489479419 -0.074451996933080439 0 0.037241762541883411 -0.098386708182101656 0 0.016700947456400592 -0.096353886410403045 0 0.021552794489479419 -0.074451996933080439 0 0.037241762541883411 -0.098386708182101656 0 0.021552794489479419 -0.074451996933080439 0 0.045526565810018092 -0.077826285032333645 0 0.037241762541883411 -0.098386708182101656 0 0.021552794489479419 -0.074451996933080439 0 0.045526565810018092 -0.077826285032333645 0 0.042228958618880187 -0.059796658816259521 0 0.021552794489479419 -0.074451996933080439 0 0.042228958618880187 -0.059796658816259521 0 0.045526565810018092 -0.077826285032333645 0 0.042228958618880187 -0.059796658816259521 0 0.059127526517079913 -0.06172470810298554 0 0.045526565810018092 -0.077826285032333645 0 0.059127526517079913 -0.06172470810298554 0 0.068198093788833 -0.076112334051373021 0 0.045526565810018092 -0.077826285032333645 0 0.059313641578811749 -0.098215521924002541 0 0.037241762541883411 -0.098386708182101656 0 0.045526565810018092 -0.077826285032333645 0 0.059313641578811749 -0.098215521924002541 0 0.068198093788833 -0.076112334051373021 0 0.059313641578811749 -0.098215521924002541 0 0.052930730594287462 -0.1223214194311229 0 0.037241762541883411 -0.098386708182101656 0 0.059313641578811749 -0.098215521924002541 0 0.052930730594287462 -0.1223214194311229 0 0.072895458399560478 -0.1139825093516381 0 0.052930730594287462 -0.1223214194311229 0 0.037241762541883411 -0.098386708182101656 0 0.026140121057406238 -0.115285362417355 0 0.052930730594287462 -0.1223214194311229 0 0.037241762541883411 -0.098386708182101656 0 0.02961968877518174 -0.01030340083867352 0 0.015860233785783859 -0.0085538875602294128 0 0.0086802595134123639 -0.0196081622055592 0 0.02961968877518174 -0.01030340083867352 0 0.0086802595134123639 -0.0196081622055592 0 0.0187025779820859 0.0043174021170347028 0 0.02961968877518174 -0.01030340083867352 0 0.015860233785783859 -0.0085538875602294128 0 0.0187025779820859 0.0043174021170347028 0 0.003221704116864647 -0.012297760727705361 0 0.0187025779820859 0.0043174021170347028 0 0.0020292439059455178 -0.0013131619961493509 0 0.003221704116864647 -0.012297760727705361 0 0.0187025779820859 0.0043174021170347028 0 0.015860233785783859 -0.0085538875602294128 0 0.003221704116864647 -0.012297760727705361 0 0.015860233785783859 -0.0085538875602294128 0 0.003221704116864647 -0.012297760727705361 0 0.0086802595134123639 -0.0196081622055592 0 0.0086802595134123639 -0.0196081622055592 0 0.013188580085506571 -0.03087240243268416 0 0.0026462220442079951 -0.035453514252743609 0 0.0086802595134123639 -0.0196081622055592 0 0.013188580085506571 -0.03087240243268416 0 0.021723512144052871 -0.024124703044175109 0 0.02961968877518174 -0.01030340083867352 0 0.0086802595134123639 -0.0196081622055592 0 0.021723512144052871 -0.024124703044175109 0 0.013188580085506571 -0.03087240243268416 0 0.021723512144052871 -0.024124703044175109 0 0.022768081795753549 -0.034326034596616962 0 0.02961968877518174 -0.01030340083867352 0 0.021723512144052871 -0.024124703044175109 0 0.034360950550410142 -0.025513515147341709 0 0.021723512144052871 -0.024124703044175109 0 0.022768081795753549 -0.034326034596616962 0 0.034360950550410142 -0.025513515147341709 0 0.022768081795753549 -0.034326034596616962 0 0.033578073200237979 -0.043481413777786318 0 0.034360950550410142 -0.025513515147341709 0 0.02032141987600096 -0.044772233904041357 0 0.022768081795753549 -0.034326034596616962 0 0.033578073200237979 -0.043481413777786318 0 0.02032141987600096 -0.044772233904041357 0 0.022768081795753549 -0.034326034596616962 0 0.013591252987045501 -0.042397264420377737 0 0.013188580085506571 -0.03087240243268416 0 0.022768081795753549 -0.034326034596616962 0 0.013591252987045501 -0.042397264420377737 0 0.013188580085506571 -0.03087240243268416 0 0.0026462220442079951 -0.035453514252743609 0 0.013591252987045501 -0.042397264420377737 0 0.0026462220442079951 -0.035453514252743609 0 0.0054594838504881072 -0.045037861016400067 0 0.013591252987045501 -0.042397264420377737 0 -0.003169975441622507 -0.044985061224614847 0 0.0026462220442079951 -0.035453514252743609 0 0.0054594838504881072 -0.045037861016400067 0 0.0054594838504881072 -0.045037861016400067 0 0.013591252987045501 -0.042397264420377737 0 0.0072754603143591924 -0.052670840279190591 0 0.013591252987045501 -0.042397264420377737 0 0.0072754603143591924 -0.052670840279190591 0 0.01134827152096681 -0.058884222821384433 0 0.02032141987600096 -0.044772233904041357 0 0.013591252987045501 -0.042397264420377737 0 0.01134827152096681 -0.058884222821384433 0 -0.001189584669092871 -0.052654503905639749 0 0.0054594838504881072 -0.045037861016400067 0 0.0072754603143591924 -0.052670840279190591 0 -0.003169975441622507 -0.044985061224614847 0 -0.001189584669092871 -0.052654503905639749 0 0.0054594838504881072 -0.045037861016400067 0 -0.001189584669092871 -0.052654503905639749 0 0.0072754603143591924 -0.052670840279190591 0 0.0012510057799814029 -0.059227124445018327 0 0.0072754603143591924 -0.052670840279190591 0 0.0012510057799814029 -0.059227124445018327 0 0.01134827152096681 -0.058884222821384433 0 0.0072754603143591924 -0.052670840279190591 0 0.01134827152096681 -0.058884222821384433 0 0.02032141987600096 -0.044772233904041357 0 0.01134827152096681 -0.058884222821384433 0 0.033578073200237979 -0.043481413777786318 0 0.01134827152096681 -0.058884222821384433 0 0.033578073200237979 -0.043481413777786318 0 0.01134827152096681 -0.058884222821384433 0 0.027177024457391091 -0.059153573087127667 0 0.033578073200237979 -0.043481413777786318 0 0.042228958618880187 -0.059796658816259521 0 0.048387005040478291 -0.045148201795649871 0 0.033578073200237979 -0.043481413777786318 0 0.027177024457391091 -0.059153573087127667 0 0.042228958618880187 -0.059796658816259521 0 0.033578073200237979 -0.043481413777786318 0 0.042228958618880187 -0.059796658816259521 0 0.062905122748280862 -0.045141320699438381 0 0.042228958618880187 -0.059796658816259521 0 0.048387005040478291 -0.045148201795649871 0 0.062905122748280862 -0.045141320699438381 0 0.042228958618880187 -0.059796658816259521 0 0.059127526517079913 -0.06172470810298554 0 0.062905122748280862 -0.045141320699438381 0 0.048387005040478291 -0.045148201795649871 0 0.055807874879509098 -0.028078604734188169 0 0.062905122748280862 -0.045141320699438381 0 0.048387005040478291 -0.045148201795649871 0 0.033578073200237979 -0.043481413777786318 0 0.055807874879509098 -0.028078604734188169 0 0.033578073200237979 -0.043481413777786318 0 0.034360950550410142 -0.025513515147341709 0 0.055807874879509098 -0.028078604734188169 0 0.033578073200237979 -0.043481413777786318 0 0.055807874879509098 -0.028078604734188169 0 0.034360950550410142 -0.025513515147341709 0 0.055807874879509098 -0.028078604734188169 0 0.045367762447916057 -0.01475092679618261 0 0.02961968877518174 -0.01030340083867352 0 0.034360950550410142 -0.025513515147341709 0 0.045367762447916057 -0.01475092679618261 0 0.055807874879509098 -0.028078604734188169 0 0.057658443957820833 -0.01040166273899608 0 0.045367762447916057 -0.01475092679618261 0 0.057658443957820833 -0.01040166273899608 0 0.045709591116263402 -0.0015518179498124681 0 0.045367762447916057 -0.01475092679618261 0 0.062602176669886003 0.0046125049282724987 0 0.057658443957820833 -0.01040166273899608 0 0.045709591116263402 -0.0015518179498124681 0 0.02961968877518174 -0.01030340083867352 0 0.045709591116263402 -0.0015518179498124681 0 0.045367762447916057 -0.01475092679618261 0 0.033642864976278289 0.0064464945390643024 0 0.02961968877518174 -0.01030340083867352 0 0.045709591116263402 -0.0015518179498124681 0 0.097149040390757474 0.00056627870637449007 0 0.078037676558780564 -0.01267579569059025 0 0.099393380230337877 -0.01513067261807933 0 0.097149040390757474 0.00056627870637449007 0 0.078037676558780564 -0.01267579569059025 0 0.080082139743195113 0.0051119915016680636 0 0.097149040390757474 0.00056627870637449007 0 0.078037676558780564 -0.01267579569059025 0 0.062602176669886003 0.0046125049282724987 0 0.080082139743195113 0.0051119915016680636 0 0.078037676558780564 -0.01267579569059025 0 0.062602176669886003 0.0046125049282724987 0 0.057658443957820833 -0.01040166273899608 0 0.078037676558780564 -0.01267579569059025 0 0.062602176669886003 0.0046125049282724987 0 0.078037676558780564 -0.01267579569059025 0 0.055807874879509098 -0.028078604734188169 0 0.057658443957820833 -0.01040166273899608 0 0.078037676558780564 -0.01267579569059025 0 0.055807874879509098 -0.028078604734188169 0 0.078037676558780564 -0.01267579569059025 0 0.055807874879509098 -0.028078604734188169 0 0.078037676558780564 -0.01267579569059025 0 0.073967037317344636 -0.030263444346782829 0 0.078037676558780564 -0.01267579569059025 0 0.089018284638525097 -0.024974461417461329 0 0.099393380230337877 -0.01513067261807933 0 0.078037676558780564 -0.01267579569059025 0 0.073967037317344636 -0.030263444346782829 0 0.089018284638525097 -0.024974461417461329 0 0.078037676558780564 -0.01267579569059025 0 0.089018284638525097 -0.024974461417461329 0 0.08352773816707508 -0.040036267026715713 0 0.084098493253551787 -0.056692730597852112 0 0.099998892718270782 -0.03727312714433139 0 0.089018284638525097 -0.024974461417461329 0 0.08352773816707508 -0.040036267026715713 0 0.099998892718270782 -0.03727312714433139 0 0.073967037317344636 -0.030263444346782829 0 0.089018284638525097 -0.024974461417461329 0 0.08352773816707508 -0.040036267026715713 0 0.055807874879509098 -0.028078604734188169 0 0.073967037317344636 -0.030263444346782829 0 0.062905122748280862 -0.045141320699438381 0 0.073967037317344636 -0.030263444346782829 0 0.08352773816707508 -0.040036267026715713 0 0.062905122748280862 -0.045141320699438381 0 0.08352773816707508 -0.040036267026715713 0 0.062905122748280862 -0.045141320699438381 0 0.084098493253551787 -0.056692730597852112 0 0.059127526517079913 -0.06172470810298554 0 0.062905122748280862 -0.045141320699438381 0 0.084098493253551787 -0.056692730597852112 0 0.084098493253551787 -0.056692730597852112 0 0.099998892718270782 -0.03727312714433139 0 0.1007936660690885 -0.06153273321684205 0 0.1191271495443937 -0.058697444899196073 0 0.099998892718270782 -0.03727312714433139 0 0.084098493253551787 -0.056692730597852112 0 0.1007936660690885 -0.06153273321684205 0 0.099998892718270782 -0.03727312714433139 0 0.1191271495443937 -0.058697444899196073 0 0.099998892718270782 -0.03727312714433139 0 0.1191271495443937 -0.058697444899196073 0 0.1165848095382233 -0.036520698565939133 0 0.099998892718270782 -0.03727312714433139 0 0.1191271495443937 -0.058697444899196073 0 0.1165848095382233 -0.036520698565939133 0 0.13184768111456879 -0.031606781223455213 0 0.099998892718270782 -0.03727312714433139 0 0.11536551477566009 -0.018505440996773839 0 0.099393380230337877 -0.01513067261807933 0 0.099998892718270782 -0.03727312714433139 0 0.11536551477566009 -0.018505440996773839 0 0.089018284638525097 -0.024974461417461329 0 0.099998892718270782 -0.03727312714433139 0 0.099393380230337877 -0.01513067261807933 0 0.089018284638525097 -0.024974461417461329 0 0.099998892718270782 -0.03727312714433139 0 0.1165848095382233 -0.036520698565939133 0 0.099998892718270782 -0.03727312714433139 0 0.11536551477566009 -0.018505440996773839 0 0.1165848095382233 -0.036520698565939133 0 0.11536551477566009 -0.018505440996773839 0 0.13184768111456879 -0.031606781223455213 0 0.13073213683304949 0.00026224515078349803 0 0.11536551477566009 -0.018505440996773839 0 0.1143165830657787 0.00066318671767231195 0 0.13073213683304949 0.00026224515078349803 0 0.11536551477566009 -0.018505440996773839 0 0.1143165830657787 0.00066318671767231195 0 0.11536551477566009 -0.018505440996773839 0 0.099393380230337877 -0.01513067261807933 0 0.1143165830657787 0.00066318671767231195 0 0.097149040390757474 0.00056627870637449007 0 0.099393380230337877 -0.01513067261807933 0 0.079904306584845194 -0.096921480391107234 0 0.092414545264188658 -0.11644271486204689 0 0.072895458399560478 -0.1139825093516381 0 0.079904306584845194 -0.096921480391107234 0 0.092414545264188658 -0.11644271486204689 0 0.10078811478949549 -0.097753723321361202 0 0.079914067975669301 -0.13601141014991111 0 0.092414545264188658 -0.11644271486204689 0 0.072895458399560478 -0.1139825093516381 0 0.079914067975669301 -0.13601141014991111 0 0.052930730594287462 -0.1223214194311229 0 0.072895458399560478 -0.1139825093516381 0 0.059313641578811749 -0.098215521924002541 0 0.079904306584845194 -0.096921480391107234 0 0.072895458399560478 -0.1139825093516381 0 0.059313641578811749 -0.098215521924002541 0 0.079904306584845194 -0.096921480391107234 0 0.068198093788833 -0.076112334051373021 0 0.059127526517079913 -0.06172470810298554 0 0.084098493253551787 -0.056692730597852112 0 0.068198093788833 -0.076112334051373021 0 0.084098493253551787 -0.056692730597852112 0 0.068198093788833 -0.076112334051373021 0 0.084098493253551787 -0.056692730597852112 0 0.068198093788833 -0.076112334051373021 0 0.090786162662281303 -0.076774779332551876 0 0.084098493253551787 -0.056692730597852112 0 0.1007936660690885 -0.06153273321684205 0 0.090786162662281303 -0.076774779332551876 0 0.079904306584845194 -0.096921480391107234 0 0.090786162662281303 -0.076774779332551876 0 0.10078811478949549 -0.097753723321361202 0 0.079904306584845194 -0.096921480391107234 0 0.068198093788833 -0.076112334051373021 0 0.090786162662281303 -0.076774779332551876 0 0.090786162662281303 -0.076774779332551876 0 0.1099576321669448 -0.078225584110278787 0 0.10078811478949549 -0.097753723321361202 0 0.1099576321669448 -0.078225584110278787 0 0.1121218948042671 -0.1019513354147412 0 0.10078811478949549 -0.097753723321361202 0 0.1099576321669448 -0.078225584110278787 0 0.10078811478949549 -0.097753723321361202 0 0.1007936660690885 -0.06153273321684205 0 0.090786162662281303 -0.076774779332551876 0 0.1099576321669448 -0.078225584110278787 0 0.1191271495443937 -0.058697444899196073 0 0.1099576321669448 -0.078225584110278787 0 0.1007936660690885 -0.06153273321684205 0 0.1191271495443937 -0.058697444899196073 0 0.1099576321669448 -0.078225584110278787 0 0.1191271495443937 -0.058697444899196073 0 0.1099576321669448 -0.078225584110278787 0 0.12237630772435321 -0.080486934419153416 0 0.1099576321669448 -0.078225584110278787 0 0.12237630772435321 -0.080486934419153416 0 0.1238209676681894 -0.095794726654580789 0 0.1099576321669448 -0.078225584110278787 0 0.1238209676681894 -0.095794726654580789 0 0.1121218948042671 -0.1019513354147412 0 0.1238209676681894 -0.095794726654580789 0 0.11331547397355179 -0.1158682467042545 0 0.1212159661412502 -0.1101803112154249 0 0.1238209676681894 -0.095794726654580789 0 0.11331547397355179 -0.1158682467042545 0 0.1238209676681894 -0.095794726654580789 0 0.1121218948042671 -0.1019513354147412 0 0.11331547397355179 -0.1158682467042545 0 0.1121218948042671 -0.1019513354147412 0 0.103760364544245 -0.10885198863762011 0 0.11331547397355179 -0.1158682467042545 0 0.092414545264188658 -0.11644271486204689 0 0.103760364544245 -0.10885198863762011 0 0.10078811478949549 -0.097753723321361202 0 0.1121218948042671 -0.1019513354147412 0 0.103760364544245 -0.10885198863762011 0 0.10078811478949549 -0.097753723321361202 0 0.1028099802789141 -0.13594176675392811 0 0.092414545264188658 -0.11644271486204689 0 0.11331547397355179 -0.1158682467042545 0 0.092414545264188658 -0.11644271486204689 0 0.103760364544245 -0.10885198863762011 0 0.11331547397355179 -0.1158682467042545 0 0.11331547397355179 -0.1158682467042545 0 0.1212159661412502 -0.1101803112154249 0 0.1236629650190357 -0.1219099957218355 0 0.1179052465306636 -0.13102357456366179 0 0.11331547397355179 -0.1158682467042545 0 0.1236629650190357 -0.1219099957218355 0 0.1212159661412502 -0.1101803112154249 0 0.13308231922290739 -0.12228679279071671 0 0.14709917237686321 -0.11491851799865301 0 0.1212159661412502 -0.1101803112154249 0 0.14709917237686321 -0.11491851799865301 0 0.1212159661412502 -0.1101803112154249 0 0.14709917237686321 -0.11491851799865301 0 0.13576552856720281 -0.10468558277259191 0 0.1212159661412502 -0.1101803112154249 0 0.1236629650190357 -0.1219099957218355 0 0.13308231922290739 -0.12228679279071671 0 0.13308231922290739 -0.12228679279071671 0 0.14709917237686321 -0.11491851799865301 0 0.14259919820821881 -0.13375427437401499 0 0.14709917237686321 -0.11491851799865301 0 0.15557929679419871 -0.099525126826834648 0 0.13576552856720281 -0.10468558277259191 0 0.15557929679419871 -0.099525126826834648 0 0.13576552856720281 -0.10468558277259191 0 0.13615454531929941 -0.09349957350551874 0 0.1238209676681894 -0.095794726654580789 0 0.1212159661412502 -0.1101803112154249 0 0.13576552856720281 -0.10468558277259191 0 0.1238209676681894 -0.095794726654580789 0 0.13576552856720281 -0.10468558277259191 0 0.13615454531929941 -0.09349957350551874 0 0.1238209676681894 -0.095794726654580789 0 0.13615454531929941 -0.09349957350551874 0 0.1343264613628278 -0.075721206604907471 0 0.1238209676681894 -0.095794726654580789 0 0.1343264613628278 -0.075721206604907471 0 0.12237630772435321 -0.080486934419153416 0 0.1238209676681894 -0.095794726654580789 0 0.1343264613628278 -0.075721206604907471 0 0.13615454531929941 -0.09349957350551874 0 0.1343264613628278 -0.075721206604907471 0 0.14495287907851409 -0.087623166715870324 0 0.1343264613628278 -0.075721206604907471 0 0.14495287907851409 -0.087623166715870324 0 0.1191271495443937 -0.058697444899196073 0 0.12237630772435321 -0.080486934419153416 0 0.1343264613628278 -0.075721206604907471 0 0.1343264613628278 -0.075721206604907471 0 0.14384220267340589 -0.057538869863996728 0 0.1191271495443937 -0.058697444899196073 0 0.1343264613628278 -0.075721206604907471 0 0.14384220267340589 -0.057538869863996728 0 0.1191271495443937 -0.058697444899196073 0 0.1343264613628278 -0.075721206604907471 0 0.1343264613628278 -0.075721206604907471 0 0.15359906361309669 -0.072567866460652899 0 0.14384220267340589 -0.057538869863996728 0 0.1343264613628278 -0.075721206604907471 0 0.15359906361309669 -0.072567866460652899 0 0.14495287907851409 -0.087623166715870324 0 0.15359906361309669 -0.072567866460652899 0 0.14495287907851409 -0.087623166715870324 0 0.16194787241300779 -0.085568586283795184 0 0.15557929679419871 -0.099525126826834648 0 0.14495287907851409 -0.087623166715870324 0 0.16194787241300779 -0.085568586283795184 0 0.15557929679419871 -0.099525126826834648 0 0.13615454531929941 -0.09349957350551874 0 0.14495287907851409 -0.087623166715870324 0 0.15557929679419871 -0.099525126826834648 0 0.14495287907851409 -0.087623166715870324 0 0.15557929679419871 -0.099525126826834648 0 0.16194787241300779 -0.085568586283795184 0 0.1748952829239652 -0.093797094070918449 0 0.16194787241300779 -0.085568586283795184 0 0.17240979988643421 -0.073803593789868935 0 0.1748952829239652 -0.093797094070918449 0 0.15359906361309669 -0.072567866460652899 0 0.16194787241300779 -0.085568586283795184 0 0.17240979988643421 -0.073803593789868935 0 0.15359906361309669 -0.072567866460652899 0 0.17240979988643421 -0.073803593789868935 0 0.16411516626439041 -0.055151775505478812 0 0.17240979988643421 -0.073803593789868935 0 0.16411516626439041 -0.055151775505478812 0 0.1888234613124295 -0.063326800350412799 0 0.17240979988643421 -0.073803593789868935 0 0.18751123012704671 -0.080039254908795557 0 0.1888234613124295 -0.063326800350412799 0 0.17240979988643421 -0.073803593789868935 0 0.1748952829239652 -0.093797094070918449 0 0.18751123012704671 -0.080039254908795557 0 0.1748952829239652 -0.093797094070918449 0 0.18751123012704671 -0.080039254908795557 0 0.19572524828282689 -0.093505383200023356 0 0.1748952829239652 -0.093797094070918449 0 0.1847251218663728 -0.1113837920493483 0 0.19572524828282689 -0.093505383200023356 0 0.1748952829239652 -0.093797094070918449 0 0.1847251218663728 -0.1113837920493483 0 0.16809402623346159 -0.10629455399490439 0 0.17298237861247631 -0.11965672478188109 0 0.19886558484808939 -0.1243949315651092 0 0.1847251218663728 -0.1113837920493483 0 0.17298237861247631 -0.11965672478188109 0 0.19886558484808939 -0.1243949315651092 0 0.1847251218663728 -0.1113837920493483 0 0.17298237861247631 -0.11965672478188109 0 0.16809402623346159 -0.10629455399490439 0 0.14709917237686321 -0.11491851799865301 0 0.17298237861247631 -0.11965672478188109 0 0.16809402623346159 -0.10629455399490439 0 0.14709917237686321 -0.11491851799865301 0 0.17298237861247631 -0.11965672478188109 0 0.14709917237686321 -0.11491851799865301 0 0.17298237861247631 -0.11965672478188109 0 0.15825658935227691 -0.1325229538715155 0 0.15557929679419871 -0.099525126826834648 0 0.1748952829239652 -0.093797094070918449 0 0.16809402623346159 -0.10629455399490439 0 0.14709917237686321 -0.11491851799865301 0 0.15557929679419871 -0.099525126826834648 0 0.16809402623346159 -0.10629455399490439 0 0.14456821268474351 -0.0045161175477141449 0 0.14741341804568911 -0.021913141669093181 0 0.1587490399622927 -0.01534404280768898 0 0.13073213683304949 0.00026224515078349803 0 0.14456821268474351 -0.0045161175477141449 0 0.13062838635200541 -0.013591523654289931 0 0.13073213683304949 0.00026224515078349803 0 0.11536551477566009 -0.018505440996773839 0 0.13062838635200541 -0.013591523654289931 0 0.14456821268474351 -0.0045161175477141449 0 0.13184768111456879 -0.031606781223455213 0 0.11536551477566009 -0.018505440996773839 0 0.13062838635200541 -0.013591523654289931 0 0.13184768111456879 -0.031606781223455213 0 0.14456821268474351 -0.0045161175477141449 0 0.13062838635200541 -0.013591523654289931 0 0.13184768111456879 -0.031606781223455213 0 0.14741341804568911 -0.021913141669093181 0 0.15448873842115129 -0.036185625097514391 0 0.13184768111456879 -0.031606781223455213 0 0.14741341804568911 -0.021913141669093181 0 0.15448873842115129 -0.036185625097514391 0 0.1587490399622927 -0.01534404280768898 0 0.14456821268474351 -0.0045161175477141449 0 0.14741341804568911 -0.021913141669093181 0 0.13184768111456879 -0.031606781223455213 0 0.15448873842115129 -0.036185625097514391 0 0.13184768111456879 -0.031606781223455213 0 0.14384220267340589 -0.057538869863996728 0 0.1191271495443937 -0.058697444899196073 0 0.13184768111456879 -0.031606781223455213 0 0.1191271495443937 -0.058697444899196073 0 0.13184768111456879 -0.031606781223455213 0 0.14384220267340589 -0.057538869863996728 0 0.15448873842115129 -0.036185625097514391 0 0.14384220267340589 -0.057538869863996728 0 0.16411516626439041 -0.055151775505478812 0 0.15359906361309669 -0.072567866460652899 0 0.14384220267340589 -0.057538869863996728 0 0.16411516626439041 -0.055151775505478812 0 0.16411516626439041 -0.055151775505478812 0 0.1814897898032406 -0.044436658654922363 0 0.1888234613124295 -0.063326800350412799 0 0.15448873842115129 -0.036185625097514391 0 0.16411516626439041 -0.055151775505478812 0 0.1814897898032406 -0.044436658654922363 0 0.15448873842115129 -0.036185625097514391 0 0.1814897898032406 -0.044436658654922363 0 0.1747837496351963 -0.02316886954167929 0 0.15448873842115129 -0.036185625097514391 0 0.1814897898032406 -0.044436658654922363 0 0.1747837496351963 -0.02316886954167929 0 0.17059899510721371 -0.01005815753717495 0 0.1587490399622927 -0.01534404280768898 0 0.15448873842115129 -0.036185625097514391 0 0.1747837496351963 -0.02316886954167929 0 0.1587490399622927 -0.01534404280768898 0 0.1747837496351963 -0.02316886954167929 0 0.1828448545182304 -0.0039318032008279838 0 0.19056953225068241 -0.020651350169048271 0 0.1814897898032406 -0.044436658654922363 0 0.1747837496351963 -0.02316886954167929 0 0.19056953225068241 -0.020651350169048271 0 0.1747837496351963 -0.02316886954167929 0 0.1828448545182304 -0.0039318032008279838 0 0.1747837496351963 -0.02316886954167929 0 0.1828448545182304 -0.0039318032008279838 0 0.17059899510721371 -0.01005815753717495 0 0.16601833631313551 0.002212085401496445 0 0.1828448545182304 -0.0039318032008279838 0 0.17059899510721371 -0.01005815753717495 0 0.16601833631313551 0.002212085401496445 0 0.17059899510721371 -0.01005815753717495 0 0.1587490399622927 -0.01534404280768898 0 0.16601833631313551 0.002212085401496445 0 0.14456821268474351 -0.0045161175477141449 0 0.1587490399622927 -0.01534404280768898 0 0.19985050439009941 -0.01201657375783961 0 0.22647714438462521 -0.0154540454587764 0 0.21685010653696021 -0.0032511187731546248 0 0.19985050439009941 -0.01201657375783961 0 0.22647714438462521 -0.0154540454587764 0 0.21685010653696021 -0.0032511187731546248 0 0.20162928617089981 -0.0001018482545814981 0 0.19985050439009941 -0.01201657375783961 0 0.20162928617089981 -0.0001018482545814981 0 0.19357268616679391 -0.0056748937553249027 0 0.19985050439009941 -0.01201657375783961 0 0.1828448545182304 -0.0039318032008279838 0 0.19357268616679391 -0.0056748937553249027 0 0.19056953225068241 -0.020651350169048271 0 0.19512594444728351 0.0047137928572609233 0 0.20162928617089981 -0.0001018482545814981 0 0.19357268616679391 -0.0056748937553249027 0 0.19512594444728351 0.0047137928572609233 0 0.1828448545182304 -0.0039318032008279838 0 0.19357268616679391 -0.0056748937553249027 0 0.19357268616679391 -0.0056748937553249027 0 0.19985050439009941 -0.01201657375783961 0 0.19056953225068241 -0.020651350169048271 0 0.19985050439009941 -0.01201657375783961 0 0.2004129845788121 -0.022565724385789711 0 0.19056953225068241 -0.020651350169048271 0 0.2004129845788121 -0.022565724385789711 0 0.19056953225068241 -0.020651350169048271 0 0.20129904509914809 -0.033410974085810008 0 0.19985050439009941 -0.01201657375783961 0 0.2092323554178345 -0.023774165935338251 0 0.22647714438462521 -0.0154540454587764 0 0.2004129845788121 -0.022565724385789711 0 0.2092323554178345 -0.023774165935338251 0 0.20129904509914809 -0.033410974085810008 0 0.2092323554178345 -0.023774165935338251 0 0.2179396764600593 -0.035316784489745637 0 0.22647714438462521 -0.0154540454587764 0 0.2092323554178345 -0.023774165935338251 0 0.2179396764600593 -0.035316784489745637 0 0.20129904509914809 -0.033410974085810008 0 0.19985050439009941 -0.01201657375783961 0 0.2004129845788121 -0.022565724385789711 0 0.2092323554178345 -0.023774165935338251 0 0.2179396764600593 -0.035316784489745637 0 0.20849084118533021 -0.052687692212330391 0 0.22421092645988691 -0.047960534612488698 0 0.2179396764600593 -0.035316784489745637 0 0.20129904509914809 -0.033410974085810008 0 0.20849084118533021 -0.052687692212330391 0 0.1814897898032406 -0.044436658654922363 0 0.19056953225068241 -0.020651350169048271 0 0.20129904509914809 -0.033410974085810008 0 0.1814897898032406 -0.044436658654922363 0 0.20129904509914809 -0.033410974085810008 0 0.20849084118533021 -0.052687692212330391 0 0.1814897898032406 -0.044436658654922363 0 0.20849084118533021 -0.052687692212330391 0 0.1814897898032406 -0.044436658654922363 0 0.20849084118533021 -0.052687692212330391 0 0.1888234613124295 -0.063326800350412799 0 0.20849084118533021 -0.052687692212330391 0 0.22421092645988691 -0.047960534612488698 0 0.23549189256742009 -0.060938725769736607 0 0.20849084118533021 -0.052687692212330391 0 0.23549189256742009 -0.060938725769736607 0 0.20849084118533021 -0.052687692212330391 0 0.23549189256742009 -0.060938725769736607 0 0.2324465280880304 -0.062917514572531058 0 0.20849084118533021 -0.052687692212330391 0 0.2278674543553143 -0.070572745649775517 0 0.2324465280880304 -0.062917514572531058 0 0.22421092645988691 -0.047960534612488698 0 0.23422241770443319 -0.051130374509985872 0 0.23549189256742009 -0.060938725769736607 0 0.23549189256742009 -0.060938725769736607 0 0.2324465280880304 -0.062917514572531058 0 0.23422241770443319 -0.051130374509985872 0 0.23549189256742009 -0.060938725769736607 0 0.2443777089061322 -0.05516498210333428 0 0.23549189256742009 -0.060938725769736607 0 0.2443777089061322 -0.05516498210333428 0 0.25003255048105077 -0.065382088166795888 0 0.23549189256742009 -0.060938725769736607 0 0.2443777089061322 -0.05516498210333428 0 0.23422241770443319 -0.051130374509985872 0 0.2443777089061322 -0.05516498210333428 0 0.23422241770443319 -0.051130374509985872 0 0.2443777089061322 -0.05516498210333428 0 0.24351424611744721 -0.04374789226813075 0 0.23422241770443319 -0.051130374509985872 0 0.24351424611744721 -0.04374789226813075 0 0.23099469543329501 -0.038049658158707152 0 0.24351424611744721 -0.04374789226813075 0 0.24383099308668099 -0.032073942242577001 0 0.23099469543329501 -0.038049658158707152 0 0.22421092645988691 -0.047960534612488698 0 0.23422241770443319 -0.051130374509985872 0 0.23099469543329501 -0.038049658158707152 0 0.2179396764600593 -0.035316784489745637 0 0.22421092645988691 -0.047960534612488698 0 0.23099469543329501 -0.038049658158707152 0 0.24383099308668099 -0.032073942242577001 0 0.23099469543329501 -0.038049658158707152 0 0.22647714438462521 -0.0154540454587764 0 0.2179396764600593 -0.035316784489745637 0 0.23099469543329501 -0.038049658158707152 0 0.22647714438462521 -0.0154540454587764 0 0.25310378437915132 -0.018891517159713218 0 0.22647714438462521 -0.0154540454587764 0 0.25310378437915132 -0.018891517159713218 0 0.24383099308668099 -0.032073942242577001 0 0.22647714438462521 -0.0154540454587764 0 0.25310378437915132 -0.018891517159713218 0 0.24727983912845811 -0.001679955406053003 0 0.22647714438462521 -0.0154540454587764 0 0.22693262543853129 0.0085782552599250762 0 0.24727983912845811 -0.001679955406053003 0 0.22647714438462521 -0.0154540454587764 0 0.22693262543853129 0.0085782552599250762 0 0.21685010653696021 -0.0032511187731546248 0 0.22647714438462521 -0.0154540454587764 0 0.21122955301656701 -0.1039637466479444 0 0.19572524828282689 -0.093505383200023356 0 0.2181275336969925 -0.08700079525413007 0 0.21122955301656701 -0.1039637466479444 0 0.2162449572128573 -0.12109614604505479 0 0.19886558484808939 -0.1243949315651092 0 0.1847251218663728 -0.1113837920493483 0 0.21122955301656701 -0.1039637466479444 0 0.19886558484808939 -0.1243949315651092 0 0.1847251218663728 -0.1113837920493483 0 0.21122955301656701 -0.1039637466479444 0 0.19572524828282689 -0.093505383200023356 0 0.1847251218663728 -0.1113837920493483 0 0.21122955301656701 -0.1039637466479444 0 0.18751123012704671 -0.080039254908795557 0 0.19572524828282689 -0.093505383200023356 0 0.20570235822957769 -0.075763403132754162 0 0.18751123012704671 -0.080039254908795557 0 0.1888234613124295 -0.063326800350412799 0 0.20570235822957769 -0.075763403132754162 0 0.20849084118533021 -0.052687692212330391 0 0.1888234613124295 -0.063326800350412799 0 0.20570235822957769 -0.075763403132754162 0 0.20570235822957769 -0.075763403132754162 0 0.2181275336969925 -0.08700079525413007 0 0.2278674543553143 -0.070572745649775517 0 0.20570235822957769 -0.075763403132754162 0 0.2278674543553143 -0.070572745649775517 0 0.20849084118533021 -0.052687692212330391 0 0.20570235822957769 -0.075763403132754162 0 0.2278674543553143 -0.070572745649775517 0 0.19572524828282689 -0.093505383200023356 0 0.20570235822957769 -0.075763403132754162 0 0.2181275336969925 -0.08700079525413007 0 0.2181275336969925 -0.08700079525413007 0 0.2311230699220507 -0.083265108677805039 0 0.2377339841667612 -0.096543701246540464 0 0.2181275336969925 -0.08700079525413007 0 0.2311230699220507 -0.083265108677805039 0 0.2278674543553143 -0.070572745649775517 0 0.2311230699220507 -0.083265108677805039 0 0.2278674543553143 -0.070572745649775517 0 0.24076330746913491 -0.078943192560774117 0 0.25003255048105077 -0.065382088166795888 0 0.2278674543553143 -0.070572745649775517 0 0.24076330746913491 -0.078943192560774117 0 0.25003255048105077 -0.065382088166795888 0 0.2278674543553143 -0.070572745649775517 0 0.25003255048105077 -0.065382088166795888 0 0.23549189256742009 -0.060938725769736607 0 0.2324465280880304 -0.062917514572531058 0 0.25003255048105077 -0.065382088166795888 0 0.2278674543553143 -0.070572745649775517 0 0.2324465280880304 -0.062917514572531058 0 0.25229650452316787 -0.080216704106708836 0 0.25003255048105077 -0.065382088166795888 0 0.24076330746913491 -0.078943192560774117 0 0.25003255048105077 -0.065382088166795888 0 0.23549189256742009 -0.060938725769736607 0 0.25229650452316787 -0.080216704106708836 0 0.24076330746913491 -0.078943192560774117 0 0.2377339841667612 -0.096543701246540464 0 0.2311230699220507 -0.083265108677805039 0 0.24076330746913491 -0.078943192560774117 0 0.2377339841667612 -0.096543701246540464 0 0.21122955301656701 -0.1039637466479444 0 0.2181275336969925 -0.08700079525413007 0 0.2377339841667612 -0.096543701246540464 0 0.21122955301656701 -0.1039637466479444 0 0.2377339841667612 -0.096543701246540464 0 0.23639612724623649 -0.1189847686131449 0 0.21122955301656701 -0.1039637466479444 0 0.2377339841667612 -0.096543701246540464 0 0.21122955301656701 -0.1039637466479444 0 0.2162449572128573 -0.12109614604505479 0 0.23639612724623649 -0.1189847686131449 0 0.25476571432189338 -0.1126602784672653 0 0.25695038574270829 -0.1310127092774904 0 0.23639612724623649 -0.1189847686131449 0 0.25476571432189338 -0.1126602784672653 0 0.2377339841667612 -0.096543701246540464 0 0.23639612724623649 -0.1189847686131449 0 0.25695038574270829 -0.1310127092774904 0 0.23639612724623649 -0.1189847686131449 0 0.24348894952176309 -0.14539255138218549 0 0.23639612724623649 -0.1189847686131449 0 0.24348894952176309 -0.14539255138218549 0 0.23639612724623649 -0.1189847686131449 0 0.24348894952176309 -0.14539255138218549 0 0.22929564007035569 -0.14330637337462079 0 0.24348894952176309 -0.14539255138218549 0 0.22929564007035569 -0.14330637337462079 0 0.23222946688596621 -0.16283248184248811 0 0.22929564007035569 -0.14330637337462079 0 0.21710212627862049 -0.1527983693297385 0 0.23222946688596621 -0.16283248184248811 0 0.22929564007035569 -0.14330637337462079 0 0.21726153041919219 -0.13652369570554729 0 0.21710212627862049 -0.1527983693297385 0 0.2162449572128573 -0.12109614604505479 0 0.23639612724623649 -0.1189847686131449 0 0.21726153041919219 -0.13652369570554729 0 0.23639612724623649 -0.1189847686131449 0 0.22929564007035569 -0.14330637337462079 0 0.21726153041919219 -0.13652369570554729 0 0.2162449572128573 -0.12109614604505479 0 0.19886558484808939 -0.1243949315651092 0 0.21726153041919219 -0.13652369570554729 0 0.19886558484808939 -0.1243949315651092 0 0.21726153041919219 -0.13652369570554729 0 0.19879767818100291 -0.14544606327178239 0 0.21726153041919219 -0.13652369570554729 0 0.21710212627862049 -0.1527983693297385 0 0.19879767818100291 -0.14544606327178239 0 0.21710212627862049 -0.1527983693297385 0 0.19879767818100291 -0.14544606327178239 0 0.20493719280337111 -0.1633774229492615 0 0.19879767818100291 -0.14544606327178239 0 0.1843169644273514 -0.13397148923385621 0 0.1800612168208866 -0.14727058332699311 0 0.19879767818100291 -0.14544606327178239 0 0.18905802276067851 -0.16284982931095471 0 0.1800612168208866 -0.14727058332699311 0 0.19886558484808939 -0.1243949315651092 0 0.19879767818100291 -0.14544606327178239 0 0.1843169644273514 -0.13397148923385621 0 0.19984295693840959 -0.1778214964736205 0 0.21396744247544691 -0.18999963103436951 0 0.19382757059246319 -0.193631704038189 0 0.19984295693840959 -0.1778214964736205 0 0.19382757059246319 -0.193631704038189 0 0.1783518755528351 -0.18245913711859729 0 0.19984295693840959 -0.1778214964736205 0 0.18905802276067851 -0.16284982931095471 0 0.1783518755528351 -0.18245913711859729 0 0.19879767818100291 -0.14544606327178239 0 0.18905802276067851 -0.16284982931095471 0 0.20493719280337111 -0.1633774229492615 0 0.19984295693840959 -0.1778214964736205 0 0.18905802276067851 -0.16284982931095471 0 0.20493719280337111 -0.1633774229492615 0 0.21710212627862049 -0.1527983693297385 0 0.20493719280337111 -0.1633774229492615 0 0.21891563744566311 -0.1746112543903508 0 0.19984295693840959 -0.1778214964736205 0 0.21891563744566311 -0.1746112543903508 0 0.21396744247544691 -0.18999963103436951 0 0.19984295693840959 -0.1778214964736205 0 0.20493719280337111 -0.1633774229492615 0 0.21891563744566311 -0.1746112543903508 0 0.21891563744566311 -0.1746112543903508 0 0.2328801645679032 -0.18709647129291759 0 0.21396744247544691 -0.18999963103436951 0 0.21891563744566311 -0.1746112543903508 0 0.2328801645679032 -0.18709647129291759 0 0.23222946688596621 -0.16283248184248811 0 0.21710212627862049 -0.1527983693297385 0 0.21891563744566311 -0.1746112543903508 0 0.23222946688596621 -0.16283248184248811 0 0.2505817717972898 -0.17180033415122581 0 0.24348894952176309 -0.14539255138218549 0 0.23222946688596621 -0.16283248184248811 0 0.2505817717972898 -0.17180033415122581 0 0.24348894952176309 -0.14539255138218549 0 0.25767459407281651 -0.1982081169202663 0 0.2505817717972898 -0.17180033415122581 0 0.2328801645679032 -0.18709647129291759 0 0.2505817717972898 -0.17180033415122581 0 0.2328801645679032 -0.18709647129291759 0 0.23222946688596621 -0.16283248184248811 0 0.25767459407281651 -0.1982081169202663 0 0.2328801645679032 -0.18709647129291759 0 0.2369890041138483 -0.20605890791354339 0 0.2369890041138483 -0.20605890791354339 0 0.24812357358753001 -0.22267929854847721 0 0.23949358348822891 -0.2249146867186029 0 0.25997608400921762 -0.22278431421765951 0 0.2369890041138483 -0.20605890791354339 0 0.2369890041138483 -0.20605890791354339 0 0.2288069581467814 -0.2182497697962795 0 0.23949358348822891 -0.2249146867186029 0 0.25997608400921762 -0.22278431421765951 0 0.2369890041138483 -0.20605890791354339 0 0.24812357358753001 -0.22267929854847721 0 0.22107076816478671 -0.2061767250108992 0 0.2288069581467814 -0.2182497697962795 0 0.2170682020842909 -0.22355438028974409 0 0.2369890041138483 -0.20605890791354339 0 0.22107076816478671 -0.2061767250108992 0 0.2288069581467814 -0.2182497697962795 0 0.2328801645679032 -0.18709647129291759 0 0.22107076816478671 -0.2061767250108992 0 0.21396744247544691 -0.18999963103436951 0 0.2328801645679032 -0.18709647129291759 0 0.2369890041138483 -0.20605890791354339 0 0.22107076816478671 -0.2061767250108992 0 0.24312646163795509 -0.245353091718022 0 0.23911782826522851 -0.23619214165377911 0 0.23010913448976489 -0.2456271662758337 0 0.24312646163795509 -0.245353091718022 0 0.23911782826522851 -0.23619214165377911 0 0.2490619156855412 -0.2335319319965723 0 0.25486334444659259 -0.2408766748622668 0 0.24312646163795509 -0.245353091718022 0 0.2490619156855412 -0.2335319319965723 0 0.23911782826522851 -0.23619214165377911 0 0.23949358348822891 -0.2249146867186029 0 0.22872441700282881 -0.23099163187028121 0 0.2490619156855412 -0.2335319319965723 0 0.24812357358753001 -0.22267929854847721 0 0.23949358348822891 -0.2249146867186029 0 0.23911782826522851 -0.23619214165377911 0 0.2490619156855412 -0.2335319319965723 0 0.23949358348822891 -0.2249146867186029 0 0.2288069581467814 -0.2182497697962795 0 0.23949358348822891 -0.2249146867186029 0 0.22872441700282881 -0.23099163187028121 0 0.2288069581467814 -0.2182497697962795 0 0.22872441700282881 -0.23099163187028121 0 0.2170682020842909 -0.22355438028974409 0 0.22872441700282881 -0.23099163187028121 0 0.21775079554267809 -0.23741164648744781 0 0.2170682020842909 -0.22355438028974409 0 0.21174693665183089 -0.25242233455121449 0 0.23010913448976489 -0.2456271662758337 0 0.21775079554267809 -0.23741164648744781 0 0.23911782826522851 -0.23619214165377911 0 0.22872441700282881 -0.23099163187028121 0 0.23010913448976489 -0.2456271662758337 0 0.22872441700282881 -0.23099163187028121 0 0.23010913448976489 -0.2456271662758337 0 0.21775079554267809 -0.23741164648744781 0 0.21174693665183089 -0.25242233455121449 0 0.21775079554267809 -0.23741164648744781 0 0.20303023150990801 -0.2356187077303904 0 0.2170682020842909 -0.22355438028974409 0 0.20303023150990801 -0.2356187077303904 0 0.20165795822189631 -0.21240256806715579 0 0.21775079554267809 -0.23741164648744781 0 0.2170682020842909 -0.22355438028974409 0 0.20303023150990801 -0.2356187077303904 0 0.20303023150990801 -0.2356187077303904 0 0.20165795822189631 -0.21240256806715579 0 0.18309009037365129 -0.2272353875885651 0 0.21174693665183089 -0.25242233455121449 0 0.18760469472834601 -0.25132031860462889 0 0.20303023150990801 -0.2356187077303904 0 0.18760469472834601 -0.25132031860462889 0 0.20303023150990801 -0.2356187077303904 0 0.18309009037365129 -0.2272353875885651 0 0.21396744247544691 -0.18999963103436951 0 0.20165795822189631 -0.21240256806715579 0 0.19382757059246319 -0.193631704038189 0 0.22107076816478671 -0.2061767250108992 0 0.21396744247544691 -0.18999963103436951 0 0.20165795822189631 -0.21240256806715579 0 0.22107076816478671 -0.2061767250108992 0 0.2170682020842909 -0.22355438028974409 0 0.20165795822189631 -0.21240256806715579 0 0.20165795822189631 -0.21240256806715579 0 0.18020719391622761 -0.20595067460225011 0 0.18309009037365129 -0.2272353875885651 0 0.20165795822189631 -0.21240256806715579 0 0.19382757059246319 -0.193631704038189 0 0.18020719391622761 -0.20595067460225011 0 0.18020719391622761 -0.20595067460225011 0 0.16066233045399889 -0.19713324491860509 0 0.1783518755528351 -0.18245913711859729 0 0.19382757059246319 -0.193631704038189 0 0.18020719391622761 -0.20595067460225011 0 0.1783518755528351 -0.18245913711859729 0 0.18020719391622761 -0.20595067460225011 0 0.16293514120024791 -0.21815522378732069 0 0.18309009037365129 -0.2272353875885651 0 0.18020719391622761 -0.20595067460225011 0 0.16293514120024791 -0.21815522378732069 0 0.16066233045399889 -0.19713324491860509 0 0.18760469472834601 -0.25132031860462889 0 0.16337905089516561 -0.25909533688449332 0 0.16482005188102081 -0.238820303747313 0 0.18760469472834601 -0.25132031860462889 0 0.18309009037365129 -0.2272353875885651 0 0.16482005188102081 -0.238820303747313 0 0.16293514120024791 -0.21815522378732069 0 0.16482005188102081 -0.238820303747313 0 0.14885229909742409 -0.22885668703859249 0 0.16293514120024791 -0.21815522378732069 0 0.18309009037365129 -0.2272353875885651 0 0.16482005188102081 -0.238820303747313 0 0.16337905089516561 -0.25909533688449332 0 0.16482005188102081 -0.238820303747313 0 0.14447780115211609 -0.2485233608866099 0 0.16482005188102081 -0.238820303747313 0 0.14447780115211609 -0.2485233608866099 0 0.14885229909742409 -0.22885668703859249 0 0.14447780115211609 -0.2485233608866099 0 0.14885229909742409 -0.22885668703859249 0 0.12934325602550201 -0.227500018139807 0 0.16293514120024791 -0.21815522378732069 0 0.14885229909742409 -0.22885668703859249 0 0.1426852452282337 -0.21128452863191219 0 0.14885229909742409 -0.22885668703859249 0 0.12934325602550201 -0.227500018139807 0 0.1426852452282337 -0.21128452863191219 0 0.12715097049526741 -0.25025199571667128 0 0.14447780115211609 -0.2485233608866099 0 0.12934325602550201 -0.227500018139807 0 0.14447780115211609 -0.2485233608866099 0 0.12934325602550201 -0.227500018139807 0 0.16066233045399889 -0.19713324491860509 0 0.14132979031586651 -0.18974170439322921 0 0.1426852452282337 -0.21128452863191219 0 0.16293514120024791 -0.21815522378732069 0 0.16066233045399889 -0.19713324491860509 0 0.1426852452282337 -0.21128452863191219 0 0.1142087108988878 -0.20647667539300391 0 0.12934325602550201 -0.227500018139807 0 0.1426852452282337 -0.21128452863191219 0 0.1142087108988878 -0.20647667539300391 0 0.14132979031586651 -0.18974170439322921 0 0.1426852452282337 -0.21128452863191219 0 0.1142087108988878 -0.20647667539300391 0 0.12078286551628729 -0.17975479095441971 0 0.14132979031586651 -0.18974170439322921 0 0.12078286551628729 -0.17975479095441971 0 0.14132979031586651 -0.18974170439322921 0 0.13845844867322771 -0.16773671441901331 0 0.16066233045399889 -0.19713324491860509 0 0.14132979031586651 -0.18974170439322921 0 0.15732016956996639 -0.17458548491737819 0 0.14132979031586651 -0.18974170439322921 0 0.13845844867322771 -0.16773671441901331 0 0.15732016956996639 -0.17458548491737819 0 0.13845844867322771 -0.16773671441901331 0 0.15291917112056269 -0.1513261675964247 0 0.15732016956996639 -0.17458548491737819 0 0.1235894598099008 -0.16287030272952191 0 0.12078286551628729 -0.17975479095441971 0 0.13845844867322771 -0.16773671441901331 0 0.1235894598099008 -0.16287030272952191 0 0.13845844867322771 -0.16773671441901331 0 0.13480923570678269 -0.14814183592310609 0 0.1184101890006467 -0.14460775347545249 0 0.13480923570678269 -0.14814183592310609 0 0.12942870146992019 -0.13332937806367429 0 0.1184101890006467 -0.14460775347545249 0 0.1235894598099008 -0.16287030272952191 0 0.13480923570678269 -0.14814183592310609 0 0.1236629650190357 -0.1219099957218355 0 0.13308231922290739 -0.12228679279071671 0 0.12942870146992019 -0.13332937806367429 0 0.13480923570678269 -0.14814183592310609 0 0.12942870146992019 -0.13332937806367429 0 0.14259919820821881 -0.13375427437401499 0 0.13308231922290739 -0.12228679279071671 0 0.12942870146992019 -0.13332937806367429 0 0.14259919820821881 -0.13375427437401499 0 0.14259919820821881 -0.13375427437401499 0 0.15291917112056269 -0.1513261675964247 0 0.15825658935227691 -0.1325229538715155 0 0.14709917237686321 -0.11491851799865301 0 0.14259919820821881 -0.13375427437401499 0 0.15825658935227691 -0.1325229538715155 0 0.13845844867322771 -0.16773671441901331 0 0.13480923570678269 -0.14814183592310609 0 0.15291917112056269 -0.1513261675964247 0 0.13480923570678269 -0.14814183592310609 0 0.14259919820821881 -0.13375427437401499 0 0.15291917112056269 -0.1513261675964247 0 0.15291917112056269 -0.1513261675964247 0 0.16658422514705989 -0.14537008083771791 0 0.16995603870603551 -0.16112289233059851 0 0.15291917112056269 -0.1513261675964247 0 0.16658422514705989 -0.14537008083771791 0 0.15825658935227691 -0.1325229538715155 0 0.16658422514705989 -0.14537008083771791 0 0.15825658935227691 -0.1325229538715155 0 0.17172810973553779 -0.13460780706305789 0 0.17298237861247631 -0.11965672478188109 0 0.15825658935227691 -0.1325229538715155 0 0.17172810973553779 -0.13460780706305789 0 0.17298237861247631 -0.11965672478188109 0 0.19886558484808939 -0.1243949315651092 0 0.1843169644273514 -0.13397148923385621 0 0.17298237861247631 -0.11965672478188109 0 0.17172810973553779 -0.13460780706305789 0 0.1843169644273514 -0.13397148923385621 0 0.17172810973553779 -0.13460780706305789 0 0.1843169644273514 -0.13397148923385621 0 0.1800612168208866 -0.14727058332699311 0 0.16658422514705989 -0.14537008083771791 0 0.1800612168208866 -0.14727058332699311 0 0.16995603870603551 -0.16112289233059851 0 0.16658422514705989 -0.14537008083771791 0 0.17172810973553779 -0.13460780706305789 0 0.1800612168208866 -0.14727058332699311 0 0.18905802276067851 -0.16284982931095471 0 0.1783518755528351 -0.18245913711859729 0 0.16995603870603551 -0.16112289233059851 0 0.18905802276067851 -0.16284982931095471 0 0.1800612168208866 -0.14727058332699311 0 0.16995603870603551 -0.16112289233059851 0 0.16066233045399889 -0.19713324491860509 0 0.1783518755528351 -0.18245913711859729 0 0.15732016956996639 -0.17458548491737819 0 0.1783518755528351 -0.18245913711859729 0 0.15732016956996639 -0.17458548491737819 0 0.16995603870603551 -0.16112289233059851 0 0.15291917112056269 -0.1513261675964247 0 0.15732016956996639 -0.17458548491737819 0 0.16995603870603551 -0.16112289233059851 0 
</DataArray>
</Points>
<Cells>
<DataArray type="UInt32" Name="connectivity" format="ascii">
0 1 2 3 4 5 6 7 8 9 10 11 12 13 14 15 16 17 18 19 20 21 22 23 24 25 26 27 28 29 30 31 32 33 34 35 36 37 38 39 40 41 42 43 44 45 46 47 48 49 50 51 52 53 54 55 56 57 58 59 60 61 62 63 64 65 66 67 68 69 70 71 72 73 74 75 76 77 78 79 80 81 82 83 84 85 86 87 88 89 90 91 92 93 94 95 96 97 98 99 100 101 102 103 104 105 106 107 108 109 110 111 112 113 114 115 116 117 118 119 120 121 122 123 124 125 126 127 128 129 130 131 132 133 134 135 136 137 138 139 140 141 142 143 144 145 146 147 148 149 150 151 152 153 154 155 156 157 158 159 160 161 162 163 164 165 166 167 168 169 170 171 172 173 174 175 176 177 178 179 180 181 182 183 184 185 186 187 188 189 190 191 192 193 194 195 196 197 198 199 200 201 202 203 204 205 206 207 208 209 210 211 212 213 214 215 216 217 218 219 220 221 222 223 224 225 226 227 228 229 230 231 232 233 234 235 236 237 238 239 240 241 242 243 244 245 246 247 248 249 250 251 252 253 254 255 256 257 258 259 260 261 262 263 264 265 266 267 268 269 270 271 272 273 274 275 276 277 278 279 280 281 282 283 284 285 286 287 288 289 290 291 292 293 294 295 296 297 298 299 300 301 302 303 304 305 306 307 308 309 310 311 312 313 314 315 316 317 318 319 320 321 322 323 324 325 326 327 328 329 330 331 332 333 334 335 336 337 338 339 340 341 342 343 344 345 346 347 348 349 350 351 352 353 354 355 356 357 358 359 360 361 362 363 364 365 366 367 368 369 370 371 372 373 374 375 376 377 378 379 380 381 382 383 384 385 386 387 388 389 390 391 392 393 394 395 396 397 398 399 400 401 402 403 404 405 406 407 408 409 410 411 412 413 414 415 416 417 418 419 420 421 422 423 424 425 426 427 428 429 430 431 432 433 434 435 436 437 438 439 440 441 442 443 444 445 446 447 448 449 450 451 452 453 454 455 456 457 458 459 460 461 462 463 464 465 466 467 468 469 470 471 472 473 474 475 476 477 478 479 480 481 482 483 484 485 486 487 488 489 490 491 492 493 494 495 496 497 498 499 500 501 502 503 504 505 506 507 508 509 510 511 512 513 514 515 516 517 518 519 520 521 522 523 524 525 526 527 528 529 530 531 532 533 534 535 536 537 538 539 540 541 542 543 544 545 546 547 548 549 550 551 552 553 554 555 556 557 558 559 560 561 562 563 564 565 566 567 568 569 570 571 572 573 574 575 576 577 578 579 580 581 582 583 584 585 586 587 588 589 590 591 592 593 594 595 596 597 598 599 600 601 602 603 604 605 606 607 608 609 610 611 612 613 614 615 616 617 618 619 620 621 622 623 624 625 626 627 628 629 630 631 632 633 634 635 636 637 638 639 640 641 642 643 644 645 646 647 648 649 650 651 652 653 654 655 656 657 658 659 660 661 662 663 664 665 666 667 668 669 670 671 672 673 674 675 676 677 678 679 680 681 682 683 684 685 686 687 688 689 690 691 692 693 694 695 696 697 698 699 700 701 702 703 704 705 706 707 708 709 710 711 712 713 714 715 716 717 718 719 720 721 722 723 724 725 726 727 728 729 730 731 732 733 734 735 736 737 738 739 740 741 742 743 744 745 746 747 748 749 750 751 752 753 754 755 756 757 758 759 760 761 762 763 764 765 766 767 768 769 770 771 772 773 774 775 776 777 778 779 780 781 782 783 784 785 786 787 788 789 790 791 792 793 794 795 796 797 798 799 800 801 802 803 804 805 806 807 808 809 810 811 812 813 814 815 816 817 818 819 820 821 822 823 824 825 826 827 828 829 830 831 832 833 834 835 836 837 838 839 840 841 842 843 844 845 846 847 848 849 850 851 852 853 854 855 856 857 858 859 860 861 862 863 864 865 866 867 868 869 870 871 872 873 874 875 876 877 878 879 880 881 882 883 884 885 886 887 888 889 890 891 892 893 894 895 896 897 898 899 900 901 902 903 904 905 906 907 908 909 910 911 912 913 914 915 916 917 918 919 920 921 922 923 924 925 926 927 928 929 930 931 932 933 934 935 936 937 938 939 940 941 942 943 944 945 946 947 948 949 950 951 952 953 954 955 956 957 958 959 960 961 962 963 964 965 966 967 968 969 970 971 972 973 974 975 976 977 978 979 980 981 982 983 984 985 986 987 988 989 990 991 992 993 994 995 996 997 998 999 1000 1001 1002 1003 1004 1005 1006 1007 1008 1009 1010 1011 1012 1013 1014 1015 1016 1017 1018 1019 1020 1021 1022 1023 1024 1025 1026 1027 1028 1029 1030 1031 1032 1033 1034 1035 1036 1037 1038 1039 1040 1041 1042 1043 1044 1045 1046 1047 1048 1049 1050 1051 1052 1053 1054 1055 1056 1057 1058 1059 1060 1061 1062 1063 1064 1065 1066 1067 1068 1069 1070 1071 1072 1073 1074 1075 1076 1077 1078 1079 1080 1081 1082 1083 1084 1085 1086 1087 1088 1089 1090 1091 1092 1093 1094 1095 1096 1097 1098 1099 1100 1101 1102 1103 1104 1105 1106 1107 1108 1109 1110 1111 1112 1113 1114 1115 1116 1117 1118 1119 1120 1121 1122 1123 1124 1125 1126 1127 1128 1129 1130 1131 1132 1133 1134 1135 1136 1137 1138 1139 1140 1141 1142 1143 1144 1145 1146 1147 1148 1149 1150 1151 1152 1153 1154 1155 1156 1157 1158 1159 1160 1161 1162 1163 1164 1165 1166 1167 1168 1169 1170 1171 1172 1173 1174 1175 1176 1177 1178 1179 1180 1181 1182 1183 1184 1185 1186 1187 1188 1189 1190 1191 1192 1193 1194 1195 1196 1197 1198 1199 1200 1201 1202 1203 1204 1205 1206 1207 1208 1209 1210 1211 1212 1213 1214 1215 1216 1217 1218 1219 1220 1221 1222 1223 1224 1225 1226 1227 1228 1229 1230 1231 1232 1233 1234 1235 1236 1237 1238 1239 1240 1241 1242 1243 1244 1245 1246 1247 1248 1249 1250 1251 1252 1253 1254 1255 1256 1257 1258 1259 1260 1261 1262 1263 1264 1265 1266 1267 1268 1269 1270 1271 1272 1273 1274 1275 1276 1277 1278 1279 1280 1281 1282 1283 1284 1285 1286 1287 1288 1289 1290 1291 1292 1293 1294 1295 1296 1297 1298 1299 1300 1301 1302 1303 1304 1305 1306 1307 1308 1309 1310 1311 1312 1313 1314 1315 1316 1317 1318 1319 1320 1321 1322 1323 1324 1325 1326 1327 1328 1329 1330 1331 1332 1333 1334 1335 1336 1337 1338 1339 1340 1341 1342 1343 1344 1345 1346 1347 1348 1349 1350 1351 1352 1353 1354 1355 1356 1357 1358 1359 1360 1361 1362 1363 1364 1365 1366 1367 1368 1369 1370 1371 1372 1373 1374 1375 1376 1377 1378 1379 1380 1381 1382 1383 1384 1385 1386 1387 1388 1389 1390 1391 1392 1393 1394 1395 1396 1397 1398 1399 1400 1401 1402 1403 1404 1405 1406 1407 1408 1409 1410 1411 1412 1413 1414 1415 1416 1417 1418 1419 1420 1421 1422 1423 1424 1425 1426 1427 1428 1429 1430 1431 1432 1433 1434 1435 1436 1437 1438 1439 1440 1441 1442 1443 1444 1445 1446 1447 1448 1449 1450 1451 1452 1453 1454 1455 1456 1457 1458 1459 1460 1461 1462 1463 1464 1465 1466 1467 1468 1469 1470 1471 1472 1473 1474 1475 1476 1477 1478 1479 1480 1481 1482 1483 1484 1485 1486 1487 1488 1489 1490 1491 1492 1493 1494 1495 1496 1497 1498 1499 1500 1501 1502 1503 1504 1505 1506 1507 1508 1509 1510 1511 1512 1513 1514 1515 1516 1517 1518 1519 1520 1521 1522 1523 1524 1525 1526 1527 1528 1529 1530 1531 1532 1533 1534 1535 1536 1537 1538 1539 1540 1541 1542 1543 1544 1545 1546 1547 1548 1549 1550 1551 1552 1553 1554 1555 1556 1557 1558 1559 1560 1561 1562 1563 1564 1565 1566 1567 1568 1569 1570 1571 1572 1573 1574 1575 1576 1577 1578 1579 1580 1581 1582 1583 1584 1585 1586 1587 1588 1589 1590 1591 1592 1593 1594 1595 1596 1597 1598 1599 1600 1601 1602 1603 1604 1605 1606 1607 1608 1609 1610 1611 1612 1613 1614 1615 1616 1617 1618 1619 1620 1621 1622 1623 1624 1625 1626 1627 1628 1629 1630 1631 1632 1633 1634 1635 1636 1637 1638 1639 1640 1641 1642 1643 1644 1645 1646 1647 1648 1649 1650 1651 1652 1653 1654 1655 1656 1657 1658 1659 1660 1661 1662 1663 1664 1665 1666 1667 1668 1669 1670 1671 1672 1673 1674 1675 1676 1677 1678 1679 1680 1681 1682 1683 1684 1685 1686 1687 1688 1689 1690 1691 1692 1693 1694 1695 1696 1697 1698 1699 1700 1701 1702 1703 1704 1705 1706 1707 1708 1709 1710 1711 1712 1713 1714 1715 1716 1717 1718 1719 1720 1721 1722 1723 1724 1725 1726 1727 1728 1729 1730 1731 1732 1733 1734 1735 1736 1737 1738 1739 1740 1741 1742 1743 1744 1745 1746 1747 1748 1749 1750 1751 1752 1753 1754 1755 1756 1757 1758 1759 1760 1761 1762 1763 1764 1765 1766 1767 1768 1769 1770 1771 1772 1773 1774 1775 1776 1777 1778 1779 1780 1781 1782 1783 1784 1785 1786 1787 1788 1789 1790 1791 1792 1793 1794 1795 1796 1797 1798 1799 1800 1801 1802 1803 1804 1805 1806 1807 1808 1809 1810 1811 1812 1813 1814 1815 1816 1817 1818 1819 1820 1821 1822 1823 1824 1825 1826 1827 1828 1829 1830 1831 1832 1833 1834 1835 1836 1837 1838 1839 1840 1841 1842 1843 1844 1845 1846 1847 1848 1849 1850 1851 1852 1853 1854 1855 1856 1857 1858 1859 1860 1861 1862 1863 1864 1865 1866 1867 1868 1869 1870 1871 1872 1873 1874 1875 1876 1877 1878 1879 1880 1881 1882 1883 1884 1885 1886 1887 1888 1889 1890 1891 1892 1893 1894 1895 1896 1897 1898 1899 1900 1901 1902 1903 1904 1905 1906 1907 1908 1909 1910 1911 1912 1913 1914 1915 1916 1917 1918 1919 1920 1921 1922 1923 1924 1925 1926 1927 1928 1929 1930 1931 1932 1933 1934 1935 1936 1937 1938 1939 1940 1941 1942 1943 1944 1945 1946 1947 1948 1949 1950 1951 1952 1953 1954 1955 1956 1957 1958 1959 1960 1961 1962 1963 1964 1965 1966 1967 1968 1969 1970 1971 1972 1973 1974 1975 1976 1977 1978 1979 1980 1981 1982 1983 1984 1985 1986 1987 1988 1989 1990 1991 1992 1993 1994 1995 1996 1997 1998 1999 2000 2001 2002 2003 2004 2005 2006 2007 2008 2009 2010 2011 2012 2013 2014 2015 2016 2017 2018 2019 2020 2021 2022 2023 2024 2025 2026 2027 2028 2029 2030 2031 2032 2033 2034 2035 2036 2037 2038 2039 2040 2041 2042 2043 2044 2045 2046 2047 2048 2049 2050 2051 2052 2053 2054 2055 2056 2057 2058 2059 2060 2061 2062 2063 2064 2065 2066 2067 2068 2069 2070 2071 2072 2073 2074 2075 2076 2077 2078 2079 2080 2081 2082 2083 2084 2085 2086 2087 2088 2089 2090 2091 2092 2093 2094 2095 2096 2097 2098 2099 2100 2101 2102 2103 2104 2105 2106 2107 2108 2109 2110 2111 2112 2113 2114 2115 2116 2117 2118 2119 2120 2121 2122 2123 2124 2125 2126 2127 2128 2129 2130 2131 2132 2133 2134 2135 2136 2137 2138 2139 2140 2141 2142 2143 2144 2145 2146 2147 2148 2149 2150 2151 2152 2153 2154 2155 2156 2157 2158 2159 2160 2161 2162 2163 2164 2165 2166 2167 2168 2169 2170 2171 2172 2173 2174 2175 2176 2177 2178 2179 2180 2181 2182 2183 2184 2185 2186 2187 2188 2189 2190 2191 2192 2193 2194 2195 2196 2197 2198 2199 2200 2201 2202 2203 2204 2205 2206 2207 2208 2209 2210 2211 2212 2213 2214 2215 2216 2217 2218 2219 2220 2221 2222 2223 2224 2225 2226 2227 2228 2229 2230 2231 2232 2233 2234 2235 2236 2237 2238 2239 2240 2241 2242 2243 2244 2245 2246 2247 2248 2249 2250 2251 2252 2253 2254 2255 2256 2257 2258 2259 2260 2261 2262 2263 2264 2265 2266 2267 2268 2269 2270 2271 2272 2273 2274 2275 2276 2277 2278 2279 2280 2281 2282 2283 2284 2285 2286 2287 2288 2289 2290 2291 2292 2293 2294 2295 2296 2297 2298 2299 2300 2301 2302 2303 2304 2305 2306 2307 2308 2309 2310 2311 2312 2313 2314 2315 2316 2317 2318 2319 2320 2321 2322 2323 2324 2325 2326 2327 2328 2329 2330 2331 2332 2333 2334 2335 2336 2337 2338 2339 2340 2341 2342 2343 2344 2345 2346 2347 2348 2349 2350 2351 2352 2353 2354 2355 2356 2357 2358 2359 2360 2361 2362 2363 2364 2365 2366 2367 2368 2369 2370 2371 2372 2373 2374 2375 2376 2377 2378 2379 2380 2381 2382 2383 2384 2385 2386 2387 2388 2389 2390 2391 2392 2393 2394 2395 2396 2397 2398 2399 2400 2401 2402 2403 2404 2405 2406 2407 2408 2409 2410 2411 2412 2413 2414 2415 2416 2417 2418 2419 2420 2421 2422 2423 2424 2425 2426 2427 2428 2429 2430 2431 2432 2433 2434 2435 2436 2437 2438 2439 2440 2441 2442 2443 2444 2445 2446 2447 2448 2449 2450 2451 2452 2453 2454 2455 2456 2457 2458 2459 2460 2461 2462 2463 2464 2465 2466 2467 2468 2469 2470 2471 2472 2473 2474 2475 2476 2477 2478 2479 2480 2481 2482 2483 2484 2485 2486 2487 2488 2489 2490 2491 2492 2493 2494 2495 2496 2497 2498 2499 2500 2501 2502 2503 2504 2505 2506 2507 2508 2509 2510 2511 2512 2513 2514 2515 2516 2517 2518 2519 2520 2521 2522 2523 2524 2525 2526 2527 2528 2529 2530 2531 2532 2533 2534 2535 2536 2537 2538 2539 2540 2541 2542 2543 2544 2545 2546 2547 2548 2549 2550 2551 2552 2553 2554 2555 2556 2557 2558 2559 2560 2561 2562 2563 2564 2565 2566 2567 2568 2569 2570 2571 2572 2573 2574 2575 2576 2577 2578 2579 2580 2581 2582 2583 2584 2585 2586 2587 2588 2589 2590 2591 2592 2593 2594 2595 2596 2597 2598 2599 2600 2601 2602 2603 2604 2605 2606 2607 2608 2609 2610 2611 2612 2613 2614 2615 2616 2617 2618 2619 2620 2621 2622 2623 2624 2625 2626 2627 2628 2629 2630 2631 2632 2633 2634 2635 2636 2637 2638 2639 2640 2641 2642 2643 2644 2645 2646 2647 2648 2649 2650 2651 2652 2653 2654 2655 2656 2657 2658 2659 2660 2661 2662 2663 2664 2665 2666 2667 2668 2669 2670 2671 2672 2673 2674 2675 2676 2677 2678 2679 2680 2681 2682 2683 2684 2685 2686 2687 2688 2689 2690 2691 2692 2693 2694 2695 2696 2697 2698 2699 2700 2701 2702 2703 2704 2705 2706 2707 2708 2709 2710 2711 2712 2713 2714 2715 2716 2717 2718 2719 2720 2721 2722 2723 2724 2725 2726 2727 2728 2729 2730 2731 2732 2733 2734 2735 2736 2737 2738 2739 2740 2741 2742 2743 2744 2745 2746 2747 2748 2749 2750 2751 2752 2753 2754 2755 2756 2757 2758 2759 2760 2761 2762 2763 2764 2765 2766 2767 2768 2769 2770 2771 2772 2773 2774 2775 2776 2777 2778 2779 2780 2781 2782 2783 2784 2785 2786 2787 2788 2789 2790 2791 2792 2793 2794 2795 2796 2797 2798 2799 2800 2801 2802 2803 2804 2805 2806 2807 2808 2809 2810 2811 2812 2813 2814 2815 2816 2817 2818 2819 2820 2821 2822 2823 2824 2825 2826 2827 2828 2829 2830 2831 2832 2833 2834 2835 2836 2837 2838 2839 2840 2841 2842 2843 2844 2845 2846 2847 2848 2849 2850 2851 2852 2853 2854 2855 2856 2857 2858 2859 2860 2861 2862 2863 2864 2865 2866 2867 2868 2869 2870 2871 2872 2873 2874 2875 2876 2877 2878 2879 2880 2881 2882 2883 2884 2885 2886 2887 2888 2889 2890 2891 2892 2893 2894 2895 2896 2897 2898 2899 2900 2901 2902 2903 2904 2905 2906 2907 2908 2909 2910 2911 2912 2913 2914 2915 2916 2917 2918 2919 2920 2921 2922 2923 2924 2925 2926 2927 2928 2929 2930 2931 2932 2933 2934 2935 2936 2937 2938 2939 2940 2941 2942 2943 2944 2945 2946 2947 2948 2949 2950 2951 2952 2953 2954 2955 2956 2957 2958 2959 2960 2961 2962 2963 2964 2965 2966 2967 2968 2969 2970 2971 2972 2973 2974 2975 2976 2977 2978 2979 2980 2981 2982 2983 2984 2985 2986 2987 2988 2989 2990 2991 2992 2993 2994 2995 2996 2997 2998 2999 3000 3001 3002 3003 3004 3005 3006 3007 3008 3009 3010 3011 3012 3013 3014 3015 3016 3017 3018 3019 3020 3021 3022 3023 3024 3025 3026 3027 3028 3029 3030 3031 3032 3033 3034 3035 3036 3037 3038 3039 3040 3041 3042 3043 3044 3045 3046 3047 3048 3049 3050 3051 3052 3053 3054 3055 3056 3057 3058 3059 3060 3061 3062 3063 3064 3065 3066 3067 3068 3069 3070 3071 3072 3073 3074 3075 3076 3077 3078 3079 3080 3081 3082 3083 3084 3085 3086 3087 3088 3089 3090 3091 3092 3093 3094 3095 3096 3097 3098 3099 3100 3101 3102 3103 3104 3105 3106 3107 3108 3109 3110 3111 3112 3113 3114 3115 3116 3117 3118 3119 3120 3121 3122 3123 3124 3125 3126 3127 3128 3129 3130 3131 3132 3133 3134 3135 3136 3137 3138 3139 3140 3141 3142 3143 3144 3145 3146 3147 3148 3149 3150 3151 3152 3153 3154 3155 3156 3157 3158 3159 3160 3161 3162 3163 3164 3165 3166 3167 3168 3169 3170 3171 3172 3173 3174 3175 3176 3177 3178 3179 3180 3181 3182 3183 3184 3185 3186 3187 3188 3189 3190 3191 3192 3193 3194 3195 3196 3197 3198 3199 3200 3201 3202 3203 3204 3205 3206 3207 3208 3209 3210 3211 3212 3213 3214 3215 3216 3217 3218 3219 3220 3221 3222 3223 3224 3225 3226 3227 3228 3229 3230 3231 3232 3233 3234 3235 3236 3237 3238 3239 3240 3241 3242 3243 3244 3245 3246 3247 3248 3249 3250 3251 3252 3253 3254 3255 3256 3257 3258 3259 3260 3261 3262 3263 3264 3265 3266 3267 3268 3269 3270 3271 3272 3273 3274 3275 3276 3277 3278 3279 3280 3281 3282 3283 3284 3285 3286 3287 3288 3289 3290 3291 3292 3293 3294 3295 3296 3297 3298 3299 3300 3301 3302 3303 3304 3305 3306 3307 3308 3309 3310 3311 3312 3313 3314 3315 3316 3317 3318 3319 3320 3321 3322 3323 3324 3325 3326 3327 3328 3329 3330 3331 3332 3333 3334 3335 3336 3337 3338 3339 3340 3341 3342 3343 3344 3345 3346 3347 3348 3349 3350 3351 3352 3353 3354 3355 3356 3357 3358 3359 3360 3361 3362 3363 3364 3365 3366 3367 3368 3369 3370 3371 3372 3373 3374 3375 3376 3377 3378 3379 3380 3381 3382 3383 3384 3385 3386 3387 3388 3389 3390 3391 3392 3393 3394 3395 3396 3397 3398 3399 3400 3401 3402 3403 3404 3405 3406 3407 3408 3409 3410 3411 3412 3413 3414 3415 3416 3417 3418 3419 3420 3421 3422 3423 3424 3425 3426 3427 3428 3429 3430 3431 3432 3433 3434 3435 3436 3437 3438 3439 3440 3441 3442 3443 3444 3445 3446 3447 3448 3449 3450 3451 3452 3453 3454 3455 3456 3457 3458 3459 3460 3461 3462 3463 3464 3465 3466 3467 3468 3469 3470 3471 3472 3473 3474 3475 3476 3477 3478 3479 3480 3481 3482 3483 3484 3485 3486 3487 3488 3489 3490 3491 3492 3493 3494 3495 3496 3497 3498 3499 3500 3501 3502 3503 3504 3505 3506 3507 3508 3509 3510 3511 3512 3513 3514 3515 3516 3517 3518 3519 3520 3521 3522 3523 3524 3525 3526 3527 3528 3529 3530 3531 3532 3533 3534 3535 3536 3537 3538 3539 3540 3541 3542 3543 3544 3545 3546 3547 3548 3549 3550 3551 3552 3553 3554 3555 3556 3557 3558 3559 3560 3561 3562 3563 3564 3565 3566 3567 3568 3569 3570 3571 3572 3573 3574 3575 3576 3577 3578 3579 3580 3581 3582 3583 3584 3585 3586 3587 3588 3589 3590 3591 3592 3593 3594 3595 3596 3597 3598 3599 3600 3601 3602 3603 3604 3605 3606 3607 3608 3609 3610 3611 3612 3613 3614 3615 3616 3617 3618 3619 3620 3621 3622 3623 3624 3625 3626 3627 3628 3629 3630 3631 3632 3633 3634 3635 3636 3637 3638 3639 3640 3641 3642 3643 3644 3645 3646 3647 3648 3649 3650 3651 3652 3653 3654 3655 3656 3657 3658 3659 3660 3661 3662 3663 3664 3665 3666 3667 3668 3669 3670 3671 3672 3673 3674 3675 3676 3677 3678 3679 3680 3681 3682 3683 3684 3685 3686 3687 3688 3689 3690 3691 3692 3693 3694 3695 3696 3697 3698 3699 3700 3701 3702 3703 3704 3705 3706 3707 3708 3709 3710 3711 3712 3713 3714 3715 3716 3717 3718 3719 3720 3721 3722 3723 3724 3725 3726 3727 3728 3729 3730 3731 3732 3733 3734 3735 3736 3737 3738 3739 3740 3741 3742 3743 3744 3745 3746 3747 3748 3749 3750 3751 3752 3753 3754 3755 3756 3757 3758 3759 3760 3761 3762 3763 3764 3765 3766 3767 3768 3769 3770 3771 3772 3773 3774 3775 3776 3777 3778 3779 3780 3781 3782 3783 3784 3785 3786 3787 3788 3789 3790 3791 3792 3793 3794 3795 3796 3797 3798 3799 3800 3801 3802 3803 3804 3805 3806 3807 3808 3809 3810 3811 3812 3813 3814 3815 3816 3817 3818 3819 3820 3821 3822 3823 3824 3825 3826 3827 3828 3829 3830 3831 3832 3833 3834 3835 3836 3837 3838 3839 3840 3841 3842 3843 3844 3845 3846 3847 3848 3849 3850 3851 3852 3853 3854 3855 3856 3857 3858 3859 3860 3861 3862 3863 3864 3865 3866 3867 3868 3869 3870 3871 3872 3873 3874 3875 3876 3877 3878 3879 3880 3881 3882 3883 3884 3885 3886 3887 3888 3889 3890 3891 3892 3893 3894 3895 3896 3897 3898 3899 3900 3901 3902 3903 3904 3905 3906 3907 3908 3909 3910 3911 3912 3913 3914 3915 3916 3917 3918 3919 3920 3921 3922 3923 3924 3925 3926 3927 3928 3929 3930 3931 3932 3933 3934 3935 3936 3937 3938 3939 3940 3941 3942 3943 3944 3945 3946 3947 3948 3949 3950 3951 3952 3953 3954 3955 3956 3957 3958 3959 3960 3961 3962 3963 3964 3965 3966 3967 3968 3969 3970 3971 3972 3973 3974 3975 3976 3977 3978 3979 3980 3981 3982 3983 3984 3985 3986 3987 3988 3989 3990 3991 3992 3993 3994 3995 3996 3997 3998 3999 4000 4001 4002 4003 4004 4005 4006 4007 4008 4009 4010 4011 4012 4013 4014 4015 4016 4017 4018 4019 4020 4021 4022 4023 4024 4025 4026 4027 4028 4029 4030 4031 4032 4033 4034 4035 4036 4037 4038 4039 4040 4041 4042 4043 4044 4045 4046 4047 4048 4049 4050 4051 4052 4053 4054 4055 4056 4057 4058 4059 4060 4061 4062 4063 4064 4065 4066 4067 4068 4069 4070 4071 4072 4073 4074 4075 4076 4077 4078 4079 4080 4081 4082 4083 4084 4085 4086 4087 4088 4089 4090 4091 4092 4093 4094 4095 4096 4097 4098 4099 4100 4101 4102 4103 4104 4105 4106 4107 4108 4109 4110 4111 4112 4113 4114 4115 4116 4117 4118 4119 4120 4121 4122 4123 4124 4125 4126 4127 4128 4129 4130 4131 4132 4133 4134 4135 4136 4137 4138 4139 4140 4141 4142 4143 4144 4145 4146 4147 4148 4149 4150 4151 4152 4153 4154 4155 4156 4157 4158 4159 4160 4161 4162 4163 4164 4165 4166 4167 4168 4169 4170 4171 4172 4173 4174 4175 4176 4177 4178 4179 4180 4181 4182 4183 4184 4185 4186 4187 4188 4189 4190 4191 4192 4193 4194 4195 4196 4197 4198 4199 4200 4201 4202 4203 4204 4205 4206 4207 4208 4209 4210 4211 4212 4213 4214 4215 4216 4217 4218 4219 4220 4221 4222 4223 4224 4225 4226 4227 4228 4229 4230 4231 4232 4233 4234 4235 4236 4237 4238 4239 4240 4241 4242 4243 4244 4245 4246 4247 4248 4249 4250 4251 4252 4253 4254 4255 4256 4257 4258 4259 4260 4261 4262 4263 4264 4265 4266 4267 4268 4269 4270 4271 4272 4273 4274 4275 4276 4277 4278 4279 4280 4281 4282 4283 4284 4285 4286 4287 4288 4289 4290 4291 4292 4293 4294 4295 4296 4297 4298 4299 4300 4301 4302 4303 4304 4305 4306 4307 4308 4309 4310 4311 4312 4313 4314 4315 4316 4317 4318 4319 4320 4321 4322 4323 4324 4325 4326 4327 4328 4329 4330 4331 4332 4333 4334 4335 4336 4337 4338 4339 4340 4341 4342 4343 4344 4345 4346 4347 4348 4349 4350 4351 4352 4353 4354 4355 4356 4357 4358 4359 4360 4361 4362 4363 4364 4365 4366 4367 4368 4369 4370 4371 4372 4373 4374 4375 4376 4377 4378 4379 4380 4381 4382 4383 4384 4385 4386 4387 4388 4389 4390 4391 4392 4393 4394 4395 4396 4397 4398 4399 4400 4401 4402 4403 4404 4405 4406 4407 4408 4409 4410 4411 4412 4413 4414 4415 4416 4417 4418 4419 4420 4421 4422 4423 4424 4425 4426 4427 4428 4429 4430 4431 4432 4433 4434 4435 4436 4437 4438 4439 4440 4441 4442 4443 4444 4445 4446 4447 4448 4449 4450 4451 4452 4453 4454 4455 4456 4457 4458 4459 4460 4461 4462 4463 4464 4465 4466 4467 4468 4469 4470 4471 4472 4473 4474 4475 4476 4477 4478 4479 4480 4481 4482 4483 4484 4485 4486 4487 4488 4489 4490 4491 4492 4493 4494 4495 4496 4497 4498 4499 4500 4501 4502 4503 4504 4505 4506 4507 4508 4509 4510 4511 4512 4513 4514 4515 4516 4517 4518 4519 4520 4521 4522 4523 4524 4525 4526 4527 4528 4529 4530 4531 4532 4533 4534 4535 4536 4537 4538 4539 4540 4541 4542 4543 4544 4545 4546 4547 4548 4549 4550 4551 4552 4553 4554 4555 4556 4557 4558 4559 4560 4561 4562 4563 4564 4565 4566 4567 4568 4569 4570 4571 4572 4573 4574 4575 4576 4577 4578 4579 4580 4581 4582 4583 4584 4585 4586 4587 4588 4589 4590 4591 4592 4593 4594 4595 4596 4597 4598 4599 4600 4601 4602 4603 4604 4605 4606 4607 4608 4609 4610 4611 4612 4613 4614 4615 4616 4617 4618 4619 4620 4621 4622 4623 4624 4625 4626 4627 4628 4629 4630 4631 4632 4633 4634 4635 4636 4637 4638 4639 4640 4641 4642 4643 4644 4645 4646 4647 4648 4649 4650 4651 4652 4653 4654 4655 4656 4657 4658 4659 4660 4661 4662 4663 4664 4665 4666 4667 4668 4669 4670 4671 4672 4673 4674 4675 4676 4677 4678 4679 4680 4681 4682 4683 4684 4685 4686 4687 4688 4689 4690 4691 4692 4693 4694 4695 4696 4697 4698 4699 4700 4701 4702 4703 4704 4705 4706 4707 4708 4709 4710 4711 4712 4713 4714 4715 4716 4717 4718 4719 4720 4721 4722 4723 4724 4725 4726 4727 4728 4729 4730 4731 4732 4733 4734 4735 4736 4737 4738 4739 4740 4741 4742 4743 4744 4745 4746 4747 4748 4749 4750 4751 4752 4753 4754 4755 4756 4757 4758 4759 4760 4761 4762 4763 4764 4765 4766 4767 4768 4769 4770 4771 4772 4773 4774 4775 4776 4777 4778 4779 4780 4781 4782 4783 4784 4785 4786 4787 4788 4789 4790 4791 4792 4793 4794 4795 4796 4797 4798 4799 4800 4801 4802 4803 4804 4805 4806 4807 4808 4809 4810 4811 4812 4813 4814 4815 4816 4817 4818 4819 4820 4821 4822 4823 4824 4825 4826 4827 4828 4829 4830 4831 4832 4833 4834 4835 4836 4837 4838 4839 4840 4841 4842 4843 4844 4845 4846 4847 4848 4849 4850 4851 4852 4853 4854 4855 4856 4857 4858 4859 4860 4861 4862 4863 4864 4865 4866 4867 4868 4869 4870 4871 4872 4873 4874 4875 4876 4877 4878 4879 4880 4881 4882 4883 4884 4885 4886 4887 4888 4889 4890 4891 4892 4893 4894 4895 4896 4897 4898 4899 4900 4901 4902 4903 4904 4905 4906 4907 4908 4909 4910 4911 4912 4913 4914 4915 4916 4917 4918 4919 4920 4921 4922 4923 4924 4925 4926 4927 4928 4929 4930 4931 4932 4933 4934 4935 4936 4937 4938 4939 4940 4941 4942 4943 4944 4945 4946 4947 4948 4949 4950 4951 4952 4953 4954 4955 4956 4957 4958 4959 4960 4961 4962 4963 4964 4965 4966 4967 4968 4969 4970 4971 4972 4973 4974 4975 4976 4977 4978 4979 4980 4981 4982 4983 4984 4985 4986 4987 4988 4989 4990 4991 4992 4993 4994 4995 4996 4997 4998 4999 5000 5001 5002 5003 5004 5005 5006 5007 5008 5009 5010 5011 5012 5013 5014 5015 5016 5017 5018 5019 5020 5021 5022 5023 5024 5025 5026 5027 5028 5029 5030 5031 5032 5033 5034 5035 5036 5037 5038 5039 5040 5041 5042 5043 5044 5045 5046 5047 5048 5049 5050 5051 5052 5053 5054 5055 5056 5057 5058 5059 5060 5061 5062 5063 5064 5065 5066 5067 5068 5069 5070 5071 5072 5073 5074 5075 5076 5077 5078 5079 5080 5081 5082 5083 5084 5085 5086 5087 5088 5089 5090 5091 5092 5093 5094 5095 5096 5097 5098 5099 5100 5101 5102 5103 5104 5105 5106 5107 5108 5109 5110 5111 5112 5113 5114 5115 5116 5117 5118 5119 5120 5121 5122 5123 5124 5125 5126 5127 5128 5129 5130 5131 5132 5133 5134 5135 5136 5137 5138 5139 5140 5141 5142 5143 5144 5145 5146 5147 5148 5149 5150 5151 5152 5153 5154 5155 5156 5157 5158 5159 5160 5161 5162 5163 5164 5165 5166 5167 5168 5169 5170 5171 5172 5173 5174 5175 5176 5177 5178 5179 5180 5181 5182 5183 5184 5185 5186 5187 5188 5189 5190 5191 5192 5193 5194 5195 5196 5197 5198 5199 5200 5201 5202 5203 5204 5205 5206 5207 5208 5209 5210 5211 5212 5213 5214 5215 5216 5217 5218 5219 5220 5221 5222 5223 5224 5225 5226 5227 5228 5229 5230 5231 5232 5233 5234 5235 5236 5237 5238 5239 5240 5241 5242 5243 5244 5245 5246 5247 5248 5249 5250 5251 5252 5253 5254 5255 5256 5257 5258 5259 5260 5261 5262 5263 5264 5265 5266 5267 5268 5269 5270 5271 5272 5273 5274 5275 5276 5277 5278 5279 5280 5281 5282 5283 5284 5285 5286 5287 5288 5289 5290 5291 5292 5293 5294 5295 5296 5297 5298 5299 5300 5301 5302 5303 5304 5305 5306 5307 5308 5309 5310 5311 5312 5313 5314 5315 5316 5317 5318 5319 5320 5321 5322 5323 5324 5325 5326 5327 5328 5329 5330 5331 5332 5333 5334 5335 5336 5337 5338 5339 5340 5341 5342 5343 5344 5345 5346 5347 5348 5349 5350 5351 5352 5353 5354 5355 5356 5357 5358 5359 5360 5361 5362 5363 5364 5365 5366 5367 5368 5369 5370 5371 5372 5373 5374 5375 5376 5377 5378 5379 5380 5381 5382 5383 5384 5385 5386 5387 5388 5389 5390 5391 5392 5393 5394 5395 5396 5397 5398 5399 5400 5401 5402 5403 5404 5405 5406 5407 5408 5409 5410 5411 5412 5413 5414 5415 5416 5417 5418 5419 5420 5421 5422 5423 5424 5425 5426 5427 5428 5429 5430 5431 5432 5433 5434 5435 5436 5437 5438 5439 5440 5441 5442 5443 5444 5445 5446 5447 5448 5449 5450 5451 5452 5453 5454 5455 5456 5457 5458 5459 5460 5461 5462 5463 5464 5465 5466 5467 5468 5469 5470 5471 5472 5473 5474 5475 5476 5477 5478 5479 5480 5481 5482 5483 5484 5485 5486 5487 5488 5489 5490 5491 5492 5493 5494 5495 5496 5497 5498 5499 5500 5501 5502 5503 5504 5505 5506 5507 5508 5509 5510 5511 5512 5513 5514 5515 5516 5517 5518 5519 5520 5521 5522 5523 5524 5525 5526 5527 5528 5529 5530 5531 5532 5533 5534 5535 5536 5537 5538 5539 5540 5541 5542 5543 5544 5545 5546 5547 5548 5549 5550 5551 5552 5553 5554 5555 5556 5557 5558 5559 5560 5561 5562 5563 5564 5565 5566 5567 5568 5569 5570 5571 5572 5573 5574 5575 5576 5577 5578 5579 5580 5581 5582 5583 5584 5585 5586 5587 5588 5589 5590 5591 5592 5593 5594 5595 5596 5597 5598 5599 5600 5601 5602 5603 5604 5605 5606 5607 5608 5609 5610 5611 5612 5613 5614 5615 5616 5617 5618 5619 5620 5621 5622 5623 5624 5625 5626 5627 5628 5629 5630 5631 5632 5633 5634 5635 5636 5637 5638 5639 5640 5641 5642 5643 5644 5645 5646 5647 5648 5649 5650 5651 5652 5653 5654 5655 5656 5657 5658 5659 5660 5661 5662 5663 5664 5665 5666 5667 5668 5669 5670 5671 5672 5673 5674 5675 5676 5677 5678 5679 5680 5681 5682 5683 5684 5685 5686 5687 5688 5689 5690 5691 5692 5693 5694 5695 5696 5697 5698 5699 5700 5701 5702 5703 5704 5705 5706 5707 5708 5709 5710 5711 5712 5713 5714 5715 5716 5717 5718 5719 5720 5721 5722 5723 5724 5725 5726 5727 5728 5729 5730 5731 5732 5733 5734 5735 5736 5737 5738 5739 5740 5741 5742 5743 5744 5745 5746 5747 5748 5749 5750 5751 5752 5753 5754 5755 5756 5757 5758 5759 5760 5761 5762 5763 5764 5765 5766 5767 5768 5769 5770 5771 5772 5773 5774 5775 5776 5777 5778 5779 5780 5781 5782 5783 5784 5785 5786 5787 5788 5789 5790 5791 5792 5793 5794 5795 5796 5797 5798 5799 5800 5801 5802 5803 5804 5805 5806 5807 5808 5809 5810 5811 5812 5813 5814 5815 5816 5817 5818 5819 5820 5821 5822 5823 5824 5825 5826 5827 5828 5829 5830 5831 5832 5833 5834 5835 5836 5837 5838 5839 5840 5841 5842 5843 5844 5845 5846 5847 5848 5849 5850 5851 5852 5853 5854 5855 5856 5857 5858 5859 5860 5861 5862 5863 5864 5865 5866 5867 5868 5869 5870 5871 5872 5873 5874 5875 5876 5877 5878 5879 5880 5881 5882 5883 5884 5885 5886 5887 5888 5889 5890 5891 5892 5893 5894 5895 5896 5897 5898 5899 5900 5901 5902 5903 5904 5905 5906 5907 5908 5909 5910 5911 5912 5913 5914 5915 5916 5917 5918 5919 5920 5921 5922 5923 5924 5925 5926 5927 5928 5929 5930 5931 5932 5933 5934 5935 5936 5937 5938 5939 5940 5941 5942 5943 5944 5945 5946 5947 5948 5949 5950 5951 5952 5953 5954 5955 5956 5957 5958 5959 5960 5961 5962 5963 5964 5965 5966 5967 5968 5969 5970 5971 5972 5973 5974 5975 5976 5977 5978 5979 5980 5981 5982 5983 5984 5985 5986 5987 5988 5989 5990 5991 5992 5993 5994 5995 5996 5997 5998 5999 6000 6001 6002 6003 6004 6005 6006 6007 6008 6009 6010 6011 6012 6013 6014 6015 6016 6017 6018 6019 6020 6021 6022 6023 6024 6025 6026 6027 6028 6029 6030 6031 6032 6033 6034 6035 6036 6037 6038 6039 6040 6041 6042 6043 6044 6045 6046 6047 6048 6049 6050 6051 6052 6053 6054 6055 6056 6057 6058 6059 6060 6061 6062 6063 6064 6065 6066 6067 6068 6069 6070 6071 6072 6073 6074 6075 6076 6077 6078 6079 6080 6081 6082 6083 6084 6085 6086 6087 6088 6089 6090 6091 6092 6093 6094 6095 6096 6097 6098 6099 6100 6101 6102 6103 6104 6105 6106 6107 6108 6109 6110 6111 6112 6113 6114 6115 6116 6117 6118 6119 6120 6121 6122 6123 6124 6125 6126 6127 6128 6129 6130 6131 6132 6133 6134 6135 6136 6137 6138 6139 6140 6141 6142 6143 6144 6145 6146 6147 6148 6149 6150 6151 6152 6153 6154 6155 6156 6157 6158 6159 6160 6161 6162 6163 6164 6165 6166 6167 6168 6169 6170 6171 6172 6173 6174 6175 6176 6177 6178 6179 6180 6181 6182 6183 6184 6185 6186 6187 6188 6189 6190 6191 6192 6193 6194 6195 6196 6197 6198 6199 6200 6201 6202 6203 6204 6205 6206 6207 6208 6209 6210 6211 6212 6213 6214 6215 6216 6217 6218 6219 6220 6221 6222 6223 6224 6225 6226 6227 6228 6229 6230 6231 6232 6233 6234 6235 6236 6237 6238 6239 6240 6241 6242 6243 6244 6245 6246 6247 6248 6249 6250 6251 6252 6253 6254 6255 6256 6257 6258 6259 6260 6261 6262 6263 6264 6265 6266 6267 6268 6269 6270 6271 6272 6273 6274 6275 6276 6277 6278 6279 6280 6281 6282 6283 6284 6285 6286 6287 6288 6289 6290 6291 6292 6293 6294 6295 6296 6297 6298 6299 6300 6301 6302 6303 6304 6305 6306 6307 6308 6309 6310 6311 6312 6313 6314 6315 6316 6317 6318 6319 6320 6321 6322 6323 6324 6325 6326 6327 6328 6329 6330 6331 6332 6333 6334 6335 6336 6337 6338 6339 6340 6341 6342 6343 6344 6345 6346 6347 6348 6349 6350 6351 6352 6353 6354 6355 6356 6357 6358 6359 6360 6361 6362 6363 6364 6365 6366 6367 6368 6369 6370 6371 6372 6373 6374 6375 6376 6377 6378 6379 6380 6381 6382 6383 6384 6385 6386 6387 6388 6389 6390 6391 6392 6393 6394 6395 6396 6397 6398 6399 6400 6401 6402 6403 6404 6405 6406 6407 6408 6409 6410 6411 6412 6413 6414 6415 6416 6417 6418 6419 6420 6421 6422 6423 6424 6425 6426 6427 6428 6429 6430 6431 6432 6433 6434 6435 6436 6437 6438 6439 6440 6441 6442 6443 6444 6445 6446 6447 6448 6449 6450 6451 6452 6453 6454 6455 6456 6457 6458 6459 6460 6461 6462 6463 6464 6465 6466 6467 6468 6469 6470 6471 6472 6473 6474 6475 6476 6477 6478 6479 6480 6481 6482 6483 6484 6485 6486 6487 6488 6489 6490 6491 6492 6493 6494 6495 6496 6497 6498 6499 6500 6501 6502 6503 6504 6505 6506 6507 6508 6509 6510 6511 6512 6513 6514 6515 6516 6517 6518 6519 6520 6521 6522 6523 6524 6525 6526 6527 6528 6529 6530 6531 6532 6533 6534 6535 6536 6537 6538 6539 6540 6541 6542 6543 6544 6545 6546 6547 6548 6549 6550 6551 6552 6553 6554 6555 6556 6557 6558 6559 6560 6561 6562 6563 6564 6565 6566 6567 6568 6569 6570 6571 6572 6573 6574 6575 6576 6577 6578 6579 6580 6581 6582 6583 6584 6585 6586 6587 6588 6589 6590 6591 6592 6593 6594 6595 6596 6597 6598 6599 6600 6601 6602 6603 6604 6605 6606 6607 6608 6609 6610 6611 6612 6613 6614 6615 6616 6617 6618 6619 6620 6621 6622 6623 6624 6625 6626 6627 6628 6629 6630 6631 6632 6633 6634 6635 6636 6637 6638 6639 6640 6641 6642 6643 6644 6645 6646 6647 6648 6649 6650 6651 6652 6653 6654 6655 6656 6657 6658 6659 6660 6661 6662 6663 6664 6665 6666 6667 6668 6669 6670 6671 6672 6673 6674 6675 6676 6677 6678 6679 6680 6681 6682 6683 6684 6685 6686 6687 6688 6689 6690 6691 6692 6693 6694 6695 6696 6697 6698 6699 6700 6701 6702 6703 6704 6705 6706 6707 6708 6709 6710 6711 6712 6713 6714 6715 6716 6717 6718 6719 6720 6721 6722 6723 6724 6725 6726 6727 6728 6729 6730 6731 6732 6733 6734 6735 6736 6737 6738 6739 6740 6741 6742 6743 6744 6745 6746 6747 6748 6749 6750 6751 6752 6753 6754 6755 6756 6757 6758 6759 6760 6761 6762 6763 6764 6765 6766 6767 6768 6769 6770 6771 6772 6773 6774 6775 6776 6777 6778 6779 6780 6781 6782 6783 6784 6785 6786 6787 6788 6789 6790 6791 6792 6793 6794 6795 6796 6797 6798 6799 6800 6801 6802 6803 6804 6805 6806 6807 6808 6809 6810 6811 6812 6813 6814 6815 6816 6817 6818 6819 6820 6821 6822 6823 6824 6825 6826 6827 6828 6829 6830 6831 6832 6833 6834 6835 6836 6837 6838 6839 6840 6841 6842 6843 6844 6845 6846 6847 6848 6849 6850 6851 6852 6853 6854 6855 6856 6857 6858 6859 6860 6861 6862 6863 6864 6865 6866 6867 6868 6869 6870 6871 6872 6873 6874 6875 6876 6877 6878 6879 6880 6881 6882 6883 6884 6885 6886 6887 6888 6889 6890 6891 6892 6893 6894 6895 6896 6897 6898 6899 6900 6901 6902 6903 6904 6905 6906 6907 6908 6909 6910 6911 6912 6913 6914 6915 6916 6917 6918 6919 6920 6921 6922 6923 6924 6925 6926 6927 6928 6929 6930 6931 6932 6933 6934 6935 6936 6937 6938 6939 6940 6941 6942 6943 6944 6945 6946 6947 6948 6949 6950 6951 6952 6953 6954 6955 6956 6957 6958 6959 6960 6961 6962 6963 6964 6965 6966 6967 6968 6969 6970 6971 6972 6973 6974 6975 6976 6977 6978 6979 6980 6981 6982 6983 6984 6985 6986 6987 6988 6989 6990 6991 6992 6993 6994 6995 6996 6997 6998 6999 7000 7001 7002 7003 7004 7005 7006 7007 7008 7009 7010 7011 7012 7013 7014 7015 7016 7017 7018 7019 7020 7021 7022 7023 7024 7025 7026 7027 7028 7029 7030 7031 7032 7033 7034 7035 7036 7037 7038 7039 7040 7041 7042 7043 7044 7045 7046 7047 7048 7049 7050 7051 7052 7053 7054 7055 7056 7057 7058 7059 7060 7061 7062 7063 7064 7065 7066 7067 7068 7069 7070 7071 7072 7073 7074 7075 7076 7077 7078 7079 7080 7081 7082 7083 7084 7085 7086 7087 7088 7089 7090 7091 7092 7093 7094 7095 7096 7097 7098 7099 7100 7101 7102 7103 7104 7105 7106 7107 7108 7109 7110 7111 7112 7113 7114 7115 7116 7117 7118 7119 7120 7121 7122 7123 7124 7125 7126 7127 7128 7129 7130 7131 7132 7133 7134 7135 7136 7137 7138 7139 7140 7141 7142 7143 7144 7145 7146 7147 7148 7149 7150 7151 7152 7153 7154 7155 7156 7157 7158 7159 7160 7161 7162 7163 7164 7165 7166 7167 7168 7169 7170 7171 7172 7173 7174 7175 7176 7177 7178 7179 7180 7181 7182 7183 7184 7185 7186 7187 7188 7189 7190 7191 7192 7193 7194 7195 7196 7197 7198 7199 7200 7201 7202 7203 7204 7205 7206 7207 7208 7209 7210 7211 7212 7213 7214 7215 7216 7217 7218 7219 7220 7221 7222 7223 7224 7225 7226 7227 7228 7229 7230 7231 7232 7233 7234 7235 7236 7237 7238 7239 7240 7241 7242 7243 7244 7245 7246 7247 7248 7249 7250 7251 7252 7253 7254 7255 7256 7257 7258 7259 7260 7261 7262 7263 7264 7265 7266 7267 7268 7269 7270 7271 7272 7273 7274 7275 7276 7277 7278 7279 7280 7281 7282 7283 7284 7285 7286 7287 7288 7289 7290 7291 7292 7293 7294 7295 7296 7297 7298 7299 7300 7301 7302 7303 7304 7305 7306 7307 7308 7309 7310 7311 7312 7313 7314 7315 7316 7317 7318 7319 7320 7321 7322 7323 7324 7325 7326 7327 7328 7329 7330 7331 7332 7333 7334 7335 7336 7337 7338 7339 7340 7341 7342 7343 7344 7345 7346 7347 7348 7349 7350 7351 7352 7353 7354 7355 7356 7357 7358 7359 7360 7361 7362 7363 7364 7365 7366 7367 7368 7369 7370 7371 7372 7373 7374 7375 7376 7377 7378 7379 7380 7381 7382 7383 7384 7385 7386 7387 7388 7389 7390 7391 7392 7393 7394 7395 7396 7397 7398 7399 7400 7401 7402 7403 7404 7405 7406 7407 7408 7409 7410 7411 7412 7413 7414 7415 7416 7417 7418 7419 7420 7421 7422 7423 7424 7425 7426 7427 7428 7429 7430 7431 7432 7433 7434 7435 7436 7437 7438 7439 7440 7441 7442 7443 7444 7445 7446 7447 7448 7449 7450 7451 7452 7453 7454 7455 7456 7457 7458 7459 7460 7461 7462 7463 7464 7465 7466 7467 7468 7469 7470 7471 7472 7473 7474 7475 7476 7477 7478 7479 7480 7481 7482 7483 7484 7485 7486 7487 7488 7489 7490 7491 7492 7493 7494 7495 7496 7497 7498 7499 7500 7501 7502 7503 7504 7505 7506 7507 7508 7509 7510 7511 7512 7513 7514 7515 7516 7517 7518 7519 7520 7521 7522 7523 7524 7525 7526 7527 7528 7529 7530 7531 7532 7533 7534 7535 7536 7537 7538 7539 7540 7541 7542 7543 7544 7545 7546 7547 7548 7549 7550 7551 7552 7553 7554 7555 7556 7557 7558 7559 7560 7561 7562 7563 7564 7565 7566 7567 7568 7569 7570 7571 7572 7573 7574 7575 7576 7577 7578 7579 7580 7581 7582 7583 7584 7585 7586 7587 7588 7589 7590 7591 7592 7593 7594 7595 7596 7597 7598 7599 7600 7601 7602 7603 7604 7605 7606 7607 7608 7609 7610 7611 7612 7613 7614 7615 7616 7617 7618 7619 7620 7621 7622 7623 7624 7625 7626 7627 7628 7629 7630 7631 7632 7633 7634 7635 7636 7637 7638 7639 7640 7641 7642 7643 7644 7645 7646 7647 7648 7649 7650 7651 7652 7653 7654 7655 7656 7657 7658 7659 7660 7661 7662 7663 7664 7665 7666 7667 7668 7669 7670 7671 7672 7673 7674 7675 7676 7677 7678 7679 7680 7681 7682 7683 7684 7685 7686 7687 7688 7689 7690 7691 7692 7693 7694 7695 7696 7697 7698 7699 7700 7701 7702 7703 7704 7705 7706 7707 7708 7709 7710 7711 7712 7713 7714 7715 7716 7717 7718 7719 7720 7721 7722 7723 7724 7725 7726 7727 7728 7729 7730 7731 7732 7733 7734 7735 7736 7737 7738 7739 7740 7741 7742 7743 7744 7745 7746 7747 7748 7749 7750 7751 7752 7753 7754 7755 7756 7757 7758 7759 7760 7761 7762 7763 7764 7765 7766 7767 7768 7769 7770 7771 7772 7773 7774 7775 7776 7777 7778 7779 7780 7781 7782 7783 7784 7785 7786 7787 7788 7789 7790 7791 7792 7793 7794 7795 7796 7797 7798 7799 7800 7801 7802 7803 7804 7805 7806 7807 7808 7809 7810 7811 7812 7813 7814 7815 7816 7817 7818 7819 7820 7821 7822 7823 7824 7825 7826 7827 7828 7829 7830 7831 7832 7833 7834 7835 7836 7837 7838 7839 7840 7841 7842 7843 7844 7845 7846 7847 7848 7849 7850 7851 7852 7853 7854 7855 7856 7857 7858 7859 7860 7861 7862 7863 7864 7865 7866 7867 7868 7869 7870 7871 7872 7873 7874 7875 7876 7877 7878 7879 7880 7881 7882 7883 7884 7885 7886 7887 7888 7889 7890 7891 7892 7893 7894 7895 7896 7897 7898 7899 7900 7901 7902 7903 7904 7905 7906 7907 7908 7909 7910 7911 7912 7913 7914 7915 7916 7917 7918 7919 7920 7921 7922 7923 7924 7925 7926 7927 7928 7929 7930 7931 7932 7933 7934 7935 7936 7937 7938 7939 7940 7941 7942 7943 7944 7945 7946 7947 7948 7949 7950 7951 7952 7953 7954 7955 7956 7957 7958 7959 7960 7961 7962 7963 7964 7965 7966 7967 7968 7969 7970 7971 7972 7973 7974 7975 7976 7977 7978 7979 7980 7981 7982 7983 7984 7985 7986 7987 7988 7989 7990 7991 7992 7993 7994 7995 7996 7997 7998 7999 8000 8001 8002 8003 8004 8005 8006 8007 8008 8009 8010 8011 8012 8013 8014 8015 8016 8017 8018 8019 8020 8021 8022 8023 8024 8025 8026 8027 8028 8029 8030 8031 8032 8033 8034 8035 8036 8037 8038 8039 8040 8041 8042 8043 8044 8045 8046 8047 8048 8049 8050 8051 8052 8053 8054 8055 8056 8057 8058 8059 8060 8061 8062 8063 8064 8065 8066 8067 8068 8069 8070 8071 8072 8073 8074 8075 8076 8077 8078 8079 8080 8081 8082 8083 8084 8085 8086 8087 8088 8089 8090 8091 8092 8093 8094 8095 8096 8097 8098 8099 8100 8101 8102 8103 8104 8105 8106 8107 8108 8109 8110 8111 8112 8113 8114 8115 8116 8117 8118 8119 8120 8121 8122 8123 8124 8125 8126 8127 8128 8129 8130 8131 8132 8133 8134 8135 8136 8137 8138 8139 8140 8141 8142 8143 8144 8145 8146 8147 8148 8149 8150 8151 8152 8153 8154 8155 8156 8157 8158 8159 8160 8161 8162 8163 8164 8165 8166 8167 8168 8169 8170 8171 8172 8173 8174 8175 8176 8177 8178 8179 8180 8181 8182 8183 8184 8185 8186 8187 8188 8189 8190 8191 8192 8193 8194 8195 8196 8197 8198 8199 8200 8201 8202 8203 8204 8205 8206 8207 8208 8209 8210 8211 8212 8213 8214 8215 8216 8217 8218 8219 8220 8221 8222 8223 8224 8225 8226 8227 8228 8229 8230 8231 8232 8233 8234 8235 8236 8237 8238 8239 8240 8241 8242 8243 8244 8245 8246 8247 8248 8249 8250 8251 8252 8253 8254 8255 8256 8257 8258 8259 8260 8261 8262 8263 8264 8265 8266 8267 8268 8269 8270 8271 8272 8273 8274 8275 8276 8277 8278 8279 8280 8281 8282 8283 8284 8285 8286 8287 8288 8289 8290 8291 8292 8293 8294 8295 8296 8297 8298 8299 8300 8301 8302 8303 8304 8305 8306 8307 8308 8309 8310 8311 8312 8313 8314 8315 8316 8317 8318 8319 8320 8321 8322 8323 8324 8325 8326 8327 8328 8329 8330 8331 8332 8333 8334 8335 8336 8337 8338 8339 8340 8341 8342 8343 8344 8345 8346 8347 8348 8349 8350 8351 8352 8353 8354 8355 8356 8357 8358 8359 8360 8361 8362 8363 8364 8365 8366 8367 8368 8369 8370 8371 8372 8373 8374 8375 8376 8377 8378 8379 8380 8381 8382 8383 8384 8385 8386 8387 8388 8389 8390 8391 8392 8393 8394 8395 8396 8397 8398 8399 8400 8401 8402 8403 8404 8405 8406 8407 8408 8409 8410 8411 8412 8413 8414 8415 8416 8417 8418 8419 8420 8421 8422 8423 8424 8425 8426 8427 8428 8429 8430 8431 8432 8433 8434 8435 8436 8437 8438 8439 8440 8441 8442 8443 8444 8445 8446 8447 8448 8449 8450 8451 8452 8453 8454 8455 8456 8457 8458 8459 8460 8461 8462 8463 8464 8465 8466 8467 8468 8469 8470 8471 8472 8473 8474 8475 8476 8477 8478 8479 8480 8481 8482 8483 8484 8485 8486 8487 8488 8489 8490 8491 8492 8493 8494 8495 8496 8497 8498 8499 8500 8501 8502 8503 8504 8505 8506 8507 8508 8509 8510 8511 8512 8513 8514 8515 8516 8517 8518 8519 8520 8521 8522 8523 8524 8525 8526 8527 8528 8529 8530 8531 8532 8533 8534 8535 8536 8537 8538 8539 8540 8541 8542 8543 8544 8545 8546 8547 8548 8549 8550 8551 8552 8553 8554 8555 8556 8557 8558 8559 8560 8561 8562 8563 8564 8565 8566 8567 8568 8569 8570 8571 8572 8573 8574 8575 8576 8577 8578 8579 8580 8581 8582 8583 8584 8585 8586 8587 8588 8589 8590 8591 8592 8593 8594 8595 8596 8597 8598 8599 8600 8601 8602 8603 8604 8605 8606 8607 8608 8609 8610 8611 8612 8613 8614 8615 8616 8617 8618 8619 8620 8621 8622 8623 8624 8625 8626 8627 8628 8629 8630 8631 8632 8633 8634 8635 8636 8637 8638 8639 8640 8641 8642 8643 8644 8645 8646 8647 8648 8649 8650 8651 8652 8653 8654 8655 8656 8657 8658 8659 8660 8661 8662 8663 8664 8665 8666 8667 8668 8669 8670 8671 8672 8673 8674 8675 8676 8677 8678 8679 8680 8681 8682 8683 8684 8685 8686 8687 8688 8689 8690 8691 8692 8693 8694 8695 8696 8697 8698 8699 8700 8701 8702 8703 8704 8705 8706 8707 8708 8709 8710 8711 8712 8713 8714 8715 8716 8717 8718 8719 8720 8721 8722 8723 8724 8725 8726 8727 8728 8729 8730 8731 8732 8733 8734 8735 8736 8737 8738 8739 8740 8741 8742 8743 8744 8745 8746 8747 8748 8749 8750 8751 8752 8753 8754 8755 8756 8757 8758 8759 8760 8761 8762 8763 8764 8765 8766 8767 8768 8769 8770 8771 8772 8773 8774 8775 8776 8777 8778 8779 8780 8781 8782 8783 8784 8785 8786 8787 8788 8789 8790 8791 8792 8793 8794 8795 8796 8797 8798 8799 8800 8801 8802 8803 8804 8805 8806 8807 8808 8809 8810 8811 8812 8813 8814 8815 8816 8817 8818 8819 8820 8821 8822 8823 8824 8825 8826 8827 8828 8829 8830 8831 8832 8833 8834 8835 8836 8837 8838 8839 8840 8841 8842 8843 8844 8845 8846 8847 8848 8849 8850 8851 8852 8853 8854 8855 8856 8857 8858 8859 8860 8861 8862 8863 8864 8865 8866 8867 8868 8869 8870 8871 8872 8873 8874 8875 8876 8877 8878 8879 8880 8881 8882 8883 8884 8885 8886 8887 8888 8889 8890 8891 8892 8893 8894 8895 8896 8897 8898 8899 8900 8901 8902 8903 8904 8905 8906 8907 8908 8909 8910 8911 8912 8913 8914 8915 8916 8917 8918 8919 8920 8921 8922 8923 8924 8925 8926 8927 8928 8929 8930 8931 8932 8933 8934 8935 8936 8937 8938 8939 8940 8941 8942 8943 8944 8945 8946 8947 8948 8949 8950 8951 8952 8953 8954 8955 8956 8957 8958 8959 8960 8961 8962 8963 8964 8965 8966 8967 8968 8969 8970 8971 8972 8973 8974 8975 8976 8977 8978 8979 8980 8981 8982 8983 8984 8985 8986 8987 8988 8989 8990 8991 8992 8993 8994 8995 8996 8997 8998 8999 9000 9001 9002 9003 9004 9005 9006 9007 9008 9009 9010 9011 9012 9013 9014 9015 9016 9017 9018 9019 9020 9021 9022 9023 9024 9025 9026 9027 9028 9029 9030 9031 9032 9033 9034 9035 9036 9037 9038 9039 9040 9041 9042 9043 9044 9045 9046 9047 9048 9049 9050 9051 9052 9053 9054 9055 9056 9057 9058 9059 9060 9061 9062 9063 9064 9065 9066 9067 9068 9069 9070 9071 9072 9073 9074 9075 9076 9077 9078 9079 9080 9081 9082 9083 9084 9085 9086 9087 9088 9089 9090 9091 9092 9093 9094 9095 9096 9097 9098 9099 9100 9101 9102 9103 9104 9105 9106 9107 9108 9109 9110 9111 9112 9113 9114 9115 9116 9117 9118 9119 9120 9121 9122 9123 9124 9125 9126 9127 9128 9129 9130 9131 9132 9133 9134 9135 9136 9137 9138 9139 9140 9141 9142 9143 9144 9145 9146 9147 9148 9149 9150 9151 9152 9153 9154 9155 9156 9157 9158 9159 9160 9161 9162 9163 9164 9165 9166 9167 9168 9169 9170 9171 9172 9173 9174 9175 9176 9177 9178 9179 9180 9181 9182 9183 9184 9185 9186 9187 9188 9189 9190 9191 9192 9193 9194 9195 9196 9197 9198 9199 9200 9201 9202 9203 9204 9205 9206 9207 9208 9209 9210 9211 9212 9213 9214 9215 9216 9217 9218 9219 9220 9221 9222 9223 9224 9225 9226 9227 9228 9229 9230 9231 9232 9233 9234 9235 9236 9237 9238 9239 9240 9241 9242 9243 9244 9245 9246 9247 9248 9249 9250 9251 9252 9253 9254 9255 9256 9257 9258 9259 9260 9261 9262 9263 9264 9265 9266 9267 9268 9269 9270 9271 9272 9273 9274 9275 9276 9277 9278 9279 9280 9281 9282 9283 9284 9285 9286 9287 9288 9289 9290 9291 9292 9293 9294 9295 9296 9297 9298 9299 9300 9301 9302 9303 9304 9305 9306 9307 9308 9309 9310 9311 9312 9313 9314 9315 9316 9317 9318 9319 9320 9321 9322 9323 9324 9325 9326 9327 9328 9329 9330 9331 9332 9333 9334 9335 9336 9337 9338 9339 9340 9341 9342 9343 9344 9345 9346 9347 9348 9349 9350 9351 9352 9353 9354 9355 9356 9357 9358 9359 9360 9361 9362 9363 9364 9365 9366 9367 9368 9369 9370 9371 9372 9373 9374 9375 9376 9377 9378 9379 9380 9381 9382 9383 9384 9385 9386 9387 9388 9389 9390 9391 9392 9393 9394 9395 9396 9397 9398 9399 9400 9401 9402 9403 9404 9405 9406 9407 9408 9409 9410 9411 9412 9413 9414 9415 9416 9417 9418 9419 9420 9421 9422 9423 9424 9425 9426 9427 9428 9429 9430 9431 9432 9433 9434 9435 9436 9437 9438 9439 9440 9441 9442 9443 9444 9445 9446 9447 9448 9449 9450 9451 9452 9453 9454 9455 9456 9457 9458 9459 9460 9461 9462 9463 9464 9465 9466 9467 9468 9469 9470 9471 9472 9473 9474 9475 9476 9477 9478 9479 9480 9481 9482 9483 9484 9485 9486 9487 9488 9489 9490 9491 9492 9493 9494 9495 9496 9497 9498 9499 9500 9501 9502 9503 9504 9505 9506 9507 9508 9509 9510 9511 9512 9513 9514 9515 9516 9517 9518 9519 9520 9521 9522 9523 9524 9525 9526 9527 9528 9529 9530 9531 9532 9533 9534 9535 9536 9537 9538 9539 9540 9541 9542 9543 9544 9545 9546 9547 9548 9549 9550 9551 9552 9553 9554 9555 9556 9557 9558 9559 9560 9561 9562 9563 9564 9565 9566 9567 9568 9569 9570 9571 9572 9573 9574 9575 9576 9577 9578 9579 9580 9581 9582 9583 9584 9585 9586 9587 9588 9589 9590 9591 9592 9593 9594 9595 9596 9597 9598 9599 9600 9601 9602 9603 9604 9605 9606 9607 9608 9609 9610 9611 9612 9613 9614 9615 9616 9617 9618 9619 9620 9621 9622 9623 9624 9625 9626 9627 9628 9629 9630 9631 9632 9633 9634 9635 9636 9637 9638 9639 9640 9641 9642 9643 9644 9645 9646 9647 9648 9649 9650 9651 9652 9653 9654 9655 9656 9657 9658 9659 9660 9661 9662 9663 9664 9665 9666 9667 9668 9669 9670 9671 9672 9673 9674 9675 9676 9677 9678 9679 9680 9681 9682 9683 9684 9685 9686 9687 9688 9689 9690 9691 9692 9693 9694 9695 9696 9697 9698 9699 9700 9701 9702 9703 9704 9705 9706 9707 9708 9709 9710 9711 9712 9713 9714 9715 9716 9717 9718 9719 9720 9721 9722 9723 9724 9725 9726 9727 9728 9729 9730 9731 9732 9733 9734 9735 9736 9737 9738 9739 9740 9741 9742 9743 9744 9745 9746 9747 9748 9749 9750 9751 9752 9753 9754 9755 9756 9757 9758 9759 9760 9761 9762 9763 9764 9765 9766 9767 9768 9769 9770 9771 9772 9773 9774 9775 9776 9777 9778 9779 9780 9781 9782 9783 9784 9785 9786 9787 9788 9789 9790 9791 9792 9793 9794 9795 9796 9797 9798 9799 9800 9801 9802 9803 9804 9805 9806 9807 9808 9809 9810 9811 9812 9813 9814 9815 9816 9817 9818 9819 9820 9821 9822 9823 9824 9825 9826 9827 9828 9829 9830 9831 9832 9833 9834 9835 9836 9837 9838 9839 9840 9841 9842 9843 9844 9845 9846 9847 9848 9849 9850 9851 9852 9853 9854 9855 9856 9857 9858 9859 9860 9861 9862 9863 9864 9865 9866 9867 9868 9869 9870 9871 9872 9873 9874 9875 9876 9877 9878 9879 9880 9881 9882 9883 9884 9885 9886 9887 9888 9889 9890 9891 9892 9893 9894 9895 9896 9897 9898 9899 9900 9901 9902 9903 9904 9905 9906 9907 9908 9909 9910 9911 9912 9913 9914 9915 9916 9917 9918 9919 9920 9921 9922 9923 9924 9925 9926 9927 9928 9929 9930 9931 9932 9933 9934 9935 9936 9937 9938 9939 9940 9941 9942 9943 9944 9945 9946 9947 9948 9949 9950 9951 9952 9953 9954 9955 9956 9957 9958 9959 9960 9961 9962 9963 9964 9965 9966 9967 9968 9969 9970 9971 9972 9973 9974 9975 9976 9977 9978 9979 9980 9981 9982 9983 9984 9985 9986 9987 9988 9989 9990 9991 9992 9993 9994 9995 9996 9997 9998 9999 10000 10001 10002 10003 10004 10005 10006 10007 10008 10009 10010 10011 10012 10013 10014 10015 10016 10017 10018 10019 10020 10021 10022 10023 10024 10025 10026 10027 10028 10029 10030 10031 10032 10033 10034 10035 10036 10037 10038 10039 10040 10041 10042 10043 10044 10045 10046 10047 10048 10049 10050 10051 10052 10053 10054 10055 10056 10057 10058 10059 10060 10061 10062 10063 10064 10065 10066 10067 10068 10069 10070 10071 10072 10073 10074 10075 10076 10077 10078 10079 10080 10081 10082 10083 10084 10085 10086 10087 10088 10089 10090 10091 10092 10093 10094 10095 10096 10097 10098 10099 10100 10101 10102 10103 10104 10105 10106 10107 10108 10109 10110 10111 10112 10113 10114 10115 10116 10117 10118 10119 10120 10121 10122 10123 10124 10125 10126 10127 10128 10129 10130 10131 10132 10133 10134 10135 10136 10137 10138 10139 10140 10141 10142 10143 10144 10145 10146 10147 10148 10149 10150 10151 10152 10153 10154 10155 10156 10157 10158 10159 10160 10161 10162 10163 10164 10165 10166 10167 10168 10169 10170 10171 10172 10173 10174 10175 10176 10177 10178 10179 10180 10181 10182 10183 10184 10185 10186 10187 10188 10189 10190 10191 10192 10193 10194 10195 10196 10197 10198 10199 10200 10201 10202 10203 10204 10205 10206 10207 10208 10209 10210 10211 10212 10213 10214 10215 10216 10217 10218 10219 10220 10221 10222 10223 10224 10225 10226 10227 10228 10229 10230 10231 10232 10233 10234 10235 10236 10237 10238 10239 10240 10241 10242 10243 10244 10245 10246 10247 10248 10249 10250 10251 10252 10253 10254 10255 10256 10257 10258 10259 10260 10261 10262 10263 10264 10265 10266 10267 10268 10269 10270 10271 10272 10273 10274 10275 10276 10277 10278 10279 10280 10281 10282 10283 10284 10285 10286 10287 10288 10289 10290 10291 10292 10293 10294 10295 10296 10297 10298 10299 10300 10301 10302 10303 10304 10305 10306 10307 10308 10309 10310 10311 10312 10313 10314 10315 10316 10317 10318 10319 10320 10321 10322 10323 10324 10325 10326 10327 10328 10329 10330 10331 10332 10333 10334 10335 10336 10337 10338 10339 10340 10341 10342 10343 10344 10345 10346 10347 10348 10349 10350 10351 10352 10353 10354 10355 10356 10357 10358 10359 10360 10361 10362 10363 10364 10365 10366 10367 10368 10369 10370 10371 10372 10373 10374 10375 10376 10377 10378 10379 10380 10381 10382 10383 10384 10385 10386 10387 10388 10389 10390 10391 10392 10393 10394 10395 10396 10397 10398 10399 10400 10401 10402 10403 10404 10405 10406 10407 10408 10409 10410 10411 10412 10413 10414 10415 10416 10417 10418 10419 10420 10421 10422 10423 10424 10425 10426 10427 10428 10429 10430 10431 10432 10433 10434 10435 10436 10437 10438 10439 10440 10441 10442 10443 10444 10445 10446 10447 10448 10449 10450 10451 10452 10453 10454 10455 10456 10457 10458 10459 10460 10461 10462 10463 10464 10465 10466 10467 10468 10469 10470 10471 10472 10473 10474 10475 10476 10477 10478 10479 10480 10481 10482 10483 10484 10485 10486 10487 10488 10489 10490 10491 10492 10493 10494 10495 10496 10497 10498 10499 10500 10501 10502 10503 10504 10505 10506 10507 10508 10509 10510 10511 10512 10513 10514 10515 10516 10517 10518 10519 10520 10521 10522 10523 10524 10525 10526 10527 10528 10529 10530 10531 10532 10533 10534 10535 10536 10537 10538 10539 10540 10541 10542 10543 10544 10545 10546 10547 10548 10549 10550 10551 10552 10553 10554 10555 10556 10557 10558 10559 10560 10561 10562 10563 10564 10565 10566 10567 10568 10569 10570 10571 10572 10573 10574 10575 10576 10577 10578 10579 10580 10581 10582 10583 10584 10585 10586 10587 10588 10589 10590 10591 10592 10593 10594 10595 10596 10597 10598 10599 10600 10601 10602 10603 10604 10605 10606 10607 10608 10609 10610 10611 10612 10613 10614 10615 10616 10617 10618 10619 10620 10621 10622 10623 10624 10625 10626 10627 10628 10629 10630 10631 10632 10633 10634 10635 10636 10637 10638 10639 10640 10641 10642 10643 10644 10645 10646 10647 10648 10649 10650 10651 10652 10653 10654 10655 10656 10657 10658 10659 10660 10661 10662 10663 10664 10665 10666 10667 10668 10669 10670 10671 10672 10673 10674 10675 10676 10677 10678 10679 10680 10681 10682 10683 10684 10685 10686 10687 10688 10689 10690 10691 10692 10693 10694 10695 10696 10697 10698 10699 10700 10701 10702 10703 10704 10705 10706 10707 10708 10709 10710 10711 10712 10713 10714 10715 10716 10717 10718 10719 10720 10721 10722 10723 10724 10725 10726 10727 10728 10729 10730 10731 10732 10733 10734 10735 10736 10737 10738 10739 10740 10741 10742 10743 10744 10745 10746 10747 10748 10749 10750 10751 10752 10753 10754 10755 10756 10757 10758 10759 10760 10761 10762 10763 10764 10765 10766 10767 10768 10769 10770 10771 10772 10773 10774 10775 10776 10777 10778 10779 10780 10781 10782 10783 10784 10785 10786 10787 10788 10789 10790 10791 10792 10793 10794 10795 10796 10797 10798 10799 10800 10801 10802 10803 10804 10805 10806 10807 10808 10809 10810 10811 10812 10813 10814 10815 10816 10817 10818 10819 10820 10821 10822 10823 10824 10825 10826 10827 10828 10829 10830 10831 10832 10833 10834 10835 10836 10837 10838 10839 10840 10841 10842 10843 10844 10845 10846 10847 10848 10849 10850 10851 10852 10853 10854 10855 10856 10857 10858 10859 10860 10861 10862 10863 10864 10865 10866 10867 10868 10869 10870 10871 10872 10873 10874 10875 10876 10877 10878 10879 10880 10881 10882 10883 10884 10885 10886 10887 10888 10889 10890 10891 10892 10893 10894 10895 10896 10897 10898 10899 10900 10901 10902 10903 10904 10905 10906 10907 10908 10909 10910 10911 10912 10913 10914 10915 10916 10917 10918 10919 10920 10921 10922 10923 10924 10925 10926 10927 10928 10929 10930 10931 10932 10933 10934 10935 10936 10937 10938 10939 10940 10941 10942 10943 10944 10945 10946 10947 10948 10949 10950 10951 10952 10953 10954 10955 10956 10957 10958 10959 10960 10961 10962 10963 10964 10965 10966 10967 10968 10969 10970 10971 10972 10973 10974 10975 10976 10977 10978 10979 10980 10981 10982 10983 10984 10985 10986 10987 10988 10989 10990 10991 10992 10993 10994 10995 10996 10997 10998 10999 11000 11001 11002 11003 11004 11005 11006 11007 11008 11009 11010 11011 11012 11013 11014 11015 11016 11017 11018 11019 11020 11021 11022 11023 11024 11025 11026 11027 11028 11029 11030 11031 11032 11033 11034 11035 11036 11037 11038 11039 11040 11041 11042 11043 11044 11045 11046 11047 11048 11049 11050 11051 11052 11053 11054 11055 11056 11057 11058 11059 11060 11061 11062 11063 11064 11065 11066 11067 11068 11069 11070 11071 11072 11073 11074 11075 11076 11077 11078 11079 11080 11081 11082 11083 11084 11085 11086 11087 11088 11089 11090 11091 11092 11093 11094 11095 11096 11097 11098 11099 11100 11101 11102 11103 11104 11105 11106 11107 11108 11109 11110 11111 11112 11113 11114 11115 11116 11117 11118 11119 11120 11121 11122 11123 11124 11125 11126 11127 11128 11129 11130 11131 11132 11133 11134 11135 11136 11137 11138 11139 11140 11141 11142 11143 11144 11145 11146 11147 11148 11149 11150 11151 11152 11153 11154 11155 11156 11157 11158 11159 11160 11161 11162 11163 11164 11165 11166 11167 11168 11169 11170 11171 11172 11173 11174 11175 11176 11177 11178 11179 11180 11181 11182 11183 11184 11185 11186 11187 11188 11189 11190 11191 11192 11193 11194 11195 11196 11197 11198 11199 11200 11201 11202 11203 11204 11205 11206 11207 11208 11209 11210 11211 11212 11213 11214 11215 11216 11217 11218 11219 11220 11221 11222 11223 11224 11225 11226 11227 11228 11229 11230 11231 11232 11233 11234 11235 11236 11237 11238 11239 11240 11241 11242 11243 11244 11245 11246 11247 11248 11249 11250 11251 11252 11253 11254 11255 11256 11257 11258 11259 11260 11261 11262 11263 11264 11265 11266 11267 11268 11269 11270 11271 11272 11273 11274 11275 11276 11277 11278 11279 11280 11281 11282 11283 11284 11285 11286 11287 11288 11289 11290 11291 11292 11293 11294 11295 11296 11297 11298 11299 11300 11301 11302 11303 11304 11305 11306 11307 11308 11309 11310 11311 11312 11313 11314 11315 11316 11317 11318 11319 11320 11321 11322 11323 11324 11325 11326 11327 11328 11329 11330 11331 11332 11333 11334 11335 11336 11337 11338 11339 11340 11341 11342 11343 11344 11345 11346 11347 11348 11349 11350 11351 11352 11353 11354 11355 11356 11357 11358 11359 11360 11361 11362 11363 11364 11365 11366 11367 11368 11369 11370 11371 11372 11373 11374 11375 11376 11377 11378 11379 11380 11381 11382 11383 11384 11385 11386 11387 11388 11389 11390 11391 11392 11393 11394 11395 11396 11397 11398 11399 11400 11401 11402 11403 11404 11405 11406 11407 11408 11409 11410 11411 11412 11413 11414 11415 11416 11417 11418 11419 11420 11421 11422 11423 11424 11425 11426 11427 11428 11429 11430 11431 11432 11433 11434 11435 11436 11437 11438 11439 11440 11441 11442 11443 11444 11445 11446 11447 11448 11449 11450 11451 11452 11453 11454 11455 11456 11457 11458 11459 11460 11461 11462 11463 11464 11465 11466 11467 11468 11469 11470 11471 11472 11473 11474 11475 11476 11477 11478 11479 11480 11481 11482 11483 11484 11485 11486 11487 11488 11489 11490 11491 11492 11493 11494 11495 11496 11497 11498 11499 11500 11501 11502 11503 11504 11505 11506 11507 11508 11509 11510 11511 11512 11513 11514 11515 11516 11517 11518 11519 11520 11521 11522 11523 11524 11525 11526 11527 11528 11529 11530 11531 11532 11533 11534 11535 11536 11537 11538 11539 11540 11541 11542 11543 11544 11545 11546 11547 11548 11549 11550 11551 11552 11553 11554 11555 11556 11557 11558 11559 11560 11561 11562 11563 11564 11565 11566 11567 11568 11569 11570 11571 11572 11573 11574 11575 11576 11577 11578 11579 11580 11581 11582 11583 11584 11585 11586 11587 11588 11589 11590 11591 11592 11593 11594 11595 11596 11597 11598 11599 11600 11601 11602 11603 11604 11605 11606 11607 11608 11609 11610 11611 11612 11613 11614 11615 11616 11617 11618 11619 11620 11621 11622 11623 11624 11625 11626 11627 11628 11629 11630 11631 11632 11633 11634 11635 11636 11637 11638 11639 11640 11641 11642 11643 11644 11645 11646 11647 11648 11649 11650 11651 11652 11653 11654 11655 11656 11657 11658 11659 11660 11661 11662 11663 11664 11665 11666 11667 11668 11669 11670 11671 11672 11673 11674 11675 11676 11677 11678 11679 11680 11681 11682 11683 11684 11685 11686 11687 11688 11689 11690 11691 11692 11693 11694 11695 11696 11697 11698 11699 11700 11701 11702 11703 11704 11705 11706 11707 11708 11709 11710 11711 11712 11713 11714 11715 11716 11717 11718 11719 11720 11721 11722 11723 11724 11725 11726 11727 11728 11729 11730 11731 11732 11733 11734 11735 11736 11737 11738 11739 11740 11741 11742 11743 11744 11745 11746 11747 11748 11749 11750 11751 11752 11753 11754 11755 11756 11757 11758 11759 11760 11761 11762 11763 11764 11765 11766 11767 11768 11769 11770 11771 11772 11773 11774 11775 11776 11777 11778 11779 11780 11781 11782 11783 11784 11785 11786 11787 11788 11789 11790 11791 11792 11793 11794 11795 11796 11797 11798 11799 11800 11801 11802 11803 11804 11805 11806 11807 11808 11809 11810 11811 11812 11813 11814 11815 11816 11817 11818 11819 11820 11821 11822 11823 11824 11825 11826 11827 11828 11829 11830 11831 11832 11833 11834 11835 11836 11837 11838 11839 11840 11841 11842 11843 11844 11845 11846 11847 11848 11849 11850 11851 11852 11853 11854 11855 11856 11857 11858 11859 11860 11861 11862 11863 11864 11865 11866 11867 11868 11869 11870 11871 11872 11873 11874 11875 11876 11877 11878 11879 11880 11881 11882 11883 11884 11885 11886 11887 11888 11889 11890 11891 11892 11893 11894 11895 11896 11897 11898 11899 11900 11901 11902 11903 11904 11905 11906 11907 11908 11909 11910 11911 11912 11913 11914 11915 11916 11917 11918 11919 11920 11921 11922 11923 11924 11925 11926 11927 11928 11929 11930 11931 11932 11933 11934 11935 11936 11937 11938 11939 11940 11941 11942 11943 11944 11945 11946 11947 11948 11949 11950 11951 11952 11953 11954 11955 11956 11957 11958 11959 11960 11961 11962 11963 11964 11965 11966 11967 11968 11969 11970 11971 11972 11973 11974 11975 11976 11977 11978 11979 11980 11981 11982 11983 11984 11985 11986 11987 11988 11989 11990 11991 11992 11993 11994 11995 11996 11997 11998 11999 12000 12001 12002 12003 12004 12005 12006 12007 12008 12009 12010 12011 12012 12013 12014 12015 12016 12017 12018 12019 12020 12021 12022 12023 12024 12025 12026 12027 12028 12029 12030 12031 12032 12033 12034 12035 12036 12037 12038 12039 12040 12041 12042 12043 12044 12045 12046 12047 12048 12049 12050 12051 12052 12053 12054 12055 12056 12057 12058 12059 12060 12061 12062 12063 12064 12065 12066 12067 12068 12069 12070 12071 12072 12073 12074 12075 12076 12077 12078 12079 12080 12081 12082 12083 12084 12085 12086 12087 12088 12089 12090 12091 12092 12093 12094 12095 12096 12097 12098 12099 12100 12101 12102 12103 12104 12105 12106 12107 12108 12109 12110 12111 12112 12113 12114 12115 12116 12117 12118 12119 12120 12121 12122 12123 12124 12125 12126 12127 12128 12129 12130 12131 12132 12133 12134 12135 12136 12137 12138 12139 12140 12141 12142 12143 12144 12145 12146 12147 12148 12149 12150 12151 12152 12153 12154 12155 12156 12157 12158 12159 12160 12161 12162 12163 12164 12165 12166 12167 12168 12169 12170 12171 12172 12173 12174 12175 12176 12177 12178 12179 12180 12181 12182 12183 12184 12185 12186 12187 12188 12189 12190 12191 12192 12193 12194 12195 12196 12197 12198 12199 12200 12201 12202 12203 12204 12205 12206 12207 12208 12209 12210 12211 12212 12213 12214 12215 12216 12217 12218 12219 12220 12221 12222 12223 12224 12225 12226 12227 12228 12229 12230 12231 12232 12233 12234 12235 12236 12237 12238 12239 12240 12241 12242 12243 12244 12245 12246 12247 12248 12249 12250 12251 12252 12253 12254 12255 12256 12257 12258 12259 12260 12261 12262 12263 12264 12265 12266 12267 12268 12269 12270 12271 12272 12273 12274 12275 12276 12277 12278 12279 12280 12281 12282 12283 12284 12285 12286 12287 12288 12289 12290 12291 12292 12293 12294 12295 12296 12297 12298 12299 12300 12301 12302 12303 12304 12305 12306 12307 12308 12309 12310 12311 12312 12313 12314 12315 12316 12317 12318 12319 12320 12321 12322 12323 12324 12325 12326 12327 12328 12329 12330 12331 12332 12333 12334 12335 12336 12337 12338 12339 12340 12341 12342 12343 12344 12345 12346 12347 12348 12349 12350 12351 12352 12353 12354 12355 12356 12357 12358 12359 12360 12361 12362 12363 12364 12365 12366 12367 12368 12369 12370 12371 12372 12373 12374 12375 12376 12377 12378 12379 12380 12381 12382 12383 12384 12385 12386 12387 12388 12389 12390 12391 12392 12393 12394 12395 12396 12397 12398 12399 12400 12401 12402 12403 12404 12405 12406 12407 12408 12409 12410 12411 12412 12413 12414 12415 12416 12417 12418 12419 12420 12421 12422 12423 12424 12425 12426 12427 12428 12429 12430 12431 12432 12433 12434 12435 12436 12437 12438 12439 12440 12441 12442 12443 12444 12445 12446 12447 12448 12449 12450 12451 12452 12453 12454 12455 12456 12457 12458 12459 12460 12461 12462 12463 12464 12465 12466 12467 12468 12469 12470 12471 12472 12473 12474 12475 12476 12477 12478 12479 12480 12481 12482 12483 12484 12485 12486 12487 12488 12489 12490 12491 12492 12493 12494 12495 12496 12497 12498 12499 12500 12501 12502 12503 12504 12505 12506 12507 12508 12509 12510 12511 12512 12513 12514 12515 12516 12517 12518 12519 12520 12521 12522 12523 12524 12525 12526 12527 12528 12529 12530 12531 12532 12533 12534 12535 12536 12537 12538 12539 12540 12541 12542 12543 12544 12545 12546 12547 12548 12549 12550 12551 12552 12553 12554 12555 12556 12557 12558 12559 12560 12561 12562 12563 12564 12565 12566 12567 12568 12569 12570 12571 12572 12573 12574 12575 12576 12577 12578 12579 12580 12581 12582 12583 12584 12585 12586 12587 12588 12589 12590 12591 12592 12593 12594 12595 12596 12597 12598 12599 12600 12601 12602 12603 12604 12605 12606 12607 12608 12609 12610 12611 12612 12613 12614 12615 12616 12617 12618 12619 12620 12621 12622 12623 12624 12625 12626 12627 12628 12629 12630 12631 12632 12633 12634 12635 12636 12637 12638 12639 12640 12641 12642 12643 12644 12645 12646 12647 12648 12649 12650 12651 12652 12653 12654 12655 12656 12657 12658 12659 12660 12661 12662 12663 12664 12665 12666 12667 12668 12669 12670 12671 12672 12673 12674 12675 12676 12677 12678 12679 12680 12681 12682 12683 12684 12685 12686 12687 12688 12689 12690 12691 12692 12693 12694 12695 12696 12697 12698 12699 12700 12701 12702 12703 12704 12705 12706 12707 12708 12709 12710 12711 12712 12713 12714 12715 12716 12717 12718 12719 12720 12721 12722 12723 12724 12725 12726 12727 12728 12729 12730 12731 12732 12733 12734 12735 12736 12737 12738 12739 12740 12741 12742 12743 12744 12745 12746 12747 12748 12749 12750 12751 12752 12753 12754 12755 12756 12757 12758 12759 12760 12761 12762 12763 12764 12765 12766 12767 12768 12769 12770 12771 12772 12773 12774 12775 12776 12777 12778 12779 12780 12781 12782 12783 12784 12785 12786 12787 12788 12789 12790 12791 12792 12793 12794 12795 12796 12797 12798 12799 12800 12801 12802 12803 12804 12805 12806 12807 12808 12809 12810 12811 12812 12813 12814 12815 12816 12817 12818 12819 12820 12821 12822 12823 12824 12825 12826 12827 12828 12829 12830 12831 12832 12833 12834 12835 12836 12837 12838 12839 12840 12841 12842 12843 12844 12845 12846 12847 12848 12849 12850 12851 12852 12853 12854 12855 12856 12857 12858 12859 12860 12861 12862 12863 12864 12865 12866 12867 12868 12869 12870 12871 12872 12873 12874 12875 12876 12877 12878 12879 12880 12881 12882 12883 12884 12885 12886 12887 12888 12889 12890 12891 12892 12893 12894 12895 12896 12897 12898 12899 12900 12901 12902 12903 12904 12905 12906 12907 12908 12909 12910 12911 12912 12913 12914 12915 12916 12917 12918 12919 12920 12921 12922 12923 12924 12925 12926 12927 12928 12929 12930 12931 12932 12933 12934 12935 12936 12937 12938 12939 12940 12941 12942 12943 12944 12945 12946 12947 12948 12949 12950 12951 12952 12953 12954 12955 12956 12957 12958 12959 12960 12961 12962 12963 12964 12965 12966 12967 12968 12969 12970 12971 12972 12973 12974 12975 12976 12977 12978 12979 12980 12981 12982 12983 12984 12985 12986 12987 12988 12989 12990 12991 12992 12993 12994 12995 12996 12997 12998 12999 13000 13001 13002 13003 13004 13005 13006 13007 13008 13009 13010 13011 13012 13013 13014 13015 13016 13017 13018 13019 13020 13021 13022 13023 13024 13025 13026 13027 13028 13029 13030 13031 13032 13033 13034 13035 13036 13037 13038 13039 13040 13041 13042 13043 13044 13045 13046 13047 13048 13049 13050 13051 13052 13053 13054 13055 13056 13057 13058 13059 13060 13061 13062 13063 13064 13065 13066 13067 13068 13069 13070 13071 13072 13073 13074 13075 13076 13077 13078 13079 13080 13081 13082 13083 13084 13085 13086 13087 13088 13089 13090 13091 13092 13093 13094 13095 13096 13097 13098 13099 13100 13101 13102 13103 13104 13105 13106 13107 13108 13109 13110 13111 13112 13113 13114 13115 13116 13117 13118 13119 13120 13121 13122 13123 13124 13125 13126 13127 13128 13129 13130 13131 13132 13133 13134 13135 13136 13137 13138 13139 13140 13141 13142 13143 13144 13145 13146 13147 13148 13149 13150 13151 13152 13153 13154 13155 13156 13157 13158 13159 13160 13161 13162 13163 13164 13165 13166 13167 13168 13169 13170 13171 13172 13173 13174 13175 13176 13177 13178 13179 13180 13181 13182 13183 13184 13185 13186 13187 13188 13189 13190 13191 13192 13193 13194 13195 13196 13197 13198 13199 13200 13201 13202 13203 13204 13205 13206 13207 13208 13209 13210 13211 13212 13213 13214 13215 13216 13217 13218 13219 13220 13221 13222 13223 13224 13225 13226 13227 13228 13229 13230 13231 13232 13233 13234 13235 13236 13237 13238 13239 13240 13241 13242 13243 13244 13245 13246 13247 13248 13249 13250 13251 13252 13253 13254 13255 13256 13257 13258 13259 13260 13261 13262 13263 13264 13265 13266 13267 13268 13269 13270 13271 13272 13273 13274 13275 13276 13277 13278 13279 13280 13281 13282 13283 13284 13285 13286 13287 13288 13289 13290 13291 13292 13293 13294 13295 13296 13297 13298 13299 13300 13301 13302 13303 13304 13305 13306 13307 13308 13309 13310 13311 13312 13313 13314 13315 13316 13317 13318 13319 13320 13321 13322 13323 13324 13325 13326 13327 13328 13329 13330 13331 13332 13333 13334 13335 13336 13337 13338 13339 13340 13341 13342 13343 13344 13345 13346 13347 13348 13349 13350 13351 13352 13353 13354 13355 13356 13357 13358 13359 13360 13361 13362 13363 13364 13365 13366 13367 13368 13369 13370 13371 13372 13373 13374 13375 13376 13377 13378 13379 13380 13381 13382 13383 13384 13385 13386 13387 13388 13389 13390 13391 13392 13393 13394 13395 13396 13397 13398 13399 13400 13401 13402 13403 13404 13405 13406 13407 13408 13409 13410 13411 13412 13413 13414 13415 13416 13417 13418 13419 13420 13421 13422 13423 13424 13425 13426 13427 13428 13429 13430 13431 13432 13433 13434 13435 13436 13437 13438 13439 13440 13441 13442 13443 13444 13445 13446 13447 13448 13449 13450 13451 13452 13453 13454 13455 13456 13457 13458 13459 13460 13461 13462 13463 13464 13465 13466 13467 13468 13469 13470 13471 13472 13473 13474 13475 13476 13477 13478 13479 13480 13481 13482 13483 13484 13485 13486 13487 13488 13489 13490 13491 13492 13493 13494 13495 13496 13497 13498 13499 13500 13501 13502 13503 13504 13505 13506 13507 13508 13509 13510 13511 13512 13513 13514 13515 13516 13517 13518 13519 13520 13521 13522 13523 13524 13525 13526 13527 13528 13529 13530 13531 13532 13533 13534 13535 13536 13537 13538 13539 13540 13541 13542 13543 13544 13545 13546 13547 13548 13549 13550 13551 13552 13553 13554 13555 13556 13557 13558 13559 13560 13561 13562 13563 13564 13565 13566 13567 13568 13569 13570 13571 13572 13573 13574 13575 13576 13577 13578 13579 13580 13581 13582 13583 13584 13585 13586 13587 13588 13589 13590 13591 13592 13593 13594 13595 13596 13597 13598 13599 13600 13601 13602 13603 13604 13605 13606 13607 13608 13609 13610 13611 13612 13613 13614 13615 13616 13617 13618 13619 13620 13621 13622 13623 13624 13625 13626 13627 13628 13629 13630 13631 13632 13633 13634 13635 13636 13637 13638 13639 13640 13641 13642 13643 13644 13645 13646 13647 13648 13649 13650 13651 13652 13653 13654 13655 13656 13657 13658 13659 13660 13661 13662 13663 13664 13665 13666 13667 13668 13669 13670 13671 13672 13673 13674 13675 13676 13677 13678 13679 13680 13681 13682 13683 13684 13685 13686 13687 13688 13689 13690 13691 13692 13693 13694 13695 13696 13697 13698 13699 13700 13701 13702 13703 13704 13705 13706 13707 13708 13709 13710 13711 13712 13713 13714 13715 13716 13717 13718 13719 13720 13721 13722 13723 13724 13725 13726 13727 13728 13729 13730 13731 13732 13733 13734 13735 13736 13737 13738 13739 13740 13741 13742 13743 13744 13745 13746 13747 13748 13749 13750 13751 13752 13753 13754 13755 13756 13757 13758 13759 13760 13761 13762 13763 13764 13765 13766 13767 13768 13769 13770 13771 13772 13773 13774 13775 13776 13777 13778 13779 13780 13781 13782 13783 13784 13785 13786 13787 13788 13789 13790 13791 13792 13793 13794 13795 13796 13797 13798 13799 13800 13801 13802 13803 13804 13805 13806 13807 13808 13809 13810 13811 13812 13813 13814 13815 13816 13817 13818 13819 13820 13821 13822 13823 13824 13825 13826 13827 13828 13829 13830 13831 13832 13833 13834 13835 13836 13837 13838 13839 13840 13841 13842 13843 13844 13845 13846 13847 13848 13849 13850 13851 13852 13853 13854 13855 13856 13857 13858 13859 13860 13861 13862 13863 13864 13865 13866 13867 13868 13869 13870 13871 13872 13873 13874 13875 13876 13877 13878 13879 13880 13881 13882 13883 13884 13885 13886 13887 13888 13889 13890 13891 13892 13893 13894 13895 13896 13897 13898 13899 13900 13901 13902 13903 13904 13905 13906 13907 13908 13909 13910 13911 13912 13913 13914 13915 13916 13917 13918 13919 13920 13921 13922 13923 13924 13925 13926 13927 13928 13929 13930 13931 13932 13933 13934 13935 13936 13937 13938 13939 13940 13941 13942 13943 13944 13945 13946 13947 13948 13949 13950 13951 13952 13953 13954 13955 13956 13957 13958 13959 13960 13961 13962 13963 13964 13965 13966 13967 13968 13969 13970 13971 13972 13973 13974 13975 13976 13977 13978 13979 13980 13981 13982 13983 13984 13985 13986 13987 13988 13989 13990 13991 13992 13993 13994 13995 13996 13997 13998 13999 14000 14001 14002 14003 14004 14005 14006 14007 14008 14009 14010 14011 14012 14013 14014 14015 14016 14017 14018 14019 14020 14021 14022 14023 14024 14025 14026 14027 14028 14029 14030 14031 14032 14033 14034 14035 14036 14037 14038 14039 14040 14041 14042 14043 14044 14045 14046 14047 14048 14049 14050 14051 14052 14053 14054 14055 14056 14057 14058 14059 14060 14061 14062 14063 14064 14065 14066 14067 14068 14069 14070 14071 14072 14073 14074 14075 14076 14077 14078 14079 14080 14081 14082 14083 14084 14085 14086 14087 14088 14089 14090 14091 14092 14093 14094 14095 14096 14097 14098 14099 14100 14101 14102 14103 14104 14105 14106 14107 14108 14109 14110 14111 14112 14113 14114 14115 14116 14117 14118 14119 14120 14121 14122 14123 14124 14125 14126 14127 14128 14129 14130 14131 14132 14133 14134 14135 14136 14137 14138 14139 14140 14141 14142 14143 14144 14145 14146 14147 14148 14149 14150 14151 14152 14153 14154 14155 14156 14157 14158 14159 14160 14161 14162 14163 14164 14165 14166 14167 14168 14169 14170 14171 14172 14173 14174 14175 14176 14177 14178 14179 14180 14181 14182 14183 14184 14185 14186 14187 14188 14189 14190 14191 14192 14193 14194 14195 14196 14197 14198 14199 14200 14201 14202 14203 14204 14205 14206 14207 14208 14209 14210 14211 14212 14213 14214 14215 14216 14217 14218 14219 14220 14221 14222 14223 14224 14225 14226 14227 14228 14229 14230 14231 14232 14233 14234 14235 14236 14237 14238 14239 14240 14241 14242 14243 14244 14245 14246 14247 14248 14249 14250 14251 14252 14253 14254 14255 14256 14257 14258 14259 14260 14261 14262 14263 14264 14265 14266 14267 14268 14269 14270 14271 14272 14273 14274 14275 14276 14277 14278 14279 14280 14281 14282 14283 14284 14285 14286 14287 14288 14289 14290 14291 14292 14293 14294 14295 14296 14297 14298 14299 14300 14301 14302 14303 14304 14305 14306 14307 14308 14309 14310 14311 14312 14313 14314 14315 14316 14317 14318 14319 14320 14321 14322 14323 14324 14325 14326 14327 14328 14329 14330 14331 14332 14333 14334 14335 14336 14337 14338 14339 14340 14341 14342 14343 14344 14345 14346 14347 14348 14349 14350 14351 14352 14353 14354 14355 14356 14357 14358 14359 14360 14361 14362 14363 14364 14365 14366 14367 14368 14369 14370 14371 14372 14373 14374 14375 14376 14377 14378 14379 14380 14381 14382 14383 14384 14385 14386 14387 14388 14389 14390 14391 14392 14393 14394 14395 14396 14397 14398 14399 14400 14401 14402 14403 14404 14405 14406 14407 14408 14409 14410 14411 14412 14413 14414 14415 14416 14417 14418 14419 14420 14421 14422 14423 14424 14425 14426 14427 14428 14429 14430 14431 14432 14433 14434 14435 14436 14437 14438 14439 14440 14441 14442 14443 14444 14445 14446 14447 14448 14449 14450 14451 14452 14453 14454 14455 14456 14457 14458 14459 14460 14461 14462 14463 14464 14465 14466 14467 14468 14469 14470 14471 14472 14473 14474 14475 14476 14477 14478 14479 14480 14481 14482 14483 14484 14485 14486 14487 14488 14489 14490 14491 14492 14493 14494 14495 14496 14497 14498 14499 14500 14501 14502 14503 14504 14505 14506 14507 14508 14509 14510 14511 14512 14513 14514 14515 14516 14517 14518 14519 14520 14521 14522 14523 14524 14525 14526 14527 14528 14529 14530 14531 14532 14533 14534 14535 14536 14537 14538 14539 14540 14541 14542 14543 14544 14545 14546 14547 14548 14549 14550 14551 14552 14553 14554 14555 14556 14557 14558 14559 14560 14561 14562 14563 14564 14565 14566 14567 14568 14569 14570 14571 14572 14573 14574 14575 14576 14577 14578 14579 14580 14581 14582 14583 14584 14585 14586 14587 14588 14589 14590 14591 14592 14593 14594 14595 14596 14597 14598 14599 14600 14601 14602 14603 14604 14605 14606 14607 14608 14609 14610 14611 14612 14613 14614 14615 14616 14617 14618 14619 14620 14621 14622 14623 14624 14625 14626 14627 14628 14629 14630 14631 14632 14633 14634 14635 14636 14637 14638 14639 14640 14641 14642 14643 14644 14645 14646 14647 14648 14649 14650 14651 14652 14653 14654 14655 14656 14657 14658 14659 14660 14661 14662 14663 14664 14665 14666 14667 14668 14669 14670 14671 14672 14673 14674 14675 14676 14677 14678 14679 14680 14681 14682 14683 14684 14685 14686 14687 14688 14689 14690 14691 14692 14693 14694 14695 14696 14697 14698 14699 14700 14701 14702 14703 14704 14705 14706 14707 14708 14709 14710 14711 14712 14713 14714 14715 14716 14717 14718 14719 14720 14721 14722 14723 14724 14725 14726 14727 14728 14729 14730 14731 14732 14733 14734 14735 14736 14737 14738 14739 14740 14741 14742 14743 14744 14745 14746 14747 14748 14749 14750 14751 14752 14753 14754 14755 14756 14757 14758 14759 14760 14761 14762 14763 14764 14765 14766 14767 14768 14769 14770 14771 14772 14773 14774 14775 14776 14777 14778 14779 14780 14781 14782 14783 14784 14785 14786 14787 14788 14789 14790 14791 14792 14793 14794 14795 14796 14797 14798 14799 14800 14801 14802 14803 14804 14805 14806 14807 14808 14809 14810 14811 14812 14813 14814 14815 14816 14817 14818 14819 14820 14821 14822 14823 14824 14825 14826 14827 14828 14829 14830 14831 14832 14833 14834 14835 14836 14837 14838 14839 14840 14841 14842 14843 14844 14845 14846 14847 14848 14849 14850 14851 14852 14853 14854 14855 14856 14857 14858 14859 14860 14861 14862 14863 14864 14865 14866 14867 14868 14869 14870 14871 14872 14873 14874 14875 14876 14877 14878 14879 14880 14881 14882 14883 14884 14885 14886 14887 14888 14889 14890 14891 14892 14893 14894 14895 14896 14897 14898 14899 14900 14901 14902 14903 14904 14905 14906 14907 14908 14909 14910 14911 14912 14913 14914 14915 14916 14917 14918 14919 14920 14921 14922 14923 14924 14925 14926 14927 14928 14929 14930 14931 14932 14933 14934 14935 14936 14937 14938 14939 14940 14941 14942 14943 14944 14945 14946 14947 14948 14949 14950 14951 14952 14953 14954 14955 14956 14957 14958 14959 14960 14961 14962 14963 14964 14965 14966 14967 14968 14969 14970 14971 14972 14973 14974 14975 14976 14977 14978 14979 14980 14981 14982 14983 14984 14985 14986 14987 14988 14989 14990 14991 14992 14993 14994 14995 14996 14997 14998 14999 15000 15001 15002 15003 15004 15005 15006 15007 15008 15009 15010 15011 15012 15013 15014 15015 15016 15017 15018 15019 15020 15021 15022 15023 15024 15025 15026 15027 15028 15029 15030 15031 15032 15033 15034 15035 15036 15037 15038 15039 15040 15041 15042 15043 15044 15045 15046 15047 15048 15049 15050 15051 15052 15053 15054 15055 15056 15057 15058 15059 15060 15061 15062 15063 15064 15065 15066 15067 15068 15069 15070 15071 15072 15073 15074 15075 15076 15077 15078 15079 15080 15081 15082 15083 15084 15085 15086 15087 15088 15089 15090 15091 15092 15093 15094 15095 15096 15097 15098 15099 15100 15101 15102 15103 15104 15105 15106 15107 15108 15109 15110 15111 15112 15113 15114 15115 15116 15117 15118 15119 15120 15121 15122 15123 15124 15125 15126 15127 15128 15129 15130 15131 15132 15133 15134 15135 15136 15137 15138 15139 15140 15141 15142 15143 15144 15145 15146 15147 15148 15149 15150 15151 15152 15153 15154 15155 15156 15157 15158 15159 15160 15161 15162 15163 15164 15165 15166 15167 15168 15169 15170 15171 15172 15173 15174 15175 15176 15177 15178 15179 15180 15181 15182 15183 15184 15185 15186 15187 15188 15189 15190 15191 15192 15193 15194 15195 15196 15197 15198 15199 15200 15201 15202 15203 15204 15205 15206 15207 15208 15209 15210 15211 15212 15213 15214 15215 15216 15217 15218 15219 15220 15221 15222 15223 15224 15225 15226 15227 15228 15229 15230 15231 15232 15233 15234 15235 15236 15237 15238 15239 15240 15241 15242 15243 15244 15245 15246 15247 15248 15249 15250 15251 15252 15253 15254 15255 15256 15257 15258 15259 15260 15261 15262 15263 15264 15265 15266 15267 15268 15269 15270 15271 15272 15273 15274 15275 15276 15277 15278 15279 15280 15281 15282 15283 15284 15285 15286 15287 15288 15289 15290 15291 15292 15293 15294 15295 15296 15297 15298 15299 15300 15301 15302 15303 15304 15305 15306 15307 15308 15309 15310 15311 15312 15313 15314 15315 15316 15317 15318 15319 15320 15321 15322 15323 15324 15325 15326 15327 15328 15329 15330 15331 15332 15333 15334 15335 15336 15337 15338 15339 15340 15341 15342 15343 15344 15345 15346 15347 15348 15349 15350 15351 15352 15353 15354 15355 15356 15357 15358 15359 15360 15361 15362 15363 15364 15365 15366 15367 15368 15369 15370 15371 15372 15373 15374 15375 15376 15377 15378 15379 15380 15381 15382 15383 15384 15385 15386 15387 15388 15389 15390 15391 15392 15393 15394 15395 15396 15397 15398 15399 15400 15401 15402 15403 15404 15405 15406 15407 15408 15409 15410 15411 15412 15413 15414 15415 15416 15417 15418 15419 15420 15421 15422 15423 15424 15425 15426 15427 15428 15429 15430 15431 15432 15433 15434 15435 15436 15437 15438 15439 15440 15441 15442 15443 15444 15445 15446 15447 15448 15449 15450 15451 15452 15453 15454 15455 15456 15457 15458 15459 15460 15461 15462 15463 15464 15465 15466 15467 15468 15469 15470 15471 15472 15473 15474 15475 15476 15477 15478 15479 15480 15481 15482 15483 15484 15485 15486 15487 15488 15489 15490 15491 15492 15493 15494 15495 15496 15497 15498 15499 15500 15501 15502 15503 15504 15505 15506 15507 15508 15509 15510 15511 15512 15513 15514 15515 15516 15517 15518 15519 15520 15521 15522 15523 15524 15525 15526 15527 15528 15529 15530 15531 15532 15533 15534 15535 15536 15537 15538 15539 15540 15541 15542 15543 15544 15545 15546 15547 15548 15549 15550 15551 15552 15553 15554 15555 15556 15557 15558 15559 15560 15561 15562 15563 15564 15565 15566 15567 15568 15569 15570 15571 15572 15573 15574 15575 15576 15577 15578 15579 15580 15581 15582 15583 15584 15585 15586 15587 15588 15589 15590 15591 15592 15593 15594 15595 15596 15597 15598 15599 15600 15601 15602 15603 15604 15605 15606 15607 15608 15609 15610 15611 15612 15613 15614 15615 15616 15617 15618 15619 15620 15621 15622 15623 15624 15625 15626 15627 15628 15629 15630 15631 15632 15633 15634 15635 15636 15637 15638 15639 15640 15641 15642 15643 15644 15645 15646 15647 15648 15649 15650 15651 15652 15653 15654 15655 15656 15657 15658 15659 15660 15661 15662 15663 15664 15665 15666 15667 15668 15669 15670 15671 15672 15673 15674 15675 15676 15677 15678 15679 15680 15681 15682 15683 15684 15685 15686 15687 15688 15689 15690 15691 15692 15693 15694 15695 15696 15697 15698 15699 15700 15701 15702 15703 15704 15705 15706 15707 15708 15709 15710 15711 15712 15713 15714 15715 15716 15717 15718 15719 15720 15721 15722 15723 15724 15725 15726 15727 15728 15729 15730 15731 15732 15733 15734 15735 15736 15737 15738 15739 15740 15741 15742 15743 15744 15745 15746 15747 15748 15749 15750 15751 15752 15753 15754 15755 15756 15757 15758 15759 15760 15761 15762 15763 15764 15765 15766 15767 15768 15769 15770 15771 15772 15773 15774 15775 15776 15777 15778 15779 15780 15781 15782 15783 15784 15785 15786 15787 15788 15789 15790 15791 15792 15793 15794 15795 15796 15797 15798 15799 15800 15801 15802 15803 15804 15805 15806 15807 15808 15809 15810 15811 15812 15813 15814 15815 15816 15817 15818 15819 15820 15821 15822 15823 15824 15825 15826 15827 15828 15829 15830 15831 15832 15833 15834 15835 15836 15837 15838 15839 15840 15841 15842 15843 15844 15845 15846 15847 15848 15849 15850 15851 15852 15853 15854 15855 15856 15857 15858 15859 15860 15861 15862 15863 15864 15865 15866 15867 15868 15869 15870 15871 15872 15873 15874 15875 15876 15877 15878 15879 15880 15881 15882 15883 15884 15885 15886 15887 15888 15889 15890 15891 15892 15893 15894 15895 15896 15897 15898 15899 15900 15901 15902 15903 15904 15905 15906 15907 15908 15909 15910 15911 15912 15913 15914 15915 15916 15917 15918 15919 15920 15921 15922 15923 15924 15925 15926 15927 15928 15929 15930 15931 15932 15933 15934 15935 15936 15937 15938 15939 15940 15941 15942 15943 15944 15945 15946 15947 15948 15949 15950 15951 15952 15953 15954 15955 15956 15957 15958 15959 15960 15961 15962 15963 15964 15965 15966 15967 15968 15969 15970 15971 15972 15973 15974 15975 15976 15977 15978 15979 15980 15981 15982 15983 15984 15985 15986 15987 15988 15989 15990 15991 15992 15993 15994 15995 15996 15997 15998 15999 16000 16001 16002 16003 16004 16005 16006 16007 16008 16009 16010 16011 16012 16013 16014 16015 16016 16017 16018 16019 16020 16021 16022 16023 16024 16025 16026 16027 16028 16029 16030 16031 16032 16033 16034 16035 16036 16037 16038 16039 16040 16041 16042 16043 16044 16045 16046 16047 16048 16049 16050 16051 16052 16053 16054 16055 16056 16057 16058 16059 16060 16061 16062 16063 16064 16065 16066 16067 16068 16069 16070 16071 16072 16073 16074 16075 16076 16077 16078 16079 16080 16081 16082 16083 16084 16085 16086 16087 16088 16089 16090 16091 16092 16093 16094 16095 16096 16097 16098 16099 16100 16101 16102 16103 16104 16105 16106 16107 16108 16109 16110 16111 16112 16113 16114 16115 16116 16117 16118 16119 16120 16121 16122 16123 16124 16125 16126 16127 16128 16129 16130 16131 16132 16133 16134 16135 16136 16137 16138 16139 16140 16141 16142 16143 16144 16145 16146 16147 16148 16149 16150 16151 16152 16153 16154 16155 16156 16157 16158 16159 16160 16161 16162 16163 16164 16165 16166 16167 16168 16169 16170 16171 16172 16173 16174 16175 16176 16177 16178 16179 16180 16181 16182 16183 16184 16185 16186 16187 16188 16189 16190 16191 16192 16193 16194 16195 16196 16197 16198 16199 16200 16201 16202 16203 16204 16205 16206 16207 16208 16209 16210 16211 16212 16213 16214 16215 16216 16217 16218 16219 16220 16221 16222 16223 16224 16225 16226 16227 16228 16229 16230 16231 16232 16233 16234 16235 16236 16237 16238 16239 16240 16241 16242 16243 16244 16245 16246 16247 16248 16249 16250 16251 16252 16253 16254 16255 16256 16257 16258 16259 16260 16261 16262 16263 16264 16265 16266 16267 16268 16269 16270 16271 16272 16273 16274 16275 16276 16277 16278 16279 16280 16281 16282 16283 16284 16285 16286 16287 16288 16289 16290 16291 16292 16293 16294 16295 16296 16297 16298 16299 16300 16301 16302 16303 16304 16305 16306 16307 16308 16309 16310 16311 16312 16313 16314 16315 16316 16317 16318 16319 16320 16321 16322 16323 16324 16325 16326 16327 16328 16329 16330 16331 16332 16333 16334 16335 16336 16337 16338 16339 16340 16341 16342 16343 16344 16345 16346 16347 16348 16349 16350 16351 16352 16353 16354 16355 16356 16357 16358 16359 16360 16361 16362 16363 16364 16365 16366 16367 16368 16369 16370 16371 16372 16373 16374 16375 16376 16377 16378 16379 16380 16381 16382 16383 16384 16385 16386 16387 16388 16389 16390 16391 16392 16393 16394 16395 16396 16397 16398 16399 16400 16401 16402 16403 16404 16405 16406 16407 16408 16409 16410 16411 16412 16413 16414 16415 16416 16417 16418 16419 16420 16421 16422 16423 16424 16425 16426 16427 16428 16429 16430 16431 16432 16433 16434 16435 16436 16437 16438 16439 16440 16441 16442 16443 16444 16445 16446 16447 16448 16449 16450 16451 16452 16453 16454 16455 16456 16457 16458 16459 16460 16461 16462 16463 16464 16465 16466 16467 16468 16469 16470 16471 16472 16473 16474 16475 16476 16477 16478 16479 16480 16481 16482 16483 16484 16485 16486 16487 16488 16489 16490 16491 16492 16493 16494 16495 16496 16497 16498 16499 16500 16501 16502 16503 16504 16505 16506 16507 16508 16509 16510 16511 16512 16513 16514 16515 16516 16517 16518 16519 16520 16521 16522 16523 16524 16525 16526 16527 16528 16529 16530 16531 16532 16533 16534 16535 16536 16537 16538 16539 16540 16541 16542 16543 16544 16545 16546 16547 16548 16549 16550 16551 16552 16553 16554 16555 16556 16557 16558 16559 16560 16561 16562 16563 16564 16565 16566 16567 16568 16569 16570 16571 16572 16573 16574 16575 16576 16577 16578 16579 16580 16581 16582 16583 16584 16585 16586 16587 16588 16589 16590 16591 16592 16593 16594 16595 16596 16597 16598 16599 16600 16601 16602 16603 16604 16605 16606 16607 16608 16609 16610 16611 16612 16613 16614 16615 16616 16617 16618 16619 16620 16621 16622 16623 16624 16625 16626 16627 16628 16629 16630 16631 16632 16633 16634 16635 16636 16637 16638 16639 16640 16641 16642 16643 16644 16645 16646 16647 16648 16649 16650 16651 16652 16653 16654 16655 16656 16657 16658 16659 16660 16661 16662 16663 16664 16665 16666 16667 16668 16669 16670 16671 16672 16673 16674 16675 16676 16677 16678 16679 16680 16681 16682 16683 16684 16685 16686 16687 16688 16689 16690 16691 16692 16693 16694 16695 16696 16697 16698 16699 16700 16701 16702 16703 16704 16705 16706 16707 16708 16709 16710 16711 16712 16713 16714 16715 16716 16717 16718 16719 16720 16721 16722 16723 16724 16725 16726 16727 16728 16729 16730 16731 16732 16733 16734 16735 16736 16737 16738 16739 16740 16741 16742 16743 16744 16745 16746 16747 16748 16749 16750 16751 16752 16753 16754 16755 16756 16757 16758 16759 16760 16761 16762 16763 16764 16765 16766 16767 16768 16769 16770 16771 16772 16773 16774 16775 16776 16777 16778 16779 16780 16781 16782 16783 16784 16785 16786 16787 16788 16789 16790 16791 16792 16793 16794 16795 16796 16797 16798 16799 16800 16801 16802 16803 16804 16805 16806 16807 16808 16809 16810 16811 16812 16813 16814 16815 16816 16817 16818 16819 16820 16821 16822 16823 16824 16825 16826 16827 16828 16829 16830 16831 16832 16833 16834 16835 16836 16837 16838 16839 16840 16841 16842 16843 16844 16845 16846 16847 16848 16849 16850 16851 16852 16853 16854 16855 16856 16857 16858 16859 16860 16861 16862 16863 16864 16865 16866 16867 16868 16869 16870 16871 16872 16873 16874 16875 16876 16877 16878 16879 16880 16881 16882 16883 16884 16885 16886 16887 16888 16889 16890 16891 16892 16893 16894 16895 16896 16897 16898 16899 16900 16901 16902 16903 16904 16905 16906 16907 16908 16909 16910 16911 16912 16913 16914 16915 16916 16917 16918 16919 16920 16921 16922 16923 16924 16925 16926 16927 16928 16929 16930 16931 16932 16933 16934 16935 16936 16937 16938 16939 16940 16941 16942 16943 16944 16945 16946 16947 16948 16949 16950 16951 16952 16953 16954 16955 16956 16957 16958 16959 16960 16961 16962 16963 16964 16965 16966 16967 16968 16969 16970 16971 16972 16973 16974 16975 16976 16977 16978 16979 16980 16981 16982 16983 16984 16985 16986 16987 16988 16989 16990 16991 16992 16993 16994 16995 16996 16997 16998 16999 17000 17001 17002 17003 17004 17005 17006 17007 17008 17009 17010 17011 17012 17013 17014 17015 17016 17017 17018 17019 17020 17021 17022 17023 17024 17025 17026 17027 17028 17029 17030 17031 17032 17033 17034 17035 17036 17037 17038 17039 17040 17041 17042 17043 17044 17045 17046 17047 17048 17049 17050 17051 17052 17053 17054 17055 17056 17057 17058 17059 17060 17061 17062 17063 17064 17065 17066 17067 17068 17069 17070 17071 17072 17073 17074 17075 17076 17077 17078 17079 17080 17081 17082 17083 17084 17085 17086 17087 17088 17089 17090 17091 17092 17093 17094 17095 17096 17097 17098 17099 17100 17101 17102 17103 17104 17105 17106 17107 17108 17109 17110 17111 17112 17113 17114 17115 17116 17117 17118 17119 17120 17121 17122 17123 17124 17125 17126 17127 17128 17129 17130 17131 17132 17133 17134 17135 17136 17137 17138 17139 17140 17141 17142 17143 17144 17145 17146 17147 17148 17149 17150 17151 17152 17153 17154 17155 17156 17157 17158 17159 17160 17161 17162 17163 17164 17165 17166 17167 17168 17169 17170 17171 17172 17173 17174 17175 17176 17177 17178 17179 17180 17181 17182 17183 17184 17185 17186 17187 17188 17189 17190 17191 17192 17193 17194 17195 17196 17197 17198 17199 17200 17201 17202 17203 17204 17205 17206 17207 17208 17209 17210 17211 17212 17213 17214 17215 17216 17217 17218 17219 17220 17221 17222 17223 17224 17225 17226 17227 17228 17229 17230 17231 17232 17233 17234 17235 17236 17237 17238 17239 17240 17241 17242 17243 17244 17245 17246 17247 17248 17249 17250 17251 17252 17253 17254 17255 17256 17257 17258 17259 17260 17261 17262 17263 17264 17265 17266 17267 17268 17269 17270 17271 17272 17273 17274 17275 17276 17277 17278 17279 17280 17281 17282 17283 17284 17285 17286 17287 17288 17289 17290 17291 17292 17293 17294 17295 17296 17297 17298 17299 17300 17301 17302 17303 17304 17305 17306 17307 17308 17309 17310 17311 17312 17313 17314 17315 17316 17317 17318 17319 17320 17321 17322 17323 17324 17325 17326 17327 17328 17329 17330 17331 17332 17333 17334 17335 17336 17337 17338 17339 17340 17341 17342 17343 17344 17345 17346 17347 17348 17349 17350 17351 17352 17353 17354 17355 17356 17357 17358 17359 17360 17361 17362 17363 17364 17365 17366 17367 17368 17369 17370 17371 17372 17373 17374 17375 17376 17377 17378 17379 17380 17381 17382 17383 17384 17385 17386 17387 17388 17389 17390 17391 17392 17393 17394 17395 17396 17397 17398 17399 17400 17401 17402 17403 17404 17405 17406 17407 17408 17409 17410 17411 17412 17413 17414 17415 17416 17417 17418 17419 17420 17421 17422 17423 17424 17425 17426 17427 17428 17429 17430 17431 17432 17433 17434 17435 17436 17437 17438 17439 17440 17441 17442 17443 17444 17445 17446 17447 17448 17449 17450 17451 17452 17453 17454 17455 17456 17457 17458 17459 17460 17461 17462 17463 17464 17465 17466 17467 17468 17469 17470 17471 17472 17473 17474 17475 17476 17477 17478 17479 17480 17481 17482 17483 17484 17485 17486 17487 17488 17489 17490 17491 17492 17493 17494 17495 17496 17497 17498 17499 17500 17501 17502 17503 17504 17505 17506 17507 17508 17509 17510 17511 17512 17513 17514 17515 17516 17517 17518 17519 17520 17521 17522 17523 17524 17525 17526 17527 17528 17529 17530 17531 17532 17533 17534 17535 17536 17537 17538 17539 17540 17541 17542 17543 17544 17545 17546 17547 17548 17549 17550 17551 17552 17553 17554 17555 17556 17557 17558 17559 17560 17561 17562 17563 17564 17565 17566 17567 17568 17569 17570 17571 17572 17573 17574 17575 17576 17577 17578 17579 17580 17581 17582 17583 17584 17585 17586 17587 17588 17589 17590 17591 17592 17593 17594 17595 17596 17597 17598 17599 17600 17601 17602 17603 17604 17605 17606 17607 17608 17609 17610 17611 17612 17613 17614 17615 17616 17617 17618 17619 17620 17621 17622 17623 17624 17625 17626 17627 17628 17629 17630 17631 17632 17633 17634 17635 17636 17637 17638 17639 17640 17641 17642 17643 17644 17645 17646 17647 17648 17649 17650 17651 17652 17653 17654 17655 17656 17657 17658 17659 17660 17661 17662 17663 17664 17665 17666 17667 17668 17669 17670 17671 17672 17673 17674 17675 17676 17677 17678 17679 17680 17681 17682 17683 17684 17685 17686 17687 17688 17689 17690 17691 17692 17693 17694 17695 17696 17697 17698 17699 17700 17701 17702 17703 17704 17705 17706 17707 17708 17709 17710 17711 17712 17713 17714 17715 17716 17717 17718 17719 17720 17721 17722 17723 17724 17725 17726 17727 17728 17729 17730 17731 17732 17733 17734 17735 17736 17737 17738 17739 17740 17741 17742 17743 17744 17745 17746 17747 17748 17749 17750 17751 17752 17753 17754 17755 17756 17757 17758 17759 17760 17761 17762 17763 17764 17765 17766 17767 17768 17769 17770 17771 17772 17773 17774 17775 17776 17777 17778 17779 17780 17781 17782 17783 17784 17785 17786 17787 17788 17789 17790 17791 17792 17793 17794 17795 17796 17797 17798 17799 17800 17801 17802 17803 17804 17805 17806 17807 17808 17809 17810 17811 17812 17813 17814 17815 17816 17817 17818 17819 17820 17821 17822 17823 17824 17825 17826 17827 17828 17829 17830 17831 17832 17833 17834 17835 17836 17837 17838 17839 17840 17841 17842 17843 17844 17845 17846 17847 17848 17849 17850 17851 17852 17853 17854 17855 17856 17857 17858 17859 17860 17861 17862 17863 17864 17865 17866 17867 17868 17869 17870 17871 17872 17873 17874 17875 17876 17877 17878 17879 17880 17881 17882 17883 17884 17885 17886 17887 17888 17889 17890 17891 17892 17893 17894 17895 17896 17897 17898 17899 17900 17901 17902 17903 17904 17905 17906 17907 17908 17909 17910 17911 17912 17913 17914 17915 17916 17917 17918 17919 17920 17921 17922 17923 17924 17925 17926 17927 17928 17929 17930 17931 17932 17933 17934 17935 17936 17937 17938 17939 17940 17941 17942 17943 17944 17945 17946 17947 17948 17949 17950 17951 17952 17953 17954 17955 17956 17957 17958 17959 17960 17961 17962 17963 17964 17965 17966 17967 17968 17969 17970 17971 17972 17973 17974 17975 17976 17977 17978 17979 17980 17981 17982 17983 17984 17985 17986 17987 17988 17989 17990 17991 17992 17993 17994 17995 17996 17997 17998 17999 18000 18001 18002 18003 18004 18005 18006 18007 18008 18009 18010 18011 18012 18013 18014 18015 18016 18017 18018 18019 18020 18021 18022 18023 18024 18025 18026 18027 18028 18029 18030 18031 18032 18033 18034 18035 18036 18037 18038 18039 18040 18041 18042 18043 18044 18045 18046 18047 18048 18049 18050 18051 18052 18053 18054 18055 18056 18057 18058 18059 18060 18061 18062 18063 18064 18065 18066 18067 18068 18069 18070 18071 18072 18073 18074 18075 18076 18077 18078 18079 18080 18081 18082 18083 18084 18085 18086 18087 18088 18089 18090 18091 18092 18093 18094 18095 18096 18097 18098 18099 18100 18101 18102 18103 18104 18105 18106 18107 18108 18109 18110 18111 18112 18113 18114 18115 18116 18117 18118 18119 18120 18121 18122 18123 18124 18125 18126 18127 18128 18129 18130 18131 18132 18133 18134 18135 18136 18137 18138 18139 18140 18141 18142 18143 18144 18145 18146 18147 18148 18149 18150 18151 18152 18153 18154 18155 18156 18157 18158 18159 18160 18161 18162 18163 18164 18165 18166 18167 18168 18169 18170 18171 18172 18173 18174 18175 18176 18177 18178 18179 18180 18181 18182 18183 18184 18185 18186 18187 18188 18189 18190 18191 18192 18193 18194 18195 18196 18197 18198 18199 18200 18201 18202 18203 18204 18205 18206 18207 18208 18209 18210 18211 18212 18213 18214 18215 18216 18217 18218 18219 18220 18221 18222 18223 18224 18225 18226 18227 18228 18229 18230 18231 18232 18233 18234 18235 18236 18237 18238 18239 18240 18241 18242 18243 18244 18245 18246 18247 18248 18249 18250 18251 18252 18253 18254 18255 18256 18257 18258 18259 18260 18261 18262 18263 18264 18265 18266 18267 18268 18269 18270 18271 18272 18273 18274 18275 18276 18277 18278 18279 18280 18281 18282 18283 18284 18285 18286 18287 18288 18289 18290 18291 18292 18293 18294 18295 18296 18297 18298 18299 18300 18301 18302 18303 18304 18305 18306 18307 18308 18309 18310 18311 18312 18313 18314 18315 18316 18317 18318 18319 18320 18321 18322 18323 18324 18325 18326 18327 18328 18329 18330 18331 18332 18333 18334 18335 18336 18337 18338 18339 18340 18341 18342 18343 18344 18345 18346 18347 18348 18349 18350 18351 18352 18353 18354 18355 18356 18357 18358 18359 18360 18361 18362 18363 18364 18365 18366 18367 18368 18369 18370 18371 18372 18373 18374 18375 18376 18377 18378 18379 18380 18381 18382 18383 18384 18385 18386 18387 18388 18389 18390 18391 18392 18393 18394 18395 18396 18397 18398 18399 18400 18401 18402 18403 18404 18405 18406 18407 18408 18409 18410 18411 18412 18413 18414 18415 18416 18417 18418 18419 18420 18421 18422 18423 18424 18425 18426 18427 18428 18429 18430 18431 18432 18433 18434 18435 18436 18437 18438 18439 18440 18441 18442 18443 18444 18445 18446 18447 18448 18449 18450 18451 18452 18453 18454 18455 18456 18457 18458 18459 18460 18461 18462 18463 18464 18465 18466 18467 18468 18469 18470 18471 18472 18473 18474 18475 18476 18477 18478 18479 18480 18481 18482 18483 18484 18485 18486 18487 18488 18489 18490 18491 18492 18493 18494 18495 18496 18497 18498 18499 18500 18501 18502 18503 18504 18505 18506 18507 18508 18509 18510 18511 18512 18513 18514 18515 18516 18517 18518 18519 18520 18521 18522 18523 18524 18525 18526 18527 18528 18529 18530 18531 18532 18533 18534 18535 18536 18537 18538 18539 18540 18541 18542 18543 18544 18545 18546 18547 18548 18549 18550 18551 18552 18553 18554 18555 18556 18557 18558 18559 18560 18561 18562 18563 18564 18565 18566 18567 18568 18569 18570 18571 18572 18573 18574 18575 18576 18577 18578 18579 18580 18581 18582 18583 18584 18585 18586 18587 18588 18589 18590 18591 18592 18593 18594 18595 18596 18597 18598 18599 18600 18601 18602 18603 18604 18605 18606 18607 18608 18609 18610 18611 18612 18613 18614 18615 18616 18617 18618 18619 18620 18621 18622 18623 18624 18625 18626 18627 18628 18629 18630 18631 18632 18633 18634 18635 18636 18637 18638 18639 18640 18641 18642 18643 18644 18645 18646 18647 18648 18649 18650 18651 18652 18653 18654 18655 18656 18657 18658 18659 18660 18661 18662 18663 18664 18665 18666 18667 18668 18669 18670 18671 18672 18673 18674 18675 18676 18677 18678 18679 18680 18681 18682 18683 18684 18685 18686 18687 18688 18689 18690 18691 18692 18693 18694 18695 18696 18697 18698 18699 18700 18701 18702 18703 18704 18705 18706 18707 18708 18709 18710 18711 18712 18713 18714 18715 18716 18717 18718 18719 18720 18721 18722 18723 18724 18725 18726 18727 18728 18729 18730 18731 18732 18733 18734 18735 18736 18737 18738 18739 18740 18741 18742 18743 18744 18745 18746 18747 18748 18749 18750 18751 18752 18753 18754 18755 18756 18757 18758 18759 18760 18761 18762 18763 18764 18765 18766 18767 18768 18769 18770 18771 18772 18773 18774 18775 18776 18777 18778 18779 18780 18781 18782 18783 18784 18785 18786 18787 18788 18789 18790 18791 18792 18793 18794 18795 18796 18797 18798 18799 18800 18801 18802 18803 18804 18805 18806 18807 18808 18809 18810 18811 18812 18813 18814 18815 18816 18817 18818 18819 18820 18821 18822 18823 18824 18825 18826 18827 18828 18829 18830 18831 18832 18833 18834 18835 18836 18837 18838 18839 18840 18841 18842 18843 18844 18845 18846 18847 18848 18849 18850 18851 18852 18853 18854 18855 18856 18857 18858 18859 18860 18861 18862 18863 18864 18865 18866 18867 18868 18869 18870 18871 18872 18873 18874 18875 18876 18877 18878 18879 18880 18881 18882 18883 18884 18885 18886 18887 18888 18889 18890 18891 18892 18893 18894 18895 18896 18897 18898 18899 18900 18901 18902 18903 18904 18905 18906 18907 18908 18909 18910 18911 18912 18913 18914 18915 18916 18917 18918 18919 18920 18921 18922 18923 18924 18925 18926 18927 18928 18929 18930 18931 18932 18933 18934 18935 18936 18937 18938 18939 18940 18941 18942 18943 18944 18945 18946 18947 18948 18949 18950 18951 18952 18953 18954 18955 18956 18957 18958 18959 18960 18961 18962 18963 18964 18965 18966 18967 18968 18969 18970 18971 18972 18973 18974 18975 18976 18977 18978 18979 18980 18981 18982 18983 18984 18985 18986 18987 18988 18989 18990 18991 18992 18993 18994 18995 18996 18997 18998 18999 19000 19001 19002 19003 19004 19005 19006 19007 19008 19009 19010 19011 19012 19013 19014 19015 19016 19017 19018 19019 19020 19021 19022 19023 19024 19025 19026 19027 19028 19029 19030 19031 19032 19033 19034 19035 19036 19037 19038 19039 19040 19041 19042 19043 19044 19045 19046 19047 19048 19049 19050 19051 19052 19053 19054 19055 19056 19057 19058 19059 19060 19061 19062 19063 19064 19065 19066 19067 19068 19069 19070 19071 19072 19073 19074 19075 19076 19077 19078 19079 19080 19081 19082 19083 19084 19085 19086 19087 19088 19089 19090 19091 19092 19093 19094 19095 19096 19097 19098 19099 19100 19101 19102 19103 19104 19105 19106 19107 19108 19109 19110 19111 19112 19113 19114 19115 19116 19117 19118 19119 19120 19121 19122 19123 19124 19125 19126 19127 19128 19129 19130 19131 19132 19133 19134 19135 19136 19137 19138 19139 19140 19141 19142 19143 19144 19145 19146 19147 19148 19149 19150 19151 19152 19153 19154 19155 19156 19157 19158 19159 19160 19161 19162 19163 19164 19165 19166 19167 19168 19169 19170 19171 19172 19173 19174 19175 19176 19177 19178 19179 19180 19181 19182 19183 19184 19185 19186 19187 19188 19189 19190 19191 19192 19193 19194 19195 19196 19197 19198 19199 19200 19201 19202 19203 19204 19205 19206 19207 19208 19209 19210 19211 19212 19213 19214 19215 19216 19217 19218 19219 19220 19221 19222 19223 19224 19225 19226 19227 19228 19229 19230 19231 19232 19233 19234 19235 19236 19237 19238 19239 19240 19241 19242 19243 19244 19245 19246 19247 19248 19249 19250 19251 19252 19253 19254 19255 19256 19257 19258 19259 19260 19261 19262 19263 19264 19265 19266 19267 19268 19269 19270 19271 19272 19273 19274 19275 19276 19277 19278 19279 19280 19281 19282 19283 19284 19285 19286 19287 19288 19289 19290 19291 19292 19293 19294 19295 19296 19297 19298 19299 19300 19301 19302 19303 19304 19305 19306 19307 19308 19309 19310 19311 19312 19313 19314 19315 19316 19317 19318 19319 19320 19321 19322 19323 19324 19325 19326 19327 19328 19329 19330 19331 19332 19333 19334 19335 19336 19337 19338 19339 19340 19341 19342 19343 19344 19345 19346 19347 19348 19349 19350 19351 19352 19353 19354 19355 19356 19357 19358 19359 19360 19361 19362 19363 19364 19365 19366 19367 19368 19369 19370 19371 19372 19373 19374 19375 19376 19377 19378 19379 19380 19381 19382 19383 19384 19385 19386 19387 19388 19389 19390 19391 19392 19393 19394 19395 19396 19397 19398 19399 19400 19401 19402 19403 19404 19405 19406 19407 19408 19409 19410 19411 19412 19413 19414 19415 19416 19417 19418 19419 19420 19421 19422 19423 19424 19425 19426 19427 19428 19429 19430 19431 19432 19433 19434 19435 19436 19437 19438 19439 19440 19441 19442 19443 19444 19445 19446 19447 19448 19449 19450 19451 19452 19453 19454 19455 19456 19457 19458 19459 19460 19461 19462 19463 19464 19465 19466 19467 19468 19469 19470 19471 19472 19473 19474 19475 19476 19477 19478 19479 19480 19481 19482 19483 19484 19485 19486 19487 19488 19489 19490 19491 19492 19493 19494 19495 19496 19497 19498 19499 19500 19501 19502 19503 19504 19505 19506 19507 19508 19509 19510 19511 19512 19513 19514 19515 19516 19517 19518 19519 19520 19521 19522 19523 19524 19525 19526 19527 19528 19529 19530 19531 19532 19533 19534 19535 19536 19537 19538 19539 19540 19541 19542 19543 19544 19545 19546 19547 19548 19549 19550 19551 19552 19553 19554 19555 19556 19557 19558 19559 19560 19561 19562 19563 19564 19565 19566 19567 19568 19569 19570 19571 19572 19573 19574 19575 19576 19577 19578 19579 19580 19581 19582 19583 19584 19585 19586 19587 19588 19589 19590 19591 19592 19593 19594 19595 19596 19597 19598 19599 19600 19601 19602 19603 19604 19605 19606 19607 19608 19609 19610 19611 19612 19613 19614 19615 19616 19617 19618 19619 19620 19621 19622 19623 19624 19625 19626 19627 19628 19629 19630 19631 19632 19633 19634 19635 19636 19637 19638 19639 19640 19641 19642 19643 19644 19645 19646 19647 19648 19649 19650 19651 19652 19653 19654 19655 19656 19657 19658 19659 19660 19661 19662 19663 19664 19665 19666 19667 19668 19669 19670 19671 19672 19673 19674 19675 19676 19677 19678 19679 19680 19681 19682 19683 19684 19685 19686 19687 19688 19689 19690 19691 19692 19693 19694 19695 19696 19697 19698 19699 19700 19701 19702 19703 19704 19705 19706 19707 19708 19709 19710 19711 19712 19713 19714 19715 19716 19717 19718 19719 19720 19721 19722 19723 19724 19725 19726 19727 19728 19729 19730 19731 19732 19733 19734 19735 19736 19737 19738 19739 19740 19741 19742 19743 19744 19745 19746 19747 19748 19749 19750 19751 19752 19753 19754 19755 19756 19757 19758 19759 19760 19761 19762 19763 19764 19765 19766 19767 19768 19769 19770 19771 19772 19773 19774 19775 19776 19777 19778 19779 19780 19781 19782 19783 19784 19785 19786 19787 19788 19789 19790 19791 19792 19793 19794 19795 19796 19797 19798 19799 19800 19801 19802 19803 19804 19805 19806 19807 19808 19809 19810 19811 19812 19813 19814 19815 19816 19817 19818 19819 19820 19821 19822 19823 19824 19825 19826 19827 19828 19829 19830 19831 19832 19833 19834 19835 19836 19837 19838 19839 19840 19841 19842 19843 19844 19845 19846 19847 19848 19849 19850 19851 19852 19853 19854 19855 19856 19857 19858 19859 19860 19861 19862 19863 19864 19865 19866 19867 19868 19869 19870 19871 19872 19873 19874 19875 19876 19877 19878 19879 19880 19881 19882 19883 19884 19885 19886 19887 19888 19889 19890 19891 19892 19893 19894 19895 19896 19897 19898 19899 19900 19901 19902 19903 19904 19905 19906 19907 19908 19909 19910 19911 19912 19913 19914 19915 19916 19917 19918 19919 19920 19921 19922 19923 19924 19925 19926 19927 19928 19929 19930 19931 19932 19933 19934 19935 19936 19937 19938 19939 19940 19941 19942 19943 19944 19945 19946 19947 19948 19949 19950 19951 19952 19953 19954 19955 19956 19957 19958 19959 19960 19961 19962 19963 19964 19965 19966 19967 19968 19969 19970 19971 19972 19973 19974 19975 19976 19977 19978 19979 19980 19981 19982 19983 19984 19985 19986 19987 19988 19989 19990 19991 19992 19993 19994 19995 19996 19997 19998 19999 20000 20001 20002 20003 20004 20005 20006 20007 20008 20009 20010 20011 20012 20013 20014 20015 20016 20017 20018 20019 20020 20021 20022 20023 20024 20025 20026 20027 20028 20029 20030 20031 20032 20033 20034 20035 20036 20037 20038 20039 20040 20041 20042 20043 20044 20045 20046 20047 20048 20049 20050 20051 20052 20053 20054 20055 20056 20057 20058 20059 20060 20061 20062 20063 20064 20065 20066 20067 20068 20069 20070 20071 20072 20073 20074 20075 20076 20077 20078 20079 20080 20081 20082 20083 20084 20085 20086 20087 20088 20089 20090 20091 20092 20093 20094 20095 20096 20097 20098 20099 20100 20101 20102 20103 20104 20105 20106 20107 20108 20109 20110 20111 20112 20113 20114 20115 20116 20117 20118 20119 20120 20121 20122 20123 20124 20125 20126 20127 20128 20129 20130 20131 20132 20133 20134 20135 20136 20137 20138 20139 20140 20141 20142 20143 20144 20145 20146 20147 20148 20149 20150 20151 20152 20153 20154 20155 20156 20157 20158 20159 20160 20161 20162 20163 20164 20165 20166 20167 20168 20169 20170 20171 20172 20173 20174 20175 20176 20177 20178 20179 20180 20181 20182 20183 20184 20185 20186 20187 20188 20189 20190 20191 20192 20193 20194 20195 20196 20197 20198 20199 20200 20201 20202 20203 20204 20205 20206 20207 20208 20209 20210 20211 20212 20213 20214 20215 20216 20217 20218 20219 20220 20221 20222 20223 20224 20225 20226 20227 20228 20229 20230 20231 20232 20233 20234 20235 20236 20237 20238 20239 20240 20241 20242 20243 20244 20245 20246 20247 20248 20249 20250 20251 20252 20253 20254 20255 20256 20257 20258 20259 20260 20261 20262 20263 20264 20265 20266 20267 20268 20269 20270 20271 20272 20273 20274 20275 20276 20277 20278 20279 20280 20281 20282 20283 20284 20285 20286 20287 20288 20289 20290 20291 20292 20293 20294 20295 20296 20297 20298 20299 20300 20301 20302 20303 20304 20305 20306 20307 20308 20309 20310 20311 20312 20313 20314 20315 20316 20317 20318 20319 20320 20321 20322 20323 20324 20325 20326 20327 20328 20329 20330 20331 20332 20333 20334 20335 20336 20337 20338 20339 20340 20341 20342 20343 20344 20345 20346 20347 20348 20349 20350 20351 20352 20353 20354 20355 20356 20357 20358 20359 20360 20361 20362 20363 20364 20365 20366 20367 20368 20369 20370 20371 20372 20373 20374 20375 20376 20377 20378 20379 20380 20381 20382 20383 20384 20385 20386 20387 20388 20389 20390 20391 20392 20393 20394 20395 20396 20397 20398 20399 20400 20401 20402 20403 20404 20405 20406 20407 20408 20409 20410 20411 20412 20413 20414 20415 20416 20417 20418 20419 20420 20421 20422 20423 20424 20425 20426 20427 20428 20429 20430 20431 20432 20433 20434 20435 20436 20437 20438 20439 20440 20441 20442 20443 20444 20445 20446 20447 20448 20449 20450 20451 20452 20453 20454 20455 20456 20457 20458 20459 20460 20461 20462 20463 20464 20465 20466 20467 20468 20469 20470 20471 20472 20473 20474 20475 20476 20477 20478 20479 20480 20481 20482 20483 20484 20485 20486 20487 20488 20489 20490 20491 20492 20493 20494 20495 20496 20497 20498 20499 20500 20501 20502 20503 20504 20505 20506 20507 20508 20509 20510 20511 20512 20513 20514 20515 20516 20517 20518 20519 20520 20521 20522 20523 20524 20525 20526 20527 20528 20529 20530 20531 20532 20533 20534 20535 20536 20537 20538 20539 20540 20541 20542 20543 20544 20545 20546 20547 20548 20549 20550 20551 20552 20553 20554 20555 20556 20557 20558 20559 20560 20561 20562 20563 20564 20565 20566 20567 20568 20569 20570 20571 20572 20573 20574 20575 20576 20577 20578 20579 20580 20581 20582 20583 20584 20585 20586 20587 20588 20589 20590 20591 20592 20593 20594 20595 20596 20597 20598 20599 20600 20601 20602 20603 20604 20605 20606 20607 20608 20609 20610 20611 20612 20613 20614 20615 20616 20617 20618 20619 20620 20621 20622 20623 20624 20625 20626 20627 20628 20629 20630 20631 20632 20633 20634 20635 20636 20637 20638 20639 20640 20641 20642 20643 20644 20645 20646 20647 20648 20649 20650 20651 20652 20653 20654 20655 20656 20657 20658 20659 20660 20661 20662 20663 20664 20665 20666 20667 20668 20669 20670 20671 20672 20673 20674 20675 20676 20677 20678 20679 20680 20681 20682 20683 20684 20685 20686 20687 20688 20689 20690 20691 20692 20693 20694 20695 20696 20697 20698 20699 20700 20701 20702 20703 20704 20705 20706 20707 20708 20709 20710 20711 20712 20713 20714 20715 20716 20717 20718 20719 20720 20721 20722 20723 20724 20725 20726 20727 20728 20729 20730 20731 20732 20733 20734 20735 20736 20737 20738 20739 20740 20741 20742 20743 20744 20745 20746 20747 20748 20749 20750 20751 20752 20753 20754 20755 20756 20757 20758 20759 20760 20761 20762 20763 20764 20765 20766 20767 20768 20769 20770 20771 20772 20773 20774 20775 20776 20777 20778 20779 20780 20781 20782 20783 20784 20785 20786 20787 20788 20789 20790 20791 20792 20793 20794 20795 20796 20797 20798 20799 20800 20801 20802 20803 20804 20805 20806 20807 20808 20809 20810 20811 20812 20813 20814 20815 20816 20817 20818 20819 20820 20821 20822 20823 20824 20825 20826 20827 20828 20829 20830 20831 20832 20833 20834 20835 20836 20837 20838 20839 20840 20841 20842 20843 20844 20845 20846 20847 20848 20849 20850 20851 20852 20853 20854 20855 20856 20857 20858 20859 20860 20861 20862 20863 20864 20865 20866 20867 20868 20869 20870 20871 20872 20873 20874 20875 20876 20877 20878 20879 20880 20881 20882 20883 20884 20885 20886 20887 20888 20889 20890 20891 20892 20893 20894 20895 20896 20897 20898 20899 20900 20901 20902 20903 20904 20905 20906 20907 20908 20909 20910 20911 20912 20913 20914 20915 20916 20917 20918 20919 20920 20921 20922 20923 20924 20925 20926 20927 20928 20929 20930 20931 20932 20933 20934 20935 20936 20937 20938 20939 20940 20941 20942 20943 20944 20945 20946 20947 20948 20949 20950 20951 20952 20953 20954 20955 20956 20957 20958 20959 20960 20961 20962 20963 20964 20965 20966 20967 20968 20969 20970 20971 20972 20973 20974 20975 20976 20977 20978 20979 20980 20981 20982 20983 20984 20985 20986 20987 20988 20989 20990 20991 20992 20993 20994 20995 20996 20997 20998 20999 21000 21001 21002 21003 21004 21005 21006 21007 21008 21009 21010 21011 21012 21013 21014 21015 21016 21017 21018 21019 21020 21021 21022 21023 21024 21025 21026 21027 21028 21029 21030 21031 21032 21033 21034 21035 21036 21037 21038 21039 21040 21041 21042 21043 21044 21045 21046 21047 21048 21049 21050 21051 21052 21053 21054 21055 21056 21057 21058 21059 21060 21061 21062 21063 21064 21065 21066 21067 21068 21069 21070 21071 21072 21073 21074 21075 21076 21077 21078 21079 21080 21081 21082 21083 21084 21085 21086 21087 21088 21089 21090 21091 21092 21093 21094 21095 21096 21097 21098 21099 21100 21101 21102 21103 21104 21105 21106 21107 21108 21109 21110 21111 21112 21113 21114 21115 21116 21117 21118 21119 21120 21121 21122 21123 21124 21125 21126 21127 21128 21129 21130 21131 21132 21133 21134 21135 21136 21137 21138 21139 21140 21141 21142 21143 21144 21145 21146 21147 21148 21149 21150 21151 21152 21153 21154 21155 21156 21157 21158 21159 21160 21161 21162 21163 21164 21165 21166 21167 21168 21169 21170 21171 21172 21173 21174 21175 21176 21177 21178 21179 21180 21181 21182 21183 21184 21185 21186 21187 21188 21189 21190 21191 21192 21193 21194 21195 21196 21197 21198 21199 21200 21201 21202 21203 21204 21205 21206 21207 21208 21209 21210 21211 21212 21213 21214 21215 21216 21217 21218 21219 21220 21221 21222 21223 21224 21225 21226 21227 21228 21229 21230 21231 21232 21233 21234 21235 21236 21237 21238 21239 21240 21241 21242 21243 21244 21245 21246 21247 21248 21249 21250 21251 21252 21253 21254 21255 21256 21257 21258 21259 21260 21261 21262 21263 21264 21265 21266 21267 21268 21269 21270 21271 21272 21273 21274 21275 21276 21277 21278 21279 21280 21281 21282 21283 21284 21285 21286 21287 21288 21289 21290 21291 21292 21293 21294 21295 21296 21297 21298 21299 21300 21301 21302 21303 21304 21305 21306 21307 21308 21309 21310 21311 21312 21313 21314 21315 21316 21317 21318 21319 21320 21321 21322 21323 21324 21325 21326 21327 21328 21329 21330 21331 21332 21333 21334 21335 21336 21337 21338 21339 21340 21341 21342 21343 21344 21345 21346 21347 21348 21349 21350 21351 21352 21353 21354 21355 21356 21357 21358 21359 21360 21361 21362 21363 21364 21365 21366 21367 21368 21369 21370 21371 21372 21373 21374 21375 21376 21377 21378 21379 21380 21381 21382 21383 21384 21385 21386 21387 21388 21389 21390 21391 21392 21393 21394 21395 21396 21397 21398 21399 21400 21401 21402 21403 21404 21405 21406 21407 21408 21409 21410 21411 21412 21413 21414 21415 21416 21417 21418 21419 21420 21421 21422 21423 21424 21425 21426 21427 21428 21429 21430 21431 21432 21433 21434 21435 21436 21437 21438 21439 21440 21441 21442 21443 21444 21445 21446 21447 21448 21449 21450 21451 21452 21453 21454 21455 21456 21457 21458 21459 21460 21461 21462 21463 21464 21465 21466 21467 21468 21469 21470 21471 21472 21473 21474 21475 21476 21477 21478 21479 21480 21481 21482 21483 21484 21485 21486 21487 21488 21489 21490 21491 21492 21493 21494 21495 21496 21497 21498 21499 21500 21501 21502 21503 21504 21505 21506 21507 21508 21509 21510 21511 21512 21513 21514 21515 21516 21517 21518 21519 21520 21521 21522 21523 21524 21525 21526 21527 21528 21529 21530 21531 21532 21533 21534 21535 21536 21537 21538 21539 21540 21541 21542 21543 21544 21545 21546 21547 21548 21549 21550 21551 21552 21553 21554 21555 21556 21557 21558 21559 21560 21561 21562 21563 21564 21565 21566 21567 21568 21569 21570 21571 21572 21573 21574 21575 21576 21577 21578 21579 21580 21581 21582 21583 21584 21585 21586 21587 21588 21589 21590 21591 21592 21593 21594 21595 21596 21597 21598 21599 21600 21601 21602 21603 21604 21605 21606 21607 21608 21609 21610 21611 21612 21613 21614 21615 21616 21617 21618 21619 21620 21621 21622 21623 21624 21625 21626 21627 21628 21629 21630 21631 21632 21633 21634 21635 21636 21637 21638 21639 21640 21641 21642 21643 21644 21645 21646 21647 21648 21649 21650 21651 21652 21653 21654 21655 21656 21657 21658 21659 21660 21661 21662 21663 21664 21665 21666 21667 21668 21669 21670 21671 21672 21673 21674 21675 21676 21677 21678 21679 21680 21681 21682 21683 21684 21685 21686 21687 21688 21689 21690 21691 21692 21693 21694 21695 21696 21697 21698 21699 21700 21701 21702 21703 21704 21705 21706 21707 21708 21709 21710 21711 21712 21713 21714 21715 21716 21717 21718 21719 21720 21721 21722 21723 21724 21725 21726 21727 21728 21729 21730 21731 21732 21733 21734 21735 21736 21737 21738 21739 21740 21741 21742 21743 21744 21745 21746 21747 21748 21749 21750 21751 21752 21753 21754 21755 21756 21757 21758 21759 21760 21761 21762 21763 21764 21765 21766 21767 21768 21769 21770 21771 21772 21773 21774 21775 21776 21777 21778 21779 21780 21781 21782 21783 21784 21785 21786 21787 21788 21789 21790 21791 21792 21793 21794 21795 21796 21797 21798 21799 21800 21801 21802 21803 21804 21805 21806 21807 21808 21809 21810 21811 21812 21813 21814 21815 21816 21817 21818 21819 21820 21821 21822 21823 21824 21825 21826 21827 21828 21829 21830 21831 21832 21833 21834 21835 21836 21837 21838 21839 21840 21841 21842 21843 21844 21845 21846 21847 21848 21849 21850 21851 21852 21853 21854 21855 21856 21857 21858 21859 21860 21861 21862 21863 21864 21865 21866 21867 21868 21869 21870 21871 21872 21873 21874 21875 21876 21877 21878 21879 21880 21881 21882 21883 21884 21885 21886 21887 21888 21889 21890 21891 21892 21893 21894 21895 21896 21897 21898 21899 21900 21901 21902 21903 21904 21905 21906 21907 21908 21909 21910 21911 21912 21913 21914 21915 21916 21917 21918 21919 21920 21921 21922 21923 21924 21925 21926 21927 21928 21929 21930 21931 21932 21933 21934 21935 21936 21937 21938 21939 21940 21941 21942 21943 21944 21945 21946 21947 21948 21949 21950 21951 21952 21953 21954 21955 21956 21957 21958 21959 21960 21961 21962 21963 21964 21965 21966 21967 21968 21969 21970 21971 21972 21973 21974 21975 21976 21977 21978 21979 21980 21981 21982 21983 21984 21985 21986 21987 21988 21989 21990 21991 21992 21993 21994 21995 21996 21997 21998 21999 22000 22001 22002 22003 22004 22005 22006 22007 22008 22009 22010 22011 22012 22013 22014 22015 22016 22017 22018 22019 22020 22021 22022 22023 22024 22025 22026 22027 22028 22029 22030 22031 22032 22033 22034 22035 22036 22037 22038 22039 22040 22041 22042 22043 22044 22045 22046 22047 22048 22049 22050 22051 22052 22053 22054 22055 22056 22057 22058 22059 22060 22061 22062 22063 22064 22065 22066 22067 22068 22069 22070 22071 22072 22073 22074 22075 22076 22077 22078 22079 22080 22081 22082 22083 22084 22085 22086 22087 22088 22089 22090 22091 22092 22093 22094 22095 22096 22097 22098 22099 22100 22101 22102 22103 22104 22105 22106 22107 22108 22109 22110 22111 22112 22113 22114 22115 22116 22117 22118 22119 22120 22121 22122 22123 22124 22125 22126 22127 22128 22129 22130 22131 22132 22133 22134 22135 22136 22137 22138 22139 22140 22141 22142 22143 22144 22145 22146 22147 22148 22149 22150 22151 22152 22153 22154 22155 22156 22157 22158 22159 22160 22161 22162 22163 22164 22165 22166 22167 22168 22169 22170 22171 22172 22173 22174 22175 22176 22177 22178 22179 22180 22181 22182 22183 22184 22185 22186 22187 22188 22189 22190 22191 22192 22193 22194 22195 22196 22197 22198 22199 22200 22201 22202 22203 22204 22205 22206 22207 22208 22209 22210 22211 22212 22213 22214 22215 22216 22217 22218 22219 22220 22221 22222 22223 22224 22225 22226 22227 22228 22229 22230 22231 22232 22233 22234 22235 22236 22237 22238 22239 22240 22241 22242 22243 22244 22245 22246 22247 22248 22249 22250 22251 22252 22253 22254 22255 22256 22257 22258 22259 22260 22261 22262 22263 22264 22265 22266 22267 22268 22269 22270 22271 22272 22273 22274 22275 22276 22277 22278 22279 22280 22281 22282 22283 22284 22285 22286 22287 22288 22289 22290 22291 22292 22293 22294 22295 22296 22297 22298 22299 22300 22301 22302 22303 22304 22305 22306 22307 22308 22309 22310 22311 22312 22313 22314 22315 22316 22317 22318 22319 22320 22321 22322 22323 22324 22325 22326 22327 22328 22329 22330 22331 22332 22333 22334 22335 22336 22337 22338 22339 22340 22341 22342 22343 22344 22345 22346 22347 22348 22349 22350 22351 22352 22353 22354 22355 22356 22357 22358 22359 22360 22361 22362 22363 22364 22365 22366 22367 22368 22369 22370 22371 22372 22373 22374 22375 22376 22377 22378 22379 22380 22381 22382 22383 22384 22385 22386 22387 22388 22389 22390 22391 22392 22393 22394 22395 22396 22397 22398 22399 22400 22401 22402 22403 22404 22405 22406 22407 22408 22409 22410 22411 22412 22413 22414 22415 22416 22417 22418 22419 22420 22421 22422 22423 22424 22425 22426 22427 22428 22429 22430 22431 22432 22433 22434 22435 22436 22437 22438 22439 22440 22441 22442 22443 22444 22445 22446 22447 22448 22449 22450 22451 22452 22453 22454 22455 22456 22457 22458 22459 22460 22461 22462 22463 22464 22465 22466 22467 22468 22469 22470 22471 22472 22473 22474 22475 22476 22477 22478 22479 22480 22481 22482 22483 22484 22485 22486 22487 22488 22489 22490 22491 22492 22493 22494 22495 22496 22497 22498 22499 22500 22501 22502 22503 22504 22505 22506 22507 22508 22509 22510 22511 22512 22513 22514 22515 22516 22517 22518 22519 22520 22521 22522 22523 22524 22525 22526 22527 22528 22529 22530 22531 22532 22533 22534 22535 22536 22537 22538 22539 22540 22541 22542 22543 22544 22545 22546 22547 22548 22549 22550 22551 22552 22553 22554 22555 22556 22557 22558 22559 22560 22561 22562 22563 22564 22565 22566 22567 22568 22569 22570 22571 22572 22573 22574 22575 22576 22577 22578 22579 22580 22581 22582 22583 22584 22585 22586 22587 22588 22589 22590 22591 22592 22593 22594 22595 22596 22597 22598 22599 22600 22601 22602 22603 22604 22605 22606 22607 22608 22609 22610 22611 22612 22613 22614 22615 22616 22617 22618 22619 22620 22621 22622 22623 22624 22625 22626 22627 22628 22629 22630 22631 22632 22633 22634 22635 22636 22637 22638 22639 22640 22641 22642 22643 22644 22645 22646 22647 22648 22649 22650 22651 22652 22653 22654 22655 22656 22657 22658 22659 22660 22661 22662 22663 22664 22665 22666 22667 22668 22669 22670 22671 22672 22673 22674 22675 22676 22677 22678 22679 22680 22681 22682 22683 22684 22685 22686 22687 22688 22689 22690 22691 22692 22693 22694 22695 22696 22697 22698 22699 22700 22701 22702 22703 22704 22705 22706 22707 22708 22709 22710 22711 22712 22713 22714 22715 22716 22717 22718 22719 22720 22721 22722 22723 22724 22725 22726 22727 22728 22729 22730 22731 22732 22733 22734 22735 22736 22737 22738 22739 22740 22741 22742 22743 22744 22745 22746 22747 22748 22749 22750 22751 22752 22753 22754 22755 22756 22757 22758 22759 22760 22761 22762 22763 22764 22765 22766 22767 22768 22769 22770 22771 22772 22773 22774 22775 22776 22777 22778 22779 22780 22781 22782 22783 22784 22785 22786 22787 22788 22789 22790 22791 22792 22793 22794 22795 22796 22797 22798 22799 22800 22801 22802 22803 22804 22805 22806 22807 22808 22809 22810 22811 22812 22813 22814 22815 22816 22817 22818 22819 22820 22821 22822 22823 22824 22825 22826 22827 22828 22829 22830 22831 22832 22833 22834 22835 22836 22837 22838 22839 22840 22841 22842 22843 22844 22845 22846 22847 22848 22849 22850 22851 22852 22853 22854 22855 22856 22857 22858 22859 22860 22861 22862 22863 22864 22865 22866 22867 22868 22869 22870 22871 22872 22873 22874 22875 22876 22877 22878 22879 22880 22881 22882 22883 22884 22885 22886 22887 22888 22889 22890 22891 22892 22893 22894 22895 22896 22897 22898 22899 22900 22901 22902 22903 22904 22905 22906 22907 22908 22909 22910 22911 22912 22913 22914 22915 22916 22917 22918 22919 22920 22921 22922 22923 22924 22925 22926 22927 22928 22929 22930 22931 22932 22933 22934 22935 22936 22937 22938 22939 22940 22941 22942 22943 22944 22945 22946 22947 22948 22949 22950 22951 22952 22953 22954 22955 22956 22957 22958 22959 22960 22961 22962 22963 22964 22965 22966 22967 22968 22969 22970 22971 22972 22973 22974 22975 22976 22977 22978 22979 22980 22981 22982 22983 22984 22985 22986 22987 22988 22989 22990 22991 22992 22993 22994 22995 22996 22997 22998 22999 23000 23001 23002 23003 23004 23005 23006 23007 23008 23009 23010 23011 23012 23013 23014 23015 23016 23017 23018 23019 23020 23021 23022 23023 23024 23025 23026 23027 23028 23029 23030 23031 23032 23033 23034 23035 23036 23037 23038 23039 23040 23041 23042 23043 23044 23045 23046 23047 23048 23049 23050 23051 23052 23053 23054 23055 23056 23057 23058 23059 23060 23061 23062 23063 23064 23065 23066 23067 23068 23069 23070 23071 23072 23073 23074 23075 23076 23077 23078 23079 23080 23081 23082 23083 23084 23085 23086 23087 23088 23089 23090 23091 23092 23093 23094 23095 23096 23097 23098 23099 23100 23101 23102 23103 23104 23105 23106 23107 23108 23109 23110 23111 23112 23113 23114 23115 23116 23117 23118 23119 23120 23121 23122 23123 23124 23125 23126 23127 23128 23129 23130 23131 23132 23133 23134 23135 23136 23137 23138 23139 23140 23141 23142 23143 23144 23145 23146 23147 23148 23149 23150 23151 23152 23153 23154 23155 23156 23157 23158 23159 23160 23161 23162 23163 23164 23165 23166 23167 23168 23169 23170 23171 23172 23173 23174 23175 23176 23177 23178 23179 23180 23181 23182 23183 23184 23185 23186 23187 23188 23189 23190 23191 23192 23193 23194 23195 23196 23197 23198 23199 23200 23201 23202 23203 23204 23205 23206 23207 23208 23209 23210 23211 23212 23213 23214 23215 23216 23217 23218 23219 23220 23221 23222 23223 23224 23225 23226 23227 23228 23229 23230 23231 23232 23233 23234 23235 23236 23237 23238 23239 23240 23241 23242 23243 23244 23245 23246 23247 23248 23249 23250 23251 23252 23253 23254 23255 23256 23257 23258 23259 23260 23261 23262 23263 23264 23265 23266 23267 23268 23269 23270 23271 23272 23273 23274 23275 23276 23277 23278 23279 23280 23281 23282 23283 23284 23285 23286 23287 23288 23289 23290 23291 23292 23293 23294 23295 23296 23297 23298 23299 23300 23301 23302 23303 23304 23305 23306 23307 23308 23309 23310 23311 23312 23313 23314 23315 23316 23317 23318 23319 23320 23321 23322 23323 23324 23325 23326 23327 23328 23329 23330 23331 23332 23333 23334 23335 23336 23337 23338 23339 23340 23341 23342 23343 23344 23345 23346 23347 23348 23349 23350 23351 23352 23353 23354 23355 23356 23357 23358 23359 23360 23361 23362 23363 23364 23365 23366 23367 23368 23369 23370 23371 23372 23373 23374 23375 23376 23377 23378 23379 23380 23381 23382 23383 23384 23385 23386 23387 23388 23389 23390 23391 23392 23393 23394 23395 23396 23397 23398 23399 23400 23401 23402 23403 23404 23405 23406 23407 23408 23409 23410 23411 23412 23413 23414 23415 23416 23417 23418 23419 23420 23421 23422 23423 23424 23425 23426 23427 23428 23429 23430 23431 23432 23433 23434 23435 23436 23437 23438 23439 23440 23441 23442 23443 23444 23445 23446 23447 23448 23449 23450 23451 23452 23453 23454 23455 23456 23457 23458 23459 23460 23461 23462 23463 23464 23465 23466 23467 23468 23469 23470 23471 23472 23473 23474 23475 23476 23477 23478 23479 23480 23481 23482 23483 23484 23485 23486 23487 23488 23489 23490 23491 23492 23493 23494 23495 23496 23497 23498 23499 23500 23501 23502 23503 23504 23505 23506 23507 23508 23509 23510 23511 23512 23513 23514 23515 23516 23517 23518 23519 23520 23521 23522 23523 23524 23525 23526 23527 23528 23529 23530 23531 23532 23533 23534 23535 23536 23537 23538 23539 23540 23541 23542 23543 23544 23545 23546 23547 23548 23549 23550 23551 23552 23553 23554 23555 23556 23557 23558 23559 23560 23561 23562 23563 23564 23565 23566 23567 23568 23569 23570 23571 23572 23573 23574 23575 23576 23577 23578 23579 23580 23581 23582 23583 23584 23585 23586 23587 23588 23589 23590 23591 23592 23593 23594 23595 23596 23597 23598 23599 23600 23601 23602 23603 23604 23605 23606 23607 23608 23609 23610 23611 23612 23613 23614 23615 23616 23617 23618 23619 23620 23621 23622 23623 23624 23625 23626 23627 23628 23629 23630 23631 23632 23633 23634 23635 23636 23637 23638 23639 23640 23641 23642 23643 23644 23645 23646 23647 23648 23649 23650 23651 23652 23653 23654 23655 23656 23657 23658 23659 23660 23661 23662 23663 23664 23665 23666 23667 23668 23669 23670 23671 23672 23673 23674 23675 23676 23677 23678 23679 23680 23681 23682 23683 23684 23685 23686 23687 23688 23689 23690 23691 23692 23693 23694 23695 23696 23697 23698 23699 23700 23701 23702 23703 23704 23705 23706 23707 23708 23709 23710 23711 23712 23713 23714 23715 23716 23717 23718 23719 23720 23721 23722 23723 23724 23725 23726 23727 23728 23729 23730 23731 23732 23733 23734 23735 23736 23737 23738 23739 23740 23741 23742 23743 23744 23745 23746 23747 23748 23749 23750 23751 23752 23753 23754 23755 23756 23757 23758 23759 23760 23761 23762 23763 23764 23765 23766 23767 23768 23769 23770 23771 23772 23773 23774 23775 23776 23777 23778 23779 23780 23781 23782 23783 23784 23785 23786 23787 23788 23789 23790 23791 23792 23793 23794 23795 23796 23797 23798 23799 23800 23801 23802 23803 23804 23805 23806 23807 23808 23809 23810 23811 23812 23813 23814 23815 23816 23817 23818 23819 23820 23821 23822 23823 23824 23825 23826 23827 23828 23829 23830 23831 23832 23833 23834 23835 23836 23837 23838 23839 23840 23841 23842 23843 23844 23845 23846 23847 23848 23849 23850 23851 23852 23853 23854 23855 23856 23857 23858 23859 23860 23861 23862 23863 23864 23865 23866 23867 23868 23869 23870 23871 23872 23873 23874 23875 23876 23877 23878 23879 23880 23881 23882 23883 23884 23885 23886 23887 23888 23889 23890 23891 23892 23893 23894 23895 23896 23897 23898 23899 23900 23901 23902 23903 23904 23905 23906 23907 23908 23909 23910 23911 23912 23913 23914 23915 23916 23917 23918 23919 23920 23921 23922 23923 23924 23925 23926 23927 23928 23929 23930 23931 23932 23933 23934 23935 23936 23937 23938 23939 23940 23941 23942 23943 23944 23945 23946 23947 23948 23949 23950 23951 23952 23953 23954 23955 23956 23957 23958 23959 23960 23961 23962 23963 23964 23965 23966 23967 23968 23969 23970 23971 23972 23973 23974 23975 23976 23977 23978 23979 23980 23981 23982 23983 23984 23985 23986 23987 23988 23989 23990 23991 23992 23993 23994 23995 23996 23997 23998 23999 24000 24001 24002 24003 24004 24005 24006 24007 24008 24009 24010 24011 24012 24013 24014 24015 24016 24017 24018 24019 24020 24021 24022 24023 24024 24025 24026 24027 24028 24029 24030 24031 24032 24033 24034 24035 24036 24037 24038 24039 24040 24041 24042 24043 24044 24045 24046 24047 24048 24049 24050 24051 24052 24053 24054 24055 24056 24057 24058 24059 24060 24061 24062 24063 24064 24065 24066 24067 24068 24069 24070 24071 24072 24073 24074 24075 24076 24077 24078 24079 24080 24081 24082 24083 24084 24085 24086 24087 24088 24089 24090 24091 24092 24093 24094 24095 24096 24097 24098 24099 24100 24101 24102 24103 24104 24105 24106 24107 24108 24109 24110 24111 24112 24113 24114 24115 24116 24117 24118 24119 24120 24121 24122 24123 24124 24125 24126 24127 24128 24129 24130 24131 24132 24133 24134 24135 24136 24137 24138 24139 24140 24141 24142 24143 24144 24145 24146 24147 24148 24149 24150 24151 24152 24153 24154 24155 24156 24157 24158 24159 24160 24161 24162 24163 24164 24165 24166 24167 24168 24169 24170 24171 24172 24173 24174 24175 24176 24177 24178 24179 24180 24181 24182 24183 24184 24185 24186 24187 24188 24189 24190 24191 24192 24193 24194 24195 24196 24197 24198 24199 24200 24201 24202 24203 24204 24205 24206 24207 24208 24209 24210 24211 24212 24213 24214 24215 24216 24217 24218 24219 24220 24221 24222 24223 24224 24225 24226 24227 24228 24229 24230 24231 24232 24233 24234 24235 24236 24237 24238 24239 24240 24241 24242 24243 24244 24245 24246 24247 24248 24249 24250 24251 24252 24253 24254 24255 24256 24257 24258 24259 24260 24261 24262 24263 24264 24265 24266 24267 24268 24269 24270 24271 24272 24273 24274 24275 24276 24277 24278 24279 24280 24281 24282 24283 24284 24285 24286 24287 24288 24289 24290 24291 24292 24293 24294 24295 24296 24297 24298 24299 24300 24301 24302 24303 24304 24305 24306 24307 24308 24309 24310 24311 24312 24313 24314 24315 24316 24317 24318 24319 24320 24321 24322 24323 24324 24325 24326 24327 24328 24329 24330 24331 24332 24333 24334 24335 24336 24337 24338 24339 24340 24341 24342 24343 24344 24345 24346 24347 24348 24349 24350 24351 24352 24353 24354 24355 24356 24357 24358 24359 24360 24361 24362 24363 24364 24365 24366 24367 24368 24369 24370 24371 24372 24373 24374 24375 24376 24377 24378 24379 24380 24381 24382 24383 24384 24385 24386 24387 24388 24389 24390 24391 24392 24393 24394 24395 24396 24397 24398 24399 24400 24401 24402 24403 24404 24405 24406 24407 24408 24409 24410 24411 24412 24413 24414 24415 24416 24417 24418 24419 24420 24421 24422 24423 24424 24425 24426 24427 24428 24429 24430 24431 24432 24433 24434 24435 24436 24437 24438 24439 24440 24441 24442 24443 24444 24445 24446 24447 24448 24449 24450 24451 24452 24453 24454 24455 24456 24457 24458 24459 24460 24461 24462 24463 24464 24465 24466 24467 24468 24469 24470 24471 24472 24473 24474 24475 24476 24477 24478 24479 24480 24481 24482 24483 24484 24485 24486 24487 24488 24489 24490 24491 24492 24493 24494 24495 24496 24497 24498 24499 24500 24501 24502 24503 24504 24505 24506 24507 24508 24509 24510 24511 24512 24513 24514 24515 24516 24517 24518 24519 24520 24521 24522 24523 24524 24525 24526 24527 24528 24529 24530 24531 24532 24533 24534 24535 24536 24537 24538 24539 24540 24541 24542 24543 24544 24545 24546 24547 24548 24549 24550 24551 24552 24553 24554 24555 24556 24557 24558 24559 24560 24561 24562 24563 24564 24565 24566 24567 24568 24569 24570 24571 24572 24573 24574 24575 24576 24577 24578 24579 24580 24581 24582 24583 24584 24585 24586 24587 24588 24589 24590 24591 24592 24593 24594 24595 24596 24597 24598 24599 24600 24601 24602 24603 24604 24605 24606 24607 24608 24609 24610 24611 24612 24613 24614 24615 24616 24617 24618 24619 24620 24621 24622 24623 24624 24625 24626 24627 24628 24629 24630 24631 24632 24633 24634 24635 24636 24637 24638 24639 24640 24641 24642 24643 24644 24645 24646 24647 24648 24649 24650 24651 24652 24653 24654 24655 24656 24657 24658 24659 24660 24661 24662 24663 24664 24665 24666 24667 24668 24669 24670 24671 24672 24673 24674 24675 24676 24677 24678 24679 24680 24681 24682 24683 24684 24685 24686 24687 24688 24689 24690 24691 24692 24693 24694 24695 24696 24697 24698 24699 24700 24701 24702 24703 24704 24705 24706 24707 24708 24709 24710 24711 24712 24713 24714 24715 24716 24717 24718 24719 24720 24721 24722 24723 24724 24725 24726 24727 24728 24729 24730 24731 24732 24733 24734 24735 24736 24737 24738 24739 24740 24741 24742 24743 24744 24745 24746 24747 24748 24749 24750 24751 24752 24753 24754 24755 24756 24757 24758 24759 24760 24761 24762 24763 24764 24765 24766 24767 24768 24769 24770 24771 24772 24773 24774 24775 24776 24777 24778 24779 24780 24781 24782 24783 24784 24785 24786 24787 24788 24789 24790 24791 24792 24793 24794 24795 24796 24797 24798 24799 24800 24801 24802 24803 24804 24805 24806 24807 24808 24809 24810 24811 24812 24813 24814 24815 24816 24817 24818 24819 24820 24821 24822 24823 24824 24825 24826 24827 24828 24829 24830 24831 24832 24833 24834 24835 24836 24837 24838 24839 24840 24841 24842 24843 24844 24845 24846 24847 24848 24849 24850 24851 24852 24853 24854 24855 24856 24857 24858 24859 24860 24861 24862 24863 24864 24865 24866 24867 24868 24869 24870 24871 24872 24873 24874 24875 24876 24877 24878 24879 24880 24881 24882 24883 24884 24885 24886 24887 24888 24889 24890 24891 24892 24893 24894 24895 24896 24897 24898 24899 24900 24901 24902 24903 24904 24905 24906 24907 24908 24909 24910 24911 24912 24913 24914 24915 24916 24917 24918 24919 24920 24921 24922 24923 24924 24925 24926 24927 24928 24929 24930 24931 24932 24933 24934 24935 24936 24937 24938 24939 24940 24941 24942 24943 24944 24945 24946 24947 24948 24949 24950 24951 24952 24953 24954 24955 24956 24957 24958 24959 24960 24961 24962 24963 24964 24965 24966 24967 24968 24969 24970 24971 24972 24973 24974 24975 24976 24977 24978 24979 24980 24981 24982 24983 24984 24985 24986 24987 24988 24989 24990 24991 24992 24993 24994 24995 24996 24997 24998 24999 25000 25001 25002 25003 25004 25005 25006 25007 25008 25009 25010 25011 25012 25013 25014 25015 25016 25017 25018 25019 25020 25021 25022 25023 25024 25025 25026 25027 25028 25029 25030 25031 25032 25033 25034 25035 25036 25037 25038 25039 25040 25041 25042 25043 25044 25045 25046 25047 25048 25049 25050 25051 25052 25053 25054 25055 25056 25057 25058 25059 25060 25061 25062 25063 25064 25065 25066 25067 25068 25069 25070 25071 25072 25073 25074 25075 25076 25077 25078 25079 25080 25081 25082 25083 25084 25085 25086 25087 25088 25089 25090 25091 25092 25093 25094 25095 25096 25097 25098 25099 25100 25101 25102 25103 25104 25105 25106 25107 25108 25109 25110 25111 25112 25113 25114 25115 25116 25117 25118 25119 25120 25121 25122 25123 25124 25125 25126 25127 25128 25129 25130 25131 25132 25133 25134 25135 25136 25137 25138 25139 25140 25141 25142 25143 25144 25145 25146 25147 25148 25149 25150 25151 25152 25153 25154 25155 25156 25157 25158 25159 25160 25161 25162 25163 25164 25165 25166 25167 25168 25169 25170 25171 25172 25173 25174 25175 25176 25177 25178 25179 25180 25181 25182 25183 25184 25185 25186 25187 25188 25189 25190 25191 25192 25193 25194 25195 25196 25197 25198 25199 25200 25201 25202 25203 25204 25205 25206 25207 25208 25209 25210 25211 25212 25213 25214 25215 25216 25217 25218 25219 25220 25221 25222 25223 25224 25225 25226 25227 25228 25229 25230 25231 25232 25233 25234 25235 25236 25237 25238 25239 25240 25241 25242 25243 25244 25245 25246 25247 25248 25249 25250 25251 25252 25253 25254 25255 25256 25257 25258 25259 25260 25261 25262 25263 25264 25265 25266 25267 25268 25269 25270 25271 25272 25273 25274 25275 25276 25277 25278 25279 25280 25281 25282 25283 25284 25285 25286 25287 25288 25289 25290 25291 25292 25293 25294 25295 25296 25297 25298 25299 25300 25301 25302 25303 25304 25305 25306 25307 25308 25309 25310 25311 25312 25313 25314 25315 25316 25317 25318 25319 25320 25321 25322 25323 25324 25325 25326 25327 25328 25329 25330 25331 25332 25333 25334 25335 25336 25337 25338 25339 25340 25341 25342 25343 25344 25345 25346 25347 25348 25349 25350 25351 25352 25353 25354 25355 25356 25357 25358 25359 25360 25361 25362 25363 25364 25365 25366 25367 25368 25369 25370 25371 25372 25373 25374 25375 25376 25377 25378 25379 25380 25381 25382 25383 25384 25385 25386 25387 25388 25389 25390 25391 25392 25393 25394 25395 25396 25397 25398 25399 25400 25401 25402 25403 25404 25405 25406 25407 25408 25409 25410 25411 25412 25413 25414 25415 25416 25417 25418 25419 25420 25421 25422 25423 25424 25425 25426 25427 25428 25429 25430 25431 25432 25433 25434 25435 25436 25437 25438 25439 25440 25441 25442 25443 25444 25445 25446 25447 25448 25449 25450 25451 25452 25453 25454 25455 25456 25457 25458 25459 25460 25461 25462 25463 25464 25465 25466 25467 25468 25469 25470 25471 25472 25473 25474 25475 25476 25477 25478 25479 25480 25481 25482 25483 25484 25485 25486 25487 25488 25489 25490 25491 25492 25493 25494 25495 25496 25497 25498 25499 25500 25501 25502 25503 25504 25505 25506 25507 25508 25509 25510 25511 25512 25513 25514 25515 25516 25517 25518 25519 25520 25521 25522 25523 25524 25525 25526 25527 25528 25529 25530 25531 25532 25533 25534 25535 25536 25537 25538 25539 25540 25541 25542 25543 25544 25545 25546 25547 25548 25549 25550 25551 25552 25553 25554 25555 25556 25557 25558 25559 25560 25561 25562 25563 25564 25565 25566 25567 25568 25569 25570 25571 25572 25573 25574 25575 25576 25577 25578 25579 25580 25581 25582 25583 25584 25585 25586 25587 25588 25589 25590 25591 25592 25593 25594 25595 25596 25597 25598 25599 25600 25601 25602 25603 25604 25605 25606 25607 25608 25609 25610 25611 25612 25613 25614 25615 25616 25617 25618 25619 25620 25621 25622 25623 25624 25625 25626 25627 25628 25629 25630 25631 25632 25633 25634 25635 25636 25637 25638 25639 25640 25641 25642 25643 25644 25645 25646 25647 25648 25649 25650 25651 25652 25653 25654 25655 25656 25657 25658 25659 25660 25661 25662 25663 25664 25665 25666 25667 25668 25669 25670 25671 25672 25673 25674 25675 25676 25677 25678 25679 25680 25681 25682 25683 25684 25685 25686 25687 25688 25689 25690 25691 25692 25693 25694 25695 25696 25697 25698 25699 25700 25701 25702 25703 25704 25705 25706 25707 25708 25709 25710 25711 25712 25713 25714 25715 25716 25717 25718 25719 25720 25721 25722 25723 25724 25725 25726 25727 25728 25729 25730 25731 25732 25733 25734 25735 25736 25737 25738 25739 25740 25741 25742 25743 25744 25745 25746 25747 25748 25749 25750 25751 25752 25753 25754 25755 25756 25757 25758 25759 25760 25761 25762 25763 25764 25765 25766 25767 25768 25769 25770 25771 25772 25773 25774 25775 25776 25777 25778 25779 25780 25781 25782 25783 25784 25785 25786 25787 25788 25789 25790 25791 25792 25793 25794 25795 25796 25797 25798 25799 25800 25801 25802 25803 25804 25805 25806 25807 25808 25809 25810 25811 25812 25813 25814 25815 25816 25817 25818 25819 25820 25821 25822 25823 25824 25825 25826 25827 25828 25829 25830 25831 25832 25833 25834 25835 25836 25837 25838 25839 25840 25841 25842 25843 25844 25845 25846 25847 25848 25849 25850 25851 25852 25853 25854 25855 25856 25857 25858 25859 25860 25861 25862 25863 25864 25865 25866 25867 25868 25869 25870 25871 25872 25873 25874 25875 25876 25877 25878 25879 25880 25881 25882 25883 25884 25885 25886 25887 25888 25889 25890 25891 25892 25893 25894 25895 25896 25897 25898 25899 25900 25901 25902 25903 25904 25905 25906 25907 25908 25909 25910 25911 25912 25913 25914 25915 25916 25917 25918 25919 25920 25921 25922 25923 25924 25925 25926 25927 25928 25929 25930 25931 25932 25933 25934 25935 25936 25937 25938 25939 25940 25941 25942 25943 25944 25945 25946 25947 25948 25949 25950 25951 25952 25953 25954 25955 25956 25957 25958 25959 25960 25961 25962 25963 25964 25965 25966 25967 25968 25969 25970 25971 25972 25973 25974 25975 25976 25977 25978 25979 25980 25981 25982 25983 25984 25985 25986 25987 25988 25989 25990 25991 25992 25993 25994 25995 25996 25997 25998 25999 26000 26001 26002 26003 26004 26005 26006 26007 26008 26009 26010 26011 26012 26013 26014 26015 26016 26017 26018 26019 26020 26021 26022 26023 26024 26025 26026 26027 26028 26029 26030 26031 26032 26033 26034 26035 26036 26037 26038 26039 26040 26041 26042 26043 26044 26045 26046 26047 26048 26049 26050 26051 26052 26053 26054 26055 26056 26057 26058 26059 26060 26061 26062 26063 26064 26065 26066 26067 26068 26069 26070 26071 26072 26073 26074 26075 26076 26077 26078 26079 26080 26081 26082 26083 26084 26085 26086 26087 26088 26089 26090 26091 26092 26093 26094 26095 26096 26097 26098 26099 26100 26101 26102 26103 26104 26105 26106 26107 26108 26109 26110 26111 26112 26113 26114 26115 26116 26117 26118 26119 26120 26121 26122 26123 26124 26125 26126 26127 26128 26129 26130 26131 26132 26133 26134 26135 26136 26137 26138 26139 26140 26141 26142 26143 26144 26145 26146 26147 26148 26149 26150 26151 26152 26153 26154 26155 26156 26157 26158 26159 26160 26161 26162 26163 26164 26165 26166 26167 26168 26169 26170 26171 26172 26173 26174 26175 26176 26177 26178 26179 26180 26181 26182 26183 26184 26185 26186 26187 26188 26189 26190 26191 26192 26193 26194 26195 26196 26197 26198 26199 26200 26201 26202 26203 26204 26205 26206 26207 26208 26209 26210 26211 26212 26213 26214 26215 26216 26217 26218 26219 26220 26221 26222 26223 26224 26225 26226 26227 26228 26229 26230 26231 26232 26233 26234 26235 26236 26237 26238 26239 26240 26241 26242 26243 26244 26245 26246 26247 26248 26249 26250 26251 26252 26253 26254 26255 26256 26257 26258 26259 26260 26261 26262 26263 26264 26265 26266 26267 26268 26269 26270 26271 26272 26273 26274 26275 26276 26277 26278 26279 26280 26281 26282 26283 26284 26285 26286 26287 26288 26289 26290 26291 26292 26293 26294 26295 26296 26297 26298 26299 26300 26301 26302 26303 26304 26305 26306 26307 26308 26309 26310 26311 26312 26313 26314 26315 26316 26317 26318 26319 26320 26321 26322 26323 26324 26325 26326 26327 26328 26329 26330 26331 26332 26333 26334 26335 26336 26337 26338 26339 26340 26341 26342 26343 26344 26345 26346 26347 26348 26349 26350 26351 26352 26353 26354 26355 26356 26357 26358 26359 26360 26361 26362 26363 26364 26365 26366 26367 26368 26369 26370 26371 26372 26373 26374 26375 26376 26377 26378 26379 26380 26381 26382 26383 26384 26385 26386 26387 26388 26389 26390 26391 26392 26393 26394 26395 26396 26397 26398 26399 26400 26401 26402 26403 26404 26405 26406 26407 26408 26409 26410 26411 26412 26413 26414 26415 26416 26417 26418 26419 26420 26421 26422 26423 26424 26425 26426 26427 26428 26429 26430 26431 26432 26433 26434 26435 26436 26437 26438 26439 26440 26441 26442 26443 26444 26445 26446 26447 26448 26449 26450 26451 26452 26453 26454 26455 26456 26457 26458 26459 26460 26461 26462 26463 26464 26465 26466 26467 26468 26469 26470 26471 26472 26473 26474 26475 26476 26477 26478 26479 26480 26481 26482 26483 26484 26485 26486 26487 26488 26489 26490 26491 26492 26493 26494 26495 26496 26497 26498 26499 26500 26501 26502 26503 26504 26505 26506 26507 26508 26509 26510 26511 26512 26513 26514 26515 26516 26517 26518 26519 26520 26521 26522 26523 26524 26525 26526 26527 26528 26529 26530 26531 26532 26533 26534 26535 26536 26537 26538 26539 26540 26541 26542 26543 26544 26545 26546 26547 26548 26549 26550 26551 26552 26553 26554 26555 26556 26557 26558 26559 26560 26561 26562 26563 26564 26565 26566 26567 26568 26569 26570 26571 26572 26573 26574 26575 26576 26577 26578 26579 26580 26581 26582 26583 26584 26585 26586 26587 26588 26589 26590 26591 26592 26593 26594 26595 26596 26597 26598 26599 26600 26601 26602 26603 26604 26605 26606 26607 26608 26609 26610 26611 26612 26613 26614 26615 26616 26617 26618 26619 26620 26621 26622 26623 26624 26625 26626 26627 26628 26629 26630 26631 26632 26633 26634 26635 26636 26637 26638 26639 26640 26641 26642 26643 26644 26645 26646 26647 26648 26649 26650 26651 26652 26653 26654 26655 26656 26657 26658 26659 26660 26661 26662 26663 26664 26665 26666 26667 26668 26669 26670 26671 26672 26673 26674 26675 26676 26677 26678 26679 26680 26681 26682 26683 26684 26685 26686 26687 26688 26689 26690 26691 26692 26693 26694 26695 26696 26697 26698 26699 26700 26701 26702 26703 26704 26705 26706 26707 26708 26709 26710 26711 26712 26713 26714 26715 26716 26717 26718 26719 26720 26721 26722 26723 26724 26725 26726 26727 26728 26729 26730 26731 26732 26733 26734 26735 26736 26737 26738 26739 26740 26741 26742 26743 26744 26745 26746 26747 26748 26749 26750 26751 26752 26753 26754 26755 26756 26757 26758 26759 26760 26761 26762 26763 26764 26765 26766 26767 26768 26769 26770 26771 26772 26773 26774 26775 26776 26777 26778 26779 26780 26781 26782 26783 26784 26785 26786 26787 26788 26789 26790 26791 26792 26793 26794 26795 26796 26797 26798 26799 26800 26801 26802 26803 26804 26805 26806 26807 26808 26809 26810 26811 26812 26813 26814 26815 26816 26817 26818 26819 26820 26821 26822 26823 26824 26825 26826 26827 26828 26829 26830 26831 26832 26833 26834 26835 26836 26837 26838 26839 26840 26841 26842 26843 26844 26845 26846 26847 26848 26849 26850 26851 26852 26853 26854 26855 26856 26857 26858 26859 26860 26861 26862 26863 26864 26865 26866 26867 26868 26869 26870 26871 26872 26873 26874 26875 26876 26877 26878 26879 26880 26881 26882 26883 26884 26885 26886 26887 26888 26889 26890 26891 26892 26893 26894 26895 26896 26897 26898 26899 26900 26901 26902 26903 26904 26905 26906 26907 26908 26909 26910 26911 26912 26913 26914 26915 26916 26917 26918 26919 26920 26921 26922 26923 26924 26925 26926 26927 26928 26929 26930 26931 26932 26933 26934 26935 26936 26937 26938 26939 26940 26941 26942 26943 26944 26945 26946 26947 26948 26949 26950 26951 26952 26953 26954 26955 26956 26957 26958 26959 26960 26961 26962 26963 26964 26965 26966 26967 26968 26969 26970 26971 26972 26973 26974 26975 26976 26977 26978 26979 26980 26981 26982 26983 26984 26985 26986 26987 26988 26989 26990 26991 26992 26993 26994 26995 26996 26997 26998 26999 27000 27001 27002 27003 27004 27005 27006 27007 27008 27009 27010 27011 27012 27013 27014 27015 27016 27017 27018 27019 27020 27021 27022 27023 27024 27025 27026 27027 27028 27029 27030 27031 27032 27033 27034 27035 27036 27037 27038 27039 27040 27041 27042 27043 27044 27045 27046 27047 27048 27049 27050 27051 27052 27053 27054 27055 27056 27057 27058 27059 27060 27061 27062 27063 27064 27065 27066 27067 27068 27069 27070 27071 27072 27073 27074 27075 27076 27077 27078 27079 27080 27081 27082 27083 27084 27085 27086 27087 27088 27089 27090 27091 27092 27093 27094 27095 27096 27097 27098 27099 27100 27101 27102 27103 27104 27105 27106 27107 27108 27109 27110 27111 27112 27113 27114 27115 27116 27117 27118 27119 27120 27121 27122 27123 27124 27125 27126 27127 27128 27129 27130 27131 27132 27133 27134 27135 27136 27137 27138 27139 27140 27141 27142 27143 27144 27145 27146 27147 27148 27149 27150 27151 27152 27153 27154 27155 27156 27157 27158 27159 27160 27161 27162 27163 27164 27165 27166 27167 27168 27169 27170 27171 27172 27173 27174 27175 27176 27177 27178 27179 27180 27181 27182 27183 27184 27185 27186 27187 27188 27189 27190 27191 27192 27193 27194 27195 27196 27197 27198 27199 27200 27201 27202 27203 27204 27205 27206 27207 27208 27209 27210 27211 27212 27213 27214 27215 27216 27217 27218 27219 27220 27221 27222 27223 27224 27225 27226 27227 27228 27229 27230 27231 27232 27233 27234 27235 27236 27237 27238 27239 27240 27241 27242 27243 27244 27245 27246 27247 27248 27249 27250 27251 27252 27253 27254 27255 27256 27257 27258 27259 27260 27261 27262 27263 27264 27265 27266 27267 27268 27269 27270 27271 27272 27273 27274 27275 27276 27277 27278 27279 27280 27281 27282 27283 27284 27285 27286 27287 27288 27289 27290 27291 27292 27293 27294 27295 27296 27297 27298 27299 27300 27301 27302 27303 27304 27305 27306 27307 27308 27309 27310 27311 27312 27313 27314 27315 27316 27317 27318 27319 27320 27321 27322 27323 27324 27325 27326 27327 27328 27329 27330 27331 27332 27333 27334 27335 27336 27337 27338 27339 27340 27341 27342 27343 27344 27345 27346 27347 27348 27349 27350 27351 27352 27353 27354 27355 27356 27357 27358 27359 27360 27361 27362 27363 27364 27365 27366 27367 27368 27369 27370 27371 27372 27373 27374 27375 27376 27377 27378 27379 27380 27381 27382 27383 27384 27385 27386 27387 27388 27389 27390 27391 27392 27393 27394 27395 27396 27397 27398 27399 27400 27401 27402 27403 27404 27405 27406 27407 27408 27409 27410 27411 27412 27413 27414 27415 27416 27417 27418 27419 27420 27421 27422 27423 27424 27425 27426 27427 27428 27429 27430 27431 27432 27433 27434 27435 27436 27437 27438 27439 27440 27441 27442 27443 27444 27445 27446 27447 27448 27449 27450 27451 27452 27453 27454 27455 27456 27457 27458 27459 27460 27461 27462 27463 27464 27465 27466 27467 27468 27469 27470 27471 27472 27473 27474 27475 27476 27477 27478 27479 27480 27481 27482 27483 27484 27485 27486 27487 27488 27489 27490 27491 27492 27493 27494 27495 27496 27497 27498 27499 27500 27501 27502 27503 27504 27505 27506 27507 27508 27509 27510 27511 27512 27513 27514 27515 27516 27517 27518 27519 27520 27521 27522 27523 27524 27525 27526 27527 27528 27529 27530 27531 27532 27533 27534 27535 27536 27537 27538 27539 27540 27541 27542 27543 27544 27545 27546 27547 27548 27549 27550 27551 27552 27553 27554 27555 27556 27557 27558 27559 27560 27561 27562 27563 27564 27565 27566 27567 27568 27569 27570 27571 27572 27573 27574 27575 27576 27577 27578 27579 27580 27581 27582 27583 27584 27585 27586 27587 27588 27589 27590 27591 27592 27593 27594 27595 27596 27597 27598 27599 27600 27601 27602 27603 27604 27605 27606 27607 27608 27609 27610 27611 27612 27613 27614 27615 27616 27617 27618 27619 27620 27621 27622 27623 27624 27625 27626 27627 27628 27629 27630 27631 27632 27633 27634 27635 27636 27637 27638 27639 27640 27641 27642 27643 27644 27645 27646 27647 27648 27649 27650 27651 27652 27653 27654 27655 27656 27657 27658 27659 27660 27661 27662 27663 27664 27665 27666 27667 27668 27669 27670 27671 27672 27673 27674 27675 27676 27677 27678 27679 27680 27681 27682 27683 27684 27685 27686 27687 27688 27689 27690 27691 27692 27693 27694 27695 27696 27697 27698 27699 27700 27701 27702 27703 27704 27705 27706 27707 27708 27709 27710 27711 27712 27713 27714 27715 27716 27717 27718 27719 27720 27721 27722 27723 27724 27725 27726 27727 27728 27729 27730 27731 27732 27733 27734 27735 27736 27737 27738 27739 27740 27741 27742 27743 27744 27745 27746 27747 27748 27749 27750 27751 27752 27753 27754 27755 27756 27757 27758 27759 27760 27761 27762 27763 27764 27765 27766 27767 27768 27769 27770 27771 27772 27773 27774 27775 27776 27777 27778 27779 27780 27781 27782 27783 27784 27785 27786 27787 27788 27789 27790 27791 27792 27793 27794 27795 27796 27797 27798 27799 27800 27801 27802 27803 27804 27805 27806 27807 27808 27809 27810 27811 27812 27813 27814 27815 27816 27817 27818 27819 27820 27821 27822 27823 27824 27825 27826 27827 27828 27829 27830 27831 27832 27833 27834 27835 27836 27837 27838 27839 27840 27841 27842 27843 27844 27845 27846 27847 27848 27849 27850 27851 27852 27853 27854 27855 27856 27857 27858 27859 27860 27861 27862 27863 27864 27865 27866 27867 27868 27869 27870 27871 27872 27873 27874 27875 27876 27877 27878 27879 27880 27881 27882 27883 27884 27885 27886 27887 27888 27889 27890 27891 27892 27893 27894 27895 27896 27897 27898 27899 27900 27901 27902 27903 27904 27905 27906 27907 27908 27909 27910 27911 27912 27913 27914 27915 27916 27917 27918 27919 27920 27921 27922 27923 27924 27925 27926 27927 27928 27929 27930 27931 27932 27933 27934 27935 27936 27937 27938 27939 27940 27941 27942 27943 27944 27945 27946 27947 27948 27949 27950 27951 27952 27953 27954 27955 27956 27957 27958 27959 27960 27961 27962 27963 27964 27965 27966 27967 27968 27969 27970 27971 27972 27973 27974 27975 27976 27977 27978 27979 27980 27981 27982 27983 27984 27985 27986 27987 27988 27989 27990 27991 27992 27993 27994 27995 27996 27997 27998 27999 28000 28001 28002 28003 28004 28005 28006 28007 28008 28009 28010 28011 28012 28013 28014 28015 28016 28017 28018 28019 28020 28021 28022 28023 28024 28025 28026 28027 28028 28029 28030 28031 28032 28033 28034 28035 28036 28037 28038 28039 28040 28041 28042 28043 28044 28045 28046 28047 28048 28049 28050 28051 28052 28053 28054 28055 28056 28057 28058 28059 28060 28061 28062 28063 28064 28065 28066 28067 28068 28069 28070 28071 28072 28073 28074 28075 28076 28077 28078 28079 28080 28081 28082 28083 28084 28085 28086 28087 28088 28089 28090 28091 28092 28093 28094 28095 28096 28097 28098 28099 28100 28101 28102 28103 28104 28105 28106 28107 28108 28109 28110 28111 28112 28113 28114 28115 28116 28117 28118 28119 28120 28121 28122 28123 28124 28125 28126 28127 28128 28129 28130 28131 28132 28133 28134 28135 28136 28137 28138 28139 28140 28141 28142 28143 28144 28145 28146 28147 28148 28149 28150 28151 28152 28153 28154 28155 28156 28157 28158 28159 28160 28161 28162 28163 28164 28165 28166 28167 28168 28169 28170 28171 28172 28173 28174 28175 28176 28177 28178 28179 28180 28181 28182 28183 28184 28185 28186 28187 28188 28189 28190 28191 28192 28193 28194 28195 28196 28197 28198 28199 28200 28201 28202 28203 28204 28205 28206 28207 28208 28209 28210 28211 28212 28213 28214 28215 28216 28217 28218 28219 28220 28221 28222 28223 28224 28225 28226 28227 28228 28229 28230 28231 28232 28233 28234 28235 28236 28237 28238 28239 28240 28241 28242 28243 28244 28245 28246 28247 28248 28249 28250 28251 28252 28253 28254 28255 28256 28257 28258 28259 28260 28261 28262 28263 28264 28265 28266 28267 28268 28269 28270 28271 28272 28273 28274 28275 28276 28277 28278 28279 28280 28281 28282 28283 28284 28285 28286 28287 28288 28289 28290 28291 28292 28293 28294 28295 28296 28297 28298 28299 28300 28301 28302 28303 28304 28305 28306 28307 28308 28309 28310 28311 28312 28313 28314 28315 28316 28317 28318 28319 28320 28321 28322 28323 28324 28325 28326 28327 28328 28329 28330 28331 28332 28333 28334 28335 28336 28337 28338 28339 28340 28341 28342 28343 28344 28345 28346 28347 28348 28349 28350 28351 28352 28353 28354 28355 28356 28357 28358 28359 28360 28361 28362 28363 28364 28365 28366 28367 28368 28369 28370 28371 28372 28373 28374 28375 28376 28377 28378 28379 28380 28381 28382 28383 28384 28385 28386 28387 28388 28389 28390 28391 28392 28393 28394 28395 28396 28397 28398 28399 28400 28401 28402 28403 28404 28405 28406 28407 28408 28409 28410 28411 28412 28413 28414 28415 28416 28417 28418 28419 28420 28421 28422 28423 28424 28425 28426 28427 28428 28429 28430 28431 28432 28433 28434 28435 28436 28437 28438 28439 28440 28441 28442 28443 28444 28445 28446 28447 28448 28449 28450 28451 28452 28453 28454 28455 28456 28457 28458 28459 28460 28461 28462 28463 28464 28465 28466 28467 28468 28469 28470 28471 28472 28473 28474 28475 28476 28477 28478 28479 28480 28481 28482 28483 28484 28485 28486 28487 28488 28489 28490 28491 28492 28493 28494 28495 28496 28497 28498 28499 28500 28501 28502 28503 28504 28505 28506 28507 28508 28509 28510 28511 28512 28513 28514 28515 28516 28517 28518 28519 28520 28521 28522 28523 28524 28525 28526 28527 28528 28529 28530 28531 28532 28533 28534 28535 28536 28537 28538 28539 28540 28541 28542 28543 28544 28545 28546 28547 28548 28549 28550 28551 28552 28553 28554 28555 28556 28557 28558 28559 28560 28561 28562 28563 28564 28565 28566 28567 28568 28569 28570 28571 28572 28573 28574 28575 28576 28577 28578 28579 28580 28581 28582 28583 28584 28585 28586 28587 28588 28589 28590 28591 28592 28593 28594 28595 28596 28597 28598 28599 28600 28601 28602 28603 28604 28605 28606 28607 28608 28609 28610 28611 28612 28613 28614 28615 28616 28617 28618 28619 28620 28621 28622 28623 28624 28625 28626 28627 28628 28629 28630 28631 28632 28633 28634 28635 28636 28637 28638 28639 28640 28641 28642 28643 28644 28645 28646 28647 28648 28649 28650 28651 28652 28653 28654 28655 28656 28657 28658 28659 28660 28661 28662 28663 28664 28665 28666 28667 28668 28669 28670 28671 28672 28673 28674 28675 28676 28677 28678 28679 28680 28681 28682 28683 28684 28685 28686 28687 28688 28689 28690 28691 28692 28693 28694 28695 28696 28697 28698 28699 28700 28701 28702 28703 28704 28705 28706 28707 28708 28709 28710 28711 28712 28713 28714 28715 28716 28717 28718 28719 28720 28721 28722 28723 28724 28725 28726 28727 28728 28729 28730 28731 28732 28733 28734 28735 28736 28737 28738 28739 28740 28741 28742 28743 28744 28745 28746 28747 28748 28749 28750 28751 28752 28753 28754 28755 28756 28757 28758 28759 28760 28761 28762 28763 28764 28765 28766 28767 28768 28769 28770 28771 28772 28773 28774 28775 28776 28777 28778 28779 28780 28781 28782 28783 28784 28785 28786 28787 28788 28789 28790 28791 28792 28793 28794 28795 28796 28797 28798 28799 28800 28801 28802 28803 28804 28805 28806 28807 28808 28809 28810 28811 28812 28813 28814 28815 28816 28817 28818 28819 28820 28821 28822 28823 28824 28825 28826 28827 28828 28829 28830 28831 28832 28833 28834 28835 28836 28837 28838 28839 28840 28841 28842 28843 28844 28845 28846 28847 28848 28849 28850 28851 28852 28853 28854 28855 28856 28857 28858 28859 28860 28861 28862 28863 28864 28865 28866 28867 28868 28869 28870 28871 28872 28873 28874 28875 28876 28877 28878 28879 28880 28881 28882 28883 28884 28885 28886 28887 28888 28889 28890 28891 28892 28893 28894 28895 28896 28897 28898 28899 28900 28901 28902 28903 28904 28905 28906 28907 28908 28909 28910 28911 28912 28913 28914 28915 28916 28917 28918 28919 28920 28921 28922 28923 28924 28925 28926 28927 28928 28929 28930 28931 28932 28933 28934 28935 28936 28937 28938 28939 28940 28941 28942 28943 28944 28945 28946 28947 28948 28949 28950 28951 28952 28953 28954 28955 28956 28957 28958 28959 28960 28961 28962 28963 28964 28965 28966 28967 28968 28969 28970 28971 28972 28973 28974 28975 28976 28977 28978 28979 28980 28981 28982 28983 28984 28985 28986 28987 28988 28989 28990 28991 28992 28993 28994 28995 28996 28997 28998 28999 29000 29001 29002 29003 29004 29005 29006 29007 29008 29009 29010 29011 29012 29013 29014 29015 29016 29017 29018 29019 29020 29021 29022 29023 29024 29025 29026 29027 29028 29029 29030 29031 29032 29033 29034 29035 29036 29037 29038 29039 29040 29041 29042 29043 29044 29045 29046 29047 29048 29049 29050 29051 29052 29053 29054 29055 29056 29057 29058 29059 29060 29061 29062 29063 29064 29065 29066 29067 29068 29069 29070 29071 29072 29073 29074 29075 29076 29077 29078 29079 29080 29081 29082 29083 29084 29085 29086 29087 29088 29089 29090 29091 29092 29093 29094 29095 29096 29097 29098 29099 29100 29101 29102 29103 29104 29105 29106 29107 29108 29109 29110 29111 29112 29113 29114 29115 29116 29117 29118 29119 29120 29121 29122 29123 29124 29125 29126 29127 29128 29129 29130 29131 29132 29133 29134 29135 29136 29137 29138 29139 29140 29141 29142 29143 29144 29145 29146 29147 29148 29149 29150 29151 29152 29153 29154 29155 29156 29157 29158 29159 29160 29161 29162 29163 29164 29165 29166 29167 29168 29169 29170 29171 29172 29173 29174 29175 29176 29177 29178 29179 29180 29181 29182 29183 29184 29185 29186 29187 29188 29189 29190 29191 29192 29193 29194 29195 29196 29197 29198 29199 29200 29201 29202 29203 29204 29205 29206 29207 29208 29209 29210 29211 29212 29213 29214 29215 29216 29217 29218 29219 29220 29221 29222 29223 29224 29225 29226 29227 29228 29229 29230 29231 29232 29233 29234 29235 29236 29237 29238 29239 29240 29241 29242 29243 29244 29245 29246 29247 29248 29249 29250 29251 29252 29253 29254 29255 29256 29257 29258 29259 29260 29261 29262 29263 29264 29265 29266 29267 29268 29269 29270 29271 29272 29273 29274 29275 29276 29277 29278 29279 29280 29281 29282 29283 29284 29285 29286 29287 29288 29289 29290 29291 29292 29293 29294 29295 29296 29297 29298 29299 29300 29301 29302 29303 29304 29305 29306 29307 29308 29309 29310 29311 29312 29313 29314 29315 29316 29317 29318 29319 29320 29321 29322 29323 29324 29325 29326 29327 29328 29329 29330 29331 29332 29333 29334 29335 29336 29337 29338 29339 29340 29341 29342 29343 29344 29345 29346 29347 29348 29349 29350 29351 29352 29353 29354 29355 29356 29357 29358 29359 29360 29361 29362 29363 29364 29365 29366 29367 29368 29369 29370 29371 29372 29373 29374 29375 29376 29377 29378 29379 29380 29381 29382 29383 29384 29385 29386 29387 29388 29389 29390 29391 29392 29393 29394 29395 29396 29397 29398 29399 29400 29401 29402 29403 29404 29405 29406 29407 29408 29409 29410 29411 29412 29413 29414 29415 29416 29417 29418 29419 29420 29421 29422 29423 29424 29425 29426 29427 29428 29429 29430 29431 29432 29433 29434 29435 29436 29437 29438 29439 29440 29441 29442 29443 29444 29445 29446 29447 29448 29449 29450 29451 29452 29453 29454 29455 29456 29457 29458 29459 29460 29461 29462 29463 29464 29465 29466 29467 29468 29469 29470 29471 29472 29473 29474 29475 29476 29477 29478 29479 29480 29481 29482 29483 29484 29485 29486 29487 29488 29489 29490 29491 29492 29493 29494 29495 29496 29497 29498 29499 29500 29501 29502 29503 29504 29505 29506 29507 29508 29509 29510 29511 29512 29513 29514 29515 29516 29517 29518 29519 29520 29521 29522 29523 29524 29525 29526 29527 29528 29529 29530 29531 29532 29533 29534 29535 29536 29537 29538 29539 29540 29541 29542 29543 29544 29545 29546 29547 29548 29549 29550 29551 29552 29553 29554 29555 29556 29557 29558 29559 29560 29561 29562 29563 29564 29565 29566 29567 29568 29569 29570 29571 29572 29573 29574 29575 29576 29577 29578 29579 29580 29581 29582 29583 29584 29585 29586 29587 29588 29589 29590 29591 29592 29593 29594 29595 29596 29597 29598 29599 29600 29601 29602 29603 29604 29605 29606 29607 29608 29609 29610 29611 29612 29613 29614 29615 29616 29617 29618 29619 29620 29621 29622 29623 29624 29625 29626 29627 29628 29629 29630 29631 29632 29633 29634 29635 29636 29637 29638 29639 29640 29641 29642 29643 29644 29645 29646 29647 29648 29649 29650 29651 29652 29653 29654 29655 29656 29657 29658 29659 29660 29661 29662 29663 29664 29665 29666 29667 29668 29669 29670 29671 29672 29673 29674 29675 29676 29677 29678 29679 29680 29681 29682 29683 29684 29685 29686 29687 29688 29689 29690 29691 29692 29693 29694 29695 29696 29697 29698 29699 29700 29701 29702 29703 29704 29705 29706 29707 29708 29709 29710 29711 29712 29713 29714 29715 29716 29717 29718 29719 29720 29721 29722 29723 29724 29725 29726 29727 29728 29729 29730 29731 29732 29733 29734 29735 29736 29737 29738 29739 29740 29741 29742 29743 29744 29745 29746 29747 29748 29749 29750 29751 29752 29753 29754 29755 29756 29757 29758 29759 29760 29761 29762 29763 29764 29765 29766 29767 29768 29769 29770 29771 29772 29773 29774 29775 29776 29777 29778 29779 29780 29781 29782 29783 29784 29785 29786 29787 29788 29789 29790 29791 29792 29793 29794 29795 29796 29797 29798 29799 29800 29801 29802 29803 29804 29805 29806 29807 29808 29809 29810 29811 29812 29813 29814 29815 29816 29817 29818 29819 29820 29821 29822 29823 29824 29825 29826 29827 29828 29829 29830 29831 29832 29833 29834 29835 29836 29837 29838 29839 29840 29841 29842 29843 29844 29845 29846 29847 29848 29849 29850 29851 29852 29853 29854 29855 29856 29857 29858 29859 29860 29861 29862 29863 29864 29865 29866 29867 29868 29869 29870 29871 29872 29873 29874 29875 29876 29877 29878 29879 29880 29881 29882 29883 29884 29885 29886 29887 29888 29889 29890 29891 29892 29893 29894 29895 29896 29897 29898 29899 29900 29901 29902 29903 29904 29905 29906 29907 29908 29909 29910 29911 29912 29913 29914 29915 29916 29917 29918 29919 29920 29921 29922 29923 29924 29925 29926 29927 29928 29929 29930 29931 29932 29933 29934 29935 29936 29937 29938 29939 29940 29941 29942 29943 29944 29945 29946 29947 29948 29949 29950 29951 29952 29953 29954 29955 29956 29957 29958 29959 29960 29961 29962 29963 29964 29965 29966 29967 29968 29969 29970 29971 29972 29973 29974 29975 29976 29977 29978 29979 29980 29981 29982 29983 29984 29985 29986 29987 29988 29989 29990 29991 29992 29993 29994 29995 29996 29997 29998 29999 30000 30001 30002 30003 30004 30005 30006 30007 30008 30009 30010 30011 30012 30013 30014 30015 30016 30017 30018 30019 30020 30021 30022 30023 30024 30025 30026 30027 30028 30029 30030 30031 30032 30033 30034 30035 30036 30037 30038 30039 30040 30041 30042 30043 30044 30045 30046 30047 30048 30049 30050 30051 30052 30053 30054 30055 30056 30057 30058 30059 30060 30061 30062 30063 30064 30065 30066 30067 30068 30069 30070 30071 30072 30073 30074 30075 30076 30077 30078 30079 30080 30081 30082 30083 30084 30085 30086 30087 30088 30089 30090 30091 30092 30093 30094 30095 30096 30097 30098 30099 30100 30101 30102 30103 30104 30105 30106 30107 30108 30109 30110 30111 30112 30113 30114 30115 30116 30117 30118 30119 30120 30121 30122 30123 30124 30125 30126 30127 30128 30129 30130 30131 30132 30133 30134 30135 30136 30137 30138 30139 30140 30141 30142 30143 30144 30145 30146 30147 30148 30149 30150 30151 30152 30153 30154 30155 30156 30157 30158 30159 30160 30161 30162 30163 30164 30165 30166 30167 30168 30169 30170 30171 30172 30173 30174 30175 30176 30177 30178 30179 30180 30181 30182 30183 30184 30185 30186 30187 30188 30189 30190 30191 30192 30193 30194 30195 30196 30197 30198 30199 30200 30201 30202 30203 30204 30205 30206 30207 30208 30209 30210 30211 30212 30213 30214 30215 30216 30217 30218 30219 30220 30221 30222 30223 30224 30225 30226 30227 30228 30229 30230 30231 30232 30233 30234 30235 30236 30237 30238 30239 30240 30241 30242 30243 30244 30245 30246 30247 30248 30249 30250 30251 30252 30253 30254 30255 30256 30257 30258 30259 30260 30261 30262 30263 30264 30265 30266 30267 30268 30269 30270 30271 30272 30273 30274 30275 30276 30277 30278 30279 30280 30281 30282 30283 30284 30285 30286 30287 30288 30289 30290 30291 30292 30293 30294 30295 30296 30297 30298 30299 30300 30301 30302 30303 30304 30305 30306 30307 30308 30309 30310 30311 30312 30313 30314 30315 30316 30317 30318 30319 30320 30321 30322 30323 30324 30325 30326 30327 30328 30329 30330 30331 30332 30333 30334 30335 30336 30337 30338 30339 30340 30341 30342 30343 30344 30345 30346 30347 30348 30349 30350 30351 30352 30353 30354 30355 30356 30357 30358 30359 30360 30361 30362 30363 30364 30365 30366 30367 30368 30369 30370 30371 30372 30373 30374 30375 30376 30377 30378 30379 30380 30381 30382 30383 30384 30385 30386 30387 30388 30389 30390 30391 30392 30393 30394 30395 30396 30397 30398 30399 30400 30401 30402 30403 30404 30405 30406 30407 30408 30409 30410 30411 30412 30413 30414 30415 30416 30417 30418 30419 30420 30421 30422 30423 30424 30425 30426 30427 30428 30429 30430 30431 30432 30433 30434 30435 30436 30437 30438 30439 30440 30441 30442 30443 30444 30445 30446 30447 30448 30449 30450 30451 30452 30453 30454 30455 30456 30457 30458 30459 30460 30461 30462 30463 30464 30465 30466 30467 30468 30469 30470 30471 30472 30473 30474 30475 30476 30477 30478 30479 30480 30481 30482 30483 30484 30485 30486 30487 30488 30489 30490 30491 30492 30493 30494 30495 30496 30497 30498 30499 30500 30501 30502 30503 30504 30505 30506 30507 30508 30509 30510 30511 30512 30513 30514 30515 30516 30517 30518 30519 30520 30521 30522 30523 30524 30525 30526 30527 30528 30529 30530 30531 30532 30533 30534 30535 30536 30537 30538 30539 30540 30541 30542 30543 30544 30545 30546 30547 30548 30549 30550 30551 30552 30553 30554 30555 30556 30557 30558 30559 30560 30561 30562 30563 30564 30565 30566 30567 30568 30569 30570 30571 30572 30573 30574 30575 30576 30577 30578 30579 30580 30581 30582 30583 30584 30585 30586 30587 30588 30589 30590 30591 30592 30593 30594 30595 30596 30597 30598 30599 30600 30601 30602 30603 30604 30605 30606 30607 30608 30609 30610 30611 30612 30613 30614 30615 30616 30617 30618 30619 30620 30621 30622 30623 30624 30625 30626 30627 30628 30629 30630 30631 30632 30633 30634 30635 30636 30637 30638 30639 30640 30641 30642 30643 30644 30645 30646 30647 30648 30649 30650 30651 30652 30653 30654 30655 30656 30657 30658 30659 30660 30661 30662 30663 30664 30665 30666 30667 30668 30669 30670 30671 30672 30673 30674 30675 30676 30677 30678 30679 30680 30681 30682 30683 30684 30685 30686 30687 30688 30689 30690 30691 30692 30693 30694 30695 30696 30697 30698 30699 30700 30701 30702 30703 30704 30705 30706 30707 30708 30709 30710 30711 30712 30713 30714 30715 30716 30717 30718 30719 30720 30721 30722 30723 30724 30725 30726 30727 30728 30729 30730 30731 30732 30733 30734 30735 30736 30737 30738 30739 30740 30741 30742 30743 30744 30745 30746 30747 30748 30749 30750 30751 30752 30753 30754 30755 30756 30757 30758 30759 30760 30761 30762 30763 30764 30765 30766 30767 30768 30769 30770 30771 30772 30773 30774 30775 30776 30777 30778 30779 30780 30781 30782 30783 30784 30785 30786 30787 30788 30789 30790 30791 30792 30793 30794 30795 30796 30797 30798 30799 30800 30801 30802 30803 30804 30805 30806 30807 30808 30809 30810 30811 30812 30813 30814 30815 30816 30817 30818 30819 30820 30821 30822 30823 30824 30825 30826 30827 30828 30829 30830 30831 30832 30833 30834 30835 30836 30837 30838 30839 30840 30841 30842 30843 30844 30845 30846 30847 30848 30849 30850 30851 30852 30853 30854 30855 30856 30857 30858 30859 30860 30861 30862 30863 30864 30865 30866 30867 30868 30869 30870 30871 30872 30873 30874 30875 30876 30877 30878 30879 30880 30881 30882 30883 30884 30885 30886 30887 30888 30889 30890 30891 30892 30893 30894 30895 
</DataArray>
<DataArray type="UInt32" Name="offsets" format="ascii">
3 6 8 11 14 17 20 23 26 29 31 33 36 39 42 45 48 51 54 56 59 62 65 68 71 74 77 80 83 86 89 92 95 98 101 104 106 109 112 114 117 120 123 125 128 131 134 137 140 143 146 149 152 154 157 160 163 166 169 172 175 178 180 183 186 189 191 194 197 200 203 205 208 211 214 217 219 222 225 228 231 234 237 239 242 245 248 251 254 257 260 263 266 269 271 274 277 279 282 285 288 291 294 297 300 303 306 309 311 314 316 319 322 325 328 331 334 336 339 342 345 348 351 354 357 360 363 366 369 372 375 378 380 383 386 389 392 395 398 401 404 407 410 413 416 419 422 424 427 430 433 436 438 441 443 446 449 452 455 458 461 463 466 468 470 473 476 479 482 484 487 490 493 495 497 500 502 505 508 511 513 516 519 522 525 528 531 533 536 539 542 545 547 549 552 555 558 561 564 566 569 572 575 578 581 583 585 588 591 594 597 600 603 605 608 611 614 617 620 623 626 629 631 634 637 640 643 646 649 652 655 658 661 664 667 670 673 676 679 682 685 688 691 694 697 700 703 706 709 712 715 718 721 724 726 729 732 735 737 740 743 746 749 752 755 758 760 762 764 766 769 772 775 778 781 784 787 790 793 796 799 802 805 808 811 814 817 820 823 826 829 832 834 837 840 843 846 849 852 855 858 861 864 867 870 873 876 879 882 885 888 891 894 897 900 903 906 909 912 915 917 920 923 926 929 932 935 938 941 944 947 950 953 956 959 962 965 968 971 974 977 980 983 986 989 992 995 998 1001 1004 1006 1009 1011 1014 1016 1019 1022 1025 1028 1031 1034 1037 1039 1042 1045 1048 1050 1053 1056 1059 1062 1065 1068 1070 1073 1076 1079 1082 1085 1088 1090 1093 1096 1099 1102 1105 1108 1111 1114 1117 1120 1123 1126 1129 1132 1135 1138 1140 1142 1144 1147 1149 1152 1155 1158 1160 1162 1165 1168 1171 1174 1177 1180 1183 1186 1189 1192 1195 1198 1201 1204 1207 1210 1213 1216 1219 1222 1225 1228 1231 1234 1237 1240 1243 1246 1249 1252 1255 1258 1261 1264 1266 1269 1272 1275 1278 1280 1283 1286 1289 1292 1294 1297 1300 1303 1306 1309 1311 1314 1317 1320 1323 1326 1329 1332 1335 1337 1340 1343 1346 1349 1351 1354 1357 1360 1363 1366 1368 1371 1374 1377 1380 1383 1385 1387 1390 1393 1396 1399 1402 1405 1408 1410 1413 1416 1418 1421 1424 1427 1430 1433 1435 1437 1440 1443 1446 1449 1452 1455 1457 1460 1463 1466 1468 1471 1474 1477 1480 1483 1486 1489 1491 1493 1496 1499 1502 1505 1508 1511 1514 1517 1519 1522 1525 1528 1530 1533 1536 1539 1541 1544 1547 1550 1553 1556 1559 1562 1565 1568 1571 1574 1577 1580 1583 1586 1589 1592 1595 1597 1600 1602 1605 1608 1611 1614 1617 1620 1622 1625 1627 1630 1633 1635 1638 1641 1644 1647 1649 1652 1654 1657 1660 1663 1666 1668 1671 1674 1677 1680 1683 1686 1689 1692 1694 1697 1700 1702 1705 1708 1711 1714 1717 1720 1723 1726 1729 1731 1734 1736 1739 1742 1744 1747 1750 1753 1756 1758 1761 1764 1766 1769 1772 1774 1777 1780 1782 1785 1787 1790 1792 1795 1798 1800 1802 1805 1808 1811 1814 1817 1820 1823 1826 1829 1832 1835 1838 1841 1844 1847 1850 1852 1855 1858 1861 1864 1867 1870 1873 1876 1879 1882 1885 1888 1891 1894 1897 1900 1902 1905 1908 1911 1913 1915 1917 1920 1923 1926 1929 1932 1934 1937 1940 1943 1946 1948 1950 1953 1956 1959 1962 1964 1967 1970 1973 1975 1978 1980 1982 1985 1988 1990 1993 1996 1998 2001 2004 2007 2010 2013 2015 2018 2021 2024 2027 2030 2033 2036 2039 2042 2045 2047 2049 2052 2055 2058 2061 2064 2067 2070 2073 2075 2078 2081 2084 2087 2089 2092 2095 2098 2101 2104 2107 2110 2113 2116 2119 2122 2125 2128 2131 2134 2137 2139 2142 2145 2148 2151 2154 2157 2160 2163 2166 2169 2172 2175 2178 2181 2184 2187 2190 2193 2196 2199 2202 2204 2207 2210 2213 2216 2219 2222 2225 2227 2229 2232 2235 2238 2241 2244 2247 2250 2253 2256 2259 2261 2264 2267 2270 2273 2275 2278 2281 2284 2287 2290 2293 2296 2299 2302 2305 2307 2310 2313 2316 2319 2322 2325 2328 2331 2334 2336 2338 2341 2344 2347 2350 2353 2356 2359 2362 2365 2368 2371 2374 2376 2379 2382 2384 2387 2389 2392 2395 2397 2400 2403 2406 2409 2412 2415 2418 2421 2424 2427 2429 2432 2434 2437 2439 2442 2445 2448 2451 2454 2457 2459 2462 2465 2468 2470 2473 2476 2478 2481 2484 2487 2489 2491 2494 2497 2500 2503 2506 2509 2512 2515 2518 2521 2524 2527 2530 2533 2536 2539 2542 2545 2548 2551 2554 2557 2560 2563 2565 2568 2571 2574 2576 2579 2582 2585 2588 2591 2593 2596 2599 2602 2604 2607 2610 2613 2616 2619 2622 2625 2627 2630 2633 2636 2639 2642 2645 2647 2650 2653 2655 2658 2661 2664 2667 2670 2673 2675 2678 2681 2683 2686 2689 2692 2695 2698 2701 2704 2707 2710 2712 2715 2718 2721 2724 2727 2730 2733 2736 2739 2742 2745 2748 2751 2754 2757 2760 2763 2766 2769 2772 2775 2777 2780 2783 2785 2787 2790 2793 2796 2799 2802 2805 2808 2811 2814 2817 2820 2823 2826 2829 2832 2835 2838 2841 2844 2847 2849 2852 2855 2857 2860 2863 2866 2868 2871 2874 2877 2880 2883 2886 2889 2891 2894 2897 2900 2902 2905 2908 2911 2913 2915 2917 2920 2923 2926 2929 2932 2934 2937 2940 2942 2945 2948 2950 2953 2956 2959 2962 2964 2967 2970 2973 2976 2979 2981 2984 2987 2989 2992 2995 2998 3001 3004 3006 3009 3012 3015 3018 3021 3024 3026 3029 3032 3034 3037 3039 3042 3045 3048 3050 3053 3056 3059 3062 3065 3068 3071 3074 3077 3079 3082 3085 3088 3091 3093 3096 3099 3101 3104 3106 3109 3112 3115 3118 3121 3124 3127 3129 3132 3135 3138 3141 3144 3147 3150 3152 3155 3158 3160 3163 3166 3169 3172 3175 3178 3180 3183 3186 3189 3192 3194 3196 3198 3201 3203 3206 3209 3212 3215 3218 3221 3224 3227 3230 3232 3235 3238 3241 3244 3247 3250 3252 3255 3258 3261 3264 3267 3269 3272 3275 3278 3281 3284 3286 3289 3292 3295 3298 3300 3303 3306 3309 3311 3314 3317 3320 3323 3326 3329 3332 3335 3337 3340 3343 3345 3347 3350 3353 3356 3359 3361 3364 3367 3370 3373 3376 3379 3382 3385 3387 3390 3393 3395 3398 3401 3404 3407 3410 3412 3415 3418 3420 3423 3426 3429 3432 3435 3438 3441 3444 3447 3450 3453 3456 3458 3461 3463 3466 3469 3472 3475 3478 3480 3483 3486 3489 3491 3494 3497 3499 3502 3505 3508 3511 3514 3517 3520 3523 3526 3529 3531 3534 3536 3539 3542 3545 3548 3551 3554 3557 3560 3563 3566 3569 3572 3575 3578 3581 3584 3587 3589 3592 3595 3598 3600 3603 3606 3609 3611 3614 3617 3620 3623 3626 3629 3632 3635 3638 3641 3644 3647 3650 3653 3656 3659 3662 3665 3668 3671 3673 3676 3678 3681 3684 3687 3690 3693 3696 3699 3702 3705 3708 3711 3714 3717 3719 3722 3725 3728 3731 3734 3737 3740 3743 3746 3749 3752 3755 3758 3761 3764 3767 3770 3773 3776 3779 3782 3785 3788 3791 3794 3797 3800 3803 3806 3809 3812 3815 3818 3821 3824 3827 3830 3833 3836 3839 3842 3845 3848 3851 3854 3857 3860 3863 3866 3868 3870 3873 3876 3879 3882 3885 3888 3891 3894 3897 3900 3903 3906 3909 3911 3914 3917 3919 3922 3925 3927 3930 3933 3936 3938 3941 3944 3946 3949 3952 3955 3958 3961 3964 3967 3970 3973 3976 3979 3982 3985 3988 3991 3994 3997 4000 4003 4005 4008 4011 4014 4017 4020 4022 4025 4028 4031 4034 4037 4040 4043 4046 4049 4052 4055 4058 4061 4064 4067 4070 4073 4076 4079 4081 4083 4086 4089 4092 4095 4098 4101 4104 4107 4110 4113 4116 4119 4121 4124 4126 4129 4132 4135 4138 4141 4144 4147 4150 4153 4156 4159 4162 4165 4168 4171 4173 4176 4179 4182 4185 4188 4190 4192 4195 4198 4201 4204 4207 4210 4213 4216 4219 4222 4225 4228 4231 4234 4237 4240 4243 4246 4249 4252 4255 4258 4261 4264 4267 4270 4273 4276 4279 4282 4284 4287 4290 4293 4296 4299 4301 4304 4307 4310 4313 4316 4319 4322 4324 4327 4330 4333 4336 4338 4341 4344 4347 4350 4353 4356 4359 4362 4364 4367 4370 4373 4375 4377 4380 4383 4386 4389 4391 4394 4397 4400 4402 4404 4407 4410 4413 4416 4419 4422 4425 4428 4431 4434 4437 4440 4443 4446 4449 4452 4455 4458 4461 4464 4467 4470 4473 4475 4478 4480 4483 4486 4489 4492 4495 4498 4501 4504 4506 4509 4511 4514 4517 4520 4522 4525 4528 4530 4533 4536 4538 4541 4543 4546 4549 4552 4555 4558 4561 4564 4567 4570 4573 4576 4579 4582 4584 4587 4590 4593 4596 4598 4601 4604 4606 4609 4611 4614 4617 4619 4622 4625 4628 4631 4634 4637 4640 4643 4646 4649 4652 4655 4658 4661 4663 4666 4669 4672 4675 4678 4681 4684 4686 4689 4692 4695 4698 4701 4703 4706 4709 4712 4715 4718 4721 4724 4727 4730 4733 4736 4739 4742 4745 4748 4751 4754 4757 4760 4763 4766 4768 4771 4774 4777 4780 4783 4785 4788 4791 4793 4796 4799 4802 4805 4808 4811 4813 4816 4818 4821 4824 4827 4830 4832 4835 4838 4841 4844 4846 4849 4851 4853 4856 4858 4861 4863 4865 4868 4871 4873 4875 4878 4881 4884 4887 4890 4893 4896 4899 4902 4905 4908 4911 4913 4916 4919 4921 4924 4927 4930 4933 4936 4939 4942 4945 4948 4951 4954 4957 4959 4961 4963 4966 4969 4972 4974 4976 4979 4981 4984 4987 4989 4992 4995 4997 5000 5003 5006 5009 5012 5015 5018 5021 5024 5027 5030 5033 5036 5039 5042 5045 5048 5051 5054 5057 5060 5063 5066 5069 5072 5075 5078 5081 5084 5087 5090 5093 5095 5098 5101 5104 5107 5110 5113 5116 5119 5121 5124 5127 5129 5132 5135 5138 5141 5144 5147 5150 5152 5155 5158 5161 5164 5167 5170 5173 5176 5179 5182 5184 5187 5190 5193 5196 5198 5200 5203 5206 5209 5212 5215 5218 5220 5223 5226 5229 5232 5235 5238 5241 5244 5247 5250 5253 5256 5259 5262 5265 5268 5271 5274 5277 5280 5282 5285 5288 5291 5294 5296 5299 5302 5304 5307 5310 5313 5316 5319 5322 5325 5328 5331 5334 5337 5340 5343 5346 5349 5352 5355 5358 5361 5363 5366 5369 5371 5374 5377 5380 5383 5385 5387 5390 5393 5395 5398 5401 5404 5406 5409 5412 5415 5418 5421 5424 5427 5429 5432 5435 5438 5441 5444 5446 5449 5452 5455 5458 5461 5464 5467 5470 5473 5476 5479 5482 5485 5488 5491 5494 5497 5500 5503 5505 5508 5511 5514 5517 5520 5523 5526 5529 5532 5535 5538 5541 5544 5546 5549 5552 5555 5558 5560 5563 5566 5569 5572 5575 5578 5581 5584 5587 5590 5593 5596 5599 5602 5605 5608 5611 5614 5617 5620 5623 5626 5629 5632 5635 5638 5641 5644 5647 5649 5652 5655 5658 5660 5663 5666 5669 5672 5675 5677 5680 5683 5686 5689 5692 5695 5698 5701 5704 5707 5710 5713 5716 5719 5722 5725 5728 5731 5734 5737 5740 5743 5746 5749 5752 5755 5758 5761 5764 5767 5770 5773 5776 5779 5782 5785 5788 5791 5794 5797 5800 5803 5806 5809 5812 5815 5818 5821 5824 5827 5830 5833 5836 5839 5841 5844 5847 5850 5853 5855 5858 5861 5864 5867 5870 5872 5874 5877 5880 5883 5886 5889 5892 5894 5897 5900 5903 5906 5909 5912 5915 5918 5920 5923 5926 5928 5931 5934 5937 5940 5943 5946 5949 5951 5954 5957 5960 5962 5965 5968 5971 5973 5975 5978 5981 5984 5987 5989 5992 5995 5997 6000 6003 6006 6009 6012 6015 6018 6021 6024 6027 6029 6032 6035 6038 6041 6043 6046 6049 6052 6055 6058 6060 6063 6066 6069 6072 6075 6078 6081 6084 6087 6090 6093 6095 6098 6101 6104 6106 6109 6111 6114 6117 6120 6123 6126 6129 6131 6134 6137 6140 6143 6146 6148 6151 6154 6156 6159 6162 6165 6168 6171 6174 6177 6180 6183 6186 6189 6192 6195 6198 6201 6204 6207 6210 6213 6216 6219 6222 6225 6228 6231 6234 6237 6240 6243 6246 6249 6252 6255 6258 6261 6264 6266 6269 6272 6274 6277 6279 6282 6285 6288 6291 6294 6297 6300 6303 6306 6309 6312 6315 6317 6319 6322 6325 6328 6331 6334 6337 6340 6343 6346 6349 6352 6355 6358 6361 6364 6367 6370 6373 6376 6379 6382 6385 6388 6391 6394 6397 6400 6403 6406 6409 6412 6415 6418 6421 6424 6427 6430 6433 6436 6439 6442 6445 6448 6451 6454 6457 6460 6463 6466 6469 6471 6474 6477 6480 6483 6486 6489 6491 6494 6497 6500 6503 6506 6508 6511 6514 6517 6520 6522 6525 6528 6530 6533 6535 6538 6541 6544 6547 6550 6553 6556 6559 6561 6564 6566 6569 6572 6575 6578 6581 6584 6587 6590 6593 6596 6599 6602 6605 6607 6610 6612 6614 6617 6620 6623 6626 6629 6631 6634 6637 6640 6643 6646 6649 6651 6654 6657 6660 6662 6665 6668 6671 6674 6677 6680 6683 6686 6689 6692 6695 6698 6701 6704 6707 6710 6713 6716 6719 6722 6725 6728 6730 6733 6736 6739 6742 6745 6748 6750 6753 6756 6759 6762 6764 6766 6769 6772 6775 6778 6781 6784 6787 6790 6793 6796 6799 6802 6805 6808 6811 6814 6817 6820 6823 6826 6829 6831 6833 6836 6839 6842 6845 6848 6851 6854 6857 6860 6863 6866 6869 6872 6875 6878 6881 6884 6887 6890 6893 6896 6899 6902 6905 6908 6911 6914 6917 6920 6923 6926 6929 6932 6935 6938 6941 6944 6947 6950 6952 6955 6958 6960 6963 6966 6969 6971 6974 6977 6980 6983 6986 6988 6991 6993 6996 6999 7002 7005 7008 7010 7013 7015 7018 7020 7023 7025 7028 7031 7034 7037 7039 7042 7045 7048 7050 7053 7056 7059 7061 7064 7067 7070 7073 7076 7079 7082 7084 7087 7089 7092 7095 7098 7100 7103 7106 7109 7111 7114 7117 7120 7123 7126 7129 7132 7135 7138 7141 7144 7147 7149 7152 7155 7158 7161 7164 7166 7168 7171 7174 7177 7180 7182 7185 7187 7190 7193 7196 7198 7201 7204 7206 7209 7212 7215 7217 7220 7223 7226 7229 7232 7235 7238 7241 7244 7246 7249 7251 7254 7256 7259 7262 7265 7268 7271 7274 7277 7280 7282 7284 7287 7290 7293 7296 7299 7302 7305 7307 7310 7313 7316 7319 7322 7325 7328 7331 7333 7336 7338 7341 7344 7347 7349 7352 7355 7357 7360 7363 7365 7367 7370 7373 7375 7378 7381 7384 7387 7390 7393 7396 7399 7402 7405 7408 7410 7413 7416 7419 7422 7425 7428 7431 7434 7437 7440 7443 7446 7449 7452 7455 7457 7460 7463 7465 7468 7471 7473 7476 7479 7482 7485 7488 7490 7493 7496 7499 7501 7504 7506 7509 7512 7515 7517 7520 7523 7526 7528 7531 7534 7537 7540 7543 7546 7549 7552 7555 7558 7561 7564 7567 7570 7573 7576 7579 7582 7584 7587 7589 7592 7595 7598 7601 7604 7607 7610 7613 7616 7619 7622 7625 7628 7631 7634 7637 7640 7643 7646 7649 7652 7655 7658 7661 7664 7667 7669 7672 7675 7678 7681 7684 7687 7690 7693 7696 7699 7702 7705 7708 7711 7714 7717 7720 7722 7725 7727 7730 7732 7735 7737 7739 7742 7745 7748 7750 7753 7756 7758 7760 7763 7766 7769 7772 7775 7778 7781 7783 7786 7789 7791 7794 7796 7799 7802 7805 7807 7810 7813 7815 7818 7821 7824 7827 7830 7833 7835 7838 7841 7843 7846 7848 7851 7854 7856 7859 7861 7864 7867 7870 7872 7874 7877 7880 7882 7884 7887 7889 7892 7895 7898 7901 7904 7907 7910 7913 7916 7919 7922 7925 7927 7930 7933 7936 7939 7942 7945 7948 7951 7954 7957 7960 7963 7966 7969 7972 7975 7978 7981 7984 7987 7990 7993 7996 7999 8002 8005 8008 8010 8013 8016 8019 8022 8025 8028 8031 8033 8036 8039 8042 8045 8048 8050 8053 8056 8059 8062 8065 8067 8070 8073 8076 8078 8080 8082 8085 8088 8091 8093 8096 8099 8102 8105 8107 8110 8113 8116 8119 8121 8124 8127 8129 8132 8135 8138 8141 8144 8147 8150 8153 8156 8158 8160 8163 8166 8169 8172 8175 8178 8181 8184 8187 8189 8192 8195 8198 8201 8204 8207 8210 8213 8215 8217 8220 8223 8226 8229 8232 8235 8238 8241 8244 8247 8250 8253 8256 8258 8261 8264 8267 8270 8273 8276 8279 8282 8285 8288 8290 8293 8296 8298 8301 8304 8307 8310 8312 8315 8318 8321 8324 8327 8330 8333 8336 8339 8342 8345 8348 8351 8354 8357 8360 8363 8366 8369 8372 8375 8378 8381 8384 8387 8390 8393 8396 8399 8402 8405 8408 8411 8414 8417 8420 8423 8426 8429 8432 8435 8438 8441 8444 8447 8449 8452 8455 8458 8461 8464 8467 8470 8473 8476 8479 8482 8485 8488 8491 8494 8497 8500 8503 8506 8509 8512 8515 8518 8521 8524 8527 8530 8533 8536 8539 8542 8545 8548 8551 8554 8557 8560 8563 8565 8568 8570 8573 8576 8579 8582 8584 8587 8589 8592 8595 8598 8601 8604 8607 8610 8613 8616 8619 8622 8625 8628 8631 8634 8637 8640 8643 8646 8649 8652 8655 8658 8661 8664 8667 8670 8672 8675 8678 8680 8683 8686 8689 8692 8695 8698 8701 8704 8707 8710 8713 8715 8718 8720 8723 8726 8728 8731 8733 8736 8739 8741 8743 8746 8749 8752 8755 8757 8760 8763 8765 8768 8771 8774 8777 8780 8783 8786 8789 8792 8795 8798 8800 8802 8805 8807 8810 8812 8815 8818 8820 8822 8825 8828 8831 8834 8837 8840 8843 8846 8849 8852 8855 8857 8860 8863 8866 8869 8872 8875 8878 8881 8884 8887 8890 8893 8896 8899 8902 8905 8908 8911 8914 8917 8919 8922 8925 8928 8930 8933 8936 8939 8942 8944 8947 8950 8952 8954 8957 8960 8962 8965 8967 8970 8973 8976 8979 8981 8984 8986 8989 8992 8994 8997 9000 9003 9005 9008 9011 9013 9016 9019 9022 9025 9028 9030 9033 9036 9039 9042 9045 9048 9051 9054 9057 9060 9063 9066 9069 9072 9075 9078 9080 9083 9085 9088 9090 9093 9095 9098 9100 9103 9105 9108 9110 9113 9115 9118 9121 9124 9127 9130 9133 9136 9139 9142 9145 9148 9150 9153 9156 9159 9162 9165 9168 9171 9174 9177 9180 9183 9186 9189 9192 9194 9197 9200 9203 9206 9209 9212 9215 9218 9221 9224 9227 9230 9233 9236 9239 9242 9245 9248 9251 9254 9257 9260 9263 9266 9269 9272 9275 9278 9281 9284 9287 9290 9293 9296 9299 9302 9305 9307 9310 9313 9316 9319 9322 9325 9328 9331 9334 9336 9339 9342 9345 9348 9351 9354 9356 9359 9362 9365 9368 9371 9374 9377 9380 9383 9386 9389 9392 9395 9398 9401 9404 9407 9410 9413 9416 9418 9421 9424 9427 9430 9433 9436 9438 9440 9443 9446 9449 9452 9455 9458 9461 9464 9467 9469 9472 9475 9478 9481 9484 9487 9490 9493 9496 9499 9502 9505 9508 9511 9514 9517 9520 9523 9526 9529 9532 9535 9537 9540 9543 9545 9548 9551 9554 9557 9559 9562 9565 9568 9571 9574 9577 9580 9583 9586 9589 9592 9595 9598 9601 9604 9607 9610 9612 9615 9618 9621 9624 9627 9630 9633 9636 9639 9642 9645 9648 9651 9654 9657 9660 9662 9665 9667 9670 9673 9676 9678 9681 9683 9686 9689 9692 9695 9698 9700 9703 9706 9709 9712 9714 9717 9720 9722 9724 9727 9730 9733 9736 9739 9742 9745 9748 9751 9754 9757 9760 9763 9766 9769 9772 9775 9778 9780 9783 9786 9789 9792 9795 9798 9801 9804 9807 9810 9813 9816 9819 9822 9825 9828 9831 9834 9836 9839 9841 9844 9847 9850 9853 9856 9859 9862 9864 9867 9870 9873 9876 9879 9882 9885 9887 9890 9893 9896 9899 9901 9904 9907 9910 9913 9916 9919 9922 9925 9928 9931 9934 9937 9939 9942 9945 9948 9951 9953 9956 9959 9961 9964 9967 9970 9973 9976 9979 9982 9985 9988 9991 9994 9997 10000 10002 10005 10008 10011 10014 10017 10020 10023 10025 10028 10031 10034 10037 10039 10041 10044 10046 10049 10052 10055 10057 10060 10063 10066 10068 10071 10074 10077 10080 10083 10086 10089 10092 10095 10098 10101 10104 10107 10110 10112 10114 10116 10119 10122 10124 10126 10129 10132 10135 10138 10141 10143 10146 10149 10152 10155 10158 10161 10164 10167 10170 10173 10176 10179 10182 10184 10186 10189 10191 10194 10197 10199 10202 10205 10208 10211 10214 10216 10219 10222 10225 10228 10231 10233 10236 10239 10242 10245 10248 10251 10253 10255 10258 10261 10263 10266 10269 10271 10274 10276 10279 10282 10285 10288 10291 10293 10295 10298 10301 10303 10305 10308 10311 10314 10317 10320 10323 10326 10329 10331 10334 10337 10340 10343 10346 10349 10351 10354 10356 10358 10361 10364 10367 10369 10372 10375 10377 10380 10382 10385 10388 10391 10394 10397 10400 10403 10406 10408 10411 10414 10417 10420 10423 10425 10428 10431 10433 10436 10439 10441 10444 10447 10449 10452 10454 10457 10459 10462 10465 10468 10471 10474 10476 10479 10481 10484 10487 10490 10493 10496 10499 10502 10505 10507 10510 10512 10515 10518 10521 10523 10526 10529 10532 10535 10538 10541 10544 10547 10549 10552 10555 10558 10561 10563 10566 10569 10572 10575 10578 10581 10584 10587 10590 10593 10595 10598 10601 10604 10606 10608 10611 10614 10616 10619 10622 10625 10628 10631 10634 10637 10640 10643 10646 10649 10652 10655 10658 10660 10663 10666 10669 10672 10675 10678 10681 10683 10686 10689 10692 10695 10698 10701 10704 10707 10710 10713 10716 10719 10722 10725 10728 10731 10734 10737 10740 10743 10745 10748 10751 10753 10755 10757 10760 10763 10765 10768 10771 10773 10776 10779 10782 10785 10788 10791 10794 10797 10800 10803 10806 10809 10812 10815 10818 10821 10824 10827 10830 10833 10836 10839 10842 10845 10848 10851 10854 10857 10860 10863 10866 10869 10872 10875 10878 10881 10884 10887 10890 10893 10895 10898 10900 10903 10906 10909 10912 10915 10918 10921 10924 10927 10930 10933 10936 10939 10942 10945 10948 10951 10954 10957 10960 10963 10966 10968 10971 10973 10976 10978 10981 10984 10987 10990 10993 10996 10999 11002 11005 11007 11010 11012 11015 11018 11020 11023 11026 11029 11032 11035 11038 11041 11043 11046 11049 11052 11055 11058 11061 11064 11067 11070 11073 11076 11079 11081 11084 11087 11090 11093 11096 11099 11102 11105 11108 11111 11114 11117 11120 11123 11126 11129 11132 11135 11137 11140 11143 11146 11149 11152 11155 11157 11159 11162 11164 11167 11170 11173 11176 11179 11182 11184 11187 11190 11192 11195 11198 11201 11203 11206 11209 11212 11215 11218 11221 11223 11226 11229 11232 11234 11237 11240 11243 11246 11249 11252 11255 11257 11260 11263 11266 11269 11271 11274 11277 11280 11283 11286 11289 11292 11294 11297 11300 11303 11306 11308 11311 11314 11316 11319 11322 11324 11327 11330 11332 11335 11337 11340 11343 11346 11349 11352 11355 11358 11361 11364 11367 11369 11371 11374 11377 11379 11382 11385 11388 11391 11394 11397 11399 11402 11405 11408 11411 11414 11417 11420 11422 11425 11428 11430 11433 11436 11439 11442 11445 11448 11451 11454 11456 11459 11462 11465 11468 11470 11473 11475 11478 11480 11483 11486 11488 11491 11494 11497 11500 11503 11506 11508 11511 11514 11517 11520 11523 11526 11528 11531 11534 11537 11540 11542 11545 11548 11551 11554 11557 11560 11563 11566 11569 11572 11575 11578 11581 11584 11587 11590 11593 11596 11599 11602 11605 11608 11611 11614 11617 11620 11623 11626 11629 11632 11635 11638 11641 11644 11647 11650 11652 11655 11658 11661 11663 11666 11669 11672 11675 11678 11681 11684 11687 11690 11693 11696 11699 11702 11705 11708 11711 11714 11717 11720 11723 11726 11729 11732 11735 11738 11741 11744 11747 11750 11753 11756 11759 11762 11765 11767 11770 11773 11776 11779 11781 11784 11787 11790 11793 11796 11799 11802 11805 11808 11811 11814 11817 11820 11823 11826 11829 11832 11834 11837 11840 11843 11846 11849 11852 11855 11858 11861 11864 11867 11870 11873 11876 11879 11882 11885 11887 11890 11893 11896 11899 11902 11905 11908 11911 11914 11917 11920 11923 11926 11929 11932 11935 11938 11941 11944 11947 11950 11953 11956 11959 11962 11965 11968 11971 11974 11977 11980 11983 11986 11989 11992 11995 11998 12001 12004 12007 12010 12013 12016 12019 12022 12025 12028 12031 12034 12037 12040 12043 12046 12049 12052 12055 12058 12061 12064 12067 12070 12073 12076 12078 12081 12084 12087 12090 12093 12096 12099 12102 12105 12108 12111 12114 12117 12120 12123 12126 12129 12132 12135 12138 12141 12143 12146 12149 12152 12155 12158 12161 12164 12167 12170 12173 12175 12177 12180 12183 12186 12189 12192 12195 12198 12201 12204 12207 12210 12213 12216 12219 12222 12225 12228 12231 12234 12237 12240 12243 12246 12249 12252 12255 12258 12261 12264 12267 12270 12273 12276 12279 12282 12285 12288 12291 12294 12297 12300 12303 12306 12309 12312 12315 12318 12321 12324 12327 12330 12333 12336 12339 12342 12345 12348 12351 12354 12357 12360 12363 12366 12369 12371 12374 12377 12380 12383 12386 12389 12391 12394 12397 12400 12403 12406 12409 12412 12415 12418 12421 12424 12427 12430 12433 12436 12439 12442 12445 12448 12451 12454 12457 12460 12463 12466 12469 12472 12475 12478 12481 12484 12487 12490 12493 12496 12499 12502 12505 12508 12511 12514 12517 12520 12523 12526 12529 12532 12535 12538 12541 12544 12547 12550 12553 12556 12559 12562 12565 12568 12570 12573 12576 12579 12582 12585 12588 12591 12594 12597 12600 12603 12606 12609 12612 12615 12618 12621 12624 12626 12629 12632 12635 12638 12641 12644 12647 12650 12653 12655 12658 12661 12664 12667 12670 12673 12676 12679 12682 12685 12688 12691 12694 12697 12700 12703 12705 12707 12710 12713 12715 12718 12721 12723 12726 12729 12732 12734 12737 12740 12743 12746 12749 12752 12755 12758 12761 12764 12767 12770 12773 12776 12779 12782 12785 12788 12791 12794 12797 12800 12803 12805 12808 12811 12814 12817 12820 12823 12826 12829 12832 12835 12838 12841 12844 12846 12849 12852 12855 12858 12861 12864 12867 12870 12873 12876 12879 12882 12885 12888 12891 12894 12897 12900 12903 12906 12909 12912 12915 12918 12921 12924 12927 12930 12933 12936 12939 12942 12945 12948 12951 12954 12957 12960 12963 12965 12968 12971 12974 12977 12980 12982 12985 12988 12991 12993 12995 12998 13000 13003 13006 13009 13012 13014 13017 13020 13022 13025 13028 13031 13034 13037 13040 13043 13045 13048 13051 13054 13057 13060 13063 13066 13068 13071 13074 13077 13080 13083 13086 13089 13092 13095 13098 13101 13104 13107 13110 13113 13116 13119 13122 13125 13128 13131 13134 13137 13140 13142 13145 13148 13151 13154 13157 13160 13163 13165 13168 13171 13174 13177 13180 13183 13186 13189 13192 13195 13198 13201 13204 13207 13210 13213 13216 13219 13222 13225 13228 13231 13234 13237 13240 13243 13246 13249 13252 13255 13258 13261 13264 13267 13270 13273 13275 13278 13281 13283 13286 13289 13292 13294 13297 13300 13303 13305 13308 13310 13313 13316 13319 13322 13325 13328 13331 13334 13337 13340 13342 13345 13348 13350 13353 13356 13359 13362 13365 13368 13371 13374 13377 13380 13383 13385 13388 13391 13394 13397 13400 13403 13406 13408 13411 13414 13417 13420 13423 13426 13429 13432 13435 13438 13441 13444 13447 13450 13453 13456 13459 13462 13465 13468 13470 13473 13476 13479 13482 13485 13488 13491 13493 13496 13499 13502 13505 13508 13511 13514 13517 13519 13522 13524 13527 13530 13533 13536 13539 13542 13545 13548 13551 13554 13557 13560 13563 13566 13569 13571 13574 13577 13580 13583 13586 13589 13592 13595 13598 13601 13604 13607 13610 13613 13616 13619 13622 13625 13628 13630 13633 13636 13639 13642 13645 13648 13651 13654 13656 13659 13662 13665 13668 13671 13674 13677 13680 13683 13686 13688 13691 13694 13697 13699 13702 13704 13707 13710 13713 13715 13718 13721 13724 13727 13729 13732 13735 13737 13740 13743 13746 13749 13752 13755 13758 13761 13763 13766 13768 13771 13774 13777 13779 13782 13785 13788 13791 13794 13797 13800 13803 13806 13809 13812 13815 13818 13821 13824 13827 13830 13833 13835 13838 13841 13844 13846 13849 13851 13854 13857 13860 13863 13866 13869 13872 13875 13878 13881 13884 13887 13890 13893 13896 13898 13901 13904 13906 13909 13912 13915 13918 13921 13924 13926 13929 13932 13934 13937 13940 13943 13946 13949 13952 13955 13958 13960 13963 13965 13968 13971 13974 13977 13980 13983 13985 13988 13991 13994 13997 14000 14003 14006 14009 14012 14015 14018 14021 14024 14027 14030 14033 14036 14038 14041 14044 14047 14050 14053 14056 14059 14062 14065 14068 14071 14074 14077 14080 14083 14086 14089 14092 14095 14098 14101 14103 14106 14108 14111 14114 14116 14119 14122 14125 14128 14131 14134 14137 14140 14143 14146 14149 14152 14155 14158 14161 14164 14167 14169 14172 14175 14178 14181 14184 14187 14190 14193 14196 14199 14202 14205 14208 14211 14214 14217 14220 14223 14226 14229 14232 14235 14238 14241 14244 14247 14250 14253 14256 14259 14262 14265 14268 14271 14274 14277 14280 14283 14286 14289 14292 14295 14298 14301 14304 14307 14310 14313 14316 14319 14322 14325 14327 14330 14333 14336 14338 14341 14344 14347 14350 14353 14356 14358 14361 14364 14367 14370 14373 14376 14379 14382 14385 14388 14391 14393 14396 14399 14402 14405 14408 14411 14414 14417 14420 14423 14426 14429 14432 14435 14437 14440 14443 14446 14449 14452 14455 14458 14461 14464 14466 14469 14472 14475 14478 14481 14484 14487 14490 14493 14496 14499 14502 14505 14508 14511 14514 14517 14520 14522 14525 14527 14530 14533 14536 14538 14541 14544 14547 14550 14552 14555 14558 14561 14564 14567 14570 14573 14576 14579 14582 14585 14588 14591 14594 14597 14600 14603 14606 14609 14612 14615 14618 14621 14624 14627 14630 14633 14636 14639 14642 14645 14648 14651 14654 14657 14660 14663 14666 14669 14672 14675 14678 14681 14684 14687 14690 14693 14696 14699 14702 14705 14708 14711 14714 14717 14720 14723 14726 14729 14732 14735 14738 14741 14744 14747 14750 14753 14756 14759 14762 14765 14767 14770 14772 14774 14777 14780 14783 14785 14788 14791 14794 14797 14800 14803 14806 14809 14812 14814 14816 14819 14822 14824 14827 14830 14833 14836 14839 14842 14845 14848 14851 14854 14857 14860 14863 14866 14869 14872 14875 14878 14881 14884 14887 14890 14893 14896 14899 14902 14905 14908 14911 14914 14917 14920 14923 14926 14929 14932 14935 14938 14941 14944 14947 14950 14953 14956 14959 14962 14965 14968 14971 14974 14977 14980 14983 14986 14989 14992 14995 14998 15001 15004 15007 15010 15013 15016 15019 15022 15025 15027 15030 15033 15036 15039 15042 15045 15048 15051 15054 15057 15059 15062 15065 15068 15070 15073 15076 15079 15082 15085 15088 15091 15094 15097 15100 15103 15106 15109 15112 15115 15118 15121 15124 15127 15130 15132 15135 15137 15140 15143 15146 15149 15152 15155 15158 15160 15163 15166 15169 15172 15175 15178 15181 15184 15186 15188 15191 15194 15197 15200 15203 15206 15209 15211 15213 15215 15218 15221 15223 15226 15229 15231 15234 15237 15240 15242 15245 15248 15250 15253 15256 15259 15262 15265 15268 15271 15273 15276 15279 15282 15285 15288 15291 15294 15297 15300 15303 15306 15309 15312 15315 15318 15320 15322 15325 15328 15331 15334 15337 15340 15343 15346 15349 15352 15355 15358 15361 15364 15367 15370 15373 15376 15379 15382 15385 15388 15391 15394 15397 15400 15403 15406 15409 15412 15415 15418 15421 15423 15426 15429 15432 15435 15438 15441 15444 15447 15450 15453 15456 15459 15462 15465 15468 15471 15474 15477 15480 15483 15486 15489 15492 15495 15498 15501 15504 15507 15510 15513 15516 15519 15522 15525 15528 15531 15534 15537 15540 15543 15546 15549 15552 15555 15558 15561 15564 15567 15570 15573 15576 15579 15582 15585 15588 15591 15594 15597 15600 15603 15606 15609 15612 15615 15618 15621 15624 15627 15629 15632 15635 15638 15641 15643 15646 15649 15652 15654 15657 15660 15663 15666 15669 15672 15675 15678 15681 15684 15687 15690 15693 15696 15699 15702 15705 15708 15711 15714 15717 15720 15723 15726 15729 15732 15735 15738 15741 15744 15747 15750 15753 15756 15759 15762 15765 15768 15771 15774 15776 15779 15782 15785 15788 15790 15793 15796 15799 15802 15805 15808 15810 15813 15815 15817 15820 15823 15826 15828 15831 15834 15837 15840 15843 15846 15849 15852 15855 15858 15861 15864 15867 15870 15873 15876 15879 15882 15885 15888 15891 15894 15897 15900 15903 15906 15909 15912 15915 15917 15919 15922 15925 15928 15931 15934 15937 15940 15943 15946 15949 15952 15955 15958 15961 15964 15967 15970 15973 15976 15978 15981 15984 15987 15989 15992 15995 15998 16001 16004 16006 16009 16012 16015 16018 16020 16022 16025 16028 16031 16034 16037 16040 16043 16046 16048 16051 16054 16056 16059 16062 16065 16068 16071 16074 16077 16080 16083 16086 16089 16092 16095 16098 16101 16104 16107 16110 16113 16116 16119 16122 16125 16127 16130 16132 16135 16138 16141 16144 16147 16150 16152 16155 16158 16160 16163 16165 16168 16171 16174 16176 16179 16182 16184 16186 16189 16191 16194 16197 16200 16202 16204 16207 16210 16213 16215 16218 16221 16224 16227 16229 16232 16235 16238 16241 16244 16247 16250 16253 16256 16258 16261 16264 16267 16269 16271 16274 16277 16280 16283 16286 16289 16292 16295 16298 16301 16304 16307 16310 16313 16316 16319 16321 16324 16327 16330 16333 16336 16339 16341 16344 16347 16350 16352 16355 16358 16361 16363 16366 16369 16372 16375 16378 16381 16384 16387 16390 16393 16396 16399 16402 16405 16408 16411 16414 16417 16420 16423 16426 16429 16432 16435 16438 16440 16443 16446 16449 16452 16455 16458 16461 16463 16466 16469 16472 16475 16478 16481 16484 16487 16490 16492 16495 16498 16501 16504 16507 16510 16513 16516 16519 16521 16524 16527 16530 16533 16535 16537 16540 16543 16546 16549 16551 16554 16557 16560 16563 16566 16569 16572 16575 16577 16580 16583 16586 16589 16592 16595 16598 16601 16604 16607 16610 16613 16616 16619 16622 16625 16628 16630 16633 16636 16639 16642 16645 16648 16651 16654 16657 16660 16663 16666 16669 16672 16675 16678 16681 16684 16687 16690 16693 16695 16698 16701 16704 16707 16710 16713 16716 16719 16722 16725 16728 16731 16734 16736 16739 16742 16745 16748 16751 16754 16757 16759 16761 16764 16766 16769 16771 16774 16777 16780 16783 16786 16789 16792 16795 16798 16801 16804 16807 16809 16812 16814 16817 16820 16822 16825 16828 16831 16834 16837 16840 16843 16846 16849 16852 16855 16858 16861 16864 16867 16870 16873 16876 16879 16882 16885 16888 16891 16894 16897 16900 16903 16906 16909 16912 16915 16918 16921 16924 16927 16930 16933 16936 16939 16942 16945 16948 16951 16954 16957 16960 16963 16966 16969 16972 16975 16978 16981 16984 16987 16990 16993 16996 16999 17002 17005 17008 17011 17014 17017 17020 17023 17026 17029 17032 17035 17038 17041 17044 17047 17050 17053 17056 17059 17062 17065 17068 17071 17074 17077 17080 17083 17086 17089 17092 17095 17098 17101 17104 17107 17110 17113 17116 17119 17122 17125 17128 17131 17134 17137 17140 17143 17146 17148 17151 17154 17157 17160 17163 17166 17169 17172 17175 17178 17181 17183 17186 17189 17192 17195 17198 17201 17204 17207 17209 17212 17215 17217 17220 17223 17225 17228 17231 17233 17236 17239 17242 17245 17248 17250 17253 17256 17259 17262 17265 17268 17271 17274 17277 17280 17283 17285 17288 17291 17294 17297 17300 17303 17306 17309 17312 17315 17318 17321 17324 17327 17330 17333 17336 17339 17342 17345 17348 17351 17354 17357 17360 17362 17365 17368 17371 17374 17377 17380 17383 17385 17388 17391 17394 17397 17399 17402 17405 17408 17411 17414 17416 17419 17422 17425 17427 17430 17433 17436 17439 17442 17445 17448 17451 17454 17456 17458 17461 17464 17467 17470 17473 17476 17478 17480 17483 17486 17489 17491 17494 17496 17499 17502 17505 17507 17510 17513 17515 17518 17521 17524 17527 17530 17533 17536 17539 17542 17545 17548 17551 17554 17557 17560 17563 17566 17569 17572 17575 17578 17581 17584 17587 17590 17593 17596 17599 17602 17605 17608 17611 17614 17617 17620 17623 17626 17629 17631 17634 17637 17640 17642 17645 17648 17651 17654 17657 17659 17662 17665 17668 17671 17674 17677 17679 17681 17684 17687 17689 17692 17695 17698 17701 17704 17707 17709 17711 17714 17717 17720 17723 17726 17728 17731 17734 17737 17740 17743 17746 17749 17752 17755 17757 17760 17763 17766 17769 17772 17775 17778 17781 17784 17787 17790 17793 17796 17799 17802 17805 17808 17811 17814 17817 17820 17823 17826 17829 17832 17834 17837 17840 17843 17846 17849 17852 17855 17858 17861 17864 17867 17870 17873 17876 17879 17882 17885 17888 17891 17893 17896 17899 17902 17905 17908 17911 17914 17917 17920 17923 17926 17928 17931 17934 17937 17940 17943 17946 17949 17952 17955 17958 17961 17963 17965 17968 17971 17974 17977 17980 17983 17986 17988 17991 17994 17997 18000 18002 18005 18007 18010 18012 18015 18017 18020 18023 18025 18028 18031 18034 18036 18039 18042 18045 18048 18050 18053 18056 18059 18062 18064 18067 18070 18073 18075 18078 18081 18084 18087 18090 18093 18095 18098 18101 18104 18107 18109 18112 18115 18118 18120 18123 18126 18129 18132 18135 18138 18141 18144 18147 18149 18152 18155 18158 18161 18164 18167 18169 18172 18175 18178 18180 18183 18186 18189 18192 18195 18198 18201 18204 18207 18210 18213 18216 18219 18222 18225 18228 18231 18234 18236 18239 18242 18245 18248 18250 18253 18256 18259 18262 18265 18268 18271 18274 18277 18279 18282 18285 18288 18291 18294 18297 18300 18302 18304 18306 18309 18312 18315 18318 18320 18323 18326 18328 18331 18334 18337 18340 18343 18346 18349 18352 18355 18357 18360 18363 18366 18368 18370 18373 18376 18379 18382 18385 18388 18391 18394 18396 18399 18402 18405 18408 18411 18414 18417 18420 18423 18426 18429 18432 18435 18438 18441 18444 18447 18450 18453 18456 18459 18462 18465 18468 18471 18474 18477 18480 18483 18486 18489 18491 18494 18496 18499 18502 18505 18508 18511 18514 18516 18519 18522 18524 18527 18530 18532 18535 18538 18541 18544 18546 18549 18552 18555 18558 18560 18562 18565 18568 18571 18574 18577 18580 18583 18586 18589 18592 18595 18598 18601 18603 18606 18609 18611 18614 18616 18619 18622 18625 18628 18631 18633 18636 18639 18642 18645 18648 18651 18654 18657 18660 18663 18666 18669 18672 18674 18677 18680 18683 18686 18689 18692 18695 18698 18701 18704 18706 18709 18712 18715 18717 18720 18723 18726 18729 18732 18735 18738 18741 18744 18747 18750 18753 18756 18759 18762 18765 18768 18771 18774 18777 18780 18783 18786 18789 18792 18795 18798 18801 18804 18807 18810 18813 18816 18819 18822 18825 18828 18831 18834 18837 18840 18843 18846 18849 18852 18855 18858 18861 18864 18867 18870 18873 18876 18879 18882 18885 18888 18891 18894 18897 18900 18903 18906 18909 18912 18915 18918 18921 18924 18927 18930 18933 18936 18939 18942 18945 18948 18951 18954 18957 18960 18963 18966 18969 18972 18975 18978 18981 18984 18987 18990 18993 18996 18999 19002 19005 19008 19011 19014 19017 19020 19023 19026 19029 19032 19035 19038 19041 19043 19046 19049 19052 19055 19057 19060 19063 19066 19069 19072 19075 19078 19081 19083 19086 19089 19091 19094 19097 19099 19102 19105 19107 19110 19113 19116 19119 19122 19125 19128 19130 19133 19136 19138 19141 19144 19147 19150 19153 19156 19159 19162 19164 19167 19170 19173 19175 19178 19180 19183 19186 19189 19192 19195 19198 19200 19203 19205 19208 19211 19214 19217 19220 19223 19226 19229 19232 19234 19237 19240 19243 19245 19247 19250 19253 19256 19259 19261 19263 19266 19269 19272 19275 19278 19281 19284 19287 19290 19293 19296 19299 19302 19305 19308 19311 19313 19316 19319 19322 19325 19328 19331 19333 19336 19338 19341 19344 19347 19350 19353 19356 19359 19362 19365 19368 19371 19374 19377 19380 19383 19386 19389 19392 19395 19398 19401 19404 19407 19410 19413 19415 19418 19421 19424 19426 19429 19432 19435 19438 19441 19444 19446 19449 19452 19455 19458 19461 19463 19466 19469 19471 19474 19477 19480 19483 19486 19489 19492 19495 19498 19501 19504 19507 19510 19513 19515 19518 19521 19524 19527 19530 19533 19536 19539 19541 19544 19547 19550 19553 19556 19559 19562 19565 19567 19570 19573 19576 19579 19582 19585 19588 19590 19593 19596 19599 19602 19604 19607 19610 19613 19616 19619 19622 19625 19628 19631 19634 19637 19640 19642 19645 19648 19651 19653 19656 19659 19662 19665 19668 19671 19673 19676 19679 19682 19684 19687 19689 19692 19695 19698 19701 19704 19706 19709 19712 19715 19717 19720 19723 19726 19728 19731 19734 19737 19740 19742 19745 19748 19751 19754 19757 19760 19763 19766 19769 19772 19775 19778 19781 19784 19787 19789 19792 19795 19798 19801 19804 19807 19810 19813 19815 19818 19821 19824 19827 19830 19833 19836 19839 19842 19845 19848 19851 19853 19856 19858 19861 19864 19867 19870 19873 19876 19879 19882 19885 19888 19891 19893 19896 19899 19901 19904 19907 19910 19913 19916 19919 19922 19925 19928 19931 19933 19936 19939 19942 19944 19947 19950 19953 19956 19959 19962 19964 19967 19970 19973 19976 19979 19982 19985 19988 19991 19994 19997 20000 20003 20006 20009 20012 20015 20018 20021 20024 20027 20030 20033 20036 20039 20041 20044 20047 20050 20053 20056 20059 20062 20065 20068 20071 20074 20077 20080 20083 20086 20089 20092 20095 20098 20101 20104 20106 20109 20111 20113 20116 20119 20122 20125 20127 20130 20133 20135 20138 20140 20143 20146 20149 20152 20154 20157 20159 20162 20165 20168 20171 20174 20177 20180 20183 20186 20189 20192 20195 20198 20200 20203 20205 20208 20211 20214 20217 20220 20223 20226 20229 20232 20235 20238 20241 20244 20247 20250 20253 20256 20259 20262 20265 20268 20271 20274 20277 20280 20283 20286 20289 20292 20295 20298 20301 20304 20307 20310 20313 20316 20319 20322 20325 20328 20331 20334 20337 20340 20343 20346 20349 20352 20355 20358 20360 20362 20365 20368 20371 20374 20377 20380 20383 20386 20389 20392 20395 20398 20401 20404 20407 20410 20413 20416 20419 20422 20424 20427 20430 20433 20436 20439 20442 20445 20448 20451 20454 20457 20460 20463 20466 20469 20472 20475 20478 20481 20484 20487 20490 20493 20495 20498 20501 20504 20506 20509 20512 20515 20518 20521 20524 20527 20530 20533 20536 20539 20542 20545 20548 20551 20554 20557 20560 20563 20566 20569 20572 20575 20578 20581 20584 20587 20590 20593 20596 20599 20602 20605 20608 20611 20614 20617 20620 20623 20626 20629 20632 20635 20638 20641 20644 20647 20650 20653 20656 20659 20662 20665 20668 20671 20674 20677 20680 20683 20686 20689 20692 20695 20698 20701 20704 20707 20710 20713 20716 20719 20722 20725 20728 20731 20734 20737 20740 20743 20746 20749 20752 20755 20758 20761 20764 20767 20770 20773 20776 20778 20781 20784 20787 20790 20793 20796 20799 20802 20805 20807 20810 20813 20816 20819 20822 20825 20828 20831 20834 20837 20840 20843 20846 20849 20852 20855 20857 20860 20863 20866 20869 20871 20874 20877 20880 20883 20886 20888 20891 20894 20897 20900 20903 20906 20909 20912 20915 20918 20921 20924 20927 20930 20933 20936 20939 20942 20945 20947 20950 20953 20956 20958 20961 20964 20967 20970 20973 20976 20979 20981 20984 20987 20990 20993 20996 20998 21001 21004 21007 21010 21013 21016 21018 21021 21024 21027 21030 21033 21036 21039 21042 21045 21048 21051 21054 21056 21059 21062 21065 21068 21070 21073 21076 21079 21081 21084 21087 21090 21092 21094 21097 21100 21103 21106 21109 21112 21115 21118 21121 21124 21127 21130 21133 21136 21139 21142 21144 21147 21150 21153 21155 21158 21161 21164 21167 21170 21173 21176 21179 21182 21185 21188 21191 21194 21197 21200 21203 21206 21208 21211 21214 21217 21220 21223 21226 21229 21232 21235 21238 21241 21244 21247 21250 21253 21256 21259 21262 21265 21268 21271 21274 21277 21280 21283 21286 21289 21292 21295 21298 21301 21304 21307 21310 21313 21316 21319 21322 21325 21328 21331 21334 21337 21339 21342 21344 21347 21349 21352 21354 21357 21360 21363 21366 21369 21372 21375 21378 21381 21384 21387 21390 21393 21395 21398 21401 21404 21406 21409 21411 21414 21416 21418 21421 21424 21427 21430 21433 21436 21439 21442 21445 21448 21451 21454 21457 21460 21463 21466 21469 21472 21475 21478 21481 21484 21487 21490 21493 21496 21499 21502 21505 21508 21511 21514 21517 21520 21523 21526 21529 21532 21535 21538 21541 21544 21547 21550 21553 21556 21559 21562 21565 21568 21571 21574 21577 21580 21583 21586 21589 21592 21595 21598 21601 21604 21607 21610 21613 21616 21619 21622 21624 21627 21630 21632 21635 21638 21641 21644 21646 21649 21651 21654 21657 21660 21663 21666 21669 21672 21675 21678 21680 21683 21686 21689 21692 21695 21698 21701 21704 21707 21710 21713 21716 21719 21722 21725 21728 21731 21734 21737 21740 21743 21746 21749 21751 21754 21757 21760 21763 21766 21769 21771 21774 21776 21779 21782 21785 21788 21791 21794 21797 21799 21802 21805 21808 21811 21814 21817 21820 21822 21825 21828 21831 21834 21837 21840 21843 21846 21849 21852 21855 21858 21861 21864 21867 21870 21873 21876 21879 21882 21885 21888 21890 21893 21895 21898 21900 21903 21906 21908 21911 21914 21917 21920 21923 21925 21928 21931 21934 21936 21939 21942 21944 21947 21950 21953 21956 21959 21962 21965 21968 21971 21974 21977 21980 21983 21986 21989 21992 21995 21998 22001 22004 22007 22010 22013 22016 22019 22022 22025 22028 22031 22034 22037 22040 22043 22046 22049 22052 22055 22058 22061 22064 22067 22070 22073 22076 22079 22082 22085 22088 22091 22094 22097 22100 22103 22105 22108 22111 22114 22117 22120 22123 22126 22128 22130 22133 22136 22139 22142 22145 22147 22150 22153 22156 22159 22162 22164 22167 22170 22173 22176 22179 22181 22184 22187 22190 22193 22196 22199 22202 22205 22208 22211 22214 22217 22220 22223 22226 22229 22232 22235 22238 22241 22244 22247 22250 22253 22256 22258 22261 22264 22267 22270 22273 22276 22279 22282 22285 22288 22291 22294 22297 22300 22303 22306 22309 22312 22315 22318 22321 22324 22327 22330 22333 22336 22339 22342 22345 22348 22351 22354 22357 22360 22363 22366 22369 22372 22375 22378 22381 22384 22387 22390 22393 22396 22399 22402 22405 22407 22410 22413 22415 22418 22421 22424 22427 22430 22433 22436 22439 22442 22445 22448 22450 22453 22456 22459 22462 22465 22468 22471 22474 22477 22480 22483 22486 22489 22492 22495 22498 22501 22504 22507 22510 22513 22516 22519 22522 22525 22528 22531 22534 22537 22540 22543 22546 22549 22552 22555 22558 22561 22564 22567 22570 22573 22576 22579 22582 22585 22588 22591 22594 22596 22599 22602 22605 22608 22611 22614 22617 22620 22623 22625 22628 22631 22634 22637 22639 22642 22645 22648 22651 22654 22657 22660 22663 22665 22668 22671 22673 22676 22679 22682 22685 22688 22690 22693 22696 22699 22702 22705 22708 22710 22713 22716 22719 22722 22725 22727 22730 22733 22736 22739 22742 22745 22748 22751 22754 22757 22760 22763 22766 22769 22772 22774 22777 22780 22783 22785 22788 22791 22794 22797 22800 22803 22806 22809 22811 22814 22817 22820 22823 22826 22829 22832 22835 22838 22841 22844 22847 22850 22853 22856 22859 22862 22865 22868 22871 22874 22877 22880 22883 22886 22889 22892 22895 22898 22901 22904 22907 22910 22913 22916 22919 22922 22925 22928 22931 22934 22936 22939 22942 22945 22948 22951 22954 22957 22960 22962 22965 22968 22971 22974 22977 22980 22983 22986 22989 22992 22995 22998 23000 23003 23006 23009 23012 23015 23018 23021 23023 23026 23028 23031 23033 23035 23038 23041 23044 23047 23050 23053 23055 23058 23061 23064 23066 23069 23072 23075 23078 23081 23084 23087 23090 23093 23096 23098 23101 23104 23106 23109 23111 23114 23117 23120 23123 23125 23128 23131 23134 23137 23140 23143 23145 23148 23151 23154 23157 23160 23163 23166 23168 23171 23173 23176 23179 23181 23183 23186 23189 23191 23193 23196 23199 23202 23205 23207 23209 23212 23215 23217 23220 23223 23226 23229 23232 23234 23237 23240 23243 23246 23249 23252 23255 23258 23261 23264 23267 23270 23273 23276 23279 23282 23285 23288 23291 23294 23297 23300 23303 23305 23308 23311 23314 23317 23320 23323 23326 23329 23332 23335 23338 23341 23344 23347 23350 23352 23355 23358 23361 23364 23367 23370 23373 23376 23379 23382 23384 23387 23390 23392 23395 23398 23400 23403 23406 23409 23411 23414 23417 23420 23422 23425 23428 23431 23434 23437 23440 23443 23446 23449 23452 23455 23458 23461 23464 23467 23470 23473 23476 23479 23482 23485 23488 23490 23493 23496 23498 23501 23504 23507 23510 23513 23516 23519 23521 23524 23527 23530 23533 23535 23538 23541 23544 23547 23550 23553 23556 23559 23562 23565 23567 23570 23573 23576 23579 23582 23585 23588 23591 23594 23597 23600 23603 23606 23609 23612 23615 23618 23621 23624 23627 23630 23633 23635 23638 23641 23643 23646 23649 23652 23655 23658 23660 23663 23666 23669 23671 23674 23677 23680 23683 23686 23689 23692 23695 23698 23701 23704 23707 23710 23713 23716 23719 23722 23725 23728 23731 23733 23736 23739 23742 23745 23748 23751 23754 23757 23760 23763 23766 23769 23771 23774 23777 23780 23783 23786 23789 23792 23795 23797 23800 23803 23806 23809 23811 23814 23817 23819 23822 23824 23827 23830 23833 23836 23838 23841 23844 23847 23850 23852 23855 23858 23861 23864 23867 23870 23873 23876 23879 23882 23885 23888 23891 23894 23897 23900 23903 23906 23909 23912 23915 23918 23921 23924 23926 23929 23932 23934 23937 23940 23942 23945 23948 23951 23954 23957 23960 23963 23966 23969 23972 23975 23978 23981 23984 23986 23988 23991 23994 23997 24000 24003 24006 24009 24012 24015 24018 24021 24023 24026 24029 24032 24035 24037 24040 24043 24046 24049 24051 24054 24057 24059 24062 24064 24067 24070 24073 24075 24078 24081 24084 24087 24090 24092 24094 24097 24100 24103 24105 24107 24110 24113 24116 24118 24121 24124 24127 24130 24133 24136 24139 24142 24145 24147 24149 24152 24155 24158 24161 24164 24167 24170 24173 24176 24179 24182 24185 24188 24191 24194 24196 24199 24202 24205 24208 24211 24213 24216 24219 24222 24225 24228 24230 24233 24236 24239 24242 24244 24247 24249 24252 24255 24258 24261 24264 24267 24270 24273 24276 24279 24282 24285 24288 24291 24294 24297 24300 24303 24306 24309 24311 24313 24316 24319 24322 24325 24328 24330 24333 24336 24339 24342 24345 24348 24351 24354 24357 24360 24363 24366 24369 24372 24375 24378 24381 24384 24387 24390 24393 24396 24399 24402 24405 24408 24411 24414 24417 24420 24423 24426 24429 24432 24435 24438 24441 24443 24446 24449 24452 24454 24457 24460 24463 24466 24469 24472 24475 24478 24481 24484 24487 24489 24492 24495 24498 24501 24504 24507 24510 24513 24516 24519 24522 24524 24527 24530 24533 24536 24539 24542 24545 24548 24551 24554 24557 24560 24563 24566 24569 24572 24575 24578 24581 24584 24587 24590 24593 24596 24599 24602 24605 24608 24611 24614 24617 24620 24623 24626 24629 24632 24634 24636 24639 24642 24645 24648 24651 24654 24657 24660 24663 24666 24668 24671 24674 24677 24680 24682 24685 24688 24691 24694 24697 24700 24703 24706 24709 24712 24715 24718 24721 24724 24727 24730 24733 24736 24739 24742 24745 24748 24751 24754 24757 24760 24763 24766 24769 24772 24775 24778 24781 24784 24787 24790 24792 24795 24798 24801 24804 24807 24810 24813 24816 24819 24821 24824 24826 24829 24832 24835 24838 24841 24844 24846 24849 24852 24854 24857 24860 24863 24866 24869 24872 24874 24877 24880 24882 24885 24887 24890 24893 24896 24899 24901 24904 24907 24910 24913 24916 24919 24922 24925 24928 24931 24934 24937 24940 24943 24945 24947 24950 24953 24956 24959 24962 24964 24967 24970 24972 24975 24978 24980 24983 24986 24989 24991 24993 24996 24998 25001 25004 25007 25009 25012 25015 25018 25021 25024 25027 25030 25033 25036 25038 25041 25044 25047 25050 25052 25055 25058 25061 25064 25067 25070 25073 25076 25079 25082 25085 25088 25091 25093 25096 25099 25102 25105 25108 25111 25114 25117 25120 25123 25126 25129 25132 25135 25138 25141 25143 25146 25148 25150 25153 25156 25159 25162 25165 25168 25170 25173 25176 25178 25181 25184 25186 25188 25191 25194 25197 25199 25202 25205 25208 25211 25214 25217 25220 25223 25226 25229 25232 25235 25238 25241 25244 25247 25250 25253 25256 25259 25262 25265 25268 25271 25274 25277 25279 25282 25285 25288 25291 25294 25297 25300 25303 25306 25309 25312 25315 25318 25320 25323 25326 25329 25332 25335 25337 25340 25343 25346 25349 25352 25354 25357 25360 25362 25365 25368 25370 25372 25375 25378 25380 25383 25386 25388 25390 25392 25394 25397 25400 25403 25406 25408 25411 25414 25417 25420 25423 25426 25429 25432 25435 25438 25441 25444 25447 25450 25453 25456 25459 25462 25465 25468 25471 25474 25477 25479 25482 25485 25488 25491 25494 25496 25499 25502 25505 25508 25510 25513 25516 25519 25522 25525 25527 25530 25533 25536 25538 25541 25543 25546 25549 25551 25554 25557 25560 25562 25565 25568 25571 25574 25576 25579 25582 25584 25586 25589 25592 25595 25598 25601 25604 25607 25610 25613 25615 25617 25620 25623 25625 25627 25630 25633 25636 25639 25641 25644 25647 25650 25653 25656 25659 25662 25665 25668 25671 25674 25677 25680 25683 25685 25688 25691 25694 25696 25699 25702 25705 25708 25711 25714 25717 25720 25723 25726 25729 25731 25733 25735 25738 25741 25743 25746 25749 25752 25755 25758 25761 25764 25767 25770 25773 25776 25778 25781 25784 25787 25789 25792 25795 25797 25800 25803 25806 25809 25811 25814 25817 25820 25823 25826 25829 25832 25835 25838 25841 25843 25846 25848 25850 25853 25855 25858 25861 25864 25867 25869 25872 25875 25878 25881 25884 25887 25890 25893 25896 25899 25902 25904 25907 25910 25912 25915 25918 25921 25923 25926 25929 25932 25935 25937 25940 25943 25946 25949 25952 25955 25958 25961 25964 25967 25970 25973 25976 25979 25982 25985 25988 25990 25993 25996 25999 26002 26005 26008 26011 26014 26017 26020 26023 26025 26028 26031 26034 26037 26040 26043 26046 26049 26052 26055 26058 26061 26064 26067 26070 26073 26076 26079 26082 26085 26088 26091 26094 26097 26100 26103 26106 26109 26112 26115 26118 26121 26124 26127 26130 26133 26136 26139 26142 26145 26148 26151 26154 26157 26160 26163 26166 26169 26172 26175 26178 26181 26184 26187 26190 26193 26196 26199 26202 26205 26208 26211 26214 26217 26220 26223 26225 26228 26231 26234 26237 26240 26243 26246 26248 26251 26254 26256 26259 26262 26265 26268 26271 26273 26275 26278 26281 26284 26287 26290 26293 26296 26299 26302 26305 26308 26311 26314 26317 26320 26322 26325 26328 26331 26334 26337 26340 26342 26345 26348 26351 26354 26356 26358 26361 26364 26367 26370 26373 26376 26379 26382 26385 26388 26391 26394 26397 26400 26403 26406 26409 26412 26415 26418 26421 26424 26427 26430 26432 26434 26437 26440 26443 26446 26448 26451 26454 26456 26459 26462 26465 26468 26470 26473 26476 26479 26482 26484 26487 26490 26493 26496 26499 26502 26505 26508 26511 26514 26517 26520 26523 26526 26529 26532 26535 26538 26541 26544 26547 26550 26553 26556 26559 26562 26565 26567 26570 26573 26576 26579 26582 26585 26588 26591 26594 26596 26599 26602 26605 26608 26610 26613 26616 26619 26621 26624 26627 26630 26633 26636 26639 26642 26645 26648 26651 26654 26657 26659 26661 26664 26667 26670 26673 26676 26679 26682 26685 26687 26690 26693 26696 26698 26701 26704 26707 26709 26712 26715 26718 26721 26724 26727 26730 26733 26736 26739 26742 26745 26748 26751 26754 26757 26759 26762 26765 26768 26771 26774 26777 26779 26782 26785 26788 26791 26794 26797 26800 26803 26806 26809 26812 26815 26818 26821 26824 26827 26830 26833 26836 26839 26842 26845 26848 26851 26853 26856 26858 26861 26864 26866 26869 26872 26875 26877 26880 26883 26886 26889 26892 26895 26898 26901 26904 26906 26909 26912 26914 26917 26920 26923 26925 26928 26931 26934 26937 26940 26943 26946 26949 26952 26955 26958 26961 26964 26967 26970 26973 26976 26979 26982 26985 26988 26991 26994 26997 27000 27003 27006 27009 27012 27015 27018 27021 27024 27027 27030 27033 27036 27039 27042 27045 27048 27051 27054 27056 27059 27062 27065 27068 27071 27074 27077 27080 27083 27085 27088 27091 27094 27096 27099 27102 27105 27108 27111 27114 27117 27119 27122 27125 27128 27131 27134 27137 27140 27142 27145 27148 27150 27153 27156 27159 27162 27165 27168 27171 27174 27177 27179 27182 27185 27187 27190 27193 27196 27199 27202 27204 27207 27210 27213 27216 27219 27222 27225 27228 27231 27234 27237 27240 27243 27245 27248 27251 27254 27257 27260 27263 27266 27269 27272 27274 27277 27279 27282 27285 27288 27291 27294 27297 27300 27303 27306 27309 27311 27314 27316 27319 27322 27325 27328 27330 27332 27335 27338 27341 27344 27347 27350 27353 27356 27359 27362 27365 27368 27371 27374 27377 27380 27383 27386 27389 27392 27395 27397 27399 27402 27405 27407 27410 27413 27415 27418 27421 27424 27426 27429 27432 27435 27437 27440 27443 27445 27447 27450 27453 27456 27458 27461 27464 27467 27469 27472 27475 27478 27481 27484 27487 27489 27492 27495 27498 27501 27504 27507 27509 27512 27515 27518 27521 27524 27527 27530 27532 27535 27538 27540 27543 27545 27548 27551 27554 27557 27560 27563 27565 27568 27571 27574 27577 27580 27583 27586 27589 27592 27595 27598 27601 27604 27607 27610 27613 27616 27619 27622 27625 27628 27631 27634 27637 27640 27642 27645 27648 27651 27654 27657 27660 27663 27666 27669 27671 27674 27677 27680 27683 27686 27688 27691 27694 27697 27700 27703 27706 27709 27712 27715 27718 27721 27724 27727 27730 27733 27736 27739 27742 27745 27748 27751 27754 27757 27760 27763 27766 27769 27772 27774 27777 27780 27783 27786 27789 27791 27794 27797 27800 27803 27806 27809 27812 27815 27818 27821 27824 27827 27829 27832 27835 27837 27840 27843 27846 27849 27852 27855 27858 27861 27864 27866 27869 27871 27874 27877 27879 27882 27885 27888 27891 27894 27897 27899 27902 27905 27908 27911 27914 27916 27919 27922 27925 27928 27930 27933 27935 27938 27941 27943 27946 27949 27952 27955 27958 27961 27964 27967 27969 27971 27974 27977 27980 27983 27986 27989 27992 27995 27998 28001 28004 28007 28010 28013 28016 28019 28022 28025 28028 28031 28034 28037 28040 28043 28046 28048 28051 28054 28057 28060 28063 28066 28068 28071 28074 28077 28080 28083 28086 28089 28092 28094 28097 28100 28103 28106 28109 28112 28115 28118 28121 28124 28127 28130 28133 28136 28138 28141 28144 28147 28150 28153 28156 28159 28162 28165 28168 28171 28174 28177 28180 28183 28186 28189 28192 28195 28198 28201 28204 28207 28210 28213 28216 28219 28221 28223 28226 28228 28231 28234 28237 28240 28243 28246 28249 28252 28255 28258 28261 28264 28267 28270 28273 28276 28279 28282 28285 28288 28291 28294 28297 28300 28303 28306 28309 28312 28315 28318 28321 28324 28327 28329 28332 28335 28338 28341 28344 28346 28349 28352 28355 28357 28360 28363 28366 28369 28372 28374 28376 28378 28381 28384 28387 28390 28393 28395 28398 28401 28403 28405 28408 28411 28414 28417 28420 28423 28425 28428 28431 28433 28436 28439 28442 28445 28448 28451 28454 28457 28460 28463 28466 28469 28472 28475 28478 28481 28484 28487 28490 28493 28495 28498 28501 28504 28506 28509 28512 28515 28518 28521 28524 28527 28529 28532 28535 28538 28541 28544 28547 28550 28553 28556 28558 28561 28564 28567 28570 28572 28575 28578 28581 28584 28587 28590 28593 28596 28599 28602 28605 28608 28611 28614 28617 28620 28623 28626 28629 28632 28635 28638 28641 28643 28646 28649 28652 28655 28658 28661 28664 28667 28670 28673 28676 28679 28682 28685 28687 28689 28691 28694 28697 28699 28702 28705 28708 28711 28714 28717 28720 28723 28726 28729 28731 28734 28736 28739 28742 28745 28748 28751 28754 28757 28760 28763 28766 28769 28771 28774 28777 28780 28782 28785 28788 28790 28793 28796 28798 28801 28804 28807 28810 28813 28815 28818 28821 28824 28826 28828 28831 28834 28837 28839 28841 28844 28847 28850 28853 28856 28859 28862 28864 28867 28870 28873 28876 28879 28882 28885 28888 28891 28894 28897 28900 28903 28906 28909 28911 28914 28916 28919 28922 28925 28928 28930 28933 28936 28939 28942 28945 28948 28951 28954 28957 28960 28962 28965 28968 28971 28974 28977 28979 28982 28985 28988 28991 28994 28996 28999 29002 29005 29008 29011 29014 29017 29020 29023 29026 29029 29032 29035 29038 29041 29044 29047 29050 29052 29055 29058 29061 29063 29066 29068 29071 29074 29076 29079 29082 29085 29088 29091 29094 29097 29099 29102 29105 29108 29111 29113 29116 29119 29122 29125 29128 29131 29134 29136 29139 29142 29145 29148 29151 29153 29155 29158 29161 29164 29167 29170 29173 29176 29179 29182 29185 29188 29191 29194 29197 29200 29203 29206 29209 29212 29214 29217 29220 29223 29226 29229 29232 29235 29238 29241 29243 29246 29249 29252 29255 29258 29261 29264 29267 29270 29273 29276 29279 29282 29285 29288 29291 29294 29297 29299 29302 29304 29307 29310 29313 29316 29318 29320 29323 29326 29329 29332 29334 29337 29340 29342 29345 29348 29351 29354 29357 29360 29363 29365 29368 29371 29373 29376 29379 29382 29385 29388 29391 29394 29397 29400 29403 29406 29409 29412 29415 29418 29421 29423 29426 29429 29431 29434 29436 29439 29442 29444 29447 29450 29452 29454 29457 29460 29462 29465 29467 29470 29473 29476 29479 29482 29485 29488 29490 29493 29496 29499 29502 29505 29508 29511 29514 29517 29520 29523 29526 29529 29532 29535 29538 29541 29544 29547 29550 29553 29556 29559 29562 29565 29568 29571 29574 29577 29580 29583 29586 29589 29592 29595 29598 29601 29604 29607 29610 29613 29616 29619 29622 29625 29628 29631 29633 29636 29639 29641 29644 29647 29650 29653 29656 29658 29661 29663 29666 29669 29672 29675 29678 29681 29684 29687 29690 29693 29696 29699 29702 29705 29708 29711 29714 29717 29720 29723 29726 29729 29732 29735 29738 29741 29744 29746 29749 29752 29755 29758 29761 29764 29767 29770 29773 29776 29779 29782 29785 29787 29790 29793 29796 29799 29801 29804 29807 29810 29812 29814 29817 29820 29823 29825 29828 29831 29834 29837 29840 29843 29845 29848 29851 29853 29856 29858 29861 29864 29867 29870 29873 29876 29879 29882 29885 29888 29891 29894 29897 29900 29903 29906 29909 29912 29915 29918 29921 29924 29927 29929 29932 29934 29937 29940 29943 29945 29948 29951 29954 29957 29960 29962 29965 29968 29971 29974 29977 29980 29983 29986 29988 29991 29994 29997 29999 30002 30004 30007 30010 30013 30015 30018 30021 30024 30027 30030 30033 30036 30038 30041 30044 30046 30049 30052 30055 30057 30060 30062 30065 30068 30070 30073 30076 30079 30082 30085 30088 30091 30094 30097 30100 30102 30105 30108 30111 30114 30117 30120 30122 30125 30127 30130 30133 30136 30139 30142 30144 30147 30150 30153 30156 30159 30162 30165 30168 30171 30173 30176 30179 30182 30185 30188 30191 30194 30197 30199 30202 30205 30207 30210 30212 30215 30217 30220 30223 30226 30229 30232 30234 30237 30240 30243 30246 30249 30252 30255 30258 30261 30264 30266 30269 30272 30275 30277 30280 30283 30286 30289 30292 30295 30297 30300 30303 30306 30309 30312 30315 30317 30320 30323 30326 30329 30332 30335 30337 30340 30343 30346 30349 30351 30354 30357 30360 30363 30365 30368 30371 30374 30377 30380 30383 30386 30389 30392 30395 30398 30401 30404 30407 30410 30413 30416 30419 30421 30424 30427 30429 30432 30435 30438 30440 30443 30445 30448 30450 30453 30456 30459 30462 30465 30468 30471 30473 30476 30479 30482 30485 30488 30491 30494 30497 30499 30502 30505 30508 30511 30513 30516 30519 30522 30525 30528 30531 30533 30536 30539 30542 30544 30547 30550 30553 30556 30558 30561 30564 30567 30570 30572 30575 30578 30581 30584 30587 30590 30593 30596 30599 30602 30605 30608 30611 30614 30617 30620 30623 30626 30629 30632 30635 30638 30641 30644 30647 30649 30652 30655 30658 30661 30663 30666 30669 30672 30675 30678 30681 30684 30687 30690 30693 30696 30699 30702 30705 30708 30711 30714 30717 30720 30723 30726 30729 30732 30735 30738 30741 30744 30747 30750 30753 30756 30759 30762 30765 30768 30771 30774 30777 30780 30783 30786 30789 30792 30794 30797 30800 30803 30806 30809 30812 30815 30818 30821 30824 30827 30830 30833 30836 30839 30842 30845 30848 30851 30854 30857 30860 30863 30866 30869 30872 30875 30878 30881 30884 30887 30890 30893 30896 
</DataArray>
<DataArray type="UInt32" Name="types" format="ascii">
5 5 3 5 5 5 5 5 5 5 3 3 5 5 5 5 5 5 5 3 5 5 5 5 5 5 5 5 5 5 5 5 5 5 5 5 3 5 5 3 5 5 5 3 5 5 5 5 5 5 5 5 5 3 5 5 5 5 5 5 5 5 3 5 5 5 3 5 5 5 5 3 5 5 5 5 3 5 5 5 5 5 5 3 5 5 5 5 5 5 5 5 5 5 3 5 5 3 5 5 5 5 5 5 5 5 5 5 3 5 3 5 5 5 5 5 5 3 5 5 5 5 5 5 5 5 5 5 5 5 5 5 3 5 5 5 5 5 5 5 5 5 5 5 5 5 5 3 5 5 5 5 3 5 3 5 5 5 5 5 5 3 5 3 3 5 5 5 5 3 5 5 5 3 3 5 3 5 5 5 3 5 5 5 5 5 5 3 5 5 5 5 3 3 5 5 5 5 5 3 5 5 5 5 5 3 3 5 5 5 5 5 5 3 5 5 5 5 5 5 5 5 3 5 5 5 5 5 5 5 5 5 5 5 5 5 5 5 5 5 5 5 5 5 5 5 5 5 5 5 5 5 5 5 3 5 5 5 3 5 5 5 5 5 5 5 3 3 3 3 5 5 5 5 5 5 5 5 5 5 5 5 5 5 5 5 5 5 5 5 5 5 3 5 5 5 5 5 5 5 5 5 5 5 5 5 5 5 5 5 5 5 5 5 5 5 5 5 5 5 3 5 5 5 5 5 5 5 5 5 5 5 5 5 5 5 5 5 5 5 5 5 5 5 5 5 5 5 5 5 3 5 3 5 3 5 5 5 5 5 5 5 3 5 5 5 3 5 5 5 5 5 5 3 5 5 5 5 5 5 3 5 5 5 5 5 5 5 5 5 5 5 5 5 5 5 5 3 3 3 5 3 5 5 5 3 3 5 5 5 5 5 5 5 5 5 5 5 5 5 5 5 5 5 5 5 5 5 5 5 5 5 5 5 5 5 5 5 5 5 5 3 5 5 5 5 3 5 5 5 5 3 5 5 5 5 5 3 5 5 5 5 5 5 5 5 3 5 5 5 5 3 5 5 5 5 5 3 5 5 5 5 5 3 3 5 5 5 5 5 5 5 3 5 5 3 5 5 5 5 5 3 3 5 5 5 5 5 5 3 5 5 5 3 5 5 5 5 5 5 5 3 3 5 5 5 5 5 5 5 5 3 5 5 5 3 5 5 5 3 5 5 5 5 5 5 5 5 5 5 5 5 5 5 5 5 5 5 3 5 3 5 5 5 5 5 5 3 5 3 5 5 3 5 5 5 5 3 5 3 5 5 5 5 3 5 5 5 5 5 5 5 5 3 5 5 3 5 5 5 5 5 5 5 5 5 3 5 3 5 5 3 5 5 5 5 3 5 5 3 5 5 3 5 5 3 5 3 5 3 5 5 3 3 5 5 5 5 5 5 5 5 5 5 5 5 5 5 5 5 3 5 5 5 5 5 5 5 5 5 5 5 5 5 5 5 5 3 5 5 5 3 3 3 5 5 5 5 5 3 5 5 5 5 3 3 5 5 5 5 3 5 5 5 3 5 3 3 5 5 3 5 5 3 5 5 5 5 5 3 5 5 5 5 5 5 5 5 5 5 3 3 5 5 5 5 5 5 5 5 3 5 5 5 5 3 5 5 5 5 5 5 5 5 5 5 5 5 5 5 5 5 3 5 5 5 5 5 5 5 5 5 5 5 5 5 5 5 5 5 5 5 5 5 3 5 5 5 5 5 5 5 3 3 5 5 5 5 5 5 5 5 5 5 3 5 5 5 5 3 5 5 5 5 5 5 5 5 5 5 3 5 5 5 5 5 5 5 5 5 3 3 5 5 5 5 5 5 5 5 5 5 5 5 3 5 5 3 5 3 5 5 3 5 5 5 5 5 5 5 5 5 5 3 5 3 5 3 5 5 5 5 5 5 3 5 5 5 3 5 5 3 5 5 5 3 3 5 5 5 5 5 5 5 5 5 5 5 5 5 5 5 5 5 5 5 5 5 5 5 5 3 5 5 5 3 5 5 5 5 5 3 5 5 5 3 5 5 5 5 5 5 5 3 5 5 5 5 5 5 3 5 5 3 5 5 5 5 5 5 3 5 5 3 5 5 5 5 5 5 5 5 5 3 5 5 5 5 5 5 5 5 5 5 5 5 5 5 5 5 5 5 5 5 5 3 5 5 3 3 5 5 5 5 5 5 5 5 5 5 5 5 5 5 5 5 5 5 5 5 3 5 5 3 5 5 5 3 5 5 5 5 5 5 5 3 5 5 5 3 5 5 5 3 3 3 5 5 5 5 5 3 5 5 3 5 5 3 5 5 5 5 3 5 5 5 5 5 3 5 5 3 5 5 5 5 5 3 5 5 5 5 5 5 3 5 5 3 5 3 5 5 5 3 5 5 5 5 5 5 5 5 5 3 5 5 5 5 3 5 5 3 5 3 5 5 5 5 5 5 5 3 5 5 5 5 5 5 5 3 5 5 3 5 5 5 5 5 5 3 5 5 5 5 3 3 3 5 3 5 5 5 5 5 5 5 5 5 3 5 5 5 5 5 5 3 5 5 5 5 5 3 5 5 5 5 5 3 5 5 5 5 3 5 5 5 3 5 5 5 5 5 5 5 5 3 5 5 3 3 5 5 5 5 3 5 5 5 5 5 5 5 5 3 5 5 3 5 5 5 5 5 3 5 5 3 5 5 5 5 5 5 5 5 5 5 5 5 3 5 3 5 5 5 5 5 3 5 5 5 3 5 5 3 5 5 5 5 5 5 5 5 5 5 3 5 3 5 5 5 5 5 5 5 5 5 5 5 5 5 5 5 5 5 3 5 5 5 3 5 5 5 3 5 5 5 5 5 5 5 5 5 5 5 5 5 5 5 5 5 5 5 5 3 5 3 5 5 5 5 5 5 5 5 5 5 5 5 5 3 5 5 5 5 5 5 5 5 5 5 5 5 5 5 5 5 5 5 5 5 5 5 5 5 5 5 5 5 5 5 5 5 5 5 5 5 5 5 5 5 5 5 5 5 5 5 5 5 5 3 3 5 5 5 5 5 5 5 5 5 5 5 5 5 3 5 5 3 5 5 3 5 5 5 3 5 5 3 5 5 5 5 5 5 5 5 5 5 5 5 5 5 5 5 5 5 5 3 5 5 5 5 5 3 5 5 5 5 5 5 5 5 5 5 5 5 5 5 5 5 5 5 5 3 3 5 5 5 5 5 5 5 5 5 5 5 5 3 5 3 5 5 5 5 5 5 5 5 5 5 5 5 5 5 5 3 5 5 5 5 5 3 3 5 5 5 5 5 5 5 5 5 5 5 5 5 5 5 5 5 5 5 5 5 5 5 5 5 5 5 5 5 5 3 5 5 5 5 5 3 5 5 5 5 5 5 5 3 5 5 5 5 3 5 5 5 5 5 5 5 5 3 5 5 5 3 3 5 5 5 5 3 5 5 5 3 3 5 5 5 5 5 5 5 5 5 5 5 5 5 5 5 5 5 5 5 5 5 5 5 3 5 3 5 5 5 5 5 5 5 5 3 5 3 5 5 5 3 5 5 3 5 5 3 5 3 5 5 5 5 5 5 5 5 5 5 5 5 5 3 5 5 5 5 3 5 5 3 5 3 5 5 3 5 5 5 5 5 5 5 5 5 5 5 5 5 5 3 5 5 5 5 5 5 5 3 5 5 5 5 5 3 5 5 5 5 5 5 5 5 5 5 5 5 5 5 5 5 5 5 5 5 5 3 5 5 5 5 5 3 5 5 3 5 5 5 5 5 5 3 5 3 5 5 5 5 3 5 5 5 5 3 5 3 3 5 3 5 3 3 5 5 3 3 5 5 5 5 5 5 5 5 5 5 5 5 3 5 5 3 5 5 5 5 5 5 5 5 5 5 5 5 3 3 3 5 5 5 3 3 5 3 5 5 3 5 5 3 5 5 5 5 5 5 5 5 5 5 5 5 5 5 5 5 5 5 5 5 5 5 5 5 5 5 5 5 5 5 5 5 3 5 5 5 5 5 5 5 5 3 5 5 3 5 5 5 5 5 5 5 3 5 5 5 5 5 5 5 5 5 5 3 5 5 5 5 3 3 5 5 5 5 5 5 3 5 5 5 5 5 5 5 5 5 5 5 5 5 5 5 5 5 5 5 5 3 5 5 5 5 3 5 5 3 5 5 5 5 5 5 5 5 5 5 5 5 5 5 5 5 5 5 5 3 5 5 3 5 5 5 5 3 3 5 5 3 5 5 5 3 5 5 5 5 5 5 5 3 5 5 5 5 5 3 5 5 5 5 5 5 5 5 5 5 5 5 5 5 5 5 5 5 5 3 5 5 5 5 5 5 5 5 5 5 5 5 5 3 5 5 5 5 3 5 5 5 5 5 5 5 5 5 5 5 5 5 5 5 5 5 5 5 5 5 5 5 5 5 5 5 5 5 3 5 5 5 3 5 5 5 5 5 3 5 5 5 5 5 5 5 5 5 5 5 5 5 5 5 5 5 5 5 5 5 5 5 5 5 5 5 5 5 5 5 5 5 5 5 5 5 5 5 5 5 5 5 5 5 5 5 5 5 5 5 5 5 5 3 5 5 5 5 3 5 5 5 5 5 3 3 5 5 5 5 5 5 3 5 5 5 5 5 5 5 5 3 5 5 3 5 5 5 5 5 5 5 3 5 5 5 3 5 5 5 3 3 5 5 5 5 3 5 5 3 5 5 5 5 5 5 5 5 5 5 3 5 5 5 5 3 5 5 5 5 5 3 5 5 5 5 5 5 5 5 5 5 5 3 5 5 5 3 5 3 5 5 5 5 5 5 3 5 5 5 5 5 3 5 5 3 5 5 5 5 5 5 5 5 5 5 5 5 5 5 5 5 5 5 5 5 5 5 5 5 5 5 5 5 5 5 5 5 5 5 5 5 3 5 5 3 5 3 5 5 5 5 5 5 5 5 5 5 5 5 3 3 5 5 5 5 5 5 5 5 5 5 5 5 5 5 5 5 5 5 5 5 5 5 5 5 5 5 5 5 5 5 5 5 5 5 5 5 5 5 5 5 5 5 5 5 5 5 5 5 5 5 3 5 5 5 5 5 5 3 5 5 5 5 5 3 5 5 5 5 3 5 5 3 5 3 5 5 5 5 5 5 5 5 3 5 3 5 5 5 5 5 5 5 5 5 5 5 5 5 3 5 3 3 5 5 5 5 5 3 5 5 5 5 5 5 3 5 5 5 3 5 5 5 5 5 5 5 5 5 5 5 5 5 5 5 5 5 5 5 5 5 5 3 5 5 5 5 5 5 3 5 5 5 5 3 3 5 5 5 5 5 5 5 5 5 5 5 5 5 5 5 5 5 5 5 5 5 3 3 5 5 5 5 5 5 5 5 5 5 5 5 5 5 5 5 5 5 5 5 5 5 5 5 5 5 5 5 5 5 5 5 5 5 5 5 5 5 5 3 5 5 3 5 5 5 3 5 5 5 5 5 3 5 3 5 5 5 5 5 3 5 3 5 3 5 3 5 5 5 5 3 5 5 5 3 5 5 5 3 5 5 5 5 5 5 5 3 5 3 5 5 5 3 5 5 5 3 5 5 5 5 5 5 5 5 5 5 5 5 3 5 5 5 5 5 3 3 5 5 5 5 3 5 3 5 5 5 3 5 5 3 5 5 5 3 5 5 5 5 5 5 5 5 5 3 5 3 5 3 5 5 5 5 5 5 5 5 3 3 5 5 5 5 5 5 5 3 5 5 5 5 5 5 5 5 3 5 3 5 5 5 3 5 5 3 5 5 3 3 5 5 3 5 5 5 5 5 5 5 5 5 5 5 3 5 5 5 5 5 5 5 5 5 5 5 5 5 5 5 3 5 5 3 5 5 3 5 5 5 5 5 3 5 5 5 3 5 3 5 5 5 3 5 5 5 3 5 5 5 5 5 5 5 5 5 5 5 5 5 5 5 5 5 5 3 5 3 5 5 5 5 5 5 5 5 5 5 5 5 5 5 5 5 5 5 5 5 5 5 5 5 5 5 3 5 5 5 5 5 5 5 5 5 5 5 5 5 5 5 5 5 3 5 3 5 3 5 3 3 5 5 5 3 5 5 3 3 5 5 5 5 5 5 5 3 5 5 3 5 3 5 5 5 3 5 5 3 5 5 5 5 5 5 3 5 5 3 5 3 5 5 3 5 3 5 5 5 3 3 5 5 3 3 5 3 5 5 5 5 5 5 5 5 5 5 5 5 3 5 5 5 5 5 5 5 5 5 5 5 5 5 5 5 5 5 5 5 5 5 5 5 5 5 5 5 3 5 5 5 5 5 5 5 3 5 5 5 5 5 3 5 5 5 5 5 3 5 5 5 3 3 3 5 5 5 3 5 5 5 5 3 5 5 5 5 3 5 5 3 5 5 5 5 5 5 5 5 5 3 3 5 5 5 5 5 5 5 5 5 3 5 5 5 5 5 5 5 5 3 3 5 5 5 5 5 5 5 5 5 5 5 5 5 3 5 5 5 5 5 5 5 5 5 5 3 5 5 3 5 5 5 5 3 5 5 5 5 5 5 5 5 5 5 5 5 5 5 5 5 5 5 5 5 5 5 5 5 5 5 5 5 5 5 5 5 5 5 5 5 5 5 5 5 5 5 5 5 5 3 5 5 5 5 5 5 5 5 5 5 5 5 5 5 5 5 5 5 5 5 5 5 5 5 5 5 5 5 5 5 5 5 5 5 5 5 5 5 3 5 3 5 5 5 5 3 5 3 5 5 5 5 5 5 5 5 5 5 5 5 5 5 5 5 5 5 5 5 5 5 5 5 5 5 5 3 5 5 3 5 5 5 5 5 5 5 5 5 5 5 3 5 3 5 5 3 5 3 5 5 3 3 5 5 5 5 3 5 5 3 5 5 5 5 5 5 5 5 5 5 5 3 3 5 3 5 3 5 5 3 3 5 5 5 5 5 5 5 5 5 5 5 3 5 5 5 5 5 5 5 5 5 5 5 5 5 5 5 5 5 5 5 5 3 5 5 5 3 5 5 5 5 3 5 5 3 3 5 5 3 5 3 5 5 5 5 3 5 3 5 5 3 5 5 5 3 5 5 3 5 5 5 5 5 3 5 5 5 5 5 5 5 5 5 5 5 5 5 5 5 5 3 5 3 5 3 5 3 5 3 5 3 5 3 5 3 5 5 5 5 5 5 5 5 5 5 5 3 5 5 5 5 5 5 5 5 5 5 5 5 5 5 3 5 5 5 5 5 5 5 5 5 5 5 5 5 5 5 5 5 5 5 5 5 5 5 5 5 5 5 5 5 5 5 5 5 5 5 5 5 3 5 5 5 5 5 5 5 5 5 3 5 5 5 5 5 5 3 5 5 5 5 5 5 5 5 5 5 5 5 5 5 5 5 5 5 5 5 3 5 5 5 5 5 5 3 3 5 5 5 5 5 5 5 5 5 3 5 5 5 5 5 5 5 5 5 5 5 5 5 5 5 5 5 5 5 5 5 5 3 5 5 3 5 5 5 5 3 5 5 5 5 5 5 5 5 5 5 5 5 5 5 5 5 5 3 5 5 5 5 5 5 5 5 5 5 5 5 5 5 5 5 3 5 3 5 5 5 3 5 3 5 5 5 5 5 3 5 5 5 5 3 5 5 3 3 5 5 5 5 5 5 5 5 5 5 5 5 5 5 5 5 5 5 3 5 5 5 5 5 5 5 5 5 5 5 5 5 5 5 5 5 5 3 5 3 5 5 5 5 5 5 5 3 5 5 5 5 5 5 5 3 5 5 5 5 3 5 5 5 5 5 5 5 5 5 5 5 5 3 5 5 5 5 3 5 5 3 5 5 5 5 5 5 5 5 5 5 5 5 5 3 5 5 5 5 5 5 5 3 5 5 5 5 3 3 5 3 5 5 5 3 5 5 5 3 5 5 5 5 5 5 5 5 5 5 5 5 5 5 3 3 3 5 5 3 3 5 5 5 5 5 3 5 5 5 5 5 5 5 5 5 5 5 5 5 3 3 5 3 5 5 3 5 5 5 5 5 3 5 5 5 5 5 3 5 5 5 5 5 5 3 3 5 5 3 5 5 3 5 3 5 5 5 5 5 3 3 5 5 3 3 5 5 5 5 5 5 5 5 3 5 5 5 5 5 5 3 5 3 3 5 5 5 3 5 5 3 5 3 5 5 5 5 5 5 5 5 3 5 5 5 5 5 3 5 5 3 5 5 3 5 5 3 5 3 5 3 5 5 5 5 5 3 5 3 5 5 5 5 5 5 5 5 3 5 3 5 5 5 3 5 5 5 5 5 5 5 5 3 5 5 5 5 3 5 5 5 5 5 5 5 5 5 5 3 5 5 5 3 3 5 5 3 5 5 5 5 5 5 5 5 5 5 5 5 5 5 3 5 5 5 5 5 5 5 3 5 5 5 5 5 5 5 5 5 5 5 5 5 5 5 5 5 5 5 5 3 5 5 3 3 3 5 5 3 5 5 3 5 5 5 5 5 5 5 5 5 5 5 5 5 5 5 5 5 5 5 5 5 5 5 5 5 5 5 5 5 5 5 5 5 5 5 5 5 5 5 5 3 5 3 5 5 5 5 5 5 5 5 5 5 5 5 5 5 5 5 5 5 5 5 5 5 3 5 3 5 3 5 5 5 5 5 5 5 5 5 3 5 3 5 5 3 5 5 5 5 5 5 5 3 5 5 5 5 5 5 5 5 5 5 5 5 3 5 5 5 5 5 5 5 5 5 5 5 5 5 5 5 5 5 5 3 5 5 5 5 5 5 3 3 5 3 5 5 5 5 5 5 3 5 5 3 5 5 5 3 5 5 5 5 5 5 3 5 5 5 3 5 5 5 5 5 5 5 3 5 5 5 5 3 5 5 5 5 5 5 5 3 5 5 5 5 3 5 5 3 5 5 3 5 5 3 5 3 5 5 5 5 5 5 5 5 5 5 3 3 5 5 3 5 5 5 5 5 5 3 5 5 5 5 5 5 5 3 5 5 3 5 5 5 5 5 5 5 5 3 5 5 5 5 3 5 3 5 3 5 5 3 5 5 5 5 5 5 3 5 5 5 5 5 5 3 5 5 5 5 3 5 5 5 5 5 5 5 5 5 5 5 5 5 5 5 5 5 5 5 5 5 5 5 5 5 5 5 5 5 5 5 5 5 5 5 5 3 5 5 5 3 5 5 5 5 5 5 5 5 5 5 5 5 5 5 5 5 5 5 5 5 5 5 5 5 5 5 5 5 5 5 5 5 5 5 3 5 5 5 5 3 5 5 5 5 5 5 5 5 5 5 5 5 5 5 5 5 5 3 5 5 5 5 5 5 5 5 5 5 5 5 5 5 5 5 5 3 5 5 5 5 5 5 5 5 5 5 5 5 5 5 5 5 5 5 5 5 5 5 5 5 5 5 5 5 5 5 5 5 5 5 5 5 5 5 5 5 5 5 5 5 5 5 5 5 5 5 5 5 5 5 5 5 5 5 5 5 5 5 5 3 5 5 5 5 5 5 5 5 5 5 5 5 5 5 5 5 5 5 5 5 5 3 5 5 5 5 5 5 5 5 5 5 3 3 5 5 5 5 5 5 5 5 5 5 5 5 5 5 5 5 5 5 5 5 5 5 5 5 5 5 5 5 5 5 5 5 5 5 5 5 5 5 5 5 5 5 5 5 5 5 5 5 5 5 5 5 5 5 5 5 5 5 5 5 5 5 5 5 3 5 5 5 5 5 5 3 5 5 5 5 5 5 5 5 5 5 5 5 5 5 5 5 5 5 5 5 5 5 5 5 5 5 5 5 5 5 5 5 5 5 5 5 5 5 5 5 5 5 5 5 5 5 5 5 5 5 5 5 5 5 5 5 5 5 5 3 5 5 5 5 5 5 5 5 5 5 5 5 5 5 5 5 5 5 3 5 5 5 5 5 5 5 5 5 3 5 5 5 5 5 5 5 5 5 5 5 5 5 5 5 5 3 3 5 5 3 5 5 3 5 5 5 3 5 5 5 5 5 5 5 5 5 5 5 5 5 5 5 5 5 5 5 5 5 5 5 3 5 5 5 5 5 5 5 5 5 5 5 5 5 3 5 5 5 5 5 5 5 5 5 5 5 5 5 5 5 5 5 5 5 5 5 5 5 5 5 5 5 5 5 5 5 5 5 5 5 5 5 5 5 3 5 5 5 5 5 3 5 5 5 3 3 5 3 5 5 5 5 3 5 5 3 5 5 5 5 5 5 5 3 5 5 5 5 5 5 5 3 5 5 5 5 5 5 5 5 5 5 5 5 5 5 5 5 5 5 5 5 5 5 5 5 3 5 5 5 5 5 5 5 3 5 5 5 5 5 5 5 5 5 5 5 5 5 5 5 5 5 5 5 5 5 5 5 5 5 5 5 5 5 5 5 5 5 5 5 5 3 5 5 3 5 5 5 3 5 5 5 3 5 3 5 5 5 5 5 5 5 5 5 5 3 5 5 3 5 5 5 5 5 5 5 5 5 5 5 3 5 5 5 5 5 5 5 3 5 5 5 5 5 5 5 5 5 5 5 5 5 5 5 5 5 5 5 5 3 5 5 5 5 5 5 5 3 5 5 5 5 5 5 5 5 3 5 3 5 5 5 5 5 5 5 5 5 5 5 5 5 5 5 3 5 5 5 5 5 5 5 5 5 5 5 5 5 5 5 5 5 5 5 3 5 5 5 5 5 5 5 5 3 5 5 5 5 5 5 5 5 5 5 3 5 5 5 3 5 3 5 5 5 3 5 5 5 5 3 5 5 3 5 5 5 5 5 5 5 5 3 5 3 5 5 5 3 5 5 5 5 5 5 5 5 5 5 5 5 5 5 5 5 5 5 3 5 5 5 3 5 3 5 5 5 5 5 5 5 5 5 5 5 5 5 5 5 3 5 5 3 5 5 5 5 5 5 3 5 5 3 5 5 5 5 5 5 5 5 3 5 3 5 5 5 5 5 5 3 5 5 5 5 5 5 5 5 5 5 5 5 5 5 5 5 5 3 5 5 5 5 5 5 5 5 5 5 5 5 5 5 5 5 5 5 5 5 5 3 5 3 5 5 3 5 5 5 5 5 5 5 5 5 5 5 5 5 5 5 5 5 3 5 5 5 5 5 5 5 5 5 5 5 5 5 5 5 5 5 5 5 5 5 5 5 5 5 5 5 5 5 5 5 5 5 5 5 5 5 5 5 5 5 5 5 5 5 5 5 5 5 5 5 5 3 5 5 5 3 5 5 5 5 5 5 3 5 5 5 5 5 5 5 5 5 5 5 3 5 5 5 5 5 5 5 5 5 5 5 5 5 5 3 5 5 5 5 5 5 5 5 5 3 5 5 5 5 5 5 5 5 5 5 5 5 5 5 5 5 5 5 3 5 3 5 5 5 3 5 5 5 5 3 5 5 5 5 5 5 5 5 5 5 5 5 5 5 5 5 5 5 5 5 5 5 5 5 5 5 5 5 5 5 5 5 5 5 5 5 5 5 5 5 5 5 5 5 5 5 5 5 5 5 5 5 5 5 5 5 5 5 5 5 5 5 5 5 5 5 5 5 5 5 5 3 5 3 3 5 5 5 3 5 5 5 5 5 5 5 5 5 3 3 5 5 3 5 5 5 5 5 5 5 5 5 5 5 5 5 5 5 5 5 5 5 5 5 5 5 5 5 5 5 5 5 5 5 5 5 5 5 5 5 5 5 5 5 5 5 5 5 5 5 5 5 5 5 5 5 5 5 5 5 5 5 5 5 5 5 5 5 5 5 3 5 5 5 5 5 5 5 5 5 5 3 5 5 5 3 5 5 5 5 5 5 5 5 5 5 5 5 5 5 5 5 5 5 5 5 3 5 3 5 5 5 5 5 5 5 3 5 5 5 5 5 5 5 5 3 3 5 5 5 5 5 5 5 3 3 3 5 5 3 5 5 3 5 5 5 3 5 5 3 5 5 5 5 5 5 5 3 5 5 5 5 5 5 5 5 5 5 5 5 5 5 5 3 3 5 5 5 5 5 5 5 5 5 5 5 5 5 5 5 5 5 5 5 5 5 5 5 5 5 5 5 5 5 5 5 5 5 3 5 5 5 5 5 5 5 5 5 5 5 5 5 5 5 5 5 5 5 5 5 5 5 5 5 5 5 5 5 5 5 5 5 5 5 5 5 5 5 5 5 5 5 5 5 5 5 5 5 5 5 5 5 5 5 5 5 5 5 5 5 5 5 5 5 5 5 5 3 5 5 5 5 3 5 5 5 3 5 5 5 5 5 5 5 5 5 5 5 5 5 5 5 5 5 5 5 5 5 5 5 5 5 5 5 5 5 5 5 5 5 5 5 5 5 5 5 5 3 5 5 5 5 3 5 5 5 5 5 5 3 5 3 3 5 5 5 3 5 5 5 5 5 5 5 5 5 5 5 5 5 5 5 5 5 5 5 5 5 5 5 5 5 5 5 5 5 3 3 5 5 5 5 5 5 5 5 5 5 5 5 5 5 5 5 5 5 5 3 5 5 5 3 5 5 5 5 5 3 5 5 5 5 3 3 5 5 5 5 5 5 5 5 3 5 5 3 5 5 5 5 5 5 5 5 5 5 5 5 5 5 5 5 5 5 5 5 5 5 5 3 5 3 5 5 5 5 5 5 3 5 5 3 5 3 5 5 5 3 5 5 3 3 5 3 5 5 5 3 3 5 5 5 3 5 5 5 5 3 5 5 5 5 5 5 5 5 5 3 5 5 5 3 3 5 5 5 5 5 5 5 5 5 5 5 5 5 5 5 5 3 5 5 5 5 5 5 3 5 5 5 3 5 5 5 3 5 5 5 5 5 5 5 5 5 5 5 5 5 5 5 5 5 5 5 5 5 5 5 5 5 3 5 5 5 5 5 5 5 3 5 5 5 5 5 5 5 5 5 3 5 5 5 5 5 5 5 5 5 3 5 5 5 5 3 3 5 5 5 5 3 5 5 5 5 5 5 5 5 3 5 5 5 5 5 5 5 5 5 5 5 5 5 5 5 5 5 3 5 5 5 5 5 5 5 5 5 5 5 5 5 5 5 5 5 5 5 5 5 3 5 5 5 5 5 5 5 5 5 5 5 5 5 3 5 5 5 5 5 5 5 3 3 5 3 5 3 5 5 5 5 5 5 5 5 5 5 5 5 3 5 3 5 5 3 5 5 5 5 5 5 5 5 5 5 5 5 5 5 5 5 5 5 5 5 5 5 5 5 5 5 5 5 5 5 5 5 5 5 5 5 5 5 5 5 5 5 5 5 5 5 5 5 5 5 5 5 5 5 5 5 5 5 5 5 5 5 5 5 5 5 5 5 5 5 5 5 5 5 5 5 5 5 5 5 5 5 5 5 5 5 5 5 5 5 5 5 5 5 5 5 5 5 5 5 5 5 5 5 5 5 5 5 3 5 5 5 5 5 5 5 5 5 5 5 3 5 5 5 5 5 5 5 5 3 5 5 3 5 5 3 5 5 3 5 5 5 5 5 3 5 5 5 5 5 5 5 5 5 5 5 3 5 5 5 5 5 5 5 5 5 5 5 5 5 5 5 5 5 5 5 5 5 5 5 5 5 3 5 5 5 5 5 5 5 3 5 5 5 5 3 5 5 5 5 5 3 5 5 5 3 5 5 5 5 5 5 5 5 5 3 3 5 5 5 5 5 5 3 3 5 5 5 3 5 3 5 5 5 3 5 5 3 5 5 5 5 5 5 5 5 5 5 5 5 5 5 5 5 5 5 5 5 5 5 5 5 5 5 5 5 5 5 5 5 5 5 5 5 5 5 3 5 5 5 3 5 5 5 5 5 3 5 5 5 5 5 5 3 3 5 5 3 5 5 5 5 5 5 3 3 5 5 5 5 5 3 5 5 5 5 5 5 5 5 5 3 5 5 5 5 5 5 5 5 5 5 5 5 5 5 5 5 5 5 5 5 5 5 5 5 5 3 5 5 5 5 5 5 5 5 5 5 5 5 5 5 5 5 5 5 5 3 5 5 5 5 5 5 5 5 5 5 5 3 5 5 5 5 5 5 5 5 5 5 5 3 3 5 5 5 5 5 5 5 3 5 5 5 5 3 5 3 5 3 5 3 5 5 3 5 5 5 3 5 5 5 5 3 5 5 5 5 3 5 5 5 3 5 5 5 5 5 5 3 5 5 5 5 3 5 5 5 3 5 5 5 5 5 5 5 5 5 3 5 5 5 5 5 5 3 5 5 5 3 5 5 5 5 5 5 5 5 5 5 5 5 5 5 5 5 5 5 3 5 5 5 5 3 5 5 5 5 5 5 5 5 5 3 5 5 5 5 5 5 5 3 3 3 5 5 5 5 3 5 5 3 5 5 5 5 5 5 5 5 5 3 5 5 5 3 3 5 5 5 5 5 5 5 5 3 5 5 5 5 5 5 5 5 5 5 5 5 5 5 5 5 5 5 5 5 5 5 5 5 5 5 5 5 5 5 5 3 5 3 5 5 5 5 5 5 3 5 5 3 5 5 3 5 5 5 5 3 5 5 5 5 3 3 5 5 5 5 5 5 5 5 5 5 5 5 5 3 5 5 3 5 3 5 5 5 5 5 3 5 5 5 5 5 5 5 5 5 5 5 5 5 3 5 5 5 5 5 5 5 5 5 5 3 5 5 5 3 5 5 5 5 5 5 5 5 5 5 5 5 5 5 5 5 5 5 5 5 5 5 5 5 5 5 5 5 5 5 5 5 5 5 5 5 5 5 5 5 5 5 5 5 5 5 5 5 5 5 5 5 5 5 5 5 5 5 5 5 5 5 5 5 5 5 5 5 5 5 5 5 5 5 5 5 5 5 5 5 5 5 5 5 5 5 5 5 5 5 5 5 5 5 5 5 5 5 5 5 5 5 5 5 5 5 5 5 3 5 5 5 5 3 5 5 5 5 5 5 5 5 3 5 5 3 5 5 3 5 5 3 5 5 5 5 5 5 5 3 5 5 3 5 5 5 5 5 5 5 5 3 5 5 5 3 5 3 5 5 5 5 5 5 3 5 3 5 5 5 5 5 5 5 5 5 3 5 5 5 3 3 5 5 5 5 3 3 5 5 5 5 5 5 5 5 5 5 5 5 5 5 5 5 3 5 5 5 5 5 5 3 5 3 5 5 5 5 5 5 5 5 5 5 5 5 5 5 5 5 5 5 5 5 5 5 5 5 5 3 5 5 5 3 5 5 5 5 5 5 3 5 5 5 5 5 3 5 5 3 5 5 5 5 5 5 5 5 5 5 5 5 5 5 3 5 5 5 5 5 5 5 5 3 5 5 5 5 5 5 5 5 3 5 5 5 5 5 5 5 3 5 5 5 5 3 5 5 5 5 5 5 5 5 5 5 5 5 3 5 5 5 3 5 5 5 5 5 5 3 5 5 5 3 5 3 5 5 5 5 5 3 5 5 5 3 5 5 5 3 5 5 5 5 3 5 5 5 5 5 5 5 5 5 5 5 5 5 5 5 3 5 5 5 5 5 5 5 5 3 5 5 5 5 5 5 5 5 5 5 5 5 3 5 3 5 5 5 5 5 5 5 5 5 5 5 3 5 5 3 5 5 5 5 5 5 5 5 5 5 3 5 5 5 3 5 5 5 5 5 5 3 5 5 5 5 5 5 5 5 5 5 5 5 5 5 5 5 5 5 5 5 5 5 5 5 5 3 5 5 5 5 5 5 5 5 5 5 5 5 5 5 5 5 5 5 5 5 5 3 5 3 3 5 5 5 5 3 5 5 3 5 3 5 5 5 5 3 5 3 5 5 5 5 5 5 5 5 5 5 5 5 5 3 5 3 5 5 5 5 5 5 5 5 5 5 5 5 5 5 5 5 5 5 5 5 5 5 5 5 5 5 5 5 5 5 5 5 5 5 5 5 5 5 5 5 5 5 5 5 5 5 5 5 5 5 5 3 3 5 5 5 5 5 5 5 5 5 5 5 5 5 5 5 5 5 5 5 5 3 5 5 5 5 5 5 5 5 5 5 5 5 5 5 5 5 5 5 5 5 5 5 5 3 5 5 5 3 5 5 5 5 5 5 5 5 5 5 5 5 5 5 5 5 5 5 5 5 5 5 5 5 5 5 5 5 5 5 5 5 5 5 5 5 5 5 5 5 5 5 5 5 5 5 5 5 5 5 5 5 5 5 5 5 5 5 5 5 5 5 5 5 5 5 5 5 5 5 5 5 5 5 5 5 5 5 5 5 5 5 5 5 5 5 5 5 5 5 3 5 5 5 5 5 5 5 5 5 3 5 5 5 5 5 5 5 5 5 5 5 5 5 5 5 5 3 5 5 5 5 3 5 5 5 5 5 3 5 5 5 5 5 5 5 5 5 5 5 5 5 5 5 5 5 5 5 3 5 5 5 3 5 5 5 5 5 5 5 3 5 5 5 5 5 3 5 5 5 5 5 5 3 5 5 5 5 5 5 5 5 5 5 5 5 3 5 5 5 5 3 5 5 5 3 5 5 5 3 3 5 5 5 5 5 5 5 5 5 5 5 5 5 5 5 5 3 5 5 5 3 5 5 5 5 5 5 5 5 5 5 5 5 5 5 5 5 5 3 5 5 5 5 5 5 5 5 5 5 5 5 5 5 5 5 5 5 5 5 5 5 5 5 5 5 5 5 5 5 5 5 5 5 5 5 5 5 5 5 5 5 5 3 5 3 5 3 5 3 5 5 5 5 5 5 5 5 5 5 5 5 5 3 5 5 5 3 5 3 5 3 3 5 5 5 5 5 5 5 5 5 5 5 5 5 5 5 5 5 5 5 5 5 5 5 5 5 5 5 5 5 5 5 5 5 5 5 5 5 5 5 5 5 5 5 5 5 5 5 5 5 5 5 5 5 5 5 5 5 5 5 5 5 5 5 5 5 5 5 5 3 5 5 3 5 5 5 5 3 5 3 5 5 5 5 5 5 5 5 5 3 5 5 5 5 5 5 5 5 5 5 5 5 5 5 5 5 5 5 5 5 5 5 5 3 5 5 5 5 5 5 3 5 3 5 5 5 5 5 5 5 3 5 5 5 5 5 5 5 3 5 5 5 5 5 5 5 5 5 5 5 5 5 5 5 5 5 5 5 5 5 5 3 5 3 5 3 5 5 3 5 5 5 5 5 3 5 5 5 3 5 5 3 5 5 5 5 5 5 5 5 5 5 5 5 5 5 5 5 5 5 5 5 5 5 5 5 5 5 5 5 5 5 5 5 5 5 5 5 5 5 5 5 5 5 5 5 5 5 5 5 5 5 5 5 5 3 5 5 5 5 5 5 5 3 3 5 5 5 5 5 3 5 5 5 5 5 3 5 5 5 5 5 3 5 5 5 5 5 5 5 5 5 5 5 5 5 5 5 5 5 5 5 5 5 5 5 5 5 3 5 5 5 5 5 5 5 5 5 5 5 5 5 5 5 5 5 5 5 5 5 5 5 5 5 5 5 5 5 5 5 5 5 5 5 5 5 5 5 5 5 5 5 5 5 5 5 5 5 3 5 5 3 5 5 5 5 5 5 5 5 5 5 5 3 5 5 5 5 5 5 5 5 5 5 5 5 5 5 5 5 5 5 5 5 5 5 5 5 5 5 5 5 5 5 5 5 5 5 5 5 5 5 5 5 5 5 5 5 5 5 5 5 3 5 5 5 5 5 5 5 5 5 3 5 5 5 5 3 5 5 5 5 5 5 5 5 3 5 5 3 5 5 5 5 5 3 5 5 5 5 5 5 3 5 5 5 5 5 3 5 5 5 5 5 5 5 5 5 5 5 5 5 5 5 3 5 5 5 3 5 5 5 5 5 5 5 5 3 5 5 5 5 5 5 5 5 5 5 5 5 5 5 5 5 5 5 5 5 5 5 5 5 5 5 5 5 5 5 5 5 5 5 5 5 5 5 5 5 5 3 5 5 5 5 5 5 5 5 3 5 5 5 5 5 5 5 5 5 5 5 5 3 5 5 5 5 5 5 5 3 5 3 5 3 3 5 5 5 5 5 5 3 5 5 5 3 5 5 5 5 5 5 5 5 5 5 3 5 5 3 5 3 5 5 5 5 3 5 5 5 5 5 5 3 5 5 5 5 5 5 5 3 5 3 5 5 3 3 5 5 3 3 5 5 5 5 3 3 5 5 3 5 5 5 5 5 3 5 5 5 5 5 5 5 5 5 5 5 5 5 5 5 5 5 5 5 5 5 5 5 3 5 5 5 5 5 5 5 5 5 5 5 5 5 5 5 3 5 5 5 5 5 5 5 5 5 5 3 5 5 3 5 5 3 5 5 5 3 5 5 5 3 5 5 5 5 5 5 5 5 5 5 5 5 5 5 5 5 5 5 5 5 5 5 3 5 5 3 5 5 5 5 5 5 5 3 5 5 5 5 3 5 5 5 5 5 5 5 5 5 5 3 5 5 5 5 5 5 5 5 5 5 5 5 5 5 5 5 5 5 5 5 5 5 3 5 5 3 5 5 5 5 5 3 5 5 5 3 5 5 5 5 5 5 5 5 5 5 5 5 5 5 5 5 5 5 5 5 3 5 5 5 5 5 5 5 5 5 5 5 5 3 5 5 5 5 5 5 5 5 3 5 5 5 5 3 5 5 3 5 3 5 5 5 5 3 5 5 5 5 3 5 5 5 5 5 5 5 5 5 5 5 5 5 5 5 5 5 5 5 5 5 5 5 5 3 5 5 3 5 5 3 5 5 5 5 5 5 5 5 5 5 5 5 5 5 3 3 5 5 5 5 5 5 5 5 5 5 5 3 5 5 5 5 3 5 5 5 5 3 5 5 3 5 3 5 5 5 3 5 5 5 5 5 3 3 5 5 5 3 3 5 5 5 3 5 5 5 5 5 5 5 5 5 3 3 5 5 5 5 5 5 5 5 5 5 5 5 5 5 5 3 5 5 5 5 5 3 5 5 5 5 5 3 5 5 5 5 3 5 3 5 5 5 5 5 5 5 5 5 5 5 5 5 5 5 5 5 5 5 5 3 3 5 5 5 5 5 3 5 5 5 5 5 5 5 5 5 5 5 5 5 5 5 5 5 5 5 5 5 5 5 5 5 5 5 5 5 5 5 5 5 5 5 5 5 3 5 5 5 3 5 5 5 5 5 5 5 5 5 5 5 3 5 5 5 5 5 5 5 5 5 5 5 3 5 5 5 5 5 5 5 5 5 5 5 5 5 5 5 5 5 5 5 5 5 5 5 5 5 5 5 5 5 5 5 5 5 5 5 5 3 3 5 5 5 5 5 5 5 5 5 5 3 5 5 5 5 3 5 5 5 5 5 5 5 5 5 5 5 5 5 5 5 5 5 5 5 5 5 5 5 5 5 5 5 5 5 5 5 5 5 5 5 5 3 5 5 5 5 5 5 5 5 5 3 5 3 5 5 5 5 5 5 3 5 5 3 5 5 5 5 5 5 3 5 5 3 5 3 5 5 5 5 3 5 5 5 5 5 5 5 5 5 5 5 5 5 5 3 3 5 5 5 5 5 3 5 5 3 5 5 3 5 5 5 3 3 5 3 5 5 5 3 5 5 5 5 5 5 5 5 5 3 5 5 5 5 3 5 5 5 5 5 5 5 5 5 5 5 5 5 3 5 5 5 5 5 5 5 5 5 5 5 5 5 5 5 5 3 5 3 3 5 5 5 5 5 5 3 5 5 3 5 5 3 3 5 5 5 3 5 5 5 5 5 5 5 5 5 5 5 5 5 5 5 5 5 5 5 5 5 5 5 5 5 5 3 5 5 5 5 5 5 5 5 5 5 5 5 5 3 5 5 5 5 5 3 5 5 5 5 5 3 5 5 3 5 5 3 3 5 5 3 5 5 3 3 3 3 5 5 5 5 3 5 5 5 5 5 5 5 5 5 5 5 5 5 5 5 5 5 5 5 5 5 5 5 3 5 5 5 5 5 3 5 5 5 5 3 5 5 5 5 5 3 5 5 5 3 5 3 5 5 3 5 5 5 3 5 5 5 5 3 5 5 3 3 5 5 5 5 5 5 5 5 5 3 3 5 5 3 3 5 5 5 5 3 5 5 5 5 5 5 5 5 5 5 5 5 5 5 3 5 5 5 3 5 5 5 5 5 5 5 5 5 5 5 3 3 3 5 5 3 5 5 5 5 5 5 5 5 5 5 5 3 5 5 5 3 5 5 3 5 5 5 5 3 5 5 5 5 5 5 5 5 5 5 3 5 3 3 5 3 5 5 5 5 3 5 5 5 5 5 5 5 5 5 5 5 3 5 5 3 5 5 5 3 5 5 5 5 3 5 5 5 5 5 5 5 5 5 5 5 5 5 5 5 5 5 3 5 5 5 5 5 5 5 5 5 5 5 3 5 5 5 5 5 5 5 5 5 5 5 5 5 5 5 5 5 5 5 5 5 5 5 5 5 5 5 5 5 5 5 5 5 5 5 5 5 5 5 5 5 5 5 5 5 5 5 5 5 5 5 5 5 5 5 5 5 5 5 5 5 5 5 5 5 5 3 5 5 5 5 5 5 5 3 5 5 3 5 5 5 5 5 3 3 5 5 5 5 5 5 5 5 5 5 5 5 5 5 5 3 5 5 5 5 5 5 3 5 5 5 5 3 3 5 5 5 5 5 5 5 5 5 5 5 5 5 5 5 5 5 5 5 5 5 5 5 5 3 3 5 5 5 5 3 5 5 3 5 5 5 5 3 5 5 5 5 3 5 5 5 5 5 5 5 5 5 5 5 5 5 5 5 5 5 5 5 5 5 5 5 5 5 5 5 3 5 5 5 5 5 5 5 5 5 3 5 5 5 5 3 5 5 5 3 5 5 5 5 5 5 5 5 5 5 5 5 3 3 5 5 5 5 5 5 5 5 3 5 5 5 3 5 5 5 3 5 5 5 5 5 5 5 5 5 5 5 5 5 5 5 5 3 5 5 5 5 5 5 3 5 5 5 5 5 5 5 5 5 5 5 5 5 5 5 5 5 5 5 5 5 5 5 5 3 5 3 5 5 3 5 5 5 3 5 5 5 5 5 5 5 5 5 3 5 5 3 5 5 5 3 5 5 5 5 5 5 5 5 5 5 5 5 5 5 5 5 5 5 5 5 5 5 5 5 5 5 5 5 5 5 5 5 5 5 5 5 5 5 5 5 5 5 5 3 5 5 5 5 5 5 5 5 5 3 5 5 5 3 5 5 5 5 5 5 5 3 5 5 5 5 5 5 5 3 5 5 3 5 5 5 5 5 5 5 5 5 3 5 5 3 5 5 5 5 5 3 5 5 5 5 5 5 5 5 5 5 5 5 5 3 5 5 5 5 5 5 5 5 5 3 5 3 5 5 5 5 5 5 5 5 5 5 3 5 3 5 5 5 5 3 3 5 5 5 5 5 5 5 5 5 5 5 5 5 5 5 5 5 5 5 5 5 3 3 5 5 3 5 5 3 5 5 5 3 5 5 5 3 5 5 3 3 5 5 5 3 5 5 5 3 5 5 5 5 5 5 3 5 5 5 5 5 5 3 5 5 5 5 5 5 5 3 5 5 3 5 3 5 5 5 5 5 5 3 5 5 5 5 5 5 5 5 5 5 5 5 5 5 5 5 5 5 5 5 5 5 5 5 5 3 5 5 5 5 5 5 5 5 5 3 5 5 5 5 5 3 5 5 5 5 5 5 5 5 5 5 5 5 5 5 5 5 5 5 5 5 5 5 5 5 5 5 5 5 3 5 5 5 5 5 3 5 5 5 5 5 5 5 5 5 5 5 5 3 5 5 3 5 5 5 5 5 5 5 5 5 3 5 3 5 5 3 5 5 5 5 5 5 3 5 5 5 5 5 3 5 5 5 5 3 5 3 5 5 3 5 5 5 5 5 5 5 5 3 3 5 5 5 5 5 5 5 5 5 5 5 5 5 5 5 5 5 5 5 5 5 5 5 5 5 3 5 5 5 5 5 5 3 5 5 5 5 5 5 5 5 3 5 5 5 5 5 5 5 5 5 5 5 5 5 5 3 5 5 5 5 5 5 5 5 5 5 5 5 5 5 5 5 5 5 5 5 5 5 5 5 5 5 5 3 3 5 3 5 5 5 5 5 5 5 5 5 5 5 5 5 5 5 5 5 5 5 5 5 5 5 5 5 5 5 5 5 5 5 5 5 3 5 5 5 5 5 3 5 5 5 3 5 5 5 5 5 3 3 3 5 5 5 5 5 3 5 5 3 3 5 5 5 5 5 5 3 5 5 3 5 5 5 5 5 5 5 5 5 5 5 5 5 5 5 5 5 5 5 5 3 5 5 5 3 5 5 5 5 5 5 5 3 5 5 5 5 5 5 5 5 5 3 5 5 5 5 3 5 5 5 5 5 5 5 5 5 5 5 5 5 5 5 5 5 5 5 5 5 5 5 3 5 5 5 5 5 5 5 5 5 5 5 5 5 5 3 3 3 5 5 3 5 5 5 5 5 5 5 5 5 5 3 5 3 5 5 5 5 5 5 5 5 5 5 5 3 5 5 5 3 5 5 3 5 5 3 5 5 5 5 5 3 5 5 5 3 3 5 5 5 3 3 5 5 5 5 5 5 5 3 5 5 5 5 5 5 5 5 5 5 5 5 5 5 5 3 5 3 5 5 5 5 3 5 5 5 5 5 5 5 5 5 5 3 5 5 5 5 5 3 5 5 5 5 5 3 5 5 5 5 5 5 5 5 5 5 5 5 5 5 5 5 5 5 3 5 5 5 3 5 3 5 5 3 5 5 5 5 5 5 5 3 5 5 5 5 3 5 5 5 5 5 5 5 3 5 5 5 5 5 3 3 5 5 5 5 5 5 5 5 5 5 5 5 5 5 5 5 5 5 5 3 5 5 5 5 5 5 5 5 5 3 5 5 5 5 5 5 5 5 5 5 5 5 5 5 5 5 5 5 3 5 3 5 5 5 5 3 3 5 5 5 5 3 5 5 3 5 5 5 5 5 5 5 3 5 5 3 5 5 5 5 5 5 5 5 5 5 5 5 5 5 5 5 3 5 5 3 5 3 5 5 3 5 5 3 3 5 5 3 5 3 5 5 5 5 5 5 5 3 5 5 5 5 5 5 5 5 5 5 5 5 5 5 5 5 5 5 5 5 5 5 5 5 5 5 5 5 5 5 5 5 5 5 5 5 5 5 5 5 5 5 5 5 5 5 5 3 5 5 3 5 5 5 5 5 3 5 3 5 5 5 5 5 5 5 5 5 5 5 5 5 5 5 5 5 5 5 5 5 5 5 5 5 5 5 3 5 5 5 5 5 5 5 5 5 5 5 5 5 3 5 5 5 5 3 5 5 5 3 3 5 5 5 3 5 5 5 5 5 5 3 5 5 3 5 3 5 5 5 5 5 5 5 5 5 5 5 5 5 5 5 5 5 5 5 5 5 5 5 3 5 3 5 5 5 3 5 5 5 5 5 3 5 5 5 5 5 5 5 5 3 5 5 5 3 5 3 5 5 5 3 5 5 5 5 5 5 5 3 5 5 3 5 5 5 3 5 3 5 5 3 5 5 5 5 5 5 5 5 5 5 3 5 5 5 5 5 5 3 5 3 5 5 5 5 5 3 5 5 5 5 5 5 5 5 5 3 5 5 5 5 5 5 5 5 3 5 5 3 5 3 5 3 5 5 5 5 5 3 5 5 5 5 5 5 5 5 5 5 3 5 5 5 3 5 5 5 5 5 5 3 5 5 5 5 5 5 3 5 5 5 5 5 5 3 5 5 5 5 3 5 5 5 5 3 5 5 5 5 5 5 5 5 5 5 5 5 5 5 5 5 5 5 3 5 5 3 5 5 5 3 5 3 5 3 5 5 5 5 5 5 5 3 5 5 5 5 5 5 5 5 3 5 5 5 5 3 5 5 5 5 5 5 3 5 5 5 3 5 5 5 5 3 5 5 5 5 3 5 5 5 5 5 5 5 5 5 5 5 5 5 5 5 5 5 5 5 5 5 5 5 5 5 3 5 5 5 5 3 5 5 5 5 5 5 5 5 5 5 5 5 5 5 5 5 5 5 5 5 5 5 5 5 5 5 5 5 5 5 5 5 5 5 5 5 5 5 5 5 5 5 5 3 5 5 5 5 5 5 5 5 5 5 5 5 5 5 5 5 5 5 5 5 5 5 5 5 5 5 5 5 5 5 5 5 5 5 
</DataArray>
</Cells>
<PointData Scalars="" Vectors="displacement," Tensors="">
<DataArray type="Float64" Name="displacement" NumberOfComponents="3" format="ascii">
-0.03499663954416847 -0.035001074740633825 0 -0.034663149983811835 -0.034998101705374617 0 -0.035778717395073149 -0.033350169361811954 0 -0.034656750627589286 -0.035000098520663069 0 -0.033374783247502177 -0.035487291200237962 0 -0.033296104896678211 -0.035834456354418787 0 -0.034657577385408964 -0.034999676702538389 0 -0.034553303832581317 -0.034506118948219755 0 -0.03499663954416847 -0.035001074740633825 0 -0.035778717395073149 -0.033350169361811954 0 -0.035000625215558447 -0.031827870044546493 0 -0.034656750627589286 -0.035000098520663069 0 -0.033374783247502177 -0.035487291200237962 0 -0.03275194158730866 -0.034999438840092441 0 -0.033374783247502177 -0.035487291200237962 0 -0.032922208148753795 -0.035868511144795924 0 -0.03275194158730866 -0.034999438840092441 0 -0.033374783247502177 -0.035487291200237962 0 -0.033296104896678211 -0.035834456354418787 0 -0.032922208148753795 -0.035868511144795924 0 -0.035000625215558447 -0.031827870044546493 0 -0.036346638611640544 -0.031538761834533857 0 -0.036676602318185425 -0.029730638019054068 0 -0.035778717395073149 -0.033350169361811954 0 -0.035000625215558447 -0.031827870044546493 0 -0.036346638611640544 -0.031538761834533857 0 -0.033296104896678211 -0.035834456354418787 0 -0.032678627268782935 -0.03534769874234809 0 -0.032922208148753795 -0.035868511144795924 0 -0.034553303832581317 -0.034506118948219755 0 -0.034523304177507062 -0.033412763754444158 0 -0.034523304177507062 -0.033412763754444158 0 -0.03473003649484975 -0.031611866427074559 0 -0.033479871914369519 -0.03526198684087295 0 -0.034682416235970036 -0.034976394469903839 0 -0.03435330311123113 -0.033554241931768737 0 -0.032678627268782935 -0.03534769874234809 0 -0.033479871914369519 -0.03526198684087295 0 -0.032769562319535289 -0.033485383992651538 0 -0.032678627268782935 -0.03534769874234809 0 -0.033479871914369519 -0.03526198684087295 0 -0.032922208148753795 -0.035868511144795924 0 -0.033479871914369519 -0.03526198684087295 0 -0.032780265905393027 -0.035816978608501554 0 -0.034682416235970036 -0.034976394469903839 0 -0.033479871914369519 -0.03526198684087295 0 -0.032780265905393027 -0.035816978608501554 0 -0.032922208148753795 -0.035868511144795924 0 -0.032780265905393027 -0.035816978608501554 0 -0.032922208148753795 -0.035868511144795924 0 -0.03085126355073434 -0.035000502832453276 0 -0.032922208148753795 -0.035868511144795924 0 -0.03275194158730866 -0.034999438840092441 0 -0.03085126355073434 -0.035000502832453276 0 -0.030952767554922777 -0.035712309035414551 0 -0.030847633560020998 -0.034999624668497917 0 -0.029079520753190809 -0.036051959341564563 0 -0.030845263090211582 -0.034999915743578289 0 -0.028768093531117866 -0.03580891006746429 0 -0.030845263090211582 -0.034999915743578289 0 -0.028809349380806308 -0.034999711255179193 0 -0.028768093531117866 -0.03580891006746429 0 -0.028809349380806308 -0.034999711255179193 0 -0.028768093531117866 -0.03580891006746429 0 -0.027573164885866003 -0.035700103794614246 0 -0.028768093531117866 -0.03580891006746429 0 -0.027573164885866003 -0.035700103794614246 0 -0.027688740544138307 -0.036139197841067276 0 -0.029079520753190809 -0.036051959341564563 0 -0.028768093531117866 -0.03580891006746429 0 -0.027780573525867672 -0.036237979622655701 0 -0.026772055078331938 -0.034999736482710833 0 -0.027573164885866003 -0.035700103794614246 0 -0.026465328097426757 -0.035912885839284439 0 -0.028809349380806308 -0.034999711255179193 0 -0.026772055078331938 -0.034999736482710833 0 -0.027573164885866003 -0.035700103794614246 0 -0.027573164885866003 -0.035700103794614246 0 -0.02719338054750986 -0.036210733706982114 0 -0.027688740544138307 -0.036139197841067276 0 -0.027573164885866003 -0.035700103794614246 0 -0.026465328097426757 -0.035912885839284439 0 -0.02719338054750986 -0.036210733706982114 0 -0.026465328097426757 -0.035912885839284439 0 -0.02719338054750986 -0.036210733706982114 0 -0.026882676399457836 -0.036665525112876921 0 -0.02719338054750986 -0.036210733706982114 0 -0.02735680250985973 -0.036286631304055308 0 -0.026882676399457836 -0.036665525112876921 0 -0.02735680250985973 -0.036286631304055308 0 -0.027688740544138307 -0.036139197841067276 0 -0.027780573525867672 -0.036237979622655701 0 -0.02719338054750986 -0.036210733706982114 0 -0.02735680250985973 -0.036286631304055308 0 -0.027688740544138307 -0.036139197841067276 0 -0.02735680250985973 -0.036286631304055308 0 -0.027780573525867672 -0.036237979622655701 0 -0.027249298613953612 -0.035847707307209285 0 -0.02735680250985973 -0.036286631304055308 0 -0.026882676399457836 -0.036665525112876921 0 -0.027249298613953612 -0.035847707307209285 0 -0.026111210387899427 -0.034809437119340467 0 -0.026428055936107343 -0.035502898615230892 0 -0.025980991799112601 -0.035326558093888925 0 -0.02670478865271847 -0.035749913693280032 0 -0.027054598978441185 -0.035813274241482944 0 -0.026111210387899427 -0.034809437119340467 0 -0.026428055936107343 -0.035502898615230892 0 -0.027249298613953612 -0.035847707307209285 0 -0.029079520753190809 -0.036051959341564563 0 -0.027780573525867672 -0.036237979622655701 0 -0.027658189704849238 -0.036203583360137938 0 -0.030952767554922777 -0.035712309035414551 0 -0.031178814731557317 -0.035442154243661955 0 -0.028768093531117866 -0.03580891006746429 0 -0.027688740544138307 -0.036139197841067276 0 -0.027780573525867672 -0.036237979622655701 0 -0.027780573525867672 -0.036237979622655701 0 -0.027330828282107998 -0.035979153395079171 0 -0.027249298613953612 -0.035847707307209285 0 -0.027780573525867672 -0.036237979622655701 0 -0.027658189704849238 -0.036203583360137938 0 -0.027330828282107998 -0.035979153395079171 0 -0.031178814731557317 -0.035442154243661955 0 -0.031436345918917585 -0.033858960395165637 0 -0.027330828282107998 -0.035979153395079171 0 -0.02715248800050735 -0.03562985262729685 0 -0.026424114523791845 -0.035567447502389819 0 -0.027658189704849238 -0.036203583360137938 0 -0.027330828282107998 -0.035979153395079171 0 -0.026424114523791845 -0.035567447502389819 0 -0.027330828282107998 -0.035979153395079171 0 -0.02715248800050735 -0.03562985262729685 0 -0.027249298613953612 -0.035847707307209285 0 -0.02715248800050735 -0.03562985262729685 0 -0.0265057914760276 -0.034520867896334503 0 -0.027522353428062644 -0.034052924701741913 0 -0.02715248800050735 -0.03562985262729685 0 -0.026424114523791845 -0.035567447502389819 0 -0.0265057914760276 -0.034520867896334503 0 -0.026428055936107343 -0.035502898615230892 0 -0.026829729142706819 -0.035746803643374743 0 -0.025924519571181408 -0.035474597941972531 0 -0.026428055936107343 -0.035502898615230892 0 -0.025924519571181408 -0.035474597941972531 0 -0.025980991799112601 -0.035326558093888925 0 -0.02715248800050735 -0.03562985262729685 0 -0.027249298613953612 -0.035847707307209285 0 -0.026829729142706819 -0.035746803643374743 0 -0.026428055936107343 -0.035502898615230892 0 -0.027249298613953612 -0.035847707307209285 0 -0.026829729142706819 -0.035746803643374743 0 -0.026907299044170226 -0.035591835944093028 0 -0.028355157822467048 -0.03568989194660406 0 -0.02715248800050735 -0.03562985262729685 0 -0.026829729142706819 -0.035746803643374743 0 -0.026596201678801383 -0.036215374743460232 0 -0.02715248800050735 -0.03562985262729685 0 -0.028925370423065422 -0.034649462021421509 0 -0.027522353428062644 -0.034052924701741913 0 -0.026829729142706819 -0.035746803643374743 0 -0.026596201678801383 -0.036215374743460232 0 -0.025924519571181408 -0.035474597941972531 0 -0.026596201678801383 -0.036215374743460232 0 -0.025924519571181408 -0.035474597941972531 0 -0.025288394846109209 -0.036083266738051289 0 -0.028925370423065422 -0.034649462021421509 0 -0.028474104046226949 -0.033559890997593489 0 -0.029411836499343969 -0.033194186366301115 0 -0.028925370423065422 -0.034649462021421509 0 -0.029411836499343969 -0.033194186366301115 0 -0.03069112014472801 -0.033856406067483948 0 -0.028925370423065422 -0.034649462021421509 0 -0.028474104046226949 -0.033559890997593489 0 -0.027522353428062644 -0.034052924701741913 0 -0.028474104046226949 -0.033559890997593489 0 -0.027955964200664447 -0.032232026496625758 0 -0.029411836499343969 -0.033194186366301115 0 -0.026070380251301338 -0.031350052229419896 0 -0.026968006465513655 -0.031673112345078122 0 -0.024410633517564534 -0.030469518529555411 0 -0.023760361005843972 -0.030246826825983342 0 -0.024052849132014699 -0.030947818157183386 0 -0.028474104046226949 -0.033559890997593489 0 -0.027955964200664447 -0.032232026496625758 0 -0.027522353428062644 -0.034052924701741913 0 -0.0265057914760276 -0.034520867896334503 0 -0.026437056364347226 -0.032714708293703633 0 -0.025397084202991426 -0.033371652578436141 0 -0.031436345918917585 -0.033858960395165637 0 -0.031556193903138997 -0.03103817826645467 0 -0.026424114523791845 -0.035567447502389819 0 -0.0265057914760276 -0.034520867896334503 0 -0.025397084202991426 -0.033371652578436141 0 -0.0265057914760276 -0.034520867896334503 0 -0.027522353428062644 -0.034052924701741913 0 -0.026437056364347226 -0.032714708293703633 0 -0.027955964200664447 -0.032232026496625758 0 -0.027522353428062644 -0.034052924701741913 0 -0.026437056364347226 -0.032714708293703633 0 -0.027955964200664447 -0.032232026496625758 0 -0.026437056364347226 -0.032714708293703633 0 -0.025389706934230424 -0.031077034368982813 0 -0.031556193903138997 -0.03103817826645467 0 -0.031548562937184416 -0.028537144971119668 0 -0.026437056364347226 -0.032714708293703633 0 -0.025397084202991426 -0.033371652578436141 0 -0.025389706934230424 -0.031077034368982813 0 -0.037715501739654662 -0.028837086993080602 0 -0.036176515713068833 -0.027291461295332841 0 -0.033932047586918111 -0.030502707945818056 0 -0.037715501739654662 -0.028837086993080602 0 -0.036176515713068833 -0.027291461295332841 0 -0.038148334072001903 -0.026147625244686851 0 -0.036467571066840287 -0.032449668859577403 0 -0.037715501739654662 -0.028837086993080602 0 -0.033932047586918111 -0.030502707945818056 0 -0.036061786329108066 -0.027479501867521232 0 -0.035277409704600277 -0.029379346319072144 0 -0.036176515713068833 -0.027291461295332841 0 -0.035957926056422854 -0.027415870184035667 0 -0.035865724369603114 -0.026727404625491752 0 -0.036176515713068833 -0.027291461295332841 0 -0.03656182523913197 -0.028151130772838921 0 -0.035957926056422854 -0.027415870184035667 0 -0.035957926056422854 -0.027415870184035667 0 -0.035288536801228849 -0.026971673782013882 0 -0.035865724369603114 -0.026727404625491752 0 -0.035957926056422854 -0.027415870184035667 0 -0.035494467286322891 -0.027552555902784052 0 -0.035288536801228849 -0.026971673782013882 0 -0.035000049519021428 -0.027529376446364759 0 -0.035933209185046673 -0.02607686301548183 0 -0.034999841660890242 -0.025840263611854784 0 -0.035494467286322891 -0.027552555902784052 0 -0.03499854231202059 -0.027530345806876775 0 -0.035288536801228849 -0.026971673782013882 0 -0.035000105964683802 -0.027529186135559686 0 -0.035581966669636762 -0.026497297146869641 0 -0.035494467286322891 -0.027552555902784052 0 -0.03499854231202059 -0.027530345806876775 0 -0.035899954277185286 -0.028533199522138251 0 -0.035957926056422854 -0.027415870184035667 0 -0.035494467286322891 -0.027552555902784052 0 -0.035899954277185286 -0.028533199522138251 0 -0.03656182523913197 -0.028151130772838921 0 -0.035957926056422854 -0.027415870184035667 0 -0.035899954277185286 -0.028533199522138251 0 -0.03656182523913197 -0.028151130772838921 0 -0.035899954277185286 -0.028533199522138251 0 -0.036676602318185425 -0.029730638019054068 0 -0.035000625215558447 -0.031827870044546493 0 -0.035899954277185286 -0.028533199522138251 0 -0.036676602318185425 -0.029730638019054068 0 -0.035000625215558447 -0.031827870044546493 0 -0.03499854231202059 -0.027530345806876775 0 -0.035899954277185286 -0.028533199522138251 0 -0.033479871914369519 -0.03526198684087295 0 -0.032769562319535289 -0.033485383992651538 0 -0.03435330311123113 -0.033554241931768737 0 -0.034682416235970036 -0.034976394469903839 0 -0.036467571066840287 -0.032449668859577403 0 -0.03435330311123113 -0.033554241931768737 0 -0.036467571066840287 -0.032449668859577403 0 -0.033932047586918111 -0.030502707945818056 0 -0.03435330311123113 -0.033554241931768737 0 -0.033932047586918111 -0.030502707945818056 0 -0.032769562319535289 -0.033485383992651538 0 -0.03435330311123113 -0.033554241931768737 0 -0.035277409704600277 -0.029379346319072144 0 -0.03473003649484975 -0.031611866427074559 0 -0.024244961329081351 -0.034367546964843773 0 -0.023687008122543391 -0.034034534850621301 0 -0.024620235105795456 -0.033777711179594862 0 -0.024244961329081351 -0.034367546964843773 0 -0.023035642354313029 -0.034780895425046775 0 -0.023687008122543391 -0.034034534850621301 0 -0.021141763999594183 -0.036359654227908003 0 -0.02141457782957671 -0.035967475848541999 0 -0.023035642354313029 -0.034780895425046775 0 -0.022936718774867186 -0.033789154029260235 0 -0.023687008122543391 -0.034034534850621301 0 -0.017935814517270554 -0.038067734053902659 0 -0.018502726711204932 -0.036700948843446879 0 -0.01994580915207704 -0.037252964745451672 0 -0.018502726711204932 -0.036700948843446879 0 -0.019836904937630982 -0.036242041258394704 0 -0.01994580915207704 -0.037252964745451672 0 -0.017935814517270554 -0.038067734053902659 0 -0.018502726711204932 -0.036700948843446879 0 -0.016831421072345251 -0.037087944308663759 0 -0.018502726711204932 -0.036700948843446879 0 -0.019107996018344744 -0.03582603025856354 0 -0.017419080559493694 -0.035922694940711368 0 -0.018105597325514946 -0.034999632982549808 0 -0.019107996018344744 -0.03582603025856354 0 -0.017419080559493694 -0.035922694940711368 0 -0.018105597325514946 -0.034999632982549808 0 -0.019107996018344744 -0.03582603025856354 0 -0.020129463241787094 -0.03499983451321171 0 -0.018502726711204932 -0.036700948843446879 0 -0.019107996018344744 -0.03582603025856354 0 -0.019836904937630982 -0.036242041258394704 0 -0.019107996018344744 -0.03582603025856354 0 -0.020738843595827904 -0.034995108750149946 0 -0.019836904937630982 -0.036242041258394704 0 -0.020738843595827904 -0.034995108750149946 0 -0.020955543075649487 -0.035820380231338531 0 -0.019836904937630982 -0.036242041258394704 0 -0.019249434786133179 -0.035784293387370533 0 -0.020754528338081887 -0.035418901872990322 0 -0.019107996018344744 -0.03582603025856354 0 -0.020129463241787094 -0.03499983451321171 0 -0.020743661878486381 -0.035826208513075899 0 -0.020754528338081887 -0.035418901872990322 0 -0.022022728529537433 -0.035141677998925258 0 -0.020738843595827904 -0.034995108750149946 0 -0.021082204541311298 -0.03530577756023548 0 -0.02172699653933469 -0.034764219809941675 0 -0.020129463241787094 -0.03499983451321171 0 -0.020743661878486381 -0.035826208513075899 0 -0.022153935195624589 -0.034999985290530687 0 -0.020743661878486381 -0.035826208513075899 0 -0.022153935195624589 -0.034999985290530687 0 -0.022493490200566849 -0.035520883014445656 0 -0.020738843595827904 -0.034995108750149946 0 -0.021082204541311298 -0.03530577756023548 0 -0.020955543075649487 -0.035820380231338531 0 -0.021082204541311298 -0.03530577756023548 0 -0.021356735151891647 -0.035512479981766314 0 -0.021469451190785645 -0.035284036730083373 0 -0.021082204541311298 -0.03530577756023548 0 -0.021356735151891647 -0.035512479981766314 0 -0.020955543075649487 -0.035820380231338531 0 -0.02141457782957671 -0.035967475848541999 0 -0.021505032856776445 -0.035585835941759694 0 -0.021356735151891647 -0.035512479981766314 0 -0.020955543075649487 -0.035820380231338531 0 -0.021486918525139658 -0.035675989870474406 0 -0.020955543075649487 -0.035820380231338531 0 -0.01994580915207704 -0.037252964745451672 0 -0.021578882518485522 -0.035476986799984928 0 -0.020955543075649487 -0.035820380231338531 0 -0.021578882518485522 -0.035476986799984928 0 -0.021486918525139658 -0.035675989870474406 0 -0.020955543075649487 -0.035820380231338531 0 -0.019836904937630982 -0.036242041258394704 0 -0.01994580915207704 -0.037252964745451672 0 -0.023035642354313029 -0.034780895425046775 0 -0.022496669400737856 -0.034233312160473282 0 -0.021959178628201313 -0.034530955437567762 0 -0.023035642354313029 -0.034780895425046775 0 -0.022496669400737856 -0.034233312160473282 0 -0.022936718774867186 -0.033789154029260235 0 -0.023035642354313029 -0.034780895425046775 0 -0.021959178628201313 -0.034530955437567762 0 -0.021578882518485522 -0.035476986799984928 0 -0.021959178628201313 -0.034530955437567762 0 -0.021543164039435219 -0.034621230934827725 0 -0.021578882518485522 -0.035476986799984928 0 -0.021543164039435219 -0.034621230934827725 0 -0.021429657216102533 -0.034074783615445518 0 -0.021545311827461489 -0.034264835214576156 0 -0.021543164039435219 -0.034621230934827725 0 -0.021429657216102533 -0.034074783615445518 0 -0.021578882518485522 -0.035476986799984928 0 -0.021429657216102533 -0.034074783615445518 0 -0.021500781375560579 -0.034079613107253458 0 -0.021545311827461489 -0.034264835214576156 0 -0.021959178628201313 -0.034530955437567762 0 -0.021543164039435219 -0.034621230934827725 0 -0.021545311827461489 -0.034264835214576156 0 -0.022059541419110922 -0.035644812720824169 0 -0.022621576261328928 -0.035579869697621301 0 -0.0223989587113286 -0.035843098986021747 0 -0.022183903663496537 -0.036106176569430888 0 -0.022059541419110922 -0.035644812720824169 0 -0.0223989587113286 -0.035843098986021747 0 -0.021692997574950659 -0.03511460836313509 0 -0.021654968046461793 -0.035630892905772787 0 -0.022059541419110922 -0.035644812720824169 0 -0.021486918525139658 -0.035675989870474406 0 -0.02166789035265558 -0.035431535525612547 0 -0.022183903663496537 -0.036106176569430888 0 -0.022059541419110922 -0.035644812720824169 0 -0.021486918525139658 -0.035675989870474406 0 -0.021429657216102533 -0.034074783615445518 0 -0.021578882518485522 -0.035476986799984928 0 -0.021486918525139658 -0.035675989870474406 0 -0.021082204541311298 -0.03530577756023548 0 -0.021469451190785645 -0.035284036730083373 0 -0.02172699653933469 -0.034764219809941675 0 -0.022059541419110922 -0.035644812720824169 0 -0.02166789035265558 -0.035431535525612547 0 -0.0219903088908695 -0.035200252278531706 0 -0.021356735151891647 -0.035512479981766314 0 -0.021486918525139658 -0.035675989870474406 0 -0.02166789035265558 -0.035431535525612547 0 -0.021356735151891647 -0.035512479981766314 0 -0.02166789035265558 -0.035431535525612547 0 -0.021469451190785645 -0.035284036730083373 0 -0.02166789035265558 -0.035431535525612547 0 -0.021776597251547975 -0.035118849479941844 0 -0.0219903088908695 -0.035200252278531706 0 -0.021776597251547975 -0.035118849479941844 0 -0.022108094233004832 -0.034908137225336519 0 -0.0219903088908695 -0.035200252278531706 0 -0.02166789035265558 -0.035431535525612547 0 -0.021776597251547975 -0.035118849479941844 0 -0.021469451190785645 -0.035284036730083373 0 -0.022153935195624589 -0.034999985290530687 0 -0.022493490200566849 -0.035520883014445656 0 -0.024178246148461351 -0.034999999682115764 0 -0.021776597251547975 -0.035118849479941844 0 -0.021469451190785645 -0.035284036730083373 0 -0.02172699653933469 -0.034764219809941675 0 -0.021776597251547975 -0.035118849479941844 0 -0.02172699653933469 -0.034764219809941675 0 -0.022108094233004832 -0.034908137225336519 0 -0.022493490200566849 -0.035520883014445656 0 -0.024205942589666921 -0.035123584514235605 0 -0.024178246148461351 -0.034999999682115764 0 -0.022022728529537433 -0.035141677998925258 0 -0.023871645838746503 -0.03485940610183768 0 -0.02172699653933469 -0.034764219809941675 0 -0.022108094233004832 -0.034908137225336519 0 -0.022668621681855815 -0.034525436950666143 0 -0.022108094233004832 -0.034908137225336519 0 -0.022383481755854199 -0.034929426272334863 0 -0.0219903088908695 -0.035200252278531706 0 -0.022108094233004832 -0.034908137225336519 0 -0.022383481755854199 -0.034929426272334863 0 -0.022668621681855815 -0.034525436950666143 0 -0.022383481755854199 -0.034929426272334863 0 -0.0219903088908695 -0.035200252278531706 0 -0.022829709877332568 -0.035144308408028284 0 -0.021515329730915741 -0.035164190483513824 0 -0.024178803355101201 -0.035526689698881828 0 -0.022059541419110922 -0.035644812720824169 0 -0.0219903088908695 -0.035200252278531706 0 -0.022621576261328928 -0.035579869697621301 0 -0.023886157633293416 -0.035492203750225645 0 -0.024178803355101201 -0.035526689698881828 0 -0.0219903088908695 -0.035200252278531706 0 -0.022829709877332568 -0.035144308408028284 0 -0.02298530241138794 -0.035795199716578623 0 -0.024903261086187449 -0.03574726857164779 0 -0.025863259123009606 -0.036114775813480868 0 -0.025289098102888274 -0.03644926021589788 0 -0.024903261086187449 -0.03574726857164779 0 -0.025665634689591654 -0.035560472892887864 0 -0.025863259123009606 -0.036114775813480868 0 -0.022383481755854199 -0.034929426272334863 0 -0.022829709877332568 -0.035144308408028284 0 -0.022668621681855815 -0.034525436950666143 0 -0.024903261086187449 -0.03574726857164779 0 -0.024735935532251056 -0.034999681419762618 0 -0.024503197748583852 -0.035081962889275654 0 -0.024903261086187449 -0.03574726857164779 0 -0.024735935532251056 -0.034999681419762618 0 -0.025665634689591654 -0.035560472892887864 0 -0.023886157633293416 -0.035492203750225645 0 -0.023871645838746503 -0.03485940610183768 0 -0.02473449818326881 -0.034999999171470821 0 -0.024206043087951469 -0.035123560466105541 0 -0.024178244212471924 -0.034999998816736447 0 -0.024734129954375322 -0.034999736607240324 0 -0.023871645838746503 -0.03485940610183768 0 -0.023871645838746503 -0.03485940610183768 0 -0.024176715193264347 -0.034999811016130811 0 -0.026772055078331938 -0.034999736482710833 0 -0.024735935532251056 -0.034999681419762618 0 -0.025665634689591654 -0.035560472892887864 0 -0.026772055078331938 -0.034999736482710833 0 -0.026465328097426757 -0.035912885839284439 0 -0.025665634689591654 -0.035560472892887864 0 -0.026465328097426757 -0.035912885839284439 0 -0.025665634689591654 -0.035560472892887864 0 -0.025863259123009606 -0.036114775813480868 0 -0.026882676399457836 -0.036665525112876921 0 -0.025863259123009606 -0.036114775813480868 0 -0.025289098102888274 -0.03644926021589788 0 -0.02670478865271847 -0.035749913693280032 0 -0.024178803355101201 -0.035526689698881828 0 -0.026465328097426757 -0.035912885839284439 0 -0.026882676399457836 -0.036665525112876921 0 -0.025863259123009606 -0.036114775813480868 0 -0.026111210387899427 -0.034809437119340467 0 -0.025382422565162335 -0.034451059087279544 0 -0.025500406889351568 -0.034923518637972155 0 -0.022621576261328928 -0.035579869697621301 0 -0.0223989587113286 -0.035843098986021747 0 -0.022726536594828074 -0.036038285739569874 0 -0.024178803355101201 -0.035526689698881828 0 -0.024131225292913054 -0.035533198625040868 0 -0.024131225292913054 -0.035533198625040868 0 -0.023893927256455279 -0.035118263774038989 0 -0.022183903663496537 -0.036106176569430888 0 -0.0223989587113286 -0.035843098986021747 0 -0.022726536594828074 -0.036038285739569874 0 -0.021692997574950659 -0.03511460836313509 0 -0.023893927256455279 -0.035118263774038989 0 -0.022183903663496537 -0.036106176569430888 0 -0.022726536594828074 -0.036038285739569874 0 -0.022837517552722366 -0.036481055905669073 0 -0.026111210387899427 -0.034809437119340467 0 -0.025500406889351568 -0.034923518637972155 0 -0.025980991799112601 -0.035326558093888925 0 -0.025500406889351568 -0.034923518637972155 0 -0.025980991799112601 -0.035326558093888925 0 -0.025675978050343218 -0.03539924292151983 0 -0.026188414269699388 -0.035531662260231738 0 -0.023893927256455279 -0.035118263774038989 0 -0.025924519571181408 -0.035474597941972531 0 -0.025980991799112601 -0.035326558093888925 0 -0.025675978050343218 -0.03539924292151983 0 -0.023177809231558842 -0.033750437835698047 0 -0.022928422387978223 -0.035059794619518893 0 -0.021959300601425334 -0.03422049071152964 0 -0.021429657216102533 -0.034074783615445518 0 -0.023177809231558842 -0.033750437835698047 0 -0.021959300601425334 -0.03422049071152964 0 -0.022928422387978223 -0.035059794619518893 0 -0.022152804189991333 -0.03562399062337538 0 -0.021959300601425334 -0.03422049071152964 0 -0.022928422387978223 -0.035059794619518893 0 -0.023380272836014477 -0.03590581277340818 0 -0.022152804189991333 -0.03562399062337538 0 -0.022928422387978223 -0.035059794619518893 0 -0.023380272836014477 -0.03590581277340818 0 -0.024556317034106163 -0.035873813877628231 0 -0.023893927256455279 -0.035118263774038989 0 -0.024411346808885716 -0.035452966266041185 0 -0.023177809231558842 -0.033750437835698047 0 -0.022928422387978223 -0.035059794619518893 0 -0.024556317034106163 -0.035873813877628231 0 -0.025924519571181408 -0.035474597941972531 0 -0.024443021885090181 -0.034480282170531687 0 -0.024556317034106163 -0.035873813877628231 0 -0.025924519571181408 -0.035474597941972531 0 -0.024556317034106163 -0.035873813877628231 0 -0.025288394846109209 -0.036083266738051289 0 -0.026596201678801383 -0.036215374743460232 0 -0.025288394846109209 -0.036083266738051289 0 -0.024023001537319448 -0.037048528867124897 0 -0.026968006465513655 -0.031673112345078122 0 -0.02429106566198214 -0.033236921912295533 0 -0.028355157822467048 -0.03568989194660406 0 -0.02429106566198214 -0.033236921912295533 0 -0.024556317034106163 -0.035873813877628231 0 -0.025288394846109209 -0.036083266738051289 0 -0.024023001537319448 -0.037048528867124897 0 -0.023380272836014477 -0.03590581277340818 0 -0.024556317034106163 -0.035873813877628231 0 -0.024023001537319448 -0.037048528867124897 0 -0.023760361005843972 -0.030246826825983342 0 -0.023160343444978956 -0.030313137036367968 0 -0.023295043869051062 -0.03091299579168837 0 -0.023760361005843972 -0.030246826825983342 0 -0.022779519453104444 -0.029835962313440247 0 -0.023160343444978956 -0.030313137036367968 0 -0.023160343444978956 -0.030313137036367968 0 -0.022429799405250091 -0.030335190427587234 0 -0.023295043869051062 -0.03091299579168837 0 -0.022452164332384911 -0.030318536325869928 0 -0.02279493219738454 -0.030720327588432808 0 -0.022779519453104444 -0.029835962313440247 0 -0.023160343444978956 -0.030313137036367968 0 -0.022429799405250091 -0.030335190427587234 0 -0.022056480033212186 -0.030621352976273226 0 -0.022429799405250091 -0.030335190427587234 0 -0.022305161509883341 -0.030614953538005238 0 -0.022056480033212186 -0.030621352976273226 0 -0.022429799405250091 -0.030335190427587234 0 -0.021954497295682489 -0.030291454805953043 0 -0.023380272836014477 -0.03590581277340818 0 -0.024023001537319448 -0.037048528867124897 0 -0.022152804189991333 -0.03562399062337538 0 -0.022779519453104444 -0.029835962313440247 0 -0.022429799405250091 -0.030335190427587234 0 -0.021954497295682489 -0.030291454805953043 0 -0.02429106566198214 -0.033236921912295533 0 -0.020663981461128279 -0.034185076888480645 0 -0.02429106566198214 -0.033236921912295533 0 -0.020452794020780915 -0.031170361956900459 0 -0.018393226141728579 -0.032239126973401692 0 -0.019717108216354567 -0.031680880691388733 0 -0.019796058548294845 -0.032967930009057747 0 -0.019796058548294845 -0.032967930009057747 0 -0.020763533730471143 -0.032237245969143312 0 -0.021261381263898919 -0.033872914792955226 0 -0.019717108216354567 -0.031680880691388733 0 -0.020763533730471143 -0.032237245969143312 0 -0.021374558517502407 -0.031055822555746154 0 -0.019717108216354567 -0.031680880691388733 0 -0.019796058548294845 -0.032967930009057747 0 -0.020763533730471143 -0.032237245969143312 0 -0.022056480033212186 -0.030621352976273226 0 -0.021954497295682489 -0.030291454805953043 0 -0.021374558517502407 -0.031055822555746154 0 -0.022056480033212186 -0.030621352976273226 0 -0.021374558517502407 -0.031055822555746154 0 -0.021953693415130728 -0.030704998403647425 0 -0.020452794020780915 -0.031170361956900459 0 -0.021471003095459171 -0.030927043064594414 0 -0.021374558517502407 -0.031055822555746154 0 -0.021821599432281538 -0.031468953213703924 0 -0.021616984266664325 -0.032461863238627153 0 -0.021374558517502407 -0.031055822555746154 0 -0.021821599432281538 -0.031468953213703924 0 -0.021800517990561562 -0.03096582662922269 0 -0.021821599432281538 -0.031468953213703924 0 -0.021616984266664325 -0.032461863238627153 0 -0.022092948904612067 -0.032174752892108603 0 -0.020763533730471143 -0.032237245969143312 0 -0.021374558517502407 -0.031055822555746154 0 -0.021616984266664325 -0.032461863238627153 0 -0.020763533730471143 -0.032237245969143312 0 -0.021616984266664325 -0.032461863238627153 0 -0.021261381263898919 -0.033872914792955226 0 -0.021616984266664325 -0.032461863238627153 0 -0.021854511425048014 -0.033285063855656001 0 -0.022092948904612067 -0.032174752892108603 0 -0.021616984266664325 -0.032461863238627153 0 -0.021261381263898919 -0.033872914792955226 0 -0.021854511425048014 -0.033285063855656001 0 -0.021261381263898919 -0.033872914792955226 0 -0.021590791777508313 -0.033881486284336834 0 -0.021854511425048014 -0.033285063855656001 0 -0.020663981461128279 -0.034185076888480645 0 -0.02140998804673036 -0.034104934502402692 0 -0.022152804189991333 -0.03562399062337538 0 -0.021261381263898919 -0.033872914792955226 0 -0.021959300601425334 -0.03422049071152964 0 -0.021261381263898919 -0.033872914792955226 0 -0.021959300601425334 -0.03422049071152964 0 -0.021500781375560579 -0.034079613107253458 0 -0.021429657216102533 -0.034074783615445518 0 -0.021959300601425334 -0.03422049071152964 0 -0.021500781375560579 -0.034079613107253458 0 -0.021261381263898919 -0.033872914792955226 0 -0.021500781375560579 -0.034079613107253458 0 -0.021590791777508313 -0.033881486284336834 0 -0.021500781375560579 -0.034079613107253458 0 -0.021545311827461489 -0.034264835214576156 0 -0.021590791777508313 -0.033881486284336834 0 -0.021545311827461489 -0.034264835214576156 0 -0.021590791777508313 -0.033881486284336834 0 -0.022066779686122053 -0.033859275030470468 0 -0.021590791777508313 -0.033881486284336834 0 -0.022066779686122053 -0.033859275030470468 0 -0.021854511425048014 -0.033285063855656001 0 -0.021959178628201313 -0.034530955437567762 0 -0.021545311827461489 -0.034264835214576156 0 -0.022066779686122053 -0.033859275030470468 0 -0.022496669400737856 -0.034233312160473282 0 -0.021959178628201313 -0.034530955437567762 0 -0.022066779686122053 -0.033859275030470468 0 -0.022066779686122053 -0.033859275030470468 0 -0.022936718774867186 -0.033789154029260235 0 -0.022389486458684771 -0.032958743822497152 0 -0.022496669400737856 -0.034233312160473282 0 -0.022066779686122053 -0.033859275030470468 0 -0.022936718774867186 -0.033789154029260235 0 -0.022877033345442714 -0.03244974120865262 0 -0.022389486458684771 -0.032958743822497152 0 -0.022518367758072453 -0.031922580111366582 0 -0.022936718774867186 -0.033789154029260235 0 -0.022877033345442714 -0.03244974120865262 0 -0.022389486458684771 -0.032958743822497152 0 -0.022389486458684771 -0.032958743822497152 0 -0.021854511425048014 -0.033285063855656001 0 -0.022092948904612067 -0.032174752892108603 0 -0.022066779686122053 -0.033859275030470468 0 -0.022389486458684771 -0.032958743822497152 0 -0.021854511425048014 -0.033285063855656001 0 -0.022389486458684771 -0.032958743822497152 0 -0.022092948904612067 -0.032174752892108603 0 -0.022518367758072453 -0.031922580111366582 0 -0.021821599432281538 -0.031468953213703924 0 -0.022162679757516592 -0.031275628531082074 0 -0.021800517990561562 -0.03096582662922269 0 -0.022092948904612067 -0.032174752892108603 0 -0.022162679757516592 -0.031275628531082074 0 -0.022518367758072453 -0.031922580111366582 0 -0.021821599432281538 -0.031468953213703924 0 -0.022092948904612067 -0.032174752892108603 0 -0.022162679757516592 -0.031275628531082074 0 -0.022518367758072453 -0.031922580111366582 0 -0.022702635545273131 -0.031730275413669309 0 -0.022512559757699387 -0.031380790696510973 0 -0.022162679757516592 -0.031275628531082074 0 -0.022518367758072453 -0.031922580111366582 0 -0.022512559757699387 -0.031380790696510973 0 -0.022877033345442714 -0.03244974120865262 0 -0.022518367758072453 -0.031922580111366582 0 -0.022702635545273131 -0.031730275413669309 0 -0.022702635545273131 -0.031730275413669309 0 -0.022695081284927299 -0.031520604440295162 0 -0.022809444758727555 -0.03183604323942852 0 -0.022877033345442714 -0.03244974120865262 0 -0.022702635545273131 -0.031730275413669309 0 -0.022809444758727555 -0.03183604323942852 0 -0.022702635545273131 -0.031730275413669309 0 -0.022512559757699387 -0.031380790696510973 0 -0.022695081284927299 -0.031520604440295162 0 -0.022512559757699387 -0.031380790696510973 0 -0.022695081284927299 -0.031520604440295162 0 -0.022586298886622561 -0.031264838757179586 0 -0.022695081284927299 -0.031520604440295162 0 -0.022675151854593973 -0.03134182814809499 0 -0.022661656282597361 -0.03158579895908039 0 -0.022695081284927299 -0.031520604440295162 0 -0.022809444758727555 -0.03183604323942852 0 -0.022661656282597361 -0.03158579895908039 0 -0.022809444758727555 -0.03183604323942852 0 -0.022684516791682905 -0.031608303555233558 0 -0.022661656282597361 -0.03158579895908039 0 -0.02283891769433738 -0.031624993428073678 0 -0.022684516791682905 -0.031608303555233558 0 -0.022585007861165234 -0.031381416294064095 0 -0.022809444758727555 -0.03183604323942852 0 -0.02283891769433738 -0.031624993428073678 0 -0.022684516791682905 -0.031608303555233558 0 -0.022913334178476897 -0.032396248844156858 0 -0.023249671882046567 -0.032411203526173417 0 -0.022936718774867186 -0.033789154029260235 0 -0.022877033345442714 -0.03244974120865262 0 -0.02393738394452434 -0.033254520622377291 0 -0.022877033345442714 -0.03244974120865262 0 -0.022809444758727555 -0.03183604323942852 0 -0.02283891769433738 -0.031624993428073678 0 -0.022936718774867186 -0.033789154029260235 0 -0.02393738394452434 -0.033254520622377291 0 -0.023687008122543391 -0.034034534850621301 0 -0.023249671882046567 -0.032411203526173417 0 -0.02403767628052135 -0.032361827596951699 0 -0.02283891769433738 -0.031624993428073678 0 -0.022627375648120399 -0.031102764414681135 0 -0.022585007861165234 -0.031381416294064095 0 -0.02393738394452434 -0.033254520622377291 0 -0.023687008122543391 -0.034034534850621301 0 -0.024620235105795456 -0.033777711179594862 0 -0.022146011760454422 -0.029063129116103106 0 -0.022184078464537928 -0.029443725166836358 0 -0.022612315872722007 -0.029235009195475635 0 -0.022146011760454422 -0.029063129116103106 0 -0.022174890542769565 -0.029548462992896912 0 -0.021954904211399496 -0.028888252488455349 0 -0.022174890542769565 -0.029548462992896912 0 -0.021837053017772813 -0.029396085119893646 0 -0.021954904211399496 -0.028888252488455349 0 -0.022146011760454422 -0.029063129116103106 0 -0.022174890542769565 -0.029548462992896912 0 -0.022184078464537928 -0.029443725166836358 0 -0.022174890542769565 -0.029548462992896912 0 -0.023119958388035794 -0.030067870037555379 0 -0.022202978491976697 -0.030550912719990317 0 -0.022197212572600301 -0.029546272510483546 0 -0.022490990499179724 -0.030243713918598612 0 -0.022490990499179724 -0.030243713918598612 0 -0.022334673553359257 -0.030556440361576016 0 -0.022490990499179724 -0.030243713918598612 0 -0.022633506889344669 -0.030955491754732084 0 -0.022490990499179724 -0.030243713918598612 0 -0.022585639810577589 -0.029857176175713596 0 -0.022574822629383217 -0.030741762805028272 0 -0.022569090742151469 -0.031019436739616761 0 -0.022705068311256359 -0.031178361521183303 0 -0.022569090742151469 -0.031019436739616761 0 -0.022675151854593973 -0.03134182814809499 0 -0.022705068311256359 -0.031178361521183303 0 -0.022569090742151469 -0.031019436739616761 0 -0.022586298886622561 -0.031264838757179586 0 -0.022675151854593973 -0.03134182814809499 0 -0.022695081284927299 -0.031520604440295162 0 -0.022586298886622561 -0.031264838757179586 0 -0.022675151854593973 -0.03134182814809499 0 -0.022512559757699387 -0.031380790696510973 0 -0.022586298886622561 -0.031264838757179586 0 -0.022256443734245179 -0.030950372171849237 0 -0.022569090742151469 -0.031019436739616761 0 -0.022586298886622561 -0.031264838757179586 0 -0.022256443734245179 -0.030950372171849237 0 -0.022574822629383217 -0.030741762805028272 0 -0.022569090742151469 -0.031019436739616761 0 -0.022202978491976697 -0.030550912719990317 0 -0.022569090742151469 -0.031019436739616761 0 -0.022202978491976697 -0.030550912719990317 0 -0.022256443734245179 -0.030950372171849237 0 -0.021904443403632658 -0.030476966641184256 0 -0.022256443734245179 -0.030950372171849237 0 -0.021850563323794009 -0.030682596085549775 0 -0.022202978491976697 -0.030550912719990317 0 -0.021904443403632658 -0.030476966641184256 0 -0.022256443734245179 -0.030950372171849237 0 -0.022162679757516592 -0.031275628531082074 0 -0.022512559757699387 -0.031380790696510973 0 -0.022256443734245179 -0.030950372171849237 0 -0.022162679757516592 -0.031275628531082074 0 -0.022256443734245179 -0.030950372171849237 0 -0.021850563323794009 -0.030682596085549775 0 -0.022162679757516592 -0.031275628531082074 0 -0.021850563323794009 -0.030682596085549775 0 -0.021800517990561562 -0.03096582662922269 0 -0.021904443403632658 -0.030476966641184256 0 -0.021850563323794009 -0.030682596085549775 0 -0.0215409343227503 -0.030191377804239364 0 -0.021850563323794009 -0.030682596085549775 0 -0.0215409343227503 -0.030191377804239364 0 -0.021781888314973307 -0.030450070971714101 0 -0.021904443403632658 -0.030476966641184256 0 -0.0215409343227503 -0.030191377804239364 0 -0.021833645126609624 -0.029988949381936188 0 -0.022174890542769565 -0.029548462992896912 0 -0.022202978491976697 -0.030550912719990317 0 -0.021833645126609624 -0.029988949381936188 0 -0.022202978491976697 -0.030550912719990317 0 -0.021904443403632658 -0.030476966641184256 0 -0.021833645126609624 -0.029988949381936188 0 -0.021833645126609624 -0.029988949381936188 0 -0.021837053017772813 -0.029396085119893646 0 -0.02151142426376134 -0.029419573400149196 0 -0.022174890542769565 -0.029548462992896912 0 -0.021833645126609624 -0.029988949381936188 0 -0.021837053017772813 -0.029396085119893646 0 -0.021837053017772813 -0.029396085119893646 0 -0.021732240672234737 -0.028891424663849644 0 -0.021954904211399496 -0.028888252488455349 0 -0.021837053017772813 -0.029396085119893646 0 -0.02151142426376134 -0.029419573400149196 0 -0.021732240672234737 -0.028891424663849644 0 -0.021507523597497802 -0.030133795712448053 0 -0.021444886865794953 -0.02992716018632095 0 -0.0215409343227503 -0.030191377804239364 0 -0.02151142426376134 -0.029419573400149196 0 -0.020977258814129793 -0.029089757219548967 0 -0.0215409343227503 -0.030191377804239364 0 -0.021833645126609624 -0.029988949381936188 0 -0.02151142426376134 -0.029419573400149196 0 -0.0215409343227503 -0.030191377804239364 0 -0.021857722200664925 -0.030434112786578867 0 -0.021825356868336945 -0.030703131176822537 0 -0.021857722200664925 -0.030434112786578867 0 -0.022018057195406462 -0.030602659257720509 0 -0.022018165864131946 -0.030510371073300204 0 -0.021857722200664925 -0.030434112786578867 0 -0.022018057195406462 -0.030602659257720509 0 -0.021825356868336945 -0.030703131176822537 0 -0.022200264893063405 -0.030612072490029105 0 -0.022430036519198785 -0.030676979127643327 0 -0.022188536232818232 -0.030705406680015396 0 -0.022018057195406462 -0.030602659257720509 0 -0.022200264893063405 -0.030612072490029105 0 -0.022188536232818232 -0.030705406680015396 0 -0.022018057195406462 -0.030602659257720509 0 -0.022200264893063405 -0.030612072490029105 0 -0.022018165864131946 -0.030510371073300204 0 -0.022018165864131946 -0.030510371073300204 0 -0.021781888314973307 -0.030450070971714101 0 -0.021930600097208396 -0.030588781780538372 0 -0.022018165864131946 -0.030510371073300204 0 -0.021930600097208396 -0.030588781780538372 0 -0.022269415638381199 -0.030557034080084252 0 -0.022200264893063405 -0.030612072490029105 0 -0.022018165864131946 -0.030510371073300204 0 -0.022269415638381199 -0.030557034080084252 0 -0.021857722200664925 -0.030434112786578867 0 -0.022018165864131946 -0.030510371073300204 0 -0.021781888314973307 -0.030450070971714101 0 -0.0215409343227503 -0.030191377804239364 0 -0.021857722200664925 -0.030434112786578867 0 -0.021781888314973307 -0.030450070971714101 0 -0.021781888314973307 -0.030450070971714101 0 -0.021782581357582032 -0.030664339833700434 0 -0.021930600097208396 -0.030588781780538372 0 -0.021850563323794009 -0.030682596085549775 0 -0.021781888314973307 -0.030450070971714101 0 -0.021782581357582032 -0.030664339833700434 0 -0.021782581357582032 -0.030664339833700434 0 -0.021729817070580765 -0.030774760118154748 0 -0.021930600097208396 -0.030588781780538372 0 -0.021850563323794009 -0.030682596085549775 0 -0.021782581357582032 -0.030664339833700434 0 -0.021800517990561562 -0.03096582662922269 0 -0.021374558517502407 -0.031055822555746154 0 -0.021729817070580765 -0.030774760118154748 0 -0.021800517990561562 -0.03096582662922269 0 -0.021782581357582032 -0.030664339833700434 0 -0.021729817070580765 -0.030774760118154748 0 -0.021800517990561562 -0.03096582662922269 0 -0.021729817070580765 -0.030774760118154748 0 -0.021953693415130728 -0.030704998403647425 0 -0.021930600097208396 -0.030588781780538372 0 -0.021374558517502407 -0.031055822555746154 0 -0.021729817070580765 -0.030774760118154748 0 -0.021953693415130728 -0.030704998403647425 0 -0.021953693415130728 -0.030704998403647425 0 -0.021930600097208396 -0.030588781780538372 0 -0.022171800302268081 -0.030601691615186086 0 -0.021930600097208396 -0.030588781780538372 0 -0.022171800302268081 -0.030601691615186086 0 -0.022269415638381199 -0.030557034080084252 0 -0.021953693415130728 -0.030704998403647425 0 -0.022171800302268081 -0.030601691615186086 0 -0.022305161509883341 -0.030614953538005238 0 -0.022056480033212186 -0.030621352976273226 0 -0.021953693415130728 -0.030704998403647425 0 -0.022305161509883341 -0.030614953538005238 0 -0.022171800302268081 -0.030601691615186086 0 -0.022305161509883341 -0.030614953538005238 0 -0.022523187846092821 -0.03050856112238327 0 -0.022171800302268081 -0.030601691615186086 0 -0.022269415638381199 -0.030557034080084252 0 -0.022523187846092821 -0.03050856112238327 0 -0.02279493219738454 -0.030720327588432808 0 -0.023179077804271246 -0.030841928234518232 0 -0.022269415638381199 -0.030557034080084252 0 -0.02256315847786694 -0.030568145707095623 0 -0.022523187846092821 -0.03050856112238327 0 -0.022200264893063405 -0.030612072490029105 0 -0.022269415638381199 -0.030557034080084252 0 -0.022430036519198785 -0.030676979127643327 0 -0.022269415638381199 -0.030557034080084252 0 -0.022430036519198785 -0.030676979127643327 0 -0.02256315847786694 -0.030568145707095623 0 -0.02256315847786694 -0.030568145707095623 0 -0.022714808117468711 -0.030680663045177921 0 -0.022943730538563703 -0.03051268052966075 0 -0.022430036519198785 -0.030676979127643327 0 -0.02256315847786694 -0.030568145707095623 0 -0.022714808117468711 -0.030680663045177921 0 -0.022714808117468711 -0.030680663045177921 0 -0.022644708123574168 -0.030806548303012802 0 -0.022834465551407442 -0.030867947499129925 0 -0.022714808117468711 -0.030680663045177921 0 -0.022834465551407442 -0.030867947499129925 0 -0.0230101825533339 -0.030779240096397379 0 -0.022430036519198785 -0.030676979127643327 0 -0.022511550442843288 -0.030881881664232162 0 -0.022277925596061635 -0.030833859779534793 0 -0.022430036519198785 -0.030676979127643327 0 -0.022714808117468711 -0.030680663045177921 0 -0.022644708123574168 -0.030806548303012802 0 -0.022430036519198785 -0.030676979127643327 0 -0.022644708123574168 -0.030806548303012802 0 -0.022511550442843288 -0.030881881664232162 0 -0.022511550442843288 -0.030881881664232162 0 -0.022822109690178102 -0.030933333098303973 0 -0.022543371497167862 -0.031131541447470327 0 -0.022644708123574168 -0.030806548303012802 0 -0.022511550442843288 -0.030881881664232162 0 -0.022822109690178102 -0.030933333098303973 0 -0.022822109690178102 -0.030933333098303973 0 -0.022958009383379621 -0.030933070501287196 0 -0.022829611226065395 -0.030828884646386515 0 -0.022822109690178102 -0.030933333098303973 0 -0.022834465551407442 -0.030867947499129925 0 -0.022958009383379621 -0.030933070501287196 0 -0.022644708123574168 -0.030806548303012802 0 -0.022822109690178102 -0.030933333098303973 0 -0.022834465551407442 -0.030867947499129925 0 -0.022822109690178102 -0.030933333098303973 0 -0.022972203276034681 -0.030982236789970776 0 -0.022829611226065395 -0.030828884646386515 0 -0.022778997885446978 -0.030579028857812503 0 -0.022358695394625042 -0.030220191060135758 0 -0.022829611226065395 -0.030828884646386515 0 -0.022778997885446978 -0.030579028857812503 0 -0.022972203276034681 -0.030982236789970776 0 -0.022829611226065395 -0.030828884646386515 0 -0.022778997885446978 -0.030579028857812503 0 -0.022982495799513478 -0.030179571749646358 0 -0.022972203276034681 -0.030982236789970776 0 -0.022778997885446978 -0.030579028857812503 0 -0.022982495799513478 -0.030179571749646358 0 -0.022358695394625042 -0.030220191060135758 0 -0.022982495799513478 -0.030179571749646358 0 -0.022858043949297868 -0.029444269744553379 0 -0.023490592730513172 -0.029466922259383199 0 -0.022982495799513478 -0.030179571749646358 0 -0.022858043949297868 -0.029444269744553379 0 -0.022358695394625042 -0.030220191060135758 0 -0.024434696564547043 -0.029226577463220733 0 -0.023490592730513172 -0.029466922259383199 0 -0.023869314672185067 -0.030191130714066653 0 -0.022982495799513478 -0.030179571749646358 0 -0.023490592730513172 -0.029466922259383199 0 -0.023869314672185067 -0.030191130714066653 0 -0.022982495799513478 -0.030179571749646358 0 -0.023869314672185067 -0.030191130714066653 0 -0.022972203276034681 -0.030982236789970776 0 -0.024434696564547043 -0.029226577463220733 0 -0.023869314672185067 -0.030191130714066653 0 -0.024863544130926472 -0.030207023812423104 0 -0.022822109690178102 -0.030933333098303973 0 -0.022972203276034681 -0.030982236789970776 0 -0.022543371497167862 -0.031131541447470327 0 -0.023869314672185067 -0.030191130714066653 0 -0.022972203276034681 -0.030982236789970776 0 -0.024523390610362364 -0.03113601237409136 0 -0.023869314672185067 -0.030191130714066653 0 -0.024523390610362364 -0.03113601237409136 0 -0.024863544130926472 -0.030207023812423104 0 -0.023030285115682284 -0.031035250561277886 0 -0.023594124349434198 -0.031066018133882978 0 -0.022543371497167862 -0.031131541447470327 0 -0.022230581672397769 -0.031172161438676758 0 -0.022329110042987151 -0.030985524277010262 0 -0.023594124349434198 -0.031066018133882978 0 -0.023691356118511347 -0.029937369793801953 0 -0.024523390610362364 -0.03113601237409136 0 -0.024863544130926472 -0.030207023812423104 0 -0.026050845151247729 -0.031160878167822648 0 -0.025790676959162009 -0.029774242067445712 0 -0.023691356118511347 -0.029937369793801953 0 -0.024863544130926472 -0.030207023812423104 0 -0.02551155461531358 -0.02938956744366893 0 -0.026050845151247729 -0.031160878167822648 0 -0.024434696564547043 -0.029226577463220733 0 -0.02551155461531358 -0.02938956744366893 0 -0.025172893078059408 -0.028725922597654708 0 -0.024434696564547043 -0.029226577463220733 0 -0.024863544130926472 -0.030207023812423104 0 -0.02551155461531358 -0.02938956744366893 0 -0.02551155461531358 -0.02938956744366893 0 -0.026013033322695035 -0.029350061965556316 0 -0.025895173561530038 -0.029478721101966174 0 -0.026118326572825187 -0.029208671845731747 0 -0.026013033322695035 -0.029350061965556316 0 -0.025987040383937173 -0.029283941352674224 0 -0.026118326572825187 -0.029208671845731747 0 -0.025987040383937173 -0.029283941352674224 0 -0.025990190063766978 -0.029364092468246412 0 -0.02551155461531358 -0.02938956744366893 0 -0.026118326572825187 -0.029208671845731747 0 -0.026013033322695035 -0.029350061965556316 0 -0.023691356118511347 -0.029937369793801953 0 -0.023892339151159556 -0.028745491494822962 0 -0.026013033322695035 -0.029350061965556316 0 -0.025895173561530038 -0.029478721101966174 0 -0.025967586704582511 -0.029232574864412102 0 -0.020884164134851699 -0.028282225433480745 0 -0.020959623198833544 -0.028618840895333033 0 -0.021293962687171132 -0.028258632105114666 0 -0.022230581672397769 -0.031172161438676758 0 -0.022059485963592942 -0.030908322134294425 0 -0.022329110042987151 -0.030985524277010262 0 -0.023691356118511347 -0.029937369793801953 0 -0.021333945866345749 -0.029636279315454726 0 -0.022511550442843288 -0.030881881664232162 0 -0.022543371497167862 -0.031131541447470327 0 -0.022329110042987151 -0.030985524277010262 0 -0.022511550442843288 -0.030881881664232162 0 -0.022329110042987151 -0.030985524277010262 0 -0.022277925596061635 -0.030833859779534793 0 -0.022059485963592942 -0.030908322134294425 0 -0.022329110042987151 -0.030985524277010262 0 -0.022277925596061635 -0.030833859779534793 0 -0.022277925596061635 -0.030833859779534793 0 -0.022188536232818232 -0.030705406680015396 0 -0.022075956929754267 -0.030757842040891027 0 -0.022430036519198785 -0.030676979127643327 0 -0.022277925596061635 -0.030833859779534793 0 -0.022188536232818232 -0.030705406680015396 0 -0.022018057195406462 -0.030602659257720509 0 -0.022188536232818232 -0.030705406680015396 0 -0.022075956929754267 -0.030757842040891027 0 -0.021333945866345749 -0.029636279315454726 0 -0.021444886865794953 -0.02992716018632095 0 -0.022018057195406462 -0.030602659257720509 0 -0.022075956929754267 -0.030757842040891027 0 -0.021825356868336945 -0.030703131176822537 0 -0.020959623198833544 -0.028618840895333033 0 -0.020977258814129793 -0.029089757219548967 0 -0.021192702310059139 -0.02888534111766311 0 -0.022059485963592942 -0.030908322134294425 0 -0.022075956929754267 -0.030757842040891027 0 -0.021825356868336945 -0.030703131176822537 0 -0.022059485963592942 -0.030908322134294425 0 -0.022277925596061635 -0.030833859779534793 0 -0.022075956929754267 -0.030757842040891027 0 -0.021192702310059139 -0.02888534111766311 0 -0.02149363710427292 -0.028690992043512518 0 -0.021423821400855331 -0.028219239348151844 0 -0.02151142426376134 -0.029419573400149196 0 -0.021192702310059139 -0.02888534111766311 0 -0.02149363710427292 -0.028690992043512518 0 -0.021234340160250293 -0.028792823870114261 0 -0.021393117061496894 -0.028461082413632554 0 -0.02151142426376134 -0.029419573400149196 0 -0.020977258814129793 -0.029089757219548967 0 -0.021192702310059139 -0.02888534111766311 0 -0.02151142426376134 -0.029419573400149196 0 -0.021732240672234737 -0.028891424663849644 0 -0.02149363710427292 -0.028690992043512518 0 -0.021732240672234737 -0.028891424663849644 0 -0.02149363710427292 -0.028690992043512518 0 -0.02169747620244393 -0.0282827629005672 0 -0.021423821400855331 -0.028219239348151844 0 -0.021584593410095314 -0.027729873149112787 0 -0.02169747620244393 -0.0282827629005672 0 -0.02149363710427292 -0.028690992043512518 0 -0.021423821400855331 -0.028219239348151844 0 -0.02169747620244393 -0.0282827629005672 0 -0.020959623198833544 -0.028618840895333033 0 -0.021192702310059139 -0.02888534111766311 0 -0.02123136616787796 -0.028580800144606837 0 -0.021482810529270195 -0.028568214420672148 0 -0.02123136616787796 -0.028580800144606837 0 -0.021293962687171132 -0.028258632105114666 0 -0.020959623198833544 -0.028618840895333033 0 -0.02123136616787796 -0.028580800144606837 0 -0.021293962687171132 -0.028258632105114666 0 -0.021192702310059139 -0.02888534111766311 0 -0.021482810529270195 -0.028568214420672148 0 -0.02123136616787796 -0.028580800144606837 0 -0.025987040383937173 -0.029283941352674224 0 -0.025832063206815283 -0.029259175921609475 0 -0.025891050542941128 -0.029337150235209906 0 -0.025967586704582511 -0.029232574864412102 0 -0.025987040383937173 -0.029283941352674224 0 -0.025832063206815283 -0.029259175921609475 0 -0.026013033322695035 -0.029350061965556316 0 -0.025967586704582511 -0.029232574864412102 0 -0.025987040383937173 -0.029283941352674224 0 -0.025832063206815283 -0.029259175921609475 0 -0.025609685520031591 -0.029229772530696353 0 -0.025759811726260406 -0.029347041027115044 0 -0.025832063206815283 -0.029259175921609475 0 -0.025759811726260406 -0.029347041027115044 0 -0.025891050542941128 -0.029337150235209906 0 -0.025967586704582511 -0.029232574864412102 0 -0.025832063206815283 -0.029259175921609475 0 -0.025715117363937792 -0.02912984158836365 0 -0.021482810529270195 -0.028568214420672148 0 -0.021293962687171132 -0.028258632105114666 0 -0.021753122509288181 -0.028245658154574076 0 -0.021393117061496894 -0.028461082413632554 0 -0.022057872213293583 -0.027725544013595164 0 -0.023892339151159556 -0.028745491494822962 0 -0.022057872213293583 -0.027725544013595164 0 -0.022057872213293583 -0.027725544013595164 0 -0.020867078346827734 -0.027042041089618284 0 -0.018791755677411853 -0.027079691330184012 0 -0.019778229151252404 -0.025852557003793474 0 -0.020308141445541075 -0.026430512542188787 0 -0.022057872213293583 -0.027725544013595164 0 -0.021406802147060564 -0.026604244832522574 0 -0.025832063206815283 -0.029259175921609475 0 -0.025715117363937792 -0.02912984158836365 0 -0.025609685520031591 -0.029229772530696353 0 -0.020833281009293051 -0.024062452253398731 0 -0.020965631528855652 -0.02368923344258728 0 -0.020494817226836656 -0.023576148688014133 0 -0.019930600840362838 -0.025944085439548941 0 -0.020553001532415321 -0.025980380316937005 0 -0.020308141445541075 -0.026430512542188787 0 -0.021406802147060564 -0.026604244832522574 0 -0.020480803191241067 -0.026048886334129183 0 -0.021406802147060564 -0.026604244832522574 0 -0.023265480702620859 -0.026624332666417581 0 -0.019930600840362838 -0.025944085439548941 0 -0.020868915608617249 -0.025394290207953227 0 -0.021039582080821281 -0.024285646976545002 0 -0.019930600840362838 -0.025944085439548941 0 -0.020868915608617249 -0.025394290207953227 0 -0.020553001532415321 -0.025980380316937005 0 -0.020553001532415321 -0.025980380316937005 0 -0.021146393999085234 -0.026196819425652381 0 -0.020308141445541075 -0.026430512542188787 0 -0.020868915608617249 -0.025394290207953227 0 -0.020553001532415321 -0.025980380316937005 0 -0.021146393999085234 -0.026196819425652381 0 -0.020868915608617249 -0.025394290207953227 0 -0.021146393999085234 -0.026196819425652381 0 -0.021792016238548248 -0.025934277916116057 0 -0.021146393999085234 -0.026196819425652381 0 -0.02170722424284648 -0.027081136981817199 0 -0.021792016238548248 -0.025934277916116057 0 -0.021146393999085234 -0.026196819425652381 0 -0.02170722424284648 -0.027081136981817199 0 -0.020308141445541075 -0.026430512542188787 0 -0.018791755677411853 -0.027079691330184012 0 -0.02170722424284648 -0.027081136981817199 0 -0.020308141445541075 -0.026430512542188787 0 -0.021584593410095314 -0.027729873149112787 0 -0.02170722424284648 -0.027081136981817199 0 -0.021750153503363633 -0.027805518654720213 0 -0.02170722424284648 -0.027081136981817199 0 -0.022023133882784717 -0.027830124382138811 0 -0.021750153503363633 -0.027805518654720213 0 -0.022023133882784717 -0.027830124382138811 0 -0.021750153503363633 -0.027805518654720213 0 -0.021950905652185902 -0.028384705552564574 0 -0.021584593410095314 -0.027729873149112787 0 -0.021750153503363633 -0.027805518654720213 0 -0.02169747620244393 -0.0282827629005672 0 -0.021750153503363633 -0.027805518654720213 0 -0.02169747620244393 -0.0282827629005672 0 -0.021950905652185902 -0.028384705552564574 0 -0.022146011760454422 -0.029063129116103106 0 -0.021954904211399496 -0.028888252488455349 0 -0.021950905652185902 -0.028384705552564574 0 -0.021732240672234737 -0.028891424663849644 0 -0.02169747620244393 -0.0282827629005672 0 -0.021954904211399496 -0.028888252488455349 0 -0.02169747620244393 -0.0282827629005672 0 -0.021954904211399496 -0.028888252488455349 0 -0.021950905652185902 -0.028384705552564574 0 -0.022023133882784717 -0.027830124382138811 0 -0.021950905652185902 -0.028384705552564574 0 -0.022307008693246876 -0.028560203087714744 0 -0.022146011760454422 -0.029063129116103106 0 -0.021950905652185902 -0.028384705552564574 0 -0.022307008693246876 -0.028560203087714744 0 -0.036754943905807573 -0.023834559029566729 0 -0.037572795380322176 -0.023055189829875929 0 -0.038361077700966056 -0.023986269544620346 0 -0.036754943905807573 -0.023834559029566729 0 -0.036743394817899976 -0.02565022885003242 0 -0.038361077700966056 -0.023986269544620346 0 -0.036754943905807573 -0.023834559029566729 0 -0.037572795380322176 -0.023055189829875929 0 -0.036909540812991248 -0.022795992620635513 0 -0.037572795380322176 -0.023055189829875929 0 -0.036909540812991248 -0.022795992620635513 0 -0.037246294202164042 -0.022259692324834886 0 -0.036754943905807573 -0.023834559029566729 0 -0.036909540812991248 -0.022795992620635513 0 -0.036321747813071584 -0.022694614864940097 0 -0.036321747813071584 -0.022694614864940097 0 -0.035778223113678433 -0.022512148546616751 0 -0.035907509679477742 -0.023485654292091034 0 -0.036321747813071584 -0.022694614864940097 0 -0.035778223113678433 -0.022512148546616751 0 -0.036179568193801102 -0.021876659002979002 0 -0.034999907315678411 -0.022463179088661731 0 -0.035778223113678433 -0.022512148546616751 0 -0.035907509679477742 -0.023485654292091034 0 -0.034999907315678411 -0.022463179088661731 0 -0.035778223113678433 -0.022512148546616751 0 -0.035643772773289346 -0.021605539783174123 0 -0.034999907315678411 -0.022463179088661731 0 -0.035907509679477742 -0.023485654292091034 0 -0.034999869603593976 -0.024151569377700098 0 -0.036754943905807573 -0.023834559029566729 0 -0.036321747813071584 -0.022694614864940097 0 -0.035907509679477742 -0.023485654292091034 0 -0.036754943905807573 -0.023834559029566729 0 -0.035907509679477742 -0.023485654292091034 0 -0.036534121326699573 -0.02463506449461331 0 -0.035907509679477742 -0.023485654292091034 0 -0.036534121326699573 -0.02463506449461331 0 -0.035683573823795112 -0.024919900916318367 0 -0.035907509679477742 -0.023485654292091034 0 -0.034999869603593976 -0.024151569377700098 0 -0.035683573823795112 -0.024919900916318367 0 -0.034999869603593976 -0.024151569377700098 0 -0.035683573823795112 -0.024919900916318367 0 -0.034999841660890242 -0.025840263611854784 0 -0.035683573823795112 -0.024919900916318367 0 -0.035933209185046673 -0.02607686301548183 0 -0.034999841660890242 -0.025840263611854784 0 -0.036061006195181836 -0.025167241541542359 0 -0.035581966669636762 -0.026497297146869641 0 -0.036534121326699573 -0.02463506449461331 0 -0.035683573823795112 -0.024919900916318367 0 -0.035933209185046673 -0.02607686301548183 0 -0.035511929056237984 -0.025714025386983794 0 -0.035288536801228849 -0.026971673782013882 0 -0.035865724369603114 -0.026727404625491752 0 -0.035511929056237984 -0.025714025386983794 0 -0.035865724369603114 -0.026727404625491752 0 -0.036743394817899976 -0.02565022885003242 0 -0.036176515713068833 -0.027291461295332841 0 -0.035865724369603114 -0.026727404625491752 0 -0.036743394817899976 -0.02565022885003242 0 -0.036720269605266483 -0.02394869583277396 0 -0.036061006195181836 -0.025167241541542359 0 -0.036754943905807573 -0.023834559029566729 0 -0.035511929056237984 -0.025714025386983794 0 -0.036743394817899976 -0.02565022885003242 0 -0.036176515713068833 -0.027291461295332841 0 -0.036743394817899976 -0.02565022885003242 0 -0.038148334072001903 -0.026147625244686851 0 -0.025397084202991426 -0.033371652578436141 0 -0.024949833745421663 -0.030861782265455696 0 -0.025389706934230424 -0.031077034368982813 0 -0.024949833745421663 -0.030861782265455696 0 -0.025389706934230424 -0.031077034368982813 0 -0.024689425394639111 -0.030997120818331843 0 -0.026070380251301338 -0.031350052229419896 0 -0.025485055237450576 -0.031090341550741456 0 -0.024410633517564534 -0.030469518529555411 0 -0.025389706934230424 -0.031077034368982813 0 -0.024601879410914861 -0.030985221923105696 0 -0.025389706934230424 -0.031077034368982813 0 -0.024601879410914861 -0.030985221923105696 0 -0.024689425394639111 -0.030997120818331843 0 -0.024689425394639111 -0.030997120818331843 0 -0.024339066818125546 -0.031059627772521668 0 -0.024144149362081188 -0.031069918120775239 0 -0.024601879410914861 -0.030985221923105696 0 -0.024689425394639111 -0.030997120818331843 0 -0.024339066818125546 -0.031059627772521668 0 -0.024949833745421663 -0.030861782265455696 0 -0.024689425394639111 -0.030997120818331843 0 -0.024450130023984329 -0.031021073621223874 0 -0.031548562937184416 -0.028537144971119668 0 -0.031397778724374867 -0.027384197209391666 0 -0.036743394817899976 -0.02565022885003242 0 -0.038148334072001903 -0.026147625244686851 0 -0.038361077700966056 -0.023986269544620346 0 -0.023760361005843972 -0.030246826825983342 0 -0.023295043869051062 -0.03091299579168837 0 -0.024052849132014699 -0.030947818157183386 0 -0.024410633517564534 -0.030469518529555411 0 -0.024601879410914861 -0.030985221923105696 0 -0.024052849132014699 -0.030947818157183386 0 -0.024052849132014699 -0.030947818157183386 0 -0.024339066818125546 -0.031059627772521668 0 -0.024085908400984419 -0.031134959327551288 0 -0.024601879410914861 -0.030985221923105696 0 -0.024052849132014699 -0.030947818157183386 0 -0.024339066818125546 -0.031059627772521668 0 -0.023295043869051062 -0.03091299579168837 0 -0.024052849132014699 -0.030947818157183386 0 -0.023835961323513632 -0.031173456293221123 0 -0.024052849132014699 -0.030947818157183386 0 -0.023835961323513632 -0.031173456293221123 0 -0.024085908400984419 -0.031134959327551288 0 -0.023835961323513632 -0.031173456293221123 0 -0.024085908400984419 -0.031134959327551288 0 -0.024035144968900704 -0.031099165369531879 0 -0.023179077804271246 -0.030841928234518232 0 -0.023482215579497489 -0.030837246053153838 0 -0.02256315847786694 -0.030568145707095623 0 -0.022523187846092821 -0.03050856112238327 0 -0.022943730538563703 -0.03051268052966075 0 -0.024339066818125546 -0.031059627772521668 0 -0.024085908400984419 -0.031134959327551288 0 -0.024144149362081188 -0.031069918120775239 0 -0.024085908400984419 -0.031134959327551288 0 -0.024035144968900704 -0.031099165369531879 0 -0.024144149362081188 -0.031069918120775239 0 -0.024035144968900704 -0.031099165369531879 0 -0.024144149362081188 -0.031069918120775239 0 -0.023611223221862741 -0.030858207933400252 0 -0.023482215579497489 -0.030837246053153838 0 -0.023614637188426636 -0.030897670927398382 0 -0.022714808117468711 -0.030680663045177921 0 -0.022943730538563703 -0.03051268052966075 0 -0.0230101825533339 -0.030779240096397379 0 -0.024689425394639111 -0.030997120818331843 0 -0.024450130023984329 -0.031021073621223874 0 -0.024144149362081188 -0.031069918120775239 0 -0.024450130023984329 -0.031021073621223874 0 -0.024144149362081188 -0.031069918120775239 0 -0.024013141860718137 -0.030898509498763434 0 -0.024144149362081188 -0.031069918120775239 0 -0.024013141860718137 -0.030898509498763434 0 -0.023611223221862741 -0.030858207933400252 0 -0.037572795380322176 -0.023055189829875929 0 -0.038361077700966056 -0.023986269544620346 0 -0.038145623872541778 -0.022481068942344199 0 -0.031397778724374867 -0.027384197209391666 0 -0.031068669742664264 -0.027135916905766291 0 -0.038145623872541778 -0.022481068942344199 0 -0.037664386676716635 -0.021826933750486752 0 -0.037246294202164042 -0.022259692324834886 0 -0.024013141860718137 -0.030898509498763434 0 -0.023642456500585482 -0.030956408081724753 0 -0.023611223221862741 -0.030858207933400252 0 -0.024013141860718137 -0.030898509498763434 0 -0.023642456500585482 -0.030956408081724753 0 -0.023830672592821685 -0.030974039280545644 0 -0.037664386676716635 -0.021826933750486752 0 -0.037849072269334816 -0.021620532149300868 0 -0.037480524527969385 -0.021560801162078463 0 -0.038145623872541778 -0.022481068942344199 0 -0.037664386676716635 -0.021826933750486752 0 -0.037993366692155618 -0.021572905928039222 0 -0.031068669742664264 -0.027135916905766291 0 -0.031011405867904539 -0.024348339992402698 0 -0.039140391563325279 -0.020431350274175076 0 -0.031011405867904539 -0.024348339992402698 0 -0.022943730538563703 -0.03051268052966075 0 -0.0230101825533339 -0.030779240096397379 0 -0.023611223221862741 -0.030858207933400252 0 -0.0230101825533339 -0.030779240096397379 0 -0.023611223221862741 -0.030858207933400252 0 -0.022958009383379621 -0.030933070501287196 0 -0.023642456500585482 -0.030956408081724753 0 -0.023611223221862741 -0.030858207933400252 0 -0.023267960453889434 -0.031045573541647668 0 -0.022834465551407442 -0.030867947499129925 0 -0.0230101825533339 -0.030779240096397379 0 -0.022958009383379621 -0.030933070501287196 0 -0.022958009383379621 -0.030933070501287196 0 -0.022829611226065395 -0.030828884646386515 0 -0.023267960453889434 -0.031045573541647668 0 -0.023611223221862741 -0.030858207933400252 0 -0.022958009383379621 -0.030933070501287196 0 -0.023267960453889434 -0.031045573541647668 0 -0.023619482491610937 -0.030840554839913947 0 -0.023267960453889434 -0.031045573541647668 0 -0.023392522415730515 -0.031035084904705437 0 -0.022881561158983106 -0.030866401787352647 0 -0.023317877856462055 -0.030783063202756696 0 -0.022358695394625042 -0.030220191060135758 0 -0.022829611226065395 -0.030828884646386515 0 -0.023267960453889434 -0.031045573541647668 0 -0.023642456500585482 -0.030956408081724753 0 -0.023267960453889434 -0.031045573541647668 0 -0.023392522415730515 -0.031035084904705437 0 -0.024309234967951322 -0.02667537130090392 0 -0.025221135860700256 -0.026110132270578481 0 -0.027275972547896515 -0.021338709496188404 0 -0.027512295241933771 -0.022207277942694226 0 -0.026777406797912184 -0.022204849074644241 0 -0.027275972547896515 -0.021338709496188404 0 -0.026777406797912184 -0.022204849074644241 0 -0.026194332838748158 -0.022035178180642618 0 -0.023619482491610937 -0.030840554839913947 0 -0.023392522415730515 -0.031035084904705437 0 -0.023532121163463277 -0.030663673628465407 0 -0.037581097726063224 -0.021297324462700658 0 -0.037849072269334816 -0.021620532149300868 0 -0.037480524527969385 -0.021560801162078463 0 -0.037581097726063224 -0.021297324462700658 0 -0.037849072269334816 -0.021620532149300868 0 -0.037835002235859456 -0.021046996945120407 0 -0.031011405867904539 -0.024348339992402698 0 -0.033087119556463908 -0.021013758381304874 0 -0.024309234967951322 -0.02667537130090392 0 -0.031011405867904539 -0.024348339992402698 0 -0.023642456500585482 -0.030956408081724753 0 -0.023392522415730515 -0.031035084904705437 0 -0.023830672592821685 -0.030974039280545644 0 -0.027275972547896515 -0.021338709496188404 0 -0.028270332100918796 -0.020699568668824529 0 -0.028180866705996902 -0.02171200944368332 0 -0.027275972547896515 -0.021338709496188404 0 -0.028180866705996902 -0.02171200944368332 0 -0.027512295241933771 -0.022207277942694226 0 -0.037581097726063224 -0.021297324462700658 0 -0.037835002235859456 -0.021046996945120407 0 -0.037519856768682927 -0.020923021700570085 0 -0.037868256407314657 -0.01881431296928076 0 -0.036710594091084681 -0.017539715913110952 0 -0.037717548658405368 -0.016697206080728562 0 -0.037581097726063224 -0.021297324462700658 0 -0.037519856768682927 -0.020923021700570085 0 -0.037103536256735674 -0.021327286841259757 0 -0.039121602770560565 -0.018683353624391719 0 -0.037326704698341158 -0.020210900069239701 0 -0.039019707387893121 -0.017538209010022253 0 -0.037868256407314657 -0.01881431296928076 0 -0.037717548658405368 -0.016697206080728562 0 -0.037868256407314657 -0.01881431296928076 0 -0.036668823635469278 -0.018981475566635785 0 -0.036710594091084681 -0.017539715913110952 0 -0.037868256407314657 -0.01881431296928076 0 -0.036679109801924001 -0.020097279799234528 0 -0.036668823635469278 -0.018981475566635785 0 -0.037326704698341158 -0.020210900069239701 0 -0.036568711221695034 -0.020899434401998332 0 -0.037103536256735674 -0.021327286841259757 0 -0.037480524527969385 -0.021560801162078463 0 -0.037267640335652628 -0.021789528847574995 0 -0.037581097726063224 -0.021297324462700658 0 -0.037103536256735674 -0.021327286841259757 0 -0.037480524527969385 -0.021560801162078463 0 -0.037664386676716635 -0.021826933750486752 0 -0.037480524527969385 -0.021560801162078463 0 -0.037267640335652628 -0.021789528847574995 0 -0.037664386676716635 -0.021826933750486752 0 -0.037267640335652628 -0.021789528847574995 0 -0.037246294202164042 -0.022259692324834886 0 -0.037267640335652628 -0.021789528847574995 0 -0.036937365884973199 -0.022022350812012367 0 -0.037246294202164042 -0.022259692324834886 0 -0.037103536256735674 -0.021327286841259757 0 -0.036937365884973199 -0.022022350812012367 0 -0.036613646564910382 -0.021808282258495893 0 -0.037103536256735674 -0.021327286841259757 0 -0.037267640335652628 -0.021789528847574995 0 -0.036937365884973199 -0.022022350812012367 0 -0.03686466168918541 -0.021882578672486133 0 -0.036568711221695034 -0.020899434401998332 0 -0.03686466168918541 -0.021882578672486133 0 -0.037176660563390321 -0.022168029467783335 0 -0.036909540812991248 -0.022795992620635513 0 -0.036321747813071584 -0.022694614864940097 0 -0.036691796820589213 -0.021716622502224177 0 -0.036909540812991248 -0.022795992620635513 0 -0.036691796820589213 -0.021716622502224177 0 -0.037246294202164042 -0.022259692324834886 0 -0.037572795380322176 -0.023055189829875929 0 -0.038145623872541778 -0.022481068942344199 0 -0.037246294202164042 -0.022259692324834886 0 -0.034999907315678411 -0.022463179088661731 0 -0.035643772773289346 -0.021605539783174123 0 -0.034999816556970535 -0.02077431276841071 0 -0.035643772773289346 -0.021605539783174123 0 -0.035780141197578719 -0.0205501356172406 0 -0.034999816556970535 -0.02077431276841071 0 -0.035643772773289346 -0.021605539783174123 0 -0.036179568193801102 -0.021876659002979002 0 -0.036208442992055431 -0.021386004083870907 0 -0.035778223113678433 -0.022512148546616751 0 -0.035643772773289346 -0.021605539783174123 0 -0.036179568193801102 -0.021876659002979002 0 -0.036321747813071584 -0.022694614864940097 0 -0.036691796820589213 -0.021716622502224177 0 -0.036179568193801102 -0.021876659002979002 0 -0.035722128737531236 -0.021553648896340424 0 -0.036568711221695034 -0.020899434401998332 0 -0.035643772773289346 -0.021605539783174123 0 -0.036939984608187364 -0.020241397085251182 0 -0.035780141197578719 -0.0205501356172406 0 -0.036691796820589213 -0.021716622502224177 0 -0.036179568193801102 -0.021876659002979002 0 -0.036208442992055431 -0.021386004083870907 0 -0.036939984608187364 -0.020241397085251182 0 -0.035780141197578719 -0.0205501356172406 0 -0.035890154439562436 -0.019659369959715137 0 -0.036568711221695034 -0.020899434401998332 0 -0.035831175338420729 -0.01962834427446879 0 -0.034999816556970535 -0.02077431276841071 0 -0.035890154439562436 -0.019659369959715137 0 -0.035000083275278829 -0.019084756643409483 0 -0.035780141197578719 -0.0205501356172406 0 -0.034999816556970535 -0.02077431276841071 0 -0.035890154439562436 -0.019659369959715137 0 -0.035838911217815302 -0.019569334719884937 0 -0.034999968425493203 -0.019084763688139279 0 -0.035949850244166831 -0.018448844024855717 0 -0.035831175338420729 -0.01962834427446879 0 -0.035000286049984786 -0.019085144567363353 0 -0.036679109801924001 -0.020097279799234528 0 -0.035838911217815302 -0.019569334719884937 0 -0.036668823635469278 -0.018981475566635785 0 -0.035838911217815302 -0.019569334719884937 0 -0.036668823635469278 -0.018981475566635785 0 -0.035949850244166831 -0.018448844024855717 0 -0.036668823635469278 -0.018981475566635785 0 -0.036710594091084681 -0.017539715913110952 0 -0.035949850244166831 -0.018448844024855717 0 -0.036710594091084681 -0.017539715913110952 0 -0.035949850244166831 -0.018448844024855717 0 -0.034999973801330971 -0.017577572028302707 0 -0.034999968425493203 -0.019084763688139279 0 -0.035949850244166831 -0.018448844024855717 0 -0.034999973801330971 -0.017577572028302707 0 -0.034999973801330971 -0.017577572028302707 0 -0.036049894504004198 -0.016527434436307453 0 -0.034999941993203561 -0.016070039560128865 0 -0.036710594091084681 -0.017539715913110952 0 -0.034999973801330971 -0.017577572028302707 0 -0.036049894504004198 -0.016527434436307453 0 -0.036710594091084681 -0.017539715913110952 0 -0.036049894504004198 -0.016527434436307453 0 -0.037717548658405368 -0.016697206080728562 0 -0.036049894504004198 -0.016527434436307453 0 -0.037054175063657997 -0.015653936110080882 0 -0.035971157471698545 -0.015259533120104507 0 -0.036049894504004198 -0.016527434436307453 0 -0.037717548658405368 -0.016697206080728562 0 -0.037054175063657997 -0.015653936110080882 0 -0.036049894504004198 -0.016527434436307453 0 -0.034999941993203561 -0.016070039560128865 0 -0.035971157471698545 -0.015259533120104507 0 -0.039019707387893121 -0.017538209010022253 0 -0.037717548658405368 -0.016697206080728562 0 -0.038683193185788604 -0.016028350486815741 0 -0.037717548658405368 -0.016697206080728562 0 -0.037054175063657997 -0.015653936110080882 0 -0.038683193185788604 -0.016028350486815741 0 -0.037054175063657997 -0.015653936110080882 0 -0.038683193185788604 -0.016028350486815741 0 -0.038019288265968766 -0.01497057389790281 0 -0.038019288265968766 -0.01497057389790281 0 -0.037971460891756466 -0.01379226768156097 0 -0.039106242718770577 -0.014558425250812313 0 -0.038683193185788604 -0.016028350486815741 0 -0.038019288265968766 -0.01497057389790281 0 -0.039106242718770577 -0.014558425250812313 0 -0.037054175063657997 -0.015653936110080882 0 -0.038019288265968766 -0.01497057389790281 0 -0.036979920694611347 -0.014434705657649274 0 -0.038019288265968766 -0.01497057389790281 0 -0.037971460891756466 -0.01379226768156097 0 -0.036979920694611347 -0.014434705657649274 0 -0.03717870807566092 -0.013553928336337513 0 -0.036456771357268047 -0.012714488494507879 0 -0.037971460891756466 -0.01379226768156097 0 -0.036979920694611347 -0.014434705657649274 0 -0.036823701778933994 -0.013053536091433728 0 -0.03717870807566092 -0.013553928336337513 0 -0.039012313119867477 -0.014231400963782512 0 -0.036635653128705363 -0.013367873706480902 0 -0.03735021471454214 -0.012867992296803106 0 -0.037645820375077479 -0.014040578953427257 0 -0.035971157471698545 -0.015259533120104507 0 -0.034996858714596929 -0.014562982397672019 0 -0.03592116273399782 -0.013842783311194706 0 -0.034999941993203561 -0.016070039560128865 0 -0.035971157471698545 -0.015259533120104507 0 -0.034996858714596929 -0.014562982397672019 0 -0.037054175063657997 -0.015653936110080882 0 -0.035971157471698545 -0.015259533120104507 0 -0.036979920694611347 -0.014434705657649274 0 -0.035971157471698545 -0.015259533120104507 0 -0.036979920694611347 -0.014434705657649274 0 -0.03592116273399782 -0.013842783311194706 0 -0.036979920694611347 -0.014434705657649274 0 -0.03592116273399782 -0.013842783311194706 0 -0.036823701778933994 -0.013053536091433728 0 -0.035978353225393216 -0.013743443003595691 0 -0.036456771357268047 -0.012714488494507879 0 -0.034996839614212065 -0.014562629604964723 0 -0.035982328041488709 -0.013670433503671076 0 -0.034999990443832417 -0.013062187076277576 0 -0.034997052286890026 -0.014562464964892028 0 -0.035978353225393216 -0.013743443003595691 0 -0.035982328041488709 -0.013670433503671076 0 -0.034999990443832417 -0.013062187076277576 0 -0.035980715669903622 -0.012177071172100923 0 -0.034999990443832417 -0.013062187076277576 0 -0.035980715669903622 -0.012177071172100923 0 -0.034999998421350979 -0.011561760774119098 0 -0.035830907820296423 -0.012024835252998313 0 -0.035000234661599253 -0.01156185557337285 0 -0.035693649843098529 -0.011858875958112074 0 -0.034999557852696227 -0.011560771917537823 0 -0.035664356807902399 -0.010657844623070857 0 -0.035693649843098529 -0.011858875958112074 0 -0.03631030370656825 -0.011236333379540962 0 -0.035664356807902399 -0.010657844623070857 0 -0.035693649843098529 -0.011858875958112074 0 -0.03631030370656825 -0.011236333379540962 0 -0.036343635948343361 -0.012200347823433853 0 -0.035982328041488709 -0.013670433503671076 0 -0.035980715669903622 -0.012177071172100923 0 -0.036957140522523024 -0.012785738807050155 0 -0.035830907820296423 -0.012024835252998313 0 -0.036456771357268047 -0.012714488494507879 0 -0.036635653128705363 -0.013367873706480902 0 -0.035606410720502552 -0.012715561740061722 0 -0.036502164302543619 -0.01190228579146725 0 -0.036456771357268047 -0.012714488494507879 0 -0.036708735007996082 -0.0117136995308418 0 -0.03735021471454214 -0.012867992296803106 0 -0.036502164302543619 -0.01190228579146725 0 -0.037855340660930922 -0.012111681257202137 0 -0.036635653128705363 -0.013367873706480902 0 -0.03735021471454214 -0.012867992296803106 0 -0.036502164302543619 -0.01190228579146725 0 -0.036502164302543619 -0.01190228579146725 0 -0.037495923718193019 -0.011044590416552712 0 -0.037855340660930922 -0.012111681257202137 0 -0.036987699073850411 -0.011519634750692096 0 -0.036922160979520051 -0.010860919316868814 0 -0.037495923718193019 -0.011044590416552712 0 -0.036708735007996082 -0.0117136995308418 0 -0.03744167238619639 -0.011094153633902176 0 -0.03631030370656825 -0.011236333379540962 0 -0.036343635948343361 -0.012200347823433853 0 -0.036987699073850411 -0.011519634750692096 0 -0.03631030370656825 -0.011236333379540962 0 -0.036987699073850411 -0.011519634750692096 0 -0.036922160979520051 -0.010860919316868814 0 -0.03631030370656825 -0.011236333379540962 0 -0.036922160979520051 -0.010860919316868814 0 -0.03638162830963336 -0.010100575518692033 0 -0.036922160979520051 -0.010860919316868814 0 -0.037344422513014841 -0.010389936635825358 0 -0.03638162830963336 -0.010100575518692033 0 -0.036922160979520051 -0.010860919316868814 0 -0.037344422513014841 -0.010389936635825358 0 -0.037495923718193019 -0.011044590416552712 0 -0.037344422513014841 -0.010389936635825358 0 -0.037495923718193019 -0.011044590416552712 0 -0.038167857417929441 -0.011144902328019662 0 -0.037411296260830514 -0.0089551003691589904 0 -0.037740154960813198 -0.0085112697726686722 0 -0.037193186697283484 -0.0081387689009702318 0 -0.037411296260830514 -0.0089551003691589904 0 -0.036362370335901846 -0.0090891667354453358 0 -0.037193186697283484 -0.0081387689009702318 0 -0.037501010678631215 -0.0096865806400652614 0 -0.036276956556851363 -0.0095905068000757803 0 -0.036362370335901846 -0.0090891667354453358 0 -0.035816577023452041 -0.0082818654796597731 0 -0.037193186697283484 -0.0081387689009702318 0 -0.036362370335901846 -0.0090891667354453358 0 -0.034911985085804488 -0.0095140105077742131 0 -0.035816577023452041 -0.0082818654796597731 0 -0.036276956556851363 -0.0095905068000757803 0 -0.034958710945677769 -0.0095093573380007138 0 -0.034999557852696227 -0.011560771917537823 0 -0.034912041458223735 -0.0095162386771889245 0 -0.035664356807902399 -0.010657844623070857 0 -0.03638162830963336 -0.010100575518692033 0 -0.034912041458223735 -0.0095162386771889245 0 -0.035664356807902399 -0.010657844623070857 0 -0.03631030370656825 -0.011236333379540962 0 -0.03638162830963336 -0.010100575518692033 0 -0.035664356807902399 -0.010657844623070857 0 -0.020678886434823841 -0.018022492868879567 0 -0.021299336008997135 -0.017269445873101315 0 -0.019539368361633159 -0.016710311926228856 0 -0.021390697702946798 -0.01798238439394392 0 -0.020678886434823841 -0.018022492868879567 0 -0.021299336008997135 -0.017269445873101315 0 -0.020678886434823841 -0.018022492868879567 0 -0.019337397381179528 -0.018796364644026078 0 -0.020537545656860102 -0.019376124145278596 0 -0.020678886434823841 -0.018022492868879567 0 -0.021150749175810318 -0.018965571825217586 0 -0.020537545656860102 -0.019376124145278596 0 -0.020678886434823841 -0.018022492868879567 0 -0.021150749175810318 -0.018965571825217586 0 -0.021766211245984921 -0.01897561247423547 0 -0.021390697702946798 -0.01798238439394392 0 -0.020678886434823841 -0.018022492868879567 0 -0.021634604659122116 -0.018604761809080862 0 -0.020936716052778293 -0.018414652094122425 0 -0.020462829186183119 -0.018767459574687628 0 -0.021150749175810318 -0.018965571825217586 0 -0.021766211245984921 -0.01897561247423547 0 -0.021294320363075728 -0.019383777258672946 0 -0.019837089925203975 -0.013258675613935188 0 -0.018874741074015516 -0.011007223070935867 0 -0.021390697702946798 -0.01798238439394392 0 -0.022816404612574746 -0.017660227392019348 0 -0.021299336008997135 -0.017269445873101315 0 -0.021390697702946798 -0.01798238439394392 0 -0.021634604659122116 -0.018604761809080862 0 -0.022816404612574746 -0.017660227392019348 0 -0.020462829186183119 -0.018767459574687628 0 -0.019837089925203975 -0.013258675613935188 0 -0.018256665316758409 -0.018381434709999124 0 -0.018643367714296314 -0.018068587965117247 0 -0.018660274656924537 -0.018471386760610543 0 -0.019767776052729377 -0.0055548926122584675 0 -0.01955671604554796 -0.0046219609411553703 0 -0.018793188491091614 -0.0052872830381643808 0 -0.01955671604554796 -0.0046219609411553703 0 -0.018793188491091614 -0.0052872830381643808 0 -0.018605176492496066 -0.0044221582613197356 0 -0.018793188491091614 -0.0052872830381643808 0 -0.017847487714592162 -0.0050489835731785003 0 -0.018605176492496066 -0.0044221582613197356 0 -0.018874741074015516 -0.011007223070935867 0 -0.027207304108952859 -0.0093314860350631624 0 -0.038558312012759992 -0.0087327436581002213 0 -0.038071678250715099 -0.0086273051029277063 0 -0.038272920876955462 -0.0080154261911555471 0 -0.038397173237192134 -0.0087874903057639647 0 -0.038071678250715099 -0.0086273051029277063 0 -0.038109313370588434 -0.0091211631408117094 0 -0.027207304108952859 -0.0093314860350631624 0 -0.0396304608963053 -0.010048326753523714 0 -0.038071678250715099 -0.0086273051029277063 0 -0.038109313370588434 -0.0091211631408117094 0 -0.037914980886653016 -0.0079518368390231169 0 -0.037411296260830514 -0.0089551003691589904 0 -0.037740154960813198 -0.0085112697726686722 0 -0.038505840792164597 -0.0090394142492857023 0 -0.038021249406884186 -0.009707603136397569 0 -0.037967323142710764 -0.0078071976888084817 0 -0.037740154960813198 -0.0085112697726686722 0 -0.038505840792164597 -0.0090394142492857023 0 -0.037914980886653016 -0.0079518368390231169 0 -0.037344422513014841 -0.010389936635825358 0 -0.038167857417929441 -0.011144902328019662 0 -0.038604955793502295 -0.010513900535194964 0 -0.037501010678631215 -0.0096865806400652614 0 -0.038021249406884186 -0.009707603136397569 0 -0.020678886434823841 -0.018022492868879567 0 -0.019539368361633159 -0.016710311926228856 0 -0.019337397381179528 -0.018796364644026078 0 -0.027207304108952859 -0.0093314860350631624 0 -0.031430288348570153 -0.014483118715907664 0 -0.038397173237192134 -0.0087874903057639647 0 -0.038109313370588434 -0.0091211631408117094 0 -0.038298771397488038 -0.0096560124116961479 0 -0.038021249406884186 -0.009707603136397569 0 -0.031430288348570153 -0.014483118715907664 0 -0.038167857417929441 -0.011144902328019662 0 -0.038604955793502295 -0.010513900535194964 0 -0.038912591713114827 -0.011063043169323959 0 -0.029511598891654382 -0.016360565848193086 0 -0.029450508200210553 -0.017026398122993603 0 -0.029779700198160827 -0.017025727968265666 0 -0.031430288348570153 -0.014483118715907664 0 -0.034640243015010709 -0.014273277554904025 0 -0.031430288348570153 -0.014483118715907664 0 -0.024286216410954419 -0.01948802493898355 0 -0.038167857417929441 -0.011144902328019662 0 -0.038912591713114827 -0.011063043169323959 0 -0.038831994860626315 -0.012571092783923052 0 -0.037495923718193019 -0.011044590416552712 0 -0.038167857417929441 -0.011144902328019662 0 -0.037855340660930922 -0.012111681257202137 0 -0.038167857417929441 -0.011144902328019662 0 -0.037855340660930922 -0.012111681257202137 0 -0.038831994860626315 -0.012571092783923052 0 -0.037855340660930922 -0.012111681257202137 0 -0.038831994860626315 -0.012571092783923052 0 -0.038035612455591318 -0.013318423258426023 0 -0.03735021471454214 -0.012867992296803106 0 -0.037855340660930922 -0.012111681257202137 0 -0.038035612455591318 -0.013318423258426023 0 -0.029450508200210553 -0.017026398122993603 0 -0.029779700198160827 -0.017025727968265666 0 -0.029638662328133107 -0.017339627455303052 0 -0.020758020795127768 -0.021605284833369057 0 -0.021414388752473666 -0.020107212208000116 0 -0.021957372540615049 -0.021103497105489703 0 -0.019337397381179528 -0.018796364644026078 0 -0.020758020795127768 -0.021605284833369057 0 -0.020537545656860102 -0.019376124145278596 0 -0.020758020795127768 -0.021605284833369057 0 -0.021414388752473666 -0.020107212208000116 0 -0.020537545656860102 -0.019376124145278596 0 -0.021414388752473666 -0.020107212208000116 0 -0.021294320363075728 -0.019383777258672946 0 -0.020537545656860102 -0.019376124145278596 0 -0.021414388752473666 -0.020107212208000116 0 -0.021294320363075728 -0.019383777258672946 0 -0.0217383779190304 -0.019388130998951567 0 -0.021766211245984921 -0.01897561247423547 0 -0.021294320363075728 -0.019383777258672946 0 -0.0217383779190304 -0.019388130998951567 0 -0.021150749175810318 -0.018965571825217586 0 -0.021294320363075728 -0.019383777258672946 0 -0.020537545656860102 -0.019376124145278596 0 -0.021766211245984921 -0.01897561247423547 0 -0.022064719142711704 -0.019650760964676463 0 -0.023644896418133027 -0.020758867215698286 0 -0.018256665316758409 -0.018381434709999124 0 -0.018660274656924537 -0.018471386760610543 0 -0.018855813165152953 -0.01885506194482002 0 -0.022064719142711704 -0.019650760964676463 0 -0.022691707725032009 -0.020565593822465662 0 -0.023644896418133027 -0.020758867215698286 0 -0.020462829186183119 -0.018767459574687628 0 -0.021082256800739361 -0.019736195597242146 0 -0.021766211245984921 -0.01897561247423547 0 -0.0217383779190304 -0.019388130998951567 0 -0.022064719142711704 -0.019650760964676463 0 -0.021414388752473666 -0.020107212208000116 0 -0.0217383779190304 -0.019388130998951567 0 -0.022064719142711704 -0.019650760964676463 0 -0.021414388752473666 -0.020107212208000116 0 -0.022064719142711704 -0.019650760964676463 0 -0.022200992697075723 -0.020550284027449545 0 -0.022064719142711704 -0.019650760964676463 0 -0.022200992697075723 -0.020550284027449545 0 -0.022691707725032009 -0.020565593822465662 0 -0.021414388752473666 -0.020107212208000116 0 -0.022200992697075723 -0.020550284027449545 0 -0.021957372540615049 -0.021103497105489703 0 -0.022691707725032009 -0.020565593822465662 0 -0.022850729791580884 -0.021277011165199231 0 -0.023644896418133027 -0.020758867215698286 0 -0.022200992697075723 -0.020550284027449545 0 -0.022691707725032009 -0.020565593822465662 0 -0.022850729791580884 -0.021277011165199231 0 -0.020758020795127768 -0.021605284833369057 0 -0.022499983092411555 -0.021940360325104262 0 -0.022496839559469392 -0.022884218104907355 0 -0.020758020795127768 -0.021605284833369057 0 -0.021957372540615049 -0.021103497105489703 0 -0.022499983092411555 -0.021940360325104262 0 -0.022850729791580884 -0.021277011165199231 0 -0.022499983092411555 -0.021940360325104262 0 -0.023530631109781291 -0.021735939911430222 0 -0.022850729791580884 -0.021277011165199231 0 -0.021957372540615049 -0.021103497105489703 0 -0.022499983092411555 -0.021940360325104262 0 -0.022200992697075723 -0.020550284027449545 0 -0.022850729791580884 -0.021277011165199231 0 -0.021957372540615049 -0.021103497105489703 0 -0.022496839559469392 -0.022884218104907355 0 -0.022035444233454687 -0.02388890835726179 0 -0.0235452661197387 -0.023771433154351963 0 -0.020758020795127768 -0.021605284833369057 0 -0.022496839559469392 -0.022884218104907355 0 -0.022035444233454687 -0.02388890835726179 0 -0.022499983092411555 -0.021940360325104262 0 -0.022496839559469392 -0.022884218104907355 0 -0.023436224665976786 -0.022647846981284143 0 -0.030010004642202753 -0.017611815862100651 0 -0.029638662328133107 -0.017339627455303052 0 -0.02942989960926148 -0.017605609198514085 0 -0.024286216410954419 -0.01948802493898355 0 -0.025964837238130575 -0.021743518688272501 0 -0.029779700198160827 -0.017025727968265666 0 -0.030010004642202753 -0.017611815862100651 0 -0.029638662328133107 -0.017339627455303052 0 -0.02732026343949169 -0.02352085542541885 0 -0.026758248584712152 -0.023360497871914618 0 -0.026508283284661125 -0.023971107392351736 0 -0.02732026343949169 -0.02352085542541885 0 -0.026508283284661125 -0.023971107392351736 0 -0.028036064255657238 -0.023865697747795941 0 -0.025964837238130575 -0.021743518688272501 0 -0.0326904754742703 -0.017444039494276146 0 -0.025964837238130575 -0.021743518688272501 0 -0.024276389983840449 -0.023801787211292943 0 -0.025964837238130575 -0.021743518688272501 0 -0.026472079089972927 -0.023950252308419538 0 -0.026355338381170039 -0.023795110103589565 0 -0.026116189889018412 -0.023268702344149766 0 -0.025663711786980514 -0.023813711003181307 0 -0.026758248584712152 -0.023360497871914618 0 -0.026508283284661125 -0.023971107392351736 0 -0.026116189889018412 -0.023268702344149766 0 -0.03735021471454214 -0.012867992296803106 0 -0.038035612455591318 -0.013318423258426023 0 -0.037645820375077479 -0.014040578953427257 0 -0.038035612455591318 -0.013318423258426023 0 -0.037645820375077479 -0.014040578953427257 0 -0.037876915485820339 -0.014160508366079653 0 -0.038035612455591318 -0.013318423258426023 0 -0.038672541128292201 -0.01414138521468883 0 -0.037876915485820339 -0.014160508366079653 0 -0.034640243015010709 -0.014273277554904025 0 -0.0326904754742703 -0.017444039494276146 0 -0.029450508200210553 -0.017026398122993603 0 -0.029638662328133107 -0.017339627455303052 0 -0.02942989960926148 -0.017605609198514085 0 -0.038831994860626315 -0.012571092783923052 0 -0.038035612455591318 -0.013318423258426023 0 -0.038672541128292201 -0.01414138521468883 0 -0.02732026343949169 -0.02352085542541885 0 -0.028069627673700998 -0.023397056491094047 0 -0.027229776783076424 -0.022976190541381229 0 -0.02732026343949169 -0.02352085542541885 0 -0.028069627673700998 -0.023397056491094047 0 -0.028036064255657238 -0.023865697747795941 0 -0.033670903056315579 -0.01924868088726996 0 -0.0326904754742703 -0.017444039494276146 0 -0.033670903056315579 -0.01924868088726996 0 -0.039012313119867477 -0.014231400963782512 0 -0.038414565151936857 -0.01464502547371167 0 -0.037645820375077479 -0.014040578953427257 0 -0.037876915485820339 -0.014160508366079653 0 -0.038683193185788604 -0.016028350486815741 0 -0.039106242718770577 -0.014558425250812313 0 -0.039515552410332361 -0.015611462021162564 0 -0.040196737318357621 -0.015313303705630823 0 -0.039106242718770577 -0.014558425250812313 0 -0.039515552410332361 -0.015611462021162564 0 -0.038414565151936857 -0.01464502547371167 0 -0.038439368315566637 -0.014200567356636733 0 -0.037876915485820339 -0.014160508366079653 0 -0.0326904754742703 -0.017444039494276146 0 -0.039469104307619983 -0.014648067647145505 0 -0.040196737318357621 -0.015313303705630823 0 -0.039515552410332361 -0.015611462021162564 0 -0.040125567575633757 -0.016325964076387336 0 -0.038683193185788604 -0.016028350486815741 0 -0.039515552410332361 -0.015611462021162564 0 -0.040125567575633757 -0.016325964076387336 0 -0.028189284504521048 -0.023608763328567862 0 -0.028294032038287169 -0.022711291449489683 0 -0.027903694421285447 -0.023091081662655919 0 -0.033670903056315579 -0.01924868088726996 0 -0.034441428827497803 -0.020274566637467926 0 -0.028189284504521048 -0.023608763328567862 0 -0.027903694421285447 -0.023091081662655919 0 -0.027300760634829262 -0.023101530672102143 0 -0.033670903056315579 -0.01924868088726996 0 -0.026761924566692324 -0.022941829942799762 0 -0.034441428827497803 -0.020274566637467926 0 -0.028925821701754673 -0.023970358374976374 0 -0.027903694421285447 -0.023091081662655919 0 -0.027588283339472192 -0.022759782669663439 0 -0.027300760634829262 -0.023101530672102143 0 -0.028149669334234961 -0.022792474946845744 0 -0.027903694421285447 -0.023091081662655919 0 -0.027588283339472192 -0.022759782669663439 0 -0.033087119556463908 -0.021013758381304874 0 -0.034441428827497803 -0.020274566637467926 0 -0.028180866705996902 -0.02171200944368332 0 -0.028149669334234961 -0.022792474946845744 0 -0.027512295241933771 -0.022207277942694226 0 -0.028149669334234961 -0.022792474946845744 0 -0.027588283339472192 -0.022759782669663439 0 -0.027512295241933771 -0.022207277942694226 0 -0.039121602770560565 -0.018683353624391719 0 -0.034441428827497803 -0.020274566637467926 0 -0.037835002235859456 -0.021046996945120407 0 -0.037519856768682927 -0.020923021700570085 0 -0.037825481996745805 -0.020556871667171343 0 -0.039019707387893121 -0.017538209010022253 0 -0.038683193185788604 -0.016028350486815741 0 -0.040125567575633757 -0.016325964076387336 0 -0.026758248584712152 -0.023360497871914618 0 -0.026116189889018412 -0.023268702344149766 0 -0.026473147745998401 -0.022619244267094146 0 -0.026116189889018412 -0.023268702344149766 0 -0.026473147745998401 -0.022619244267094146 0 -0.025881688942782796 -0.022619587394160905 0 -0.026758248584712152 -0.023360497871914618 0 -0.027229776783076424 -0.022976190541381229 0 -0.026473147745998401 -0.022619244267094146 0 -0.026761924566692324 -0.022941829942799762 0 -0.026711047357190522 -0.022733620059885679 0 -0.027300760634829262 -0.023101530672102143 0 -0.027130590020197701 -0.022572119955983242 0 -0.026473147745998401 -0.022619244267094146 0 -0.02732026343949169 -0.02352085542541885 0 -0.026758248584712152 -0.023360497871914618 0 -0.027229776783076424 -0.022976190541381229 0 -0.027588283339472192 -0.022759782669663439 0 -0.027300760634829262 -0.023101530672102143 0 -0.027130590020197701 -0.022572119955983242 0 -0.027130590020197701 -0.022572119955983242 0 -0.026777406797912184 -0.022204849074644241 0 -0.026473147745998401 -0.022619244267094146 0 -0.027588283339472192 -0.022759782669663439 0 -0.027512295241933771 -0.022207277942694226 0 -0.027130590020197701 -0.022572119955983242 0 -0.027512295241933771 -0.022207277942694226 0 -0.027130590020197701 -0.022572119955983242 0 -0.026777406797912184 -0.022204849074644241 0 -0.026777406797912184 -0.022204849074644241 0 -0.026283133729652401 -0.022382523575189071 0 -0.026194332838748158 -0.022035178180642618 0 -0.026777406797912184 -0.022204849074644241 0 -0.026473147745998401 -0.022619244267094146 0 -0.026283133729652401 -0.022382523575189071 0 -0.026473147745998401 -0.022619244267094146 0 -0.026283133729652401 -0.022382523575189071 0 -0.025881688942782796 -0.022619587394160905 0 -0.026283133729652401 -0.022382523575189071 0 -0.026194332838748158 -0.022035178180642618 0 -0.025881688942782796 -0.022619587394160905 0 -0.022881561158983106 -0.030866401787352647 0 -0.024091396399386695 -0.027082065702955883 0 -0.025221135860700256 -0.026110132270578481 0 -0.024091396399386695 -0.027082065702955883 0 -0.022858043949297868 -0.029444269744553379 0 -0.023052035029423448 -0.027615182710750693 0 -0.023311651784423008 -0.028784889319885119 0 -0.023619482491610937 -0.030840554839913947 0 -0.023532121163463277 -0.030663673628465407 0 -0.024102733528043388 -0.03013618972913943 0 -0.026194332838748158 -0.022035178180642618 0 -0.025881688942782796 -0.022619587394160905 0 -0.025243979058257558 -0.022807164729306096 0 -0.022858043949297868 -0.029444269744553379 0 -0.022358695394625042 -0.030220191060135758 0 -0.023052035029423448 -0.027615182710750693 0 -0.025652903191951591 -0.023019020422096227 0 -0.025243979058257558 -0.022807164729306096 0 -0.025387164898522198 -0.023374747729826468 0 -0.026116189889018412 -0.023268702344149766 0 -0.025652903191951591 -0.023019020422096227 0 -0.025387164898522198 -0.023374747729826468 0 -0.026116189889018412 -0.023268702344149766 0 -0.025881688942782796 -0.022619587394160905 0 -0.025652903191951591 -0.023019020422096227 0 -0.025881688942782796 -0.022619587394160905 0 -0.025652903191951591 -0.023019020422096227 0 -0.025243979058257558 -0.022807164729306096 0 -0.024091396399386695 -0.027082065702955883 0 -0.024705074474824017 -0.02422887857644165 0 -0.022971497841546579 -0.027569346773150011 0 -0.023642445928690643 -0.026984346978696019 0 -0.024023870067741399 -0.02561381561688298 0 -0.025243979058257558 -0.022807164729306096 0 -0.025387164898522198 -0.023374747729826468 0 -0.024963701154984558 -0.023526568832132298 0 -0.023642445928690643 -0.026984346978696019 0 -0.024490352360391304 -0.026396627386892097 0 -0.024023870067741399 -0.02561381561688298 0 -0.023052035029423448 -0.027615182710750693 0 -0.023642445928690643 -0.026984346978696019 0 -0.024073846154977683 -0.027674568124724044 0 -0.024091396399386695 -0.027082065702955883 0 -0.023538555492239547 -0.027302390492075581 0 -0.023642445928690643 -0.026984346978696019 0 -0.024073846154977683 -0.027674568124724044 0 -0.024706112107312533 -0.027133367006623953 0 -0.023642445928690643 -0.026984346978696019 0 -0.024706112107312533 -0.027133367006623953 0 -0.024490352360391304 -0.026396627386892097 0 -0.024073846154977683 -0.027674568124724044 0 -0.023834406632014339 -0.028537229579935923 0 -0.024676626977092431 -0.028223213678991079 0 -0.023052035029423448 -0.027615182710750693 0 -0.024073846154977683 -0.027674568124724044 0 -0.023834406632014339 -0.028537229579935923 0 -0.023052035029423448 -0.027615182710750693 0 -0.023311651784423008 -0.028784889319885119 0 -0.023834406632014339 -0.028537229579935923 0 -0.022858043949297868 -0.029444269744553379 0 -0.023490592730513172 -0.029466922259383199 0 -0.023311651784423008 -0.028784889319885119 0 -0.023490592730513172 -0.029466922259383199 0 -0.023311651784423008 -0.028784889319885119 0 -0.023834406632014339 -0.028537229579935923 0 -0.024434696564547043 -0.029226577463220733 0 -0.023834406632014339 -0.028537229579935923 0 -0.024676626977092431 -0.028223213678991079 0 -0.024434696564547043 -0.029226577463220733 0 -0.023490592730513172 -0.029466922259383199 0 -0.023834406632014339 -0.028537229579935923 0 -0.024434696564547043 -0.029226577463220733 0 -0.025172893078059408 -0.028725922597654708 0 -0.024676626977092431 -0.028223213678991079 0 -0.02551155461531358 -0.02938956744366893 0 -0.025172893078059408 -0.028725922597654708 0 -0.025745411394939632 -0.028369652796107227 0 -0.025172893078059408 -0.028725922597654708 0 -0.025745411394939632 -0.028369652796107227 0 -0.02525046335459475 -0.027760919063244981 0 -0.025745411394939632 -0.028369652796107227 0 -0.02525046335459475 -0.027760919063244981 0 -0.025911261187304049 -0.027155076187694187 0 -0.025172893078059408 -0.028725922597654708 0 -0.02525046335459475 -0.027760919063244981 0 -0.024676626977092431 -0.028223213678991079 0 -0.02525046335459475 -0.027760919063244981 0 -0.024676626977092431 -0.028223213678991079 0 -0.024706112107312533 -0.027133367006623953 0 -0.024073846154977683 -0.027674568124724044 0 -0.024676626977092431 -0.028223213678991079 0 -0.024706112107312533 -0.027133367006623953 0 -0.026214989309595822 -0.029190163883827683 0 -0.026854359899691625 -0.028641110658705386 0 -0.026118326572825187 -0.029208671845731747 0 -0.026555818278394931 -0.02831276951065595 0 -0.027705695883735129 -0.028270101155985404 0 -0.02551155461531358 -0.02938956744366893 0 -0.026118326572825187 -0.029208671845731747 0 -0.025745411394939632 -0.028369652796107227 0 -0.026118326572825187 -0.029208671845731747 0 -0.025745411394939632 -0.028369652796107227 0 -0.026555818278394931 -0.02831276951065595 0 -0.025745411394939632 -0.028369652796107227 0 -0.026555818278394931 -0.02831276951065595 0 -0.0267747346713973 -0.027390861611775452 0 -0.025745411394939632 -0.028369652796107227 0 -0.0267747346713973 -0.027390861611775452 0 -0.025911261187304049 -0.027155076187694187 0 -0.026555818278394931 -0.02831276951065595 0 -0.0267747346713973 -0.027390861611775452 0 -0.027705695883735129 -0.028270101155985404 0 -0.0267747346713973 -0.027390861611775452 0 -0.026562220199941651 -0.026548608870158877 0 -0.027168358612129986 -0.026359875943623913 0 -0.0267747346713973 -0.027390861611775452 0 -0.027168358612129986 -0.026359875943623913 0 -0.0278525019412217 -0.026773352428612073 0 -0.0267747346713973 -0.027390861611775452 0 -0.025911261187304049 -0.027155076187694187 0 -0.026562220199941651 -0.026548608870158877 0 -0.025911261187304049 -0.027155076187694187 0 -0.025932689511841561 -0.026269211383634552 0 -0.026562220199941651 -0.026548608870158877 0 -0.025932689511841561 -0.026269211383634552 0 -0.026562220199941651 -0.026548608870158877 0 -0.026643741878808146 -0.025793460055846047 0 -0.027168358612129986 -0.026359875943623913 0 -0.026643741878808146 -0.025793460055846047 0 -0.027548863665253564 -0.025523183545042009 0 -0.026562220199941651 -0.026548608870158877 0 -0.027168358612129986 -0.026359875943623913 0 -0.026643741878808146 -0.025793460055846047 0 -0.02525046335459475 -0.027760919063244981 0 -0.024706112107312533 -0.027133367006623953 0 -0.025322990006843134 -0.026729979316576936 0 -0.02525046335459475 -0.027760919063244981 0 -0.025911261187304049 -0.027155076187694187 0 -0.025322990006843134 -0.026729979316576936 0 -0.025932689511841561 -0.026269211383634552 0 -0.025322990006843134 -0.026729979316576936 0 -0.025175874851104913 -0.02598273349738691 0 -0.025911261187304049 -0.027155076187694187 0 -0.025932689511841561 -0.026269211383634552 0 -0.025322990006843134 -0.026729979316576936 0 -0.025932689511841561 -0.026269211383634552 0 -0.025175874851104913 -0.02598273349738691 0 -0.025968480881682136 -0.025372341709821802 0 -0.025175874851104913 -0.02598273349738691 0 -0.024490352360391304 -0.026396627386892097 0 -0.024023870067741399 -0.02561381561688298 0 -0.025322990006843134 -0.026729979316576936 0 -0.025175874851104913 -0.02598273349738691 0 -0.024490352360391304 -0.026396627386892097 0 -0.024706112107312533 -0.027133367006623953 0 -0.025322990006843134 -0.026729979316576936 0 -0.024490352360391304 -0.026396627386892097 0 -0.025294842981007881 -0.023738914990922243 0 -0.024705074474824017 -0.02422887857644165 0 -0.025175874851104913 -0.02598273349738691 0 -0.025305802100029286 -0.025015549980494194 0 -0.024023870067741399 -0.02561381561688298 0 -0.025305802100029286 -0.025015549980494194 0 -0.025478617490795646 -0.023586283276658748 0 -0.024023870067741399 -0.02561381561688298 0 -0.025175874851104913 -0.02598273349738691 0 -0.025305802100029286 -0.025015549980494194 0 -0.025968480881682136 -0.025372341709821802 0 -0.025305802100029286 -0.025015549980494194 0 -0.025835080540383019 -0.024466539210589687 0 -0.025968480881682136 -0.025372341709821802 0 -0.025305802100029286 -0.025015549980494194 0 -0.025835080540383019 -0.024466539210589687 0 -0.025478617490795646 -0.023586283276658748 0 -0.020789575120144031 -0.020987325261827804 0 -0.021364826059123099 -0.021603965878628919 0 -0.021669380378178171 -0.021566976135498014 0 -0.020189477513330566 -0.020522687761911754 0 -0.021669380378178171 -0.021566976135498014 0 -0.021194737396697059 -0.020657224951217364 0 -0.021948735583182475 -0.021441409019508546 0 -0.024850196113969464 -0.023777869651597641 0 -0.021948735583182475 -0.021441409019508546 0 -0.021016405700996735 -0.021196515343725034 0 -0.026394849055210494 -0.024963111604827035 0 -0.026005311075587959 -0.023676800031162785 0 -0.027548863665253564 -0.025523183545042009 0 -0.026643741878808146 -0.025793460055846047 0 -0.026394849055210494 -0.024963111604827035 0 -0.027548863665253564 -0.025523183545042009 0 -0.025932689511841561 -0.026269211383634552 0 -0.026643741878808146 -0.025793460055846047 0 -0.025968480881682136 -0.025372341709821802 0 -0.026643741878808146 -0.025793460055846047 0 -0.025968480881682136 -0.025372341709821802 0 -0.026394849055210494 -0.024963111604827035 0 -0.025835080540383019 -0.024466539210589687 0 -0.025968480881682136 -0.025372341709821802 0 -0.026394849055210494 -0.024963111604827035 0 -0.025835080540383019 -0.024466539210589687 0 -0.026394849055210494 -0.024963111604827035 0 -0.026005311075587959 -0.023676800031162785 0 -0.020189477513330566 -0.020522687761911754 0 -0.020557643090588166 -0.020182286435649371 0 -0.021194737396697059 -0.020657224951217364 0 -0.020557643090588166 -0.020182286435649371 0 -0.020097732995292671 -0.019828839323782068 0 -0.020763762624058917 -0.019732935637035071 0 -0.020189477513330566 -0.020522687761911754 0 -0.020557643090588166 -0.020182286435649371 0 -0.020097732995292671 -0.019828839323782068 0 -0.020557643090588166 -0.020182286435649371 0 -0.021194737396697059 -0.020657224951217364 0 -0.020763762624058917 -0.019732935637035071 0 -0.021948735583182475 -0.021441409019508546 0 -0.022446378611289772 -0.021016068223334402 0 -0.02038783134869673 -0.020193576557961074 0 -0.019328740963931973 -0.019411503698662808 0 -0.019797452365021867 -0.019529201789476446 0 -0.026005311075587959 -0.023676800031162785 0 -0.025478617490795646 -0.023586283276658748 0 -0.025045023442943581 -0.022369134138964533 0 -0.025835080540383019 -0.024466539210589687 0 -0.026005311075587959 -0.023676800031162785 0 -0.025478617490795646 -0.023586283276658748 0 -0.020189477513330566 -0.020522687761911754 0 -0.020097732995292671 -0.019828839323782068 0 -0.019506858739845076 -0.019669863433606997 0 -0.021948735583182475 -0.021441409019508546 0 -0.019440013723018821 -0.019363429821353188 0 -0.025478617490795646 -0.023586283276658748 0 -0.025041745594972395 -0.023125490444648945 0 -0.025045023442943581 -0.022369134138964533 0 -0.025478617490795646 -0.023586283276658748 0 -0.025041745594972395 -0.023125490444648945 0 -0.024960495224692979 -0.023628972357576543 0 -0.025041745594972395 -0.023125490444648945 0 -0.024409884718748737 -0.022886226645768507 0 -0.025045023442943581 -0.022369134138964533 0 -0.025041745594972395 -0.023125490444648945 0 -0.024409884718748737 -0.022886226645768507 0 -0.024960495224692979 -0.023628972357576543 0 -0.024409884718748737 -0.022886226645768507 0 -0.0235452661197387 -0.023771433154351963 0 -0.024960495224692979 -0.023628972357576543 0 -0.024409884718748737 -0.022886226645768507 0 -0.023436224665976786 -0.022647846981284143 0 -0.024017454362444922 -0.022362222374021669 0 -0.022496839559469392 -0.022884218104907355 0 -0.023436224665976786 -0.022647846981284143 0 -0.0235452661197387 -0.023771433154351963 0 -0.024409884718748737 -0.022886226645768507 0 -0.023436224665976786 -0.022647846981284143 0 -0.0235452661197387 -0.023771433154351963 0 -0.026116189889018412 -0.023268702344149766 0 -0.025663711786980514 -0.023813711003181307 0 -0.025387164898522198 -0.023374747729826468 0 -0.025663711786980514 -0.023813711003181307 0 -0.025387164898522198 -0.023374747729826468 0 -0.024960495224692979 -0.023628972357576543 0 -0.024276389983840449 -0.023801787211292943 0 -0.025047959630671298 -0.023673064482646881 0 -0.025478617490795646 -0.023586283276658748 0 -0.024963701154984558 -0.023526568832132298 0 -0.024960495224692979 -0.023628972357576543 0 -0.025387164898522198 -0.023374747729826468 0 -0.024963701154984558 -0.023526568832132298 0 -0.024960495224692979 -0.023628972357576543 0 -0.021130739564092553 -0.023060373684323756 0 -0.021405246542552017 -0.023038850319327238 0 -0.021311220610401874 -0.022798386369548045 0 -0.021130739564092553 -0.023060373684323756 0 -0.02118455963714564 -0.022756857650479977 0 -0.021311220610401874 -0.022798386369548045 0 -0.021405246542552017 -0.023038850319327238 0 -0.021311220610401874 -0.022798386369548045 0 -0.021488384884603084 -0.022596466067119108 0 -0.021012572185214368 -0.022858656518502132 0 -0.021130739564092553 -0.023060373684323756 0 -0.02118455963714564 -0.022756857650479977 0 -0.021012572185214368 -0.022858656518502132 0 -0.021130739564092553 -0.023060373684323756 0 -0.020896522071376128 -0.023175040005924109 0 -0.020833281009293051 -0.024062452253398731 0 -0.020965631528855652 -0.02368923344258728 0 -0.021260824294636219 -0.023143392465859589 0 -0.020965631528855652 -0.02368923344258728 0 -0.021130739564092553 -0.023060373684323756 0 -0.021405246542552017 -0.023038850319327238 0 -0.020990922371495774 -0.02360224353967235 0 -0.021321580459295636 -0.022872683827239077 0 -0.021406802147060564 -0.026604244832522574 0 -0.021043512292888335 -0.023459321100440963 0 -0.020965631528855652 -0.02368923344258728 0 -0.021130739564092553 -0.023060373684323756 0 -0.020896522071376128 -0.023175040005924109 0 -0.020965631528855652 -0.02368923344258728 0 -0.02127601760896888 -0.022602030448757537 0 -0.021260824294636219 -0.023143392465859589 0 -0.020868915608617249 -0.025394290207953227 0 -0.021039582080821281 -0.024285646976545002 0 -0.021605651209634136 -0.024960214447345093 0 -0.020965631528855652 -0.02368923344258728 0 -0.020742478528872434 -0.02340951268459163 0 -0.020896522071376128 -0.023175040005924109 0 -0.020965631528855652 -0.02368923344258728 0 -0.020742478528872434 -0.02340951268459163 0 -0.020494817226836656 -0.023576148688014133 0 -0.020742478528872434 -0.02340951268459163 0 -0.020611976545276203 -0.023194281311676175 0 -0.020494817226836656 -0.023576148688014133 0 -0.020742478528872434 -0.02340951268459163 0 -0.020611976545276203 -0.023194281311676175 0 -0.020896522071376128 -0.023175040005924109 0 -0.020611976545276203 -0.023194281311676175 0 -0.020896522071376128 -0.023175040005924109 0 -0.020796086121818325 -0.022863360406089741 0 -0.021012572185214368 -0.022858656518502132 0 -0.020896522071376128 -0.023175040005924109 0 -0.020796086121818325 -0.022863360406089741 0 -0.020611976545276203 -0.023194281311676175 0 -0.020796086121818325 -0.022863360406089741 0 -0.020514678342550489 -0.022909678114305731 0 -0.020611976545276203 -0.023194281311676175 0 -0.020514678342550489 -0.022909678114305731 0 -0.020191731879229763 -0.023208245121714117 0 -0.022826803581290779 -0.021901332870847071 0 -0.022065269062910665 -0.021883552041917945 0 -0.022094353744015541 -0.022462253439964119 0 -0.02165160598612079 -0.022443406199603701 0 -0.024166550051059801 -0.025406043748414427 0 -0.020611976545276203 -0.023194281311676175 0 -0.020191731879229763 -0.023208245121714117 0 -0.020494817226836656 -0.023576148688014133 0 -0.025874907880753688 -0.029430056503676378 0 -0.025759811726260406 -0.029347041027115044 0 -0.025891050542941128 -0.029337150235209906 0 -0.024166550051059801 -0.025406043748414427 0 -0.023265480702620859 -0.026624332666417581 0 -0.025874907880753688 -0.029430056503676378 0 -0.025891050542941128 -0.029337150235209906 0 -0.025990190063766978 -0.029364092468246412 0 -0.024166550051059801 -0.025406043748414427 0 -0.026854359899691625 -0.028641110658705386 0 -0.025987040383937173 -0.029283941352674224 0 -0.025891050542941128 -0.029337150235209906 0 -0.025990190063766978 -0.029364092468246412 0 -0.0267747346713973 -0.027390861611775452 0 -0.027705695883735129 -0.028270101155985404 0 -0.0278525019412217 -0.026773352428612073 0 -0.024166550051059801 -0.025406043748414427 0 -0.024850196113969464 -0.023777869651597641 0 -0.02900105910812684 -0.027233265790807405 0 -0.0278525019412217 -0.026773352428612073 0 -0.027548863665253564 -0.025523183545042009 0 -0.022065269062910665 -0.021883552041917945 0 -0.022094353744015541 -0.022462253439964119 0 -0.021364826059123099 -0.021603965878628919 0 -0.02900105910812684 -0.027233265790807405 0 -0.027705695883735129 -0.028270101155985404 0 -0.0278525019412217 -0.026773352428612073 0 -0.027168358612129986 -0.026359875943623913 0 -0.0278525019412217 -0.026773352428612073 0 -0.027548863665253564 -0.025523183545042009 0 -0.021669380378178171 -0.021566976135498014 0 -0.021882545129683198 -0.021062208873988807 0 -0.022299892383790151 -0.021395230963014687 0 -0.022065269062910665 -0.021883552041917945 0 -0.021364826059123099 -0.021603965878628919 0 -0.021669380378178171 -0.021566976135498014 0 -0.022065269062910665 -0.021883552041917945 0 -0.021669380378178171 -0.021566976135498014 0 -0.022299892383790151 -0.021395230963014687 0 -0.021669380378178171 -0.021566976135498014 0 -0.021882545129683198 -0.021062208873988807 0 -0.021194737396697059 -0.020657224951217364 0 -0.019271390409411476 -0.019293734770915345 0 -0.019279259934398364 -0.01895770968603314 0 -0.018851009328403494 -0.018915294428675553 0 -0.021882545129683198 -0.021062208873988807 0 -0.021194737396697059 -0.020657224951217364 0 -0.022272146829293429 -0.020596553106793654 0 -0.020849225472669743 -0.019820897282569337 0 -0.01980750248496033 -0.019351739144954711 0 -0.021194737396697059 -0.020657224951217364 0 -0.022272146829293429 -0.020596553106793654 0 -0.020763762624058917 -0.019732935637035071 0 -0.019306971756840232 -0.019341882458262832 0 -0.018910585648026567 -0.019004318372226631 0 -0.019271390409411476 -0.019293734770915345 0 -0.019829126911682832 -0.019112167564575989 0 -0.019279259934398364 -0.01895770968603314 0 -0.020849225472669743 -0.019820897282569337 0 -0.021154249974192369 -0.02148477792439988 0 -0.022272146829293429 -0.020596553106793654 0 -0.022738621546548859 -0.021309618958592066 0 -0.023549298233060366 -0.021330673072277536 0 -0.021882545129683198 -0.021062208873988807 0 -0.022272146829293429 -0.020596553106793654 0 -0.022299892383790151 -0.021395230963014687 0 -0.022272146829293429 -0.020596553106793654 0 -0.022299892383790151 -0.021395230963014687 0 -0.022738621546548859 -0.021309618958592066 0 -0.022826803581290779 -0.021901332870847071 0 -0.022065269062910665 -0.021883552041917945 0 -0.022299892383790151 -0.021395230963014687 0 -0.022826803581290779 -0.021901332870847071 0 -0.022299892383790151 -0.021395230963014687 0 -0.022738621546548859 -0.021309618958592066 0 -0.020796086121818325 -0.022863360406089741 0 -0.020514678342550489 -0.022909678114305731 0 -0.020863362381799283 -0.022591479100997416 0 -0.02165160598612079 -0.022443406199603701 0 -0.021154249974192369 -0.02148477792439988 0 -0.022826803581290779 -0.021901332870847071 0 -0.022738621546548859 -0.021309618958592066 0 -0.023549298233060366 -0.021330673072277536 0 -0.020796086121818325 -0.022863360406089741 0 -0.020954792549279275 -0.02263531290881381 0 -0.020863362381799283 -0.022591479100997416 0 -0.021012572185214368 -0.022858656518502132 0 -0.020796086121818325 -0.022863360406089741 0 -0.020954792549279275 -0.02263531290881381 0 -0.021202487402392403 -0.021673154764431719 0 -0.021154249974192369 -0.02148477792439988 0 -0.019271390409411476 -0.019293734770915345 0 -0.01991784293849758 -0.019674117650580844 0 -0.019829126911682832 -0.019112167564575989 0 -0.018805349634269185 -0.019650451151845737 0 -0.019979382775462788 -0.01969210790521695 0 -0.020385755363633747 -0.020581944790239608 0 -0.019306971756840232 -0.019341882458262832 0 -0.020626076348042182 -0.020462362521210763 0 -0.01991784293849758 -0.019674117650580844 0 -0.019829126911682832 -0.019112167564575989 0 -0.02040014139403154 -0.019305964799447684 0 -0.019979382775462788 -0.01969210790521695 0 -0.020686068476826067 -0.019379308525342444 0 -0.020798478233225986 -0.020351642717435968 0 -0.019979382775462788 -0.01969210790521695 0 -0.020385755363633747 -0.020581944790239608 0 -0.020798478233225986 -0.020351642717435968 0 -0.020626076348042182 -0.020462362521210763 0 -0.020665203342764303 -0.020433720035281534 0 -0.021154249974192369 -0.02148477792439988 0 -0.020626076348042182 -0.020462362521210763 0 -0.021380615047632771 -0.022357773322738285 0 -0.021357845018320294 -0.022499632576341841 0 -0.021443403916566687 -0.022441031917931554 0 -0.021380615047632771 -0.022357773322738285 0 -0.021357845018320294 -0.022499632576341841 0 -0.021189620365912567 -0.022488888120949565 0 -0.020854272889836371 -0.022581496015165951 0 -0.021358422028209111 -0.022160828224223241 0 -0.021189620365912567 -0.022488888120949565 0 -0.021358422028209111 -0.022160828224223241 0 -0.021380615047632771 -0.022357773322738285 0 -0.021189620365912567 -0.022488888120949565 0 -0.021357845018320294 -0.022499632576341841 0 -0.021189620365912567 -0.022488888120949565 0 -0.021287896619977858 -0.022613513451188606 0 -0.020954792549279275 -0.02263531290881381 0 -0.020854272889836371 -0.022581496015165951 0 -0.021189620365912567 -0.022488888120949565 0 -0.020954792549279275 -0.02263531290881381 0 -0.021189620365912567 -0.022488888120949565 0 -0.021134412162068093 -0.02264468329090373 0 -0.020954792549279275 -0.02263531290881381 0 -0.021134412162068093 -0.02264468329090373 0 -0.02106397655740961 -0.022725974267844559 0 -0.021012572185214368 -0.022858656518502132 0 -0.020954792549279275 -0.02263531290881381 0 -0.02106397655740961 -0.022725974267844559 0 -0.021012572185214368 -0.022858656518502132 0 -0.02106397655740961 -0.022725974267844559 0 -0.02118455963714564 -0.022756857650479977 0 -0.021134412162068093 -0.02264468329090373 0 -0.02106397655740961 -0.022725974267844559 0 -0.02118455963714564 -0.022756857650479977 0 -0.02118455963714564 -0.022756857650479977 0 -0.021311220610401874 -0.022798386369548045 0 -0.021287896619977858 -0.022613513451188606 0 -0.021357845018320294 -0.022499632576341841 0 -0.021287896619977858 -0.022613513451188606 0 -0.021488384884603084 -0.022596466067119108 0 -0.021311220610401874 -0.022798386369548045 0 -0.021287896619977858 -0.022613513451188606 0 -0.021488384884603084 -0.022596466067119108 0 -0.021189620365912567 -0.022488888120949565 0 -0.021134412162068093 -0.02264468329090373 0 -0.021287896619977858 -0.022613513451188606 0 -0.021134412162068093 -0.02264468329090373 0 -0.02118455963714564 -0.022756857650479977 0 -0.021287896619977858 -0.022613513451188606 0 -0.02057314952926936 -0.016226471462554574 0 -0.019268635322208467 -0.018387152080280109 0 -0.018873594341646746 -0.015988095736959414 0 -0.02057314952926936 -0.016226471462554574 0 -0.019268635322208467 -0.018387152080280109 0 -0.020924958671009544 -0.018095505540253146 0 -0.019268635322208467 -0.018387152080280109 0 -0.020686068476826067 -0.019379308525342444 0 -0.020924958671009544 -0.018095505540253146 0 -0.018805349634269185 -0.019650451151845737 0 -0.019979382775462788 -0.01969210790521695 0 -0.019268635322208467 -0.018387152080280109 0 -0.019979382775462788 -0.01969210790521695 0 -0.019268635322208467 -0.018387152080280109 0 -0.020686068476826067 -0.019379308525342444 0 -0.018805349634269185 -0.019650451151845737 0 -0.018629581190109195 -0.019003668898440434 0 -0.018443436903408047 -0.018973346406213145 0 -0.019268635322208467 -0.018387152080280109 0 -0.018629581190109195 -0.019003668898440434 0 -0.018534246773931815 -0.018795285126328519 0 -0.018805349634269185 -0.019650451151845737 0 -0.019268635322208467 -0.018387152080280109 0 -0.018629581190109195 -0.019003668898440434 0 -0.019127434263874903 -0.018397353318578093 0 -0.017644881722693247 -0.018109297365893864 0 -0.019268635322208467 -0.018387152080280109 0 -0.017209580297022586 -0.016108665136293405 0 -0.016436695077270941 -0.01741542007344132 0 -0.019268635322208467 -0.018387152080280109 0 -0.017209580297022586 -0.016108665136293405 0 -0.018873594341646746 -0.015988095736959414 0 -0.018534246773931815 -0.018795285126328519 0 -0.01859415604740686 -0.018966052256980073 0 -0.018629931308455701 -0.019074155605449446 0 -0.017644881722693247 -0.018109297365893864 0 -0.016244370097385091 -0.017866950886007711 0 -0.016436695077270941 -0.01741542007344132 0 -0.01432643804708446 -0.016546251886405593 0 -0.015631879263560553 -0.015672611901229726 0 -0.017209580297022586 -0.016108665136293405 0 -0.016436695077270941 -0.01741542007344132 0 -0.015631879263560553 -0.015672611901229726 0 -0.018629581190109195 -0.019003668898440434 0 -0.018534246773931815 -0.018795285126328519 0 -0.018443436903408047 -0.018973346406213145 0 -0.018534246773931815 -0.018795285126328519 0 -0.018443436903408047 -0.018973346406213145 0 -0.01859415604740686 -0.018966052256980073 0 -0.018443436903408047 -0.018973346406213145 0 -0.01859415604740686 -0.018966052256980073 0 -0.018876073094603055 -0.018877498517937519 0 -0.018910585648026567 -0.019004318372226631 0 -0.018870623098700114 -0.01889594831927353 0 -0.019279259934398364 -0.01895770968603314 0 -0.018851009328403494 -0.018915294428675553 0 -0.018876073094603055 -0.018877498517937519 0 -0.01859415604740686 -0.018966052256980073 0 -0.018752737271619045 -0.019009211652197752 0 -0.018876073094603055 -0.018877498517937519 0 -0.018752737271619045 -0.019009211652197752 0 -0.018629931308455701 -0.019074155605449446 0 -0.01890531817058597 -0.01907203545371278 0 -0.016244370097385091 -0.017866950886007711 0 -0.01734676970691558 -0.015997705548581698 0 -0.01859415604740686 -0.018966052256980073 0 -0.018752737271619045 -0.019009211652197752 0 -0.018629931308455701 -0.019074155605449446 0 -0.01432643804708446 -0.016546251886405593 0 -0.014394697578040261 -0.014438321372130412 0 -0.012450469121741936 -0.015989097700460891 0 -0.01432643804708446 -0.016546251886405593 0 -0.014394697578040261 -0.014438321372130412 0 -0.015631879263560553 -0.015672611901229726 0 -0.021411990762513509 -0.0066219392563718112 0 -0.020880369875418605 -0.006103111584642531 0 -0.020059903407094449 -0.0065574979922824704 0 -0.021411990762513509 -0.0066219392563718112 0 -0.020880369875418605 -0.006103111584642531 0 -0.021547684059469663 -0.0059415490167849094 0 -0.021547684059469663 -0.0059415490167849094 0 -0.022183991369742088 -0.0061085890243625755 0 -0.021759924908319281 -0.0056081715716369985 0 -0.014394697578040261 -0.014438321372130412 0 -0.016933148020612215 -0.014552255940668703 0 -0.016785961800472461 -0.013144900832273123 0 -0.017786760765248603 -0.0103116790756468 0 -0.01855352358892693 -0.010046815609629585 0 -0.021411990762513509 -0.0066219392563718112 0 -0.021547684059469663 -0.0059415490167849094 0 -0.022183991369742088 -0.0061085890243625755 0 -0.014394697578040261 -0.014438321372130412 0 -0.015631879263560553 -0.015672611901229726 0 -0.016933148020612215 -0.014552255940668703 0 -0.017209580297022586 -0.016108665136293405 0 -0.015631879263560553 -0.015672611901229726 0 -0.016933148020612215 -0.014552255940668703 0 -0.017209580297022586 -0.016108665136293405 0 -0.016933148020612215 -0.014552255940668703 0 -0.018873594341646746 -0.015988095736959414 0 -0.016933148020612215 -0.014552255940668703 0 -0.017461038958665163 -0.013118650653481553 0 -0.01864471060258659 -0.014183495064075407 0 -0.016933148020612215 -0.014552255940668703 0 -0.01864471060258659 -0.014183495064075407 0 -0.018873594341646746 -0.015988095736959414 0 -0.017276407214977228 -0.014752795142153925 0 -0.01855352358892693 -0.010046815609629585 0 -0.016933148020612215 -0.014552255940668703 0 -0.016339219759322468 -0.01222820608376275 0 -0.017461038958665163 -0.013118650653481553 0 -0.016339219759322468 -0.01222820608376275 0 -0.016949677623432847 -0.011889931706904999 0 -0.017461038958665163 -0.013118650653481553 0 -0.01855352358892693 -0.010046815609629585 0 -0.017530319442796673 -0.010710946256359063 0 -0.016949677623432847 -0.011889931706904999 0 -0.018355347065106643 -0.012626022620127051 0 -0.018143026448570725 -0.010981007262742266 0 -0.018355347065106643 -0.012626022620127051 0 -0.017461038958665163 -0.013118650653481553 0 -0.01864471060258659 -0.014183495064075407 0 -0.016949677623432847 -0.011889931706904999 0 -0.018355347065106643 -0.012626022620127051 0 -0.017461038958665163 -0.013118650653481553 0 -0.018355347065106643 -0.012626022620127051 0 -0.01961976947073437 -0.013569589896173113 0 -0.01968576399349423 -0.012194001865129023 0 -0.018355347065106643 -0.012626022620127051 0 -0.01961976947073437 -0.013569589896173113 0 -0.01864471060258659 -0.014183495064075407 0 -0.018355347065106643 -0.012626022620127051 0 -0.01968576399349423 -0.012194001865129023 0 -0.018143026448570725 -0.010981007262742266 0 -0.019901523024246269 -0.012668630358085589 0 -0.020228962691412174 -0.013487448675381011 0 -0.01961976947073437 -0.013569589896173113 0 -0.01968576399349423 -0.012194001865129023 0 -0.020766683210669323 -0.013830026884010164 0 -0.01968576399349423 -0.012194001865129023 0 -0.0209109664525617 -0.013730664569953062 0 -0.022284595126311535 -0.011445333188403295 0 -0.020228962691412174 -0.013487448675381011 0 -0.02022009558018802 -0.013595732434169346 0 -0.020483583380660475 -0.014244317133595667 0 -0.01970905163096752 -0.014279734041203198 0 -0.019584683946334773 -0.014992845171828474 0 -0.01961976947073437 -0.013569589896173113 0 -0.020483583380660475 -0.014244317133595667 0 -0.01970905163096752 -0.014279734041203198 0 -0.01961976947073437 -0.013569589896173113 0 -0.020766683210669323 -0.013830026884010164 0 -0.020483583380660475 -0.014244317133595667 0 -0.01961976947073437 -0.013569589896173113 0 -0.01970905163096752 -0.014279734041203198 0 -0.01864471060258659 -0.014183495064075407 0 -0.01970905163096752 -0.014279734041203198 0 -0.01864471060258659 -0.014183495064075407 0 -0.019584683946334773 -0.014992845171828474 0 -0.01864471060258659 -0.014183495064075407 0 -0.019584683946334773 -0.014992845171828474 0 -0.018873594341646746 -0.015988095736959414 0 -0.02057314952926936 -0.016226471462554574 0 -0.019584683946334773 -0.014992845171828474 0 -0.018873594341646746 -0.015988095736959414 0 -0.02057314952926936 -0.016226471462554574 0 -0.020483583380660475 -0.014244317133595667 0 -0.019584683946334773 -0.014992845171828474 0 -0.019571738415209712 -0.018650927236334915 0 -0.019217018460096387 -0.018619338737012082 0 -0.019034053050848581 -0.018934047883131584 0 -0.019220041208733506 -0.01895356243889328 0 -0.019140515794660622 -0.018914758282936563 0 -0.019298920006563858 -0.019029488599280678 0 -0.019034053050848581 -0.018934047883131584 0 -0.019225521026271734 -0.019048772589981677 0 -0.019298920006563858 -0.019029488599280678 0 -0.019225521026271734 -0.019048772589981677 0 -0.019352969172962392 -0.019052664587889102 0 -0.019217018460096387 -0.018619338737012082 0 -0.019046153346660953 -0.01851100783486653 0 -0.019329667928646814 -0.018226236753541878 0 -0.019571738415209712 -0.018650927236334915 0 -0.019217018460096387 -0.018619338737012082 0 -0.019329667928646814 -0.018226236753541878 0 -0.019046153346660953 -0.01851100783486653 0 -0.018875786336162412 -0.018579889629310856 0 -0.018888708239838986 -0.018361083494241894 0 -0.019046153346660953 -0.01851100783486653 0 -0.018875786336162412 -0.018579889629310856 0 -0.019007487115542471 -0.01871137664926701 0 -0.019217018460096387 -0.018619338737012082 0 -0.019046153346660953 -0.01851100783486653 0 -0.019007487115542471 -0.01871137664926701 0 -0.018660274656924537 -0.018471386760610543 0 -0.018875786336162412 -0.018579889629310856 0 -0.018855813165152953 -0.01885506194482002 0 -0.018660274656924537 -0.018471386760610543 0 -0.018875786336162412 -0.018579889629310856 0 -0.018888708239838986 -0.018361083494241894 0 -0.018875786336162412 -0.018579889629310856 0 -0.018855813165152953 -0.01885506194482002 0 -0.019007487115542471 -0.01871137664926701 0 -0.019217018460096387 -0.018619338737012082 0 -0.019007487115542471 -0.01871137664926701 0 -0.019034053050848581 -0.018934047883131584 0 -0.018855813165152953 -0.01885506194482002 0 -0.019007487115542471 -0.01871137664926701 0 -0.019034053050848581 -0.018934047883131584 0 -0.018855813165152953 -0.01885506194482002 0 -0.019034053050848581 -0.018934047883131584 0 -0.019328740963931973 -0.019411503698662808 0 -0.023644896418133027 -0.020758867215698286 0 -0.023530631109781291 -0.021735939911430222 0 -0.024243094691983047 -0.022087925484649662 0 -0.022850729791580884 -0.021277011165199231 0 -0.023644896418133027 -0.020758867215698286 0 -0.023530631109781291 -0.021735939911430222 0 -0.023436224665976786 -0.022647846981284143 0 -0.023530631109781291 -0.021735939911430222 0 -0.024017454362444922 -0.022362222374021669 0 -0.022499983092411555 -0.021940360325104262 0 -0.023436224665976786 -0.022647846981284143 0 -0.023530631109781291 -0.021735939911430222 0 -0.024409884718748737 -0.022886226645768507 0 -0.024243094691983047 -0.022087925484649662 0 -0.024017454362444922 -0.022362222374021669 0 -0.023530631109781291 -0.021735939911430222 0 -0.024243094691983047 -0.022087925484649662 0 -0.024017454362444922 -0.022362222374021669 0 -0.024409884718748737 -0.022886226645768507 0 -0.024243094691983047 -0.022087925484649662 0 -0.025045023442943581 -0.022369134138964533 0 -0.023644896418133027 -0.020758867215698286 0 -0.024243094691983047 -0.022087925484649662 0 -0.025045023442943581 -0.022369134138964533 0 -0.021082256800739361 -0.019736195597242146 0 -0.022446378611289772 -0.021016068223334402 0 -0.019034053050848581 -0.018934047883131584 0 -0.019225521026271734 -0.019048772589981677 0 -0.019328740963931973 -0.019411503698662808 0 -0.019225521026271734 -0.019048772589981677 0 -0.019328740963931973 -0.019411503698662808 0 -0.019797452365021867 -0.019529201789476446 0 -0.019355371993604029 -0.019219380750579492 0 -0.019440013723018821 -0.019363429821353188 0 -0.019379415411523236 -0.019066346962472235 0 -0.01980750248496033 -0.019351739144954711 0 -0.020097732995292671 -0.019828839323782068 0 -0.019506858739845076 -0.019669863433606997 0 -0.019352969172962392 -0.019052664587889102 0 -0.019166999301166849 -0.019035813753034064 0 -0.019352969172962392 -0.019052664587889102 0 -0.018851009328403494 -0.018915294428675553 0 -0.020097732995292671 -0.019828839323782068 0 -0.019352969172962392 -0.019052664587889102 0 -0.020763762624058917 -0.019732935637035071 0 -0.019225521026271734 -0.019048772589981677 0 -0.019506858739845076 -0.019669863433606997 0 -0.019352969172962392 -0.019052664587889102 0 -0.018851009328403494 -0.018915294428675553 0 -0.01893888421571592 -0.01895491814210409 0 -0.018876073094603055 -0.018877498517937519 0 -0.019166999301166849 -0.019035813753034064 0 -0.018851009328403494 -0.018915294428675553 0 -0.019059018349353685 -0.019014941625693296 0 -0.018851009328403494 -0.018915294428675553 0 -0.019059018349353685 -0.019014941625693296 0 -0.01893888421571592 -0.01895491814210409 0 -0.019059018349353685 -0.019014941625693296 0 -0.01893888421571592 -0.01895491814210409 0 -0.018979448608298276 -0.019023492561950444 0 -0.018752737271619045 -0.019009211652197752 0 -0.018876073094603055 -0.018877498517937519 0 -0.018910165273365483 -0.01899583679777379 0 -0.01893888421571592 -0.01895491814210409 0 -0.018910165273365483 -0.01899583679777379 0 -0.018979448608298276 -0.019023492561950444 0 -0.01893888421571592 -0.01895491814210409 0 -0.018876073094603055 -0.018877498517937519 0 -0.018910165273365483 -0.01899583679777379 0 -0.018629931308455701 -0.019074155605449446 0 -0.01890531817058597 -0.01907203545371278 0 -0.018985614017796415 -0.019186182916463932 0 -0.018629931308455701 -0.019074155605449446 0 -0.019001271062680385 -0.019215161751271258 0 -0.018985614017796415 -0.019186182916463932 0 -0.018752737271619045 -0.019009211652197752 0 -0.018910165273365483 -0.01899583679777379 0 -0.01890531817058597 -0.01907203545371278 0 -0.018910165273365483 -0.01899583679777379 0 -0.01890531817058597 -0.01907203545371278 0 -0.018979448608298276 -0.019023492561950444 0 -0.01890531817058597 -0.01907203545371278 0 -0.018979448608298276 -0.019023492561950444 0 -0.019040275951385712 -0.019083236241770721 0 -0.01890531817058597 -0.01907203545371278 0 -0.019040275951385712 -0.019083236241770721 0 -0.019002736121607248 -0.019123109274321922 0 -0.019059018349353685 -0.019014941625693296 0 -0.018979448608298276 -0.019023492561950444 0 -0.019040275951385712 -0.019083236241770721 0 -0.019059018349353685 -0.019014941625693296 0 -0.019040275951385712 -0.019083236241770721 0 -0.019114945755809361 -0.019070708769340253 0 -0.019040275951385712 -0.019083236241770721 0 -0.019077364678544286 -0.019151146948975486 0 -0.019114945755809361 -0.019070708769340253 0 -0.01734676970691558 -0.015997705548581698 0 -0.019517499840087209 -0.015915358031825786 0 -0.019077364678544286 -0.019151146948975486 0 -0.01900395640040849 -0.019207077413500823 0 -0.019144153896148913 -0.019215583566404962 0 -0.019077364678544286 -0.019151146948975486 0 -0.01900395640040849 -0.019207077413500823 0 -0.018985614017796415 -0.019186182916463932 0 -0.01734676970691558 -0.015997705548581698 0 -0.017547835758712913 -0.016340819371614794 0 -0.019077364678544286 -0.019151146948975486 0 -0.018985614017796415 -0.019186182916463932 0 -0.019002736121607248 -0.019123109274321922 0 -0.019040275951385712 -0.019083236241770721 0 -0.019077364678544286 -0.019151146948975486 0 -0.019002736121607248 -0.019123109274321922 0 -0.01890531817058597 -0.01907203545371278 0 -0.018985614017796415 -0.019186182916463932 0 -0.019002736121607248 -0.019123109274321922 0 -0.019220041208733506 -0.01895356243889328 0 -0.019517499840087209 -0.015915358031825786 0 -0.019298920006563858 -0.019029488599280678 0 -0.019214949707142714 -0.019085462226092424 0 -0.019144153896148913 -0.019215583566404962 0 -0.019166999301166849 -0.019035813753034064 0 -0.019352969172962392 -0.019052664587889102 0 -0.019214949707142714 -0.019085462226092424 0 -0.019298920006563858 -0.019029488599280678 0 -0.019352969172962392 -0.019052664587889102 0 -0.019214949707142714 -0.019085462226092424 0 -0.019077364678544286 -0.019151146948975486 0 -0.019114945755809361 -0.019070708769340253 0 -0.019214949707142714 -0.019085462226092424 0 -0.019166999301166849 -0.019035813753034064 0 -0.019114945755809361 -0.019070708769340253 0 -0.019214949707142714 -0.019085462226092424 0 -0.019166999301166849 -0.019035813753034064 0 -0.019059018349353685 -0.019014941625693296 0 -0.019114945755809361 -0.019070708769340253 0 -0.019077364678544286 -0.019151146948975486 0 -0.019214949707142714 -0.019085462226092424 0 -0.019144153896148913 -0.019215583566404962 0 -0.017917253999199207 -0.013220988263384043 0 -0.019808758691152475 -0.0080625753041622134 0 -0.019571738415209712 -0.018650927236334915 0 -0.020075018784487503 -0.018380959836106384 0 -0.019329667928646814 -0.018226236753541878 0 -0.021031667828657081 -0.011418568277757769 0 -0.021339155705798255 -0.011269825910481566 0 -0.020721163508181196 -0.010198616987541863 0 -0.021031667828657081 -0.011418568277757769 0 -0.020721163508181196 -0.010198616987541863 0 -0.019579873007513186 -0.011041503045579862 0 -0.019517499840087209 -0.015915358031825786 0 -0.019378587522909215 -0.014634806516720566 0 -0.021411990762513509 -0.0066219392563718112 0 -0.019833577950269375 -0.0076215596643975031 0 -0.020059903407094449 -0.0065574979922824704 0 -0.019833577950269375 -0.0076215596643975031 0 -0.020059903407094449 -0.0065574979922824704 0 -0.018926843050775775 -0.0063052561484220442 0 -0.014394697578040261 -0.014438321372130412 0 -0.012450469121741936 -0.015989097700460891 0 -0.012214664462038654 -0.015573342855293517 0 -0.017786760765248603 -0.0103116790756468 0 -0.017917253999199207 -0.013220988263384043 0 -0.01734676970691558 -0.015997705548581698 0 -0.017917253999199207 -0.013220988263384043 0 -0.019517499840087209 -0.015915358031825786 0 -0.017917253999199207 -0.013220988263384043 0 -0.017358733866723521 -0.015332340060243333 0 -0.018710119991927149 -0.0156628531276716 0 -0.017822643165941655 -0.016083712852321783 0 -0.020880369875418605 -0.006103111584642531 0 -0.019672940410294628 -0.0053237353851727977 0 -0.020726635746611714 -0.0044731133321162086 0 -0.020880369875418605 -0.006103111584642531 0 -0.020059903407094449 -0.0065574979922824704 0 -0.019672940410294628 -0.0053237353851727977 0 -0.020059903407094449 -0.0065574979922824704 0 -0.019672940410294628 -0.0053237353851727977 0 -0.018926843050775775 -0.0063052561484220442 0 -0.019672940410294628 -0.0053237353851727977 0 -0.018926843050775775 -0.0063052561484220442 0 -0.01794857382821826 -0.0047705622288310478 0 -0.019808758691152475 -0.0080625753041622134 0 -0.020180737364507463 -0.0051023715454880728 0 -0.020721163508181196 -0.010198616987541863 0 -0.019104437364934564 -0.0099088131169719137 0 -0.020093049243762484 -0.0091198172837121116 0 -0.020721163508181196 -0.010198616987541863 0 -0.019579873007513186 -0.011041503045579862 0 -0.019104437364934564 -0.0099088131169719137 0 -0.020105362763550124 -0.007056990270825284 0 -0.020180737364507463 -0.0051023715454880728 0 -0.018643367714296314 -0.018068587965117247 0 -0.019329667928646814 -0.018226236753541878 0 -0.018888708239838986 -0.018361083494241894 0 -0.018134229860441137 -0.010685158451852635 0 -0.019579873007513186 -0.011041503045579862 0 -0.019104437364934564 -0.0099088131169719137 0 -0.019837089925203975 -0.013258675613935188 0 -0.019378587522909215 -0.014634806516720566 0 -0.018643367714296314 -0.018068587965117247 0 -0.018660274656924537 -0.018471386760610543 0 -0.018888708239838986 -0.018361083494241894 0 -0.019046153346660953 -0.01851100783486653 0 -0.019329667928646814 -0.018226236753541878 0 -0.018888708239838986 -0.018361083494241894 0 -0.01955671604554796 -0.0046219609411553703 0 -0.020664712795938633 -0.0048532082619331847 0 -0.020287143634064614 -0.003903667918280479 0 -0.019767776052729377 -0.0055548926122584675 0 -0.01955671604554796 -0.0046219609411553703 0 -0.020664712795938633 -0.0048532082619331847 0 -0.019837089925203975 -0.013258675613935188 0 -0.020105362763550124 -0.007056990270825284 0 -0.019911694802533433 -0.0029690903949654585 0 -0.020890390389778322 -0.002969969075680025 0 -0.020061367756951932 -0.0017627119866802038 0 -0.020287143634064614 -0.003903667918280479 0 -0.019911694802533433 -0.0029690903949654585 0 -0.020890390389778322 -0.002969969075680025 0 -0.020375884694348204 -0.0022428550624775871 0 -0.020650973891754399 -0.002701449369493267 0 -0.020736679529293818 -0.0022611530100051379 0 -0.020375884694348204 -0.0022428550624775871 0 -0.020736679529293818 -0.0022611530100051379 0 -0.020695087601185529 -0.0018921293715173984 0 -0.020287143634064614 -0.003903667918280479 0 -0.020890390389778322 -0.002969969075680025 0 -0.021592947420582827 -0.0041444374104552565 0 -0.020629785210166417 -0.002350828515519232 0 -0.020180737364507463 -0.0051023715454880728 0 -0.020664712795938633 -0.0048532082619331847 0 -0.020287143634064614 -0.003903667918280479 0 -0.021592947420582827 -0.0041444374104552565 0 -0.019672940410294628 -0.0053237353851727977 0 -0.01794857382821826 -0.0047705622288310478 0 -0.019478482359566566 -0.0035386936952954387 0 -0.020180737364507463 -0.0051023715454880728 0 -0.020239660631024683 -0.0028929938263906529 0 -0.020650973891754399 -0.002701449369493267 0 -0.021002249464434016 -0.0024077838401281929 0 -0.020736679529293818 -0.0022611530100051379 0 -0.019672940410294628 -0.0053237353851727977 0 -0.020726635746611714 -0.0044731133321162086 0 -0.019478482359566566 -0.0035386936952954387 0 -0.020726635746611714 -0.0044731133321162086 0 -0.019478482359566566 -0.0035386936952954387 0 -0.021256666651210551 -0.0033762623918494952 0 -0.019478482359566566 -0.0035386936952954387 0 -0.021256666651210551 -0.0033762623918494952 0 -0.021308871230244178 -0.0023305847550050482 0 -0.021002249464434016 -0.0024077838401281929 0 -0.020966676574812822 -0.0020352148910488589 0 -0.021308871230244178 -0.0023305847550050482 0 -0.020239660631024683 -0.0028929938263906529 0 -0.021196493825436098 -0.0023810799991785298 0 -0.021002249464434016 -0.0024077838401281929 0 -0.020736679529293818 -0.0022611530100051379 0 -0.020966676574812822 -0.0020352148910488589 0 -0.020966676574812822 -0.0020352148910488589 0 -0.020962875425166169 -0.001563417183208094 0 -0.020695087601185529 -0.0018921293715173984 0 -0.020736679529293818 -0.0022611530100051379 0 -0.020966676574812822 -0.0020352148910488589 0 -0.020695087601185529 -0.0018921293715173984 0 -0.020966676574812822 -0.0020352148910488589 0 -0.02117325442186371 -0.0016839943885787563 0 -0.020962875425166169 -0.001563417183208094 0 -0.020966676574812822 -0.0020352148910488589 0 -0.02117325442186371 -0.0016839943885787563 0 -0.021308871230244178 -0.0023305847550050482 0 -0.021683275530128204 -0.0014940415428164944 0 -0.021217996312860081 -0.0013345998555063826 0 -0.021203891114092908 -0.00078985567759472068 0 -0.019686664652475688 -0.00078316012464929845 0 -0.017344444371906697 0.00069307383448335524 0 -0.015538166061977958 0.00024229244148666826 0 -0.015506044341300708 0.0015059355034992045 0 -0.016490339291003929 0.0013100645484882462 0 -0.015538166061977958 0.00024229244148666826 0 -0.015506044341300708 0.0015059355034992045 0 -0.014399309860315769 0.001831307292253256 0 -0.019686664652475688 -0.00078316012464929845 0 -0.021363179321373812 -0.0015216820870637491 0 -0.020962875425166169 -0.001563417183208094 0 -0.020709502089408312 -0.0012513427599494869 0 -0.020695087601185529 -0.0018921293715173984 0 -0.021363179321373812 -0.0015216820870637491 0 -0.020641641953034553 -0.0012571354207170917 0 -0.021217996312860081 -0.0013345998555063826 0 -0.020709502089408312 -0.0012513427599494869 0 -0.021203891114092908 -0.00078985567759472068 0 -0.020061367756951932 -0.0017627119866802038 0 -0.020282812518286956 -0.00053757634343130597 0 -0.019275845840849393 -0.00089376423070508678 0 -0.020709502089408312 -0.0012513427599494869 0 -0.020061367756951932 -0.0017627119866802038 0 -0.020282812518286956 -0.00053757634343130597 0 -0.020629785210166417 -0.002350828515519232 0 -0.020136375518285458 -0.0019055730386048214 0 -0.020709502089408312 -0.0012513427599494869 0 -0.020061367756951932 -0.0017627119866802038 0 -0.020695087601185529 -0.0018921293715173984 0 -0.020375884694348204 -0.0022428550624775871 0 -0.020061367756951932 -0.0017627119866802038 0 -0.020695087601185529 -0.0018921293715173984 0 -0.019414325657716291 -0.0063590160024637448 0 -0.018824149023484994 -0.0094413304839600955 0 -0.021045459087870508 -0.0091149947239162806 0 -0.019414325657716291 -0.0063590160024637448 0 -0.021045459087870508 -0.0091149947239162806 0 -0.021876143930731437 -0.006700407486652858 0 -0.019414325657716291 -0.0063590160024637448 0 -0.021389435500901055 -0.0045946723198696327 0 -0.021876143930731437 -0.006700407486652858 0 -0.01968576399349423 -0.012194001865129023 0 -0.021045459087870508 -0.0091149947239162806 0 -0.022284595126311535 -0.011445333188403295 0 -0.01968576399349423 -0.012194001865129023 0 -0.018824149023484994 -0.0094413304839600955 0 -0.021045459087870508 -0.0091149947239162806 0 -0.01968576399349423 -0.012194001865129023 0 -0.018824149023484994 -0.0094413304839600955 0 -0.018143026448570725 -0.010981007262742266 0 -0.016266683841128116 -0.012214762964744575 0 -0.016949677623432847 -0.011889931706904999 0 -0.015767960354085543 -0.0085841166179917248 0 -0.01855352358892693 -0.010046815609629585 0 -0.019010844853442482 -0.0069069906006615049 0 -0.018824149023484994 -0.0094413304839600955 0 -0.015767960354085543 -0.0085841166179917248 0 -0.018143026448570725 -0.010981007262742266 0 -0.016949677623432847 -0.011889931706904999 0 -0.015767960354085543 -0.0085841166179917248 0 -0.018143026448570725 -0.010981007262742266 0 -0.019414325657716291 -0.0063590160024637448 0 -0.015767960354085543 -0.0085841166179917248 0 -0.015369435574213955 -0.005102081881655186 0 -0.019414325657716291 -0.0063590160024637448 0 -0.018824149023484994 -0.0094413304839600955 0 -0.015767960354085543 -0.0085841166179917248 0 -0.018342688132703056 -0.0062969280926763538 0 -0.017656991313724099 -0.0044279170621926277 0 -0.022077040393100388 -0.0053457833097752105 0 -0.021783427455995256 -0.0050208766671276488 0 -0.021962674545176263 -0.0045968361632353731 0 -0.02222997284845982 -0.0038336765354512518 0 -0.022449751558974083 -0.0018426856997035971 0 -0.023310023213127671 -0.0016180453388389413 0 -0.019010844853442482 -0.0069069906006615049 0 -0.017656991313724099 -0.0044279170621926277 0 -0.021783427455995256 -0.0050208766671276488 0 -0.02141581157310091 -0.0053523952452461127 0 -0.021817735926233976 -0.0045503272827925245 0 -0.022161515887825507 -0.0045221954060263936 0 -0.019798964997570473 -0.0028320481893668436 0 -0.021783427455995256 -0.0050208766671276488 0 -0.021962674545176263 -0.0045968361632353731 0 -0.021817735926233976 -0.0045503272827925245 0 -0.022183991369742088 -0.0061085890243625755 0 -0.022077040393100388 -0.0053457833097752105 0 -0.021759924908319281 -0.0056081715716369985 0 -0.022077040393100388 -0.0053457833097752105 0 -0.021783427455995256 -0.0050208766671276488 0 -0.021759924908319281 -0.0056081715716369985 0 -0.021547684059469663 -0.0059415490167849094 0 -0.021759924908319281 -0.0056081715716369985 0 -0.02141581157310091 -0.0053523952452461127 0 -0.021783427455995256 -0.0050208766671276488 0 -0.021759924908319281 -0.0056081715716369985 0 -0.02141581157310091 -0.0053523952452461127 0 -0.020880369875418605 -0.006103111584642531 0 -0.020726635746611714 -0.0044731133321162086 0 -0.02222997284845982 -0.0038336765354512518 0 -0.020880369875418605 -0.006103111584642531 0 -0.021547684059469663 -0.0059415490167849094 0 -0.02141581157310091 -0.0053523952452461127 0 -0.020847693358987483 -0.0060823676970241528 0 -0.022161515887825507 -0.0045221954060263936 0 -0.020726635746611714 -0.0044731133321162086 0 -0.02222997284845982 -0.0038336765354512518 0 -0.021256666651210551 -0.0033762623918494952 0 -0.02222997284845982 -0.0038336765354512518 0 -0.021925545131889955 -0.0025822420678035785 0 -0.022449751558974083 -0.0018426856997035971 0 -0.02222997284845982 -0.0038336765354512518 0 -0.021256666651210551 -0.0033762623918494952 0 -0.021925545131889955 -0.0025822420678035785 0 -0.021256666651210551 -0.0033762623918494952 0 -0.021925545131889955 -0.0025822420678035785 0 -0.021308871230244178 -0.0023305847550050482 0 -0.015538166061977958 0.00024229244148666826 0 -0.016687370187970865 -0.00016366637341389643 0 -0.01686814989501444 0.00052714435931646483 0 -0.02117325442186371 -0.0016839943885787563 0 -0.021925545131889955 -0.0025822420678035785 0 -0.021308871230244178 -0.0023305847550050482 0 -0.020344973654553011 -0.00066193559765245151 0 -0.021925545131889955 -0.0025822420678035785 0 -0.021856406195525171 -0.0011395038484628454 0 -0.019686664652475688 -0.00078316012464929845 0 -0.022199851542081001 -0.002741408600511547 0 -0.021925545131889955 -0.0025822420678035785 0 -0.021856406195525171 -0.0011395038484628454 0 -0.022449751558974083 -0.0018426856997035971 0 -0.016687370187970865 -0.00016366637341389643 0 -0.01686814989501444 0.00052714435931646483 0 -0.017374023523792036 6.4315752698129502e-05 0 -0.019686664652475688 -0.00078316012464929845 0 -0.019020458115286847 -0.00064017124856184594 0 -0.015538166061977958 0.00024229244148666826 0 -0.016490339291003929 0.0013100645484882462 0 -0.01686814989501444 0.00052714435931646483 0 -0.016490339291003929 0.0013100645484882462 0 -0.01686814989501444 0.00052714435931646483 0 -0.017339824870737503 0.00072878634377203984 0 -0.015563625811554887 -0.0035726591994706177 0 -0.017167297062972521 -0.0006529499971983804 0 -0.015083359134431599 0.00023343358187689407 0 -0.017339824870737503 0.00072878634377203984 0 -0.018103330589507804 -9.9101064655488183e-05 0 -0.017856054489255143 0.0018969905633107638 0 -0.016490339291003929 0.0013100645484882462 0 -0.017339824870737503 0.00072878634377203984 0 -0.017856054489255143 0.0018969905633107638 0 -0.01686814989501444 0.00052714435931646483 0 -0.017339824870737503 0.00072878634377203984 0 -0.017374023523792036 6.4315752698129502e-05 0 -0.017089312297477875 -0.0026268657772760642 0 -0.016714801555488955 0.0011429114842767864 0 -0.018103330589507804 -9.9101064655488183e-05 0 -0.017374023523792036 6.4315752698129502e-05 0 -0.017854258015102615 -0.00056115952648869085 0 -0.017339824870737503 0.00072878634377203984 0 -0.018103330589507804 -9.9101064655488183e-05 0 -0.017374023523792036 6.4315752698129502e-05 0 -0.016687370187970865 -0.00016366637341389643 0 -0.017374023523792036 6.4315752698129502e-05 0 -0.017854258015102615 -0.00056115952648869085 0 -0.021856406195525171 -0.0011395038484628454 0 -0.022449751558974083 -0.0018426856997035971 0 -0.023310023213127671 -0.0016180453388389413 0 -0.019020458115286847 -0.00064017124856184594 0 -0.019798964997570473 -0.0028320481893668436 0 -0.017656991313724099 -0.0044279170621926277 0 -0.019798964997570473 -0.0028320481893668436 0 -0.017089312297477875 -0.0026268657772760642 0 -0.017656991313724099 -0.0044279170621926277 0 -0.017682452616219469 -0.0029259055096398441 0 -0.017784124798986219 -0.0037753076691844 0 -0.017304438215464391 -0.0036203606027227185 0 -0.017089312297477875 -0.0026268657772760642 0 -0.019798964997570473 -0.0028320481893668436 0 -0.019414325657716291 -0.0063590160024637448 0 -0.015445800558601046 -0.0049915279830285552 0 -0.017083374593624225 -0.0042634281352351873 0 -0.015320421736489216 -0.003806407985897195 0 -0.015445800558601046 -0.0049915279830285552 0 -0.017083374593624225 -0.0042634281352351873 0 -0.019414325657716291 -0.0063590160024637448 0 -0.017083374593624225 -0.0042634281352351873 0 -0.018504627269452147 -0.0039133518989466973 0 -0.017083374593624225 -0.0042634281352351873 0 -0.017571117620284508 -0.0031261445868421339 0 -0.018504627269452147 -0.0039133518989466973 0 -0.017083374593624225 -0.0042634281352351873 0 -0.017571117620284508 -0.0031261445868421339 0 -0.016945237656995096 -0.0027811200311334029 0 -0.017571117620284508 -0.0031261445868421339 0 -0.018414509236713009 -0.0025442542977430946 0 -0.018504627269452147 -0.0039133518989466973 0 -0.015320421736489216 -0.003806407985897195 0 -0.017083374593624225 -0.0042634281352351873 0 -0.016945237656995096 -0.0027811200311334029 0 -0.017167297062972521 -0.0006529499971983804 0 -0.018519945817262153 -0.0009651075630565018 0 -0.015083359134431599 0.00023343358187689407 0 -0.015320421736489216 -0.003806407985897195 0 -0.016945237656995096 -0.0027811200311334029 0 -0.017167297062972521 -0.0006529499971983804 0 -0.017089312297477875 -0.0026268657772760642 0 -0.016582451455913614 -0.0013970606217171475 0 -0.017167297062972521 -0.0006529499971983804 0 -0.017599288105977468 -0.0020945207567154072 0 -0.018519945817262153 -0.0009651075630565018 0 -0.016945237656995096 -0.0027811200311334029 0 -0.017167297062972521 -0.0006529499971983804 0 -0.017599288105977468 -0.0020945207567154072 0 -0.017599288105977468 -0.0020945207567154072 0 -0.018414509236713009 -0.0025442542977430946 0 -0.018519945817262153 -0.0009651075630565018 0 -0.017571117620284508 -0.0031261445868421339 0 -0.016945237656995096 -0.0027811200311334029 0 -0.017599288105977468 -0.0020945207567154072 0 -0.017571117620284508 -0.0031261445868421339 0 -0.017599288105977468 -0.0020945207567154072 0 -0.018414509236713009 -0.0025442542977430946 0 -0.018414509236713009 -0.0025442542977430946 0 -0.018519945817262153 -0.0009651075630565018 0 -0.019843524599459476 -0.0030664479528844336 0 -0.018765700948209726 -0.00093083551983485818 0 -0.021996483856657919 -0.0020126761562557333 0 -0.019124744311344175 -0.00071513605025862214 0 -0.021048228396205702 -0.00011743815138584171 0 -0.022149150196872584 -0.0021129739268076469 0 -0.018519945817262153 -0.0009651075630565018 0 -0.019843524599459476 -0.0030664479528844336 0 -0.022149150196872584 -0.0021129739268076469 0 -0.019414325657716291 -0.0063590160024637448 0 -0.019843524599459476 -0.0030664479528844336 0 -0.018504627269452147 -0.0039133518989466973 0 -0.019414325657716291 -0.0063590160024637448 0 -0.019843524599459476 -0.0030664479528844336 0 -0.021389435500901055 -0.0045946723198696327 0 -0.018414509236713009 -0.0025442542977430946 0 -0.019843524599459476 -0.0030664479528844336 0 -0.018504627269452147 -0.0039133518989466973 0 -0.010891532528631015 0.0065123693852410323 0 -0.011750034550369938 0.0054542672055391218 0 -0.018527751333578289 0.0019830977395945484 0 -0.019181974770594461 0.004143426014065245 0 -0.021085810050109226 0.0020326566710551683 0 -0.019571994843844455 0.00074362850073839614 0 -0.018527751333578289 0.0019830977395945484 0 -0.021085810050109226 0.0020326566710551683 0 -0.019571994843844455 0.00074362850073839614 0 -0.021048228396205702 -0.00011743815138584171 0 -0.021085810050109226 0.0020326566710551683 0 -0.019124744311344175 -0.00071513605025862214 0 -0.019571994843844455 0.00074362850073839614 0 -0.021048228396205702 -0.00011743815138584171 0 -0.019124744311344175 -0.00071513605025862214 0 -0.019571994843844455 0.00074362850073839614 0 -0.018480656759094969 0.00059621820492530809 0 -0.018765700948209726 -0.00093083551983485818 0 -0.016714801555488955 0.0011429114842767864 0 -0.019571994843844455 0.00074362850073839614 0 -0.018480656759094969 0.00059621820492530809 0 -0.018527751333578289 0.0019830977395945484 0 -0.018480656759094969 0.00059621820492530809 0 -0.018527751333578289 0.0019830977395945484 0 -0.016748317029131442 0.00035297045536250153 0 -0.019124744311344175 -0.00071513605025862214 0 -0.018480656759094969 0.00059621820492530809 0 -0.016748317029131442 0.00035297045536250153 0 -0.018527751333578289 0.0019830977395945484 0 -0.016637582975577936 0.0029802899749477928 0 -0.017719654031720308 0.0041068346370267805 0 -0.016868932184119539 0.0032870572794219729 0 -0.016714801555488955 0.0011429114842767864 0 -0.018527751333578289 0.0019830977395945484 0 -0.016637582975577936 0.0029802899749477928 0 -0.016748317029131442 0.00035297045536250153 0 -0.015506044341300708 0.0015059355034992045 0 -0.016490339291003929 0.0013100645484882462 0 -0.015631522456577278 0.0026194754730013733 0 -0.016490339291003929 0.0013100645484882462 0 -0.017856054489255143 0.0018969905633107638 0 -0.015631522456577278 0.0026194754730013733 0 -0.016714801555488955 0.0011429114842767864 0 -0.016017413652647076 0.0028085619774794175 0 -0.017039157050736522 0.0035655394998924013 0 -0.017220098947746003 0.0020982955306391347 0 -0.015631522456577278 0.0026194754730013733 0 -0.017039157050736522 0.0035655394998924013 0 -0.01578112976880652 0.0041598763429558268 0 -0.015631522456577278 0.0026194754730013733 0 -0.017039157050736522 0.0035655394998924013 0 -0.01578112976880652 0.0041598763429558268 0 -0.016723783204079239 0.0051187511065448749 0 -0.015813972747244838 0.0051256015626564497 0 -0.016723783204079239 0.0051187511065448749 0 -0.016491532097091952 0.0058168335283261879 0 -0.01578112976880652 0.0041598763429558268 0 -0.015813972747244838 0.0051256015626564497 0 -0.016723783204079239 0.0051187511065448749 0 -0.016723783204079239 0.0051187511065448749 0 -0.017719654031720308 0.0041068346370267805 0 -0.017694563412127707 0.0058002947469703746 0 -0.016723783204079239 0.0051187511065448749 0 -0.017694563412127707 0.0058002947469703746 0 -0.016491532097091952 0.0058168335283261879 0 -0.016637582975577936 0.0029802899749477928 0 -0.016723783204079239 0.0051187511065448749 0 -0.017719654031720308 0.0041068346370267805 0 -0.016868932184119539 0.0032870572794219729 0 -0.016714361223896423 0.0049729555804659924 0 -0.018527751333578289 0.0019830977395945484 0 -0.017719654031720308 0.0041068346370267805 0 -0.019181974770594461 0.004143426014065245 0 -0.017719654031720308 0.0041068346370267805 0 -0.017694563412127707 0.0058002947469703746 0 -0.019181974770594461 0.004143426014065245 0 -0.0073582486595842054 0.008561625872828011 0 -0.010891532528631015 0.0065123693852410323 0 -0.0073582486595842054 0.008561625872828011 0 -0.00010145987416504637 0.010290705816734426 0 -0.0017675695248264328 0.0093549696647449703 0 -0.001830947050784083 0.0094456209884428328 0 -0.0017146784149402814 0.0094590630232763429 0 -0.0020890659789561936 0.0092638581393922597 0 -0.0017675695248264328 0.0093549696647449703 0 -0.001830947050784083 0.0094456209884428328 0 -0.001830947050784083 0.0094456209884428328 0 -0.0017146784149402814 0.0094590630232763429 0 -0.0016839545216351594 0.0092701606649953743 0 -0.021110504198477018 0.00063954029784269676 0 -0.020314361044875027 0.00050290061911605771 0 -0.020282812518286956 -0.00053757634343130597 0 -0.019163953727961588 0.0012716310802998877 0 -0.018918557159694632 0.0014919221557265622 0 -0.021017558828399431 0.00075330402853815621 0 -0.021110504198477018 0.00063954029784269676 0 -0.020314361044875027 0.00050290061911605771 0 -0.021017558828399431 0.00075330402853815621 0 -0.020314361044875027 0.00050290061911605771 0 -0.020382906101594843 0.0013074676759420218 0 -0.020314361044875027 0.00050290061911605771 0 -0.020382906101594843 0.0013074676759420218 0 -0.019622794799334878 0.0009522105542694424 0 -0.020314361044875027 0.00050290061911605771 0 -0.019622794799334878 0.0009522105542694424 0 -0.019663791039721389 1.957403545191666e-05 0 -0.020314361044875027 0.00050290061911605771 0 -0.020282812518286956 -0.00053757634343130597 0 -0.019663791039721389 1.957403545191666e-05 0 -0.020282812518286956 -0.00053757634343130597 0 -0.019663791039721389 1.957403545191666e-05 0 -0.019275845840849393 -0.00089376423070508678 0 -0.020709502089408312 -0.0012513427599494869 0 -0.020282812518286956 -0.00053757634343130597 0 -0.020708249827867821 -0.00063940368847410366 0 -0.020651825638954555 -5.7675315176753293e-05 0 -0.020708249827867821 -0.00063940368847410366 0 -0.021203891114092908 -0.00078985567759472068 0 -0.018918557159694632 0.0014919221557265622 0 -0.020596746824159493 -0.00056512918768454818 0 -0.020651825638954555 -5.7675315176753293e-05 0 -0.020282812518286956 -0.00053757634343130597 0 -0.020708249827867821 -0.00063940368847410366 0 -0.020709502089408312 -0.0012513427599494869 0 -0.020708249827867821 -0.00063940368847410366 0 -0.021203891114092908 -0.00078985567759472068 0 -0.018918557159694632 0.0014919221557265622 0 -0.017344444371906697 0.00069307383448335524 0 -0.014399309860315769 0.001831307292253256 0 -0.015631522456577278 0.0026194754730013733 0 -0.014758833273323366 0.0033035613676661688 0 -0.015506044341300708 0.0015059355034992045 0 -0.014399309860315769 0.001831307292253256 0 -0.015631522456577278 0.0026194754730013733 0 -0.01578112976880652 0.0041598763429558268 0 -0.015631522456577278 0.0026194754730013733 0 -0.014758833273323366 0.0033035613676661688 0 -0.013428859588648732 0.0031851550188960378 0 -0.014399309860315769 0.001831307292253256 0 -0.014758833273323366 0.0033035613676661688 0 -0.013428859588648732 0.0031851550188960378 0 -0.014758833273323366 0.0033035613676661688 0 -0.01450497376498021 0.00459704619611418 0 -0.018918557159694632 0.0014919221557265622 0 -0.0179084812285627 0.0031560980106542296 0 -0.01578112976880652 0.0041598763429558268 0 -0.014758833273323366 0.0033035613676661688 0 -0.01450497376498021 0.00459704619611418 0 -0.01578112976880652 0.0041598763429558268 0 -0.015813972747244838 0.0051256015626564497 0 -0.01450497376498021 0.00459704619611418 0 -0.0179084812285627 0.0031560980106542296 0 -0.019363146187652631 0.0055270412284682815 0 -0.015813972747244838 0.0051256015626564497 0 -0.01450497376498021 0.00459704619611418 0 -0.01550279162735653 0.0059273520918700718 0 -0.02194469734321795 0.0020400186383075208 0 -0.021375076676320749 0.0036334756282599525 0 -0.022898684966657774 0.0034069755194958955 0 -0.02194469734321795 0.0020400186383075208 0 -0.020806851611957906 0.0020895858944767628 0 -0.021375076676320749 0.0036334756282599525 0 -0.020806851611957906 0.0020895858944767628 0 -0.020385201555191853 0.0032207838419324288 0 -0.021375076676320749 0.0036334756282599525 0 -0.021017558828399431 0.00075330402853815621 0 -0.020806851611957906 0.0020895858944767628 0 -0.020382906101594843 0.0013074676759420218 0 -0.021017558828399431 0.00075330402853815621 0 -0.02109367253216576 0.00065643544836567968 0 -0.02194469734321795 0.0020400186383075208 0 -0.021017558828399431 0.00075330402853815621 0 -0.02194469734321795 0.0020400186383075208 0 -0.020806851611957906 0.0020895858944767628 0 -0.020806851611957906 0.0020895858944767628 0 -0.020382906101594843 0.0013074676759420218 0 -0.019725096598717181 0.0023416280647576885 0 -0.020382906101594843 0.0013074676759420218 0 -0.019725096598717181 0.0023416280647576885 0 -0.019622794799334878 0.0009522105542694424 0 -0.020806851611957906 0.0020895858944767628 0 -0.019725096598717181 0.0023416280647576885 0 -0.020385201555191853 0.0032207838419324288 0 -0.019725096598717181 0.0023416280647576885 0 -0.019251869601855303 0.0032393848660934341 0 -0.020385201555191853 0.0032207838419324288 0 -0.019725096598717181 0.0023416280647576885 0 -0.018346370507268752 0.0024103093997484689 0 -0.018929987699327019 0.0015920329566232879 0 -0.01473575302735586 0.002999040239054963 0 -0.029966597477304586 0.0010617150262912996 0 -0.019725096598717181 0.0023416280647576885 0 -0.018494400377001854 0.0026367868291139172 0 -0.019251869601855303 0.0032393848660934341 0 -0.029966597477304586 0.0010617150262912996 0 -0.029514853491979576 -0.00068753621243197141 0 -0.018346370507268752 0.0024103093997484689 0 -0.018929987699327019 0.0015920329566232879 0 -0.018189647390613121 0.00095523378911676607 0 -0.019725096598717181 0.0023416280647576885 0 -0.018929987699327019 0.0015920329566232879 0 -0.019622794799334878 0.0009522105542694424 0 -0.018929987699327019 0.0015920329566232879 0 -0.019622794799334878 0.0009522105542694424 0 -0.018905644524371719 0.00017502973615212848 0 -0.019622794799334878 0.0009522105542694424 0 -0.018905644524371719 0.00017502973615212848 0 -0.019663791039721389 1.957403545191666e-05 0 -0.018929987699327019 0.0015920329566232879 0 -0.018905644524371719 0.00017502973615212848 0 -0.018189647390613121 0.00095523378911676607 0 -0.029514853491979576 -0.00068753621243197141 0 -0.034090024404793723 -0.0022252708657356343 0 -0.018905644524371719 0.00017502973615212848 0 -0.018189647390613121 0.00095523378911676607 0 -0.018140949723621454 8.0697634331015493e-05 0 -0.018905644524371719 0.00017502973615212848 0 -0.018109850055243158 -0.00056667032661397775 0 -0.019275845840849393 -0.00089376423070508678 0 -0.018905644524371719 0.00017502973615212848 0 -0.018140949723621454 8.0697634331015493e-05 0 -0.018109850055243158 -0.00056667032661397775 0 -0.034090024404793723 -0.0022252708657356343 0 -0.029222755619054172 -0.0030664130971834814 0 -0.018905644524371719 0.00017502973615212848 0 -0.019663791039721389 1.957403545191666e-05 0 -0.019275845840849393 -0.00089376423070508678 0 -0.038769913745248158 -0.0054263114627240393 0 -0.038010739240207994 -0.0053249201997584731 0 -0.038265911613462759 -0.0059148958170522035 0 -0.034090024404793723 -0.0022252708657356343 0 -0.039691358462095511 -0.0044308460593373358 0 -0.038782589047989251 -0.0050303393074563555 0 -0.038769913745248158 -0.0054263114627240393 0 -0.038010739240207994 -0.0053249201997584731 0 -0.040395412098433489 -0.0029807229248098163 0 -0.039253155910039424 -0.0034942839267522647 0 -0.039604806603567709 -0.0024529594305043663 0 -0.040445170029740719 -0.0022028241573295174 0 -0.040395412098433489 -0.0029807229248098163 0 -0.039604806603567709 -0.0024529594305043663 0 -0.039253155910039424 -0.0034942839267522647 0 -0.039604806603567709 -0.0024529594305043663 0 -0.038748151280584051 -0.0027666323235398852 0 -0.039604806603567709 -0.0024529594305043663 0 -0.039003646368060203 -0.0018470739893559289 0 -0.038748151280584051 -0.0027666323235398852 0 -0.039604806603567709 -0.0024529594305043663 0 -0.039003646368060203 -0.0018470739893559289 0 -0.039743617359063371 -0.0015162587952627818 0 -0.039003646368060203 -0.0018470739893559289 0 -0.039743617359063371 -0.0015162587952627818 0 -0.039090871890412604 -0.00056768577534389701 0 -0.040497142626837096 -0.00085164944294639419 0 -0.040445170029740719 -0.0022028241573295174 0 -0.039743617359063371 -0.0015162587952627818 0 -0.040445170029740719 -0.0022028241573295174 0 -0.039604806603567709 -0.0024529594305043663 0 -0.039743617359063371 -0.0015162587952627818 0 -0.040497142626837096 -0.00085164944294639419 0 -0.039743617359063371 -0.0015162587952627818 0 -0.039090871890412604 -0.00056768577534389701 0 -0.029966597477304586 0.0010617150262912996 0 -0.04116667451055004 -0.000202454030781731 0 -0.039090871890412604 -0.00056768577534389701 0 -0.0377483250168952 -0.0019567403247634572 0 -0.037464923844211316 -0.00015855318918384713 0 -0.04116667451055004 -0.000202454030781731 0 -0.03665247661820302 0.00037532995015097345 0 -0.0377483250168952 -0.0019567403247634572 0 -0.036412156733430949 -0.00097652069881032399 0 -0.037464923844211316 -0.00015855318918384713 0 -0.039003646368060203 -0.0018470739893559289 0 -0.039090871890412604 -0.00056768577534389701 0 -0.0377483250168952 -0.0019567403247634572 0 -0.036412156733430949 -0.00097652069881032399 0 -0.034999901364284422 -0.0012615201440442224 0 -0.035565264040575806 0.0004488177878884459 0 -0.034999901364284422 -0.0012615201440442224 0 -0.034999850292007001 0.00079910460808685693 0 -0.035565264040575806 0.0004488177878884459 0 -0.036412156733430949 -0.00097652069881032399 0 -0.037464923844211316 -0.00015855318918384713 0 -0.035565264040575806 0.0004488177878884459 0 -0.0377483250168952 -0.0019567403247634572 0 -0.036412156733430949 -0.00097652069881032399 0 -0.03602012698824484 -0.0022237052800109839 0 -0.036412156733430949 -0.00097652069881032399 0 -0.034999901364284422 -0.0012615201440442224 0 -0.03602012698824484 -0.0022237052800109839 0 -0.03602012698824484 -0.0022237052800109839 0 -0.036724408106798966 -0.0032904644963066753 0 -0.034999971266451706 -0.0033211661554638427 0 -0.034999901364284422 -0.0012615201440442224 0 -0.03602012698824484 -0.0022237052800109839 0 -0.034999971266451706 -0.0033211661554638427 0 -0.0377483250168952 -0.0019567403247634572 0 -0.03602012698824484 -0.0022237052800109839 0 -0.036724408106798966 -0.0032904644963066753 0 -0.036724408106798966 -0.0032904644963066753 0 -0.035723717795402204 -0.004464442494531682 0 -0.036672193587982266 -0.0048172977814546474 0 -0.036724408106798966 -0.0032904644963066753 0 -0.034999971266451706 -0.0033211661554638427 0 -0.035723717795402204 -0.004464442494531682 0 -0.0377483250168952 -0.0019567403247634572 0 -0.036724408106798966 -0.0032904644963066753 0 -0.038028571866059617 -0.0041246778167897576 0 -0.0377483250168952 -0.0019567403247634572 0 -0.038748151280584051 -0.0027666323235398852 0 -0.038028571866059617 -0.0041246778167897576 0 -0.039003646368060203 -0.0018470739893559289 0 -0.0377483250168952 -0.0019567403247634572 0 -0.038748151280584051 -0.0027666323235398852 0 -0.036724408106798966 -0.0032904644963066753 0 -0.038028571866059617 -0.0041246778167897576 0 -0.036672193587982266 -0.0048172977814546474 0 -0.039253155910039424 -0.0034942839267522647 0 -0.038748151280584051 -0.0027666323235398852 0 -0.038028571866059617 -0.0041246778167897576 0 -0.039691358462095511 -0.0044308460593373358 0 -0.037374885257558693 -0.0048842912250026266 0 -0.038010739240207994 -0.0053249201997584731 0 -0.037659602342074126 -0.0059685827841774114 0 -0.037178416611096832 -0.0055701629743403749 0 -0.037659602342074126 -0.0059685827841774114 0 -0.037178416611096832 -0.0055701629743403749 0 -0.037029656642678793 -0.0064408663684132061 0 -0.037178416611096832 -0.0055701629743403749 0 -0.037029656642678793 -0.0064408663684132061 0 -0.036280063902052385 -0.0057110737387626028 0 -0.037374885257558693 -0.0048842912250026266 0 -0.036470247423326878 -0.0052540917110534182 0 -0.037029656642678793 -0.0064408663684132061 0 -0.037669309291678797 -0.0066674962429126286 0 -0.037482013807145394 -0.0074071991997036414 0 -0.037659602342074126 -0.0059685827841774114 0 -0.037029656642678793 -0.0064408663684132061 0 -0.037669309291678797 -0.0066674962429126286 0 -0.034999971266451706 -0.0033211661554638427 0 -0.034999917857545818 -0.005381901021072835 0 -0.035723717795402204 -0.004464442494531682 0 -0.036470247423326878 -0.0052540917110534182 0 -0.035213225966883005 -0.0056164090072008876 0 -0.035723717795402204 -0.004464442494531682 0 -0.036672193587982266 -0.0048172977814546474 0 -0.035178200377439753 -0.0056029061253192701 0 -0.034999917857545818 -0.005381901021072835 0 -0.035723717795402204 -0.004464442494531682 0 -0.035178200377439753 -0.0056029061253192701 0 -0.036280063902052385 -0.0057110737387626028 0 -0.036033736169436732 -0.006575519923958874 0 -0.035178200377439753 -0.0056029061253192701 0 -0.037029656642678793 -0.0064408663684132061 0 -0.036280063902052385 -0.0057110737387626028 0 -0.036033736169436732 -0.006575519923958874 0 -0.034999917857545818 -0.005381901021072835 0 -0.035178200377439753 -0.0056029061253192701 0 -0.034999673660454499 -0.0074417291590660713 0 -0.036033736169436732 -0.006575519923958874 0 -0.035178200377439753 -0.0056029061253192701 0 -0.034999673660454499 -0.0074417291590660713 0 -0.036033736169436732 -0.006575519923958874 0 -0.034999673660454499 -0.0074417291590660713 0 -0.035816577023452041 -0.0082818654796597731 0 -0.036033736169436732 -0.006575519923958874 0 -0.035816577023452041 -0.0082818654796597731 0 -0.036692329111518263 -0.007354352384725346 0 -0.034911985085804488 -0.0095140105077742131 0 -0.034999673660454499 -0.0074417291590660713 0 -0.035816577023452041 -0.0082818654796597731 0 -0.035816577023452041 -0.0082818654796597731 0 -0.036692329111518263 -0.007354352384725346 0 -0.037193186697283484 -0.0081387689009702318 0 -0.037029656642678793 -0.0064408663684132061 0 -0.037482013807145394 -0.0074071991997036414 0 -0.036692329111518263 -0.007354352384725346 0 -0.037029656642678793 -0.0064408663684132061 0 -0.036033736169436732 -0.006575519923958874 0 -0.036692329111518263 -0.007354352384725346 0 -0.037482013807145394 -0.0074071991997036414 0 -0.036692329111518263 -0.007354352384725346 0 -0.037193186697283484 -0.0081387689009702318 0 -0.037482013807145394 -0.0074071991997036414 0 -0.037193186697283484 -0.0081387689009702318 0 -0.037914980886653016 -0.0079518368390231169 0 -0.037740154960813198 -0.0085112697726686722 0 -0.037193186697283484 -0.0081387689009702318 0 -0.037914980886653016 -0.0079518368390231169 0 -0.037914980886653016 -0.0079518368390231169 0 -0.038137286441249883 -0.0072733132677913811 0 -0.038272920876955462 -0.0080154261911555471 0 -0.038071678250715099 -0.0086273051029277063 0 -0.037914980886653016 -0.0079518368390231169 0 -0.038272920876955462 -0.0080154261911555471 0 -0.037669309291678797 -0.0066674962429126286 0 -0.037482013807145394 -0.0074071991997036414 0 -0.038137286441249883 -0.0072733132677913811 0 -0.037482013807145394 -0.0074071991997036414 0 -0.037914980886653016 -0.0079518368390231169 0 -0.038137286441249883 -0.0072733132677913811 0 -0.038137286441249883 -0.0072733132677913811 0 -0.038710950971516736 -0.0075416749298874586 0 -0.038759965060781339 -0.0064285426748098657 0 -0.028456095978722385 -0.0049890335410103497 0 -0.028282841139193174 -0.0043334990082117232 0 -0.017847487714592162 -0.0050489835731785003 0 -0.017919118628468574 -0.0035244011665257753 0 -0.018605176492496066 -0.0044221582613197356 0 -0.027207304108952859 -0.0093314860350631624 0 -0.028456095978722385 -0.0049890335410103497 0 -0.038137286441249883 -0.0072733132677913811 0 -0.038710950971516736 -0.0075416749298874586 0 -0.038272920876955462 -0.0080154261911555471 0 -0.038558312012759992 -0.0087327436581002213 0 -0.038710950971516736 -0.0075416749298874586 0 -0.038272920876955462 -0.0080154261911555471 0 -0.017919118628468574 -0.0035244011665257753 0 -0.018605176492496066 -0.0044221582613197356 0 -0.019265383998098112 -0.0036984139576727209 0 -0.020287143634064614 -0.003903667918280479 0 -0.019911694802533433 -0.0029690903949654585 0 -0.019265383998098112 -0.0036984139576727209 0 -0.01955671604554796 -0.0046219609411553703 0 -0.018605176492496066 -0.0044221582613197356 0 -0.019265383998098112 -0.0036984139576727209 0 -0.01955671604554796 -0.0046219609411553703 0 -0.020287143634064614 -0.003903667918280479 0 -0.019265383998098112 -0.0036984139576727209 0 -0.019911694802533433 -0.0029690903949654585 0 -0.019265383998098112 -0.0036984139576727209 0 -0.019102307374636057 -0.0025058096144145851 0 -0.017919118628468574 -0.0035244011665257753 0 -0.019265383998098112 -0.0036984139576727209 0 -0.019102307374636057 -0.0025058096144145851 0 -0.017919118628468574 -0.0035244011665257753 0 -0.019102307374636057 -0.0025058096144145851 0 -0.018025426976006138 -0.0020170751370414425 0 -0.019102307374636057 -0.0025058096144145851 0 -0.019275845840849393 -0.00089376423070508678 0 -0.018025426976006138 -0.0020170751370414425 0 -0.020061367756951932 -0.0017627119866802038 0 -0.019102307374636057 -0.0025058096144145851 0 -0.019275845840849393 -0.00089376423070508678 0 -0.019911694802533433 -0.0029690903949654585 0 -0.020061367756951932 -0.0017627119866802038 0 -0.019102307374636057 -0.0025058096144145851 0 -0.018109850055243158 -0.00056667032661397775 0 -0.019275845840849393 -0.00089376423070508678 0 -0.018025426976006138 -0.0020170751370414425 0 -0.029222755619054172 -0.0030664130971834814 0 -0.028282841139193174 -0.0043334990082117232 0 -0.038769913745248158 -0.0054263114627240393 0 -0.038265911613462759 -0.0059148958170522035 0 -0.038759965060781339 -0.0064285426748098657 0 -0.037659602342074126 -0.0059685827841774114 0 -0.037669309291678797 -0.0066674962429126286 0 -0.038265911613462759 -0.0059148958170522035 0 -0.038010739240207994 -0.0053249201997584731 0 -0.037659602342074126 -0.0059685827841774114 0 -0.038265911613462759 -0.0059148958170522035 0 -0.037669309291678797 -0.0066674962429126286 0 -0.038265911613462759 -0.0059148958170522035 0 -0.038759965060781339 -0.0064285426748098657 0 -0.037669309291678797 -0.0066674962429126286 0 -0.038137286441249883 -0.0072733132677913811 0 -0.038759965060781339 -0.0064285426748098657 0 0.0041776509196256506 -0.00034972049681009651 0 0.0040682197942391264 -0.00025454379980261859 0 0.0041230770093708263 -0.00023426244266499396 0 0.0041776509196256506 -0.00034972049681009651 0 0.004209917900854356 -0.0002779759742218465 0 0.0041230770093708263 -0.00023426244266499396 0 0.0041776509196256506 -0.00034972049681009651 0 0.004209917900854356 -0.0002779759742218465 0 0.0042868372679818268 -0.00026470181770765186 0 0.0041776509196256506 -0.00034972049681009651 0 0.0042837759608090279 -0.00051233614291972299 0 0.0043377094037388968 -0.00029244489559478962 0 0.0041776509196256506 -0.00034972049681009651 0 0.0042837759608090279 -0.00051233614291972299 0 0.0040718147401520161 -0.00039001398487429885 0 0.0042837759608090279 -0.00051233614291972299 0 0.0040718147401520161 -0.00039001398487429885 0 0.0042562801444474491 -0.00087901432536519476 0 0.0040718147401520161 -0.00039001398487429885 0 0.0042562801444474491 -0.00087901432536519476 0 0.0038098175693083575 7.4366846514886607e-06 0 0.0041776509196256506 -0.00034972049681009651 0 0.0040718147401520161 -0.00039001398487429885 0 0.0040682197942391264 -0.00025454379980261859 0 0.0040682197942391264 -0.00025454379980261859 0 0.0041230770093708263 -0.00023426244266499396 0 0.0039912118194909444 -7.8317838639453769e-05 0 0.0040718147401520161 -0.00039001398487429885 0 0.0040682197942391264 -0.00025454379980261859 0 0.0039912118194909444 -7.8317838639453769e-05 0 0.0040364570111861625 -2.1688902950594886e-05 0 0.0041230770093708263 -0.00023426244266499396 0 0.0039912118194909444 -7.8317838639453769e-05 0 0.0040364570111861625 -2.1688902950594886e-05 0 0.004141087714401713 -0.00017952588571154202 0 0.0041230770093708263 -0.00023426244266499396 0 0.0040364570111861625 -2.1688902950594886e-05 0 0.004141087714401713 -0.00017952588571154202 0 0.0040881520087909145 -3.7715871419757229e-05 0 0.004141087714401713 -0.00017952588571154202 0 0.0041230770093708263 -0.00023426244266499396 0 0.0042459871706511847 -0.00025338713045719181 0 0.004209917900854356 -0.0002779759742218465 0 0.0041230770093708263 -0.00023426244266499396 0 0.0042459871706511847 -0.00025338713045719181 0 0.0042459871706511847 -0.00025338713045719181 0 0.0042340298715411078 -0.00024255084257219294 0 0.0043781983836962569 -0.00026509309073366688 0 0.0042459871706511847 -0.00025338713045719181 0 0.0043781983836962569 -0.00026509309073366688 0 0.0043445373790615633 -0.00024116037069928296 0 0.004141087714401713 -0.00017952588571154202 0 0.0042459871706511847 -0.00025338713045719181 0 0.0042340298715411078 -0.00024255084257219294 0 0.004141087714401713 -0.00017952588571154202 0 0.0042340298715411078 -0.00024255084257219294 0 0.0041273205494958285 -0.00014785462324488712 0 0.0042340298715411078 -0.00024255084257219294 0 0.0042693319644642415 -0.00026157693047371139 0 0.004176577028674822 -0.00021110622944007877 0 0.0042340298715411078 -0.00024255084257219294 0 0.0042693319644642415 -0.00026157693047371139 0 0.0043591513235480359 -0.00028398248236722131 0 0.0043591513235480359 -0.00028398248236722131 0 0.0043686013045362449 -0.00028900169640440668 0 0.004530810543097211 -0.00032241720893151301 0 0.0042693319644642415 -0.00026157693047371139 0 0.0043591513235480359 -0.00028398248236722131 0 0.0043686013045362449 -0.00028900169640440668 0 0.0042693319644642415 -0.00026157693047371139 0 0.0043686013045362449 -0.00028900169640440668 0 0.0042615471439832716 -0.00025471011031987986 0 0.0042340298715411078 -0.00024255084257219294 0 0.0043591513235480359 -0.00028398248236722131 0 0.0043781983836962569 -0.00026509309073366688 0 0.0043591513235480359 -0.00028398248236722131 0 0.0043781983836962569 -0.00026509309073366688 0 0.004530810543097211 -0.00032241720893151301 0 0.004530810543097211 -0.00032241720893151301 0 0.0044716187751201661 -0.00026011227361234096 0 0.004623663645350903 -0.00030607306604847319 0 0.0043781983836962569 -0.00026509309073366688 0 0.004530810543097211 -0.00032241720893151301 0 0.0044716187751201661 -0.00026011227361234096 0 0.0044716187751201661 -0.00026011227361234096 0 0.0044388735104435783 -0.00022226394873743255 0 0.004623663645350903 -0.00030607306604847319 0 0.0044388735104435783 -0.00022226394873743255 0 0.0043445373790615633 -0.00024116037069928296 0 0.0043763598046442868 -0.00018564702099476687 0 0.0043781983836962569 -0.00026509309073366688 0 0.0044716187751201661 -0.00026011227361234096 0 0.0043445373790615633 -0.00024116037069928296 0 0.0044716187751201661 -0.00026011227361234096 0 0.0044388735104435783 -0.00022226394873743255 0 0.0043445373790615633 -0.00024116037069928296 0 0.0043445373790615633 -0.00024116037069928296 0 0.0042868372679818268 -0.00026470181770765186 0 0.0043763598046442868 -0.00018564702099476687 0 0.004209917900854356 -0.0002779759742218465 0 0.0043445373790615633 -0.00024116037069928296 0 0.0042868372679818268 -0.00026470181770765186 0 0.004209917900854356 -0.0002779759742218465 0 0.0042459871706511847 -0.00025338713045719181 0 0.0043445373790615633 -0.00024116037069928296 0 0.0042837759608090279 -0.00051233614291972299 0 0.0043377094037388968 -0.00029244489559478962 0 0.0045488905024918518 -0.00031201868250842549 0 0.0041776509196256506 -0.00034972049681009651 0 0.0042868372679818268 -0.00026470181770765186 0 0.0043377094037388968 -0.00029244489559478962 0 0.0042868372679818268 -0.00026470181770765186 0 0.0043377094037388968 -0.00029244489559478962 0 0.0043763598046442868 -0.00018564702099476687 0 0.0043377094037388968 -0.00029244489559478962 0 0.0043763598046442868 -0.00018564702099476687 0 0.0045290413491007589 -8.7781074884965056e-05 0 0.0043763598046442868 -0.00018564702099476687 0 0.004405346112386928 -0.00017088604830082065 0 0.0045290413491007589 -8.7781074884965056e-05 0 0.0044388735104435783 -0.00022226394873743255 0 0.0043763598046442868 -0.00018564702099476687 0 0.004405346112386928 -0.00017088604830082065 0 0.004405346112386928 -0.00017088604830082065 0 0.0045290413491007589 -8.7781074884965056e-05 0 0.0046004588735608781 5.2950807554420725e-06 0 0.0045290413491007589 -8.7781074884965056e-05 0 0.0048595019807658839 9.4384183472543293e-05 0 0.0048624343273592947 -0.00026250618582726977 0 0.0045290413491007589 -8.7781074884965056e-05 0 0.0048595019807658839 9.4384183472543293e-05 0 0.0046004588735608781 5.2950807554420725e-06 0 0.0047371160013908297 0.0006120793326206274 0 0.0057785803760185932 -0.0015908488505677787 0 0.0075421773164126632 -0.0016912206439648834 0 0.0057785803760185932 -0.0015908488505677787 0 0.0088980476009650651 -0.0040964196031401546 0 0.008894070867331896 -0.0035683048786992046 0 0.0090319605240455868 -0.0044047334393061618 0 0.0052746897009943649 0.00014263657772789956 0 0.0048595019807658839 9.4384183472543293e-05 0 0.0046589986614228498 0.00072645078646240693 0 0.0052746897009943649 0.00014263657772789956 0 0.0058250167686691333 0.00028152328544065136 0 0.0046589986614228498 0.00072645078646240693 0 0.0052746897009943649 0.00014263657772789956 0 0.0056437595771776112 -3.5938913123406369e-05 0 0.0058250167686691333 0.00028152328544065136 0 0.0052746897009943649 0.00014263657772789956 0 0.0048595019807658839 9.4384183472543293e-05 0 0.0053725193596010669 -0.00018827639044082699 0 0.0048595019807658839 9.4384183472543293e-05 0 0.0053725193596010669 -0.00018827639044082699 0 0.0048624343273592947 -0.00026250618582726977 0 0.0052746897009943649 0.00014263657772789956 0 0.0056437595771776112 -3.5938913123406369e-05 0 0.0053725193596010669 -0.00018827639044082699 0 0.0053725193596010669 -0.00018827639044082699 0 0.0061487657935829637 -0.0004250783884347354 0 0.0054623948157295548 -0.00064837184526632787 0 0.0053725193596010669 -0.00018827639044082699 0 0.0048624343273592947 -0.00026250618582726977 0 0.0054623948157295548 -0.00064837184526632787 0 0.0048624343273592947 -0.00026250618582726977 0 0.0045488905024918518 -0.00031201868250842549 0 0.0047326198025713466 -0.00059626866302174759 0 0.0045290413491007589 -8.7781074884965056e-05 0 0.0048624343273592947 -0.00026250618582726977 0 0.0045488905024918518 -0.00031201868250842549 0 0.0043377094037388968 -0.00029244489559478962 0 0.0045290413491007589 -8.7781074884965056e-05 0 0.0045488905024918518 -0.00031201868250842549 0 0.0087139893215041342 -0.0030567803882178678 0 0.0088100763198888671 -0.0033964880392697095 0 0.0086181664189881029 -0.0022319616503645614 0 0.009732752887633641 -0.0036995695905940613 0 0.010857564103401957 -0.0042956778912102474 0 0.0087139893215041342 -0.0030567803882178678 0 0.0086181664189881029 -0.0022319616503645614 0 0.0083433335639306189 -0.0021660757636636834 0 0.012089306692808947 -0.0036318202963147419 0 0.012269485534163654 -0.0036604821966422052 0 0.011884020220022636 -0.0037731100915986047 0 0.009732752887633641 -0.0036995695905940613 0 0.010221790350889152 -0.0028010257984458068 0 0.012089306692808947 -0.0036318202963147419 0 0.012269485534163654 -0.0036604821966422052 0 0.011712368748626165 -0.0034067615509247168 0 0.0090120825418757676 -0.0046254799488814769 0 0.0091781284486520381 -0.0046033448441050598 0 0.0094635971220124911 -0.0048071723604871334 0 0.0086769928560653138 -0.0040470670313285028 0 0.009732752887633641 -0.0036995695905940613 0 0.0088100763198888671 -0.0033964880392697095 0 0.008894070867331896 -0.0035683048786992046 0 0.0086181664189881029 -0.0022319616503645614 0 0.0088980476009650651 -0.0040964196031401546 0 0.0084445404680915416 -0.0034817653471511108 0 0.0088100763198888671 -0.0033964880392697095 0 0.0088980476009650651 -0.0040964196031401546 0 0.0090120825418757676 -0.0046254799488814769 0 0.0089402169894900792 -0.0044321889892320956 0 0.009732752887633641 -0.0036995695905940613 0 0.0087927613752445989 -0.0036156807267246913 0 0.0088980476009650651 -0.0040964196031401546 0 0.0088100763198888671 -0.0033964880392697095 0 0.008894070867331896 -0.0035683048786992046 0 0.0058250167686691333 0.00028152328544065136 0 0.0061487657935829637 -0.0004250783884347354 0 0.0070987674648730131 -0.00032926174767656104 0 0.0075421773164126632 -0.0016912206439648834 0 0.0077561107679287944 -0.001299836501630589 0 0.0056437595771776112 -3.5938913123406369e-05 0 0.0058250167686691333 0.00028152328544065136 0 0.0061487657935829637 -0.0004250783884347354 0 0.0056437595771776112 -3.5938913123406369e-05 0 0.0053725193596010669 -0.00018827639044082699 0 0.0061487657935829637 -0.0004250783884347354 0 0.0061487657935829637 -0.0004250783884347354 0 0.0070987674648730131 -0.00032926174767656104 0 0.0070373043960864495 -0.0012605749617922541 0 0.0070987674648730131 -0.00032926174767656104 0 0.0070373043960864495 -0.0012605749617922541 0 0.0082801962364258408 -0.0015932795261327933 0 0.0061487657935829637 -0.0004250783884347354 0 0.0062608659368364851 -0.0013006135140607739 0 0.0054623948157295548 -0.00064837184526632787 0 0.0061487657935829637 -0.0004250783884347354 0 0.0070373043960864495 -0.0012605749617922541 0 0.0062608659368364851 -0.0013006135140607739 0 0.0070373043960864495 -0.0012605749617922541 0 0.0062608659368364851 -0.0013006135140607739 0 0.0069953742803149175 -0.0020452263802826645 0 0.0062608659368364851 -0.0013006135140607739 0 0.0062302362154170688 -0.0019792636995335975 0 0.0069953742803149175 -0.0020452263802826645 0 0.0062608659368364851 -0.0013006135140607739 0 0.0062302362154170688 -0.0019792636995335975 0 0.0055114166612860406 -0.0013045091735704678 0 0.0069953742803149175 -0.0020452263802826645 0 0.0077446420095126445 -0.0019042496113172453 0 0.0078013334379004682 -0.0023910565903541721 0 0.0070373043960864495 -0.0012605749617922541 0 0.0069953742803149175 -0.0020452263802826645 0 0.0077446420095126445 -0.0019042496113172453 0 0.0042837759608090279 -0.00051233614291972299 0 0.0047326198025713466 -0.00059626866302174759 0 0.0042562801444474491 -0.00087901432536519476 0 0.0042837759608090279 -0.00051233614291972299 0 0.0045488905024918518 -0.00031201868250842549 0 0.0047326198025713466 -0.00059626866302174759 0 0.0062608659368364851 -0.0013006135140607739 0 0.0054623948157295548 -0.00064837184526632787 0 0.0055114166612860406 -0.0013045091735704678 0 0.0047326198025713466 -0.00059626866302174759 0 0.0054623948157295548 -0.00064837184526632787 0 0.0055114166612860406 -0.0013045091735704678 0 0.0048624343273592947 -0.00026250618582726977 0 0.0047326198025713466 -0.00059626866302174759 0 0.0054623948157295548 -0.00064837184526632787 0 0.0062302362154170688 -0.0019792636995335975 0 0.0055114166612860406 -0.0013045091735704678 0 0.0052430718253631764 -0.0024573607393127551 0 0.0055114166612860406 -0.0013045091735704678 0 0.0042562801444474491 -0.00087901432536519476 0 0.0052430718253631764 -0.0024573607393127551 0 0.0047326198025713466 -0.00059626866302174759 0 0.0055114166612860406 -0.0013045091735704678 0 0.0042562801444474491 -0.00087901432536519476 0 0.0042404232953932213 -0.00089766921215382145 0 0.0043593503047205731 -0.0011889315494447645 0 0.0042562801444474491 -0.00087901432536519476 0 0.0034750978581432473 -0.0001072858393852524 0 0.0038098175693083575 7.4366846514886607e-06 0 0.0062302362154170688 -0.0019792636995335975 0 0.0052430718253631764 -0.0024573607393127551 0 0.0066167317949613119 -0.0026095168606489606 0 0.0052430718253631764 -0.0024573607393127551 0 0.0060461628196680599 -0.0032136970029486623 0 0.0064917332790124039 -0.0030374565536391185 0 0.0034750978581432473 -0.0001072858393852524 0 0.0033274484309265364 0.00035779238677021655 0 0.0035383808280308997 0.00024971079382448655 0 0.0052430718253631764 -0.0024573607393127551 0 0.0066167317949613119 -0.0026095168606489606 0 0.0064917332790124039 -0.0030374565536391185 0 0.0043593503047205731 -0.0011889315494447645 0 0.0047660494181601789 -0.0015994528493050518 0 0.0035383808280308997 0.00024971079382448655 0 0.0036252578036563396 0.00036427601603671701 0 0.0038098175693083575 7.4366846514886607e-06 0 0.0034750978581432473 -0.0001072858393852524 0 0.0035383808280308997 0.00024971079382448655 0 0.0038098175693083575 7.4366846514886607e-06 0 0.0069953742803149175 -0.0020452263802826645 0 0.0073967105358995642 -0.0027105438678369422 0 0.0066167317949613119 -0.0026095168606489606 0 0.0069953742803149175 -0.0020452263802826645 0 0.0073967105358995642 -0.0027105438678369422 0 0.0078013334379004682 -0.0023910565903541721 0 0.0062302362154170688 -0.0019792636995335975 0 0.0069953742803149175 -0.0020452263802826645 0 0.0066167317949613119 -0.0026095168606489606 0 0.0066167317949613119 -0.0026095168606489606 0 0.0064917332790124039 -0.0030374565536391185 0 0.0071344519647762589 -0.0031862811086300247 0 0.0060461628196680599 -0.0032136970029486623 0 0.0064917332790124039 -0.0030374565536391185 0 0.0066945445308604114 -0.0033540534614570324 0 0.0064917332790124039 -0.0030374565536391185 0 0.0071344519647762589 -0.0031862811086300247 0 0.0066945445308604114 -0.0033540534614570324 0 0.0073967105358995642 -0.0027105438678369422 0 0.0066167317949613119 -0.0026095168606489606 0 0.0071344519647762589 -0.0031862811086300247 0 0.0073967105358995642 -0.0027105438678369422 0 0.0076105862236087833 -0.0030424054732073624 0 0.0071344519647762589 -0.0031862811086300247 0 0.0076105862236087833 -0.0030424054732073624 0 0.0071344519647762589 -0.0031862811086300247 0 0.0078450489551646976 -0.0033334083160342807 0 0.0071344519647762589 -0.0031862811086300247 0 0.0074635721531006206 -0.0035340628618364834 0 0.0078450489551646976 -0.0033334083160342807 0 0.0074635721531006206 -0.0035340628618364834 0 0.0078450489551646976 -0.0033334083160342807 0 0.0078266302382412958 -0.003668202005063043 0 0.0071344519647762589 -0.0031862811086300247 0 0.0074635721531006206 -0.0035340628618364834 0 0.0070398021871399498 -0.0035297996872976022 0 0.0060461628196680599 -0.0032136970029486623 0 0.0066945445308604114 -0.0033540534614570324 0 0.0066846024794731283 -0.0037342406179725379 0 0.0071344519647762589 -0.0031862811086300247 0 0.0070398021871399498 -0.0035297996872976022 0 0.0066945445308604114 -0.0033540534614570324 0 0.0070398021871399498 -0.0035297996872976022 0 0.0066945445308604114 -0.0033540534614570324 0 0.0066846024794731283 -0.0037342406179725379 0 0.0066846024794731283 -0.0037342406179725379 0 0.0073611218216016079 -0.0037290131721723369 0 0.0074410810285812307 -0.0039650707291471344 0 0.0039656798835581942 0.00041744089858691358 0 0.0036816173597853234 0.00072176097868127773 0 0.0037779520836488797 0.0008024032401689361 0 0.0044855512213483779 -0.00065993324431499654 0 0.0057439609086626922 -0.0017966652270363468 0 0.0044855512213483779 -0.00065993324431499654 0 0.0034488836823139031 0.0010821235911528833 0 0.0070398021871399498 -0.0035297996872976022 0 0.0066846024794731283 -0.0037342406179725379 0 0.0073611218216016079 -0.0037290131721723369 0 0.0033420790618651128 0.00064516611239863323 0 0.0034020577841299806 0.00086370759567637435 0 0.0034187398522400399 0.00078162643934331325 0 0.0074635721531006206 -0.0035340628618364834 0 0.0070398021871399498 -0.0035297996872976022 0 0.0073611218216016079 -0.0037290131721723369 0 0.0073611218216016079 -0.0037290131721723369 0 0.0077990899574227422 -0.0038575080608536432 0 0.0074410810285812307 -0.0039650707291471344 0 0.0073611218216016079 -0.0037290131721723369 0 0.0078266302382412958 -0.003668202005063043 0 0.0077990899574227422 -0.0038575080608536432 0 0.0074635721531006206 -0.0035340628618364834 0 0.0073611218216016079 -0.0037290131721723369 0 0.0078266302382412958 -0.003668202005063043 0 0.0036252578036563396 0.00036427601603671701 0 0.0034947857117120771 0.00049644109571143078 0 0.0035849891645547394 0.00057347611917131741 0 0.0034947857117120771 0.00049644109571143078 0 0.0035143101852759071 0.00062634639110397512 0 0.0035849891645547394 0.00057347611917131741 0 0.0034947857117120771 0.00049644109571143078 0 0.0034486185808089739 0.00061088644939241818 0 0.0035143101852759071 0.00062634639110397512 0 0.0035383808280308997 0.00024971079382448655 0 0.0036252578036563396 0.00036427601603671701 0 0.0034947857117120771 0.00049644109571143078 0 0.0033274484309265364 0.00035779238677021655 0 0.0034947857117120771 0.00049644109571143078 0 0.0033655875518728852 0.00053032816100546921 0 0.0033274484309265364 0.00035779238677021655 0 0.0035383808280308997 0.00024971079382448655 0 0.0034947857117120771 0.00049644109571143078 0 0.0047660494181601789 -0.0015994528493050518 0 0.0044855512213483779 -0.00065993324431499654 0 0.0033274484309265364 0.00035779238677021655 0 0.0032945128467936425 0.00063277813948024329 0 0.0033655875518728852 0.00053032816100546921 0 0.0044855512213483779 -0.00065993324431499654 0 0.0031155555018656782 0.00073648410193125915 0 0.0034947857117120771 0.00049644109571143078 0 0.0033655875518728852 0.00053032816100546921 0 0.0034486185808089739 0.00061088644939241818 0 0.0033655875518728852 0.00053032816100546921 0 0.0034486185808089739 0.00061088644939241818 0 0.0034065339351408226 0.00066246147068140535 0 0.0034486185808089739 0.00061088644939241818 0 0.0034065339351408226 0.00066246147068140535 0 0.0034597515055543003 0.00071178343348064028 0 0.0033420790618651128 0.00064516611239863323 0 0.0033655875518728852 0.00053032816100546921 0 0.0034065339351408226 0.00066246147068140535 0 0.0033420790618651128 0.00064516611239863323 0 0.0034065339351408226 0.00066246147068140535 0 0.0034187398522400399 0.00078162643934331325 0 0.0034065339351408226 0.00066246147068140535 0 0.0034597515055543003 0.00071178343348064028 0 0.0034187398522400399 0.00078162643934331325 0 0.0034597515055543003 0.00071178343348064028 0 0.0035079930506369153 0.00071387525622660026 0 0.0035143101852759071 0.00062634639110397512 0 0.0034486185808089739 0.00061088644939241818 0 0.0034597515055543003 0.00071178343348064028 0 0.0035143101852759071 0.00062634639110397512 0 0.0035143101852759071 0.00062634639110397512 0 0.0035616700767594225 0.00063584205052970267 0 0.0035849891645547394 0.00057347611917131741 0 0.0035079930506369153 0.00071387525622660026 0 0.0035143101852759071 0.00062634639110397512 0 0.0035616700767594225 0.00063584205052970267 0 0.0035079930506369153 0.00071387525622660026 0 0.0035616700767594225 0.00063584205052970267 0 0.0035476342997919652 0.00072038267678712145 0 0.0035616700767594225 0.00063584205052970267 0 0.0035952295932381636 0.00062950812670743424 0 0.0035476342997919652 0.00072038267678712145 0 0.0024588073143234496 0.0016079529514409737 0 0.0030385294584599921 0.001666815176782688 0 0.0026721641450417441 0.0023186210500320539 0 0.0024588073143234496 0.0016079529514409737 0 0.0030385294584599921 0.001666815176782688 0 0.0032525506780175365 0.0013598983195145615 0 0.0035952295932381636 0.00062950812670743424 0 0.0034350765366794366 0.00063356645821279714 0 0.0035849891645547394 0.00057347611917131741 0 0.0032164151171663749 0.00085952613650185181 0 0.0033017848535662163 0.00079461092093644891 0 0.0024588073143234496 0.0016079529514409737 0 0.0032525506780175365 0.0013598983195145615 0 0.0034350765366794366 0.00063356645821279714 0 0.0035616700767594225 0.00063584205052970267 0 0.0035952295932381636 0.00062950812670743424 0 0.0035849891645547394 0.00057347611917131741 0 0.0030385294584599921 0.001666815176782688 0 0.0032525506780175365 0.0013598983195145615 0 0.0038058742938938701 0.0010719587561875347 0 -0.0031457213623298447 0.0093287077214098107 0 -0.0032836835017026793 0.0098523653386388584 0 -0.0037449042938465056 0.0099679597703221934 0 0.0030385294584599921 0.001666815176782688 0 0.0038058742938938701 0.0010719587561875347 0 0.0026721641450417441 0.0023186210500320539 0 0.0014396436592142054 0.0039531706732980421 0 -0.00042296412854670584 0.0062058442202928667 0 0.0014396436592142054 0.0039531706732980421 0 0.0036665685952015793 0.0013704305314211954 0 0.0032525506780175365 0.0013598983195145615 0 0.0035270230650657022 0.001016901000137948 0 0.0034350765366794366 0.00063356645821279714 0 0.0035270230650657022 0.001016901000137948 0 0.0036660733337575756 0.00097298225064830577 0 0.0038058742938938701 0.0010719587561875347 0 0.0032525506780175365 0.0013598983195145615 0 0.0035270230650657022 0.001016901000137948 0 0.0038058742938938701 0.0010719587561875347 0 0.0035270230650657022 0.001016901000137948 0 0.0036660733337575756 0.00097298225064830577 0 0.003584945297002038 0.00079577266503152479 0 0.003584945297002038 0.00079577266503152479 0 0.0036487852950689253 0.00050088155767798843 0 0.0036445031493390948 0.00084420027509404013 0 0.0035270230650657022 0.001016901000137948 0 0.003584945297002038 0.00079577266503152479 0 0.0034350765366794366 0.00063356645821279714 0 0.0036660733337575756 0.00097298225064830577 0 0.003584945297002038 0.00079577266503152479 0 0.0036445031493390948 0.00084420027509404013 0 0.003584945297002038 0.00079577266503152479 0 0.0034350765366794366 0.00063356645821279714 0 0.0036487852950689253 0.00050088155767798843 0 0.0034350765366794366 0.00063356645821279714 0 0.0036487852950689253 0.00050088155767798843 0 0.0036559953479993611 0.00039321138459882704 0 0.0034350765366794366 0.00063356645821279714 0 0.0035849891645547394 0.00057347611917131741 0 0.0036559953479993611 0.00039321138459882704 0 0.0036252578036563396 0.00036427601603671701 0 0.0035849891645547394 0.00057347611917131741 0 0.0036559953479993611 0.00039321138459882704 0 0.0036252578036563396 0.00036427601603671701 0 0.0036559953479993611 0.00039321138459882704 0 0.0038098175693083575 7.4366846514886607e-06 0 0.0036559953479993611 0.00039321138459882704 0 0.003833045560539454 0.00010967831575565422 0 0.0038098175693083575 7.4366846514886607e-06 0 0.0036487852950689253 0.00050088155767798843 0 0.0036559953479993611 0.00039321138459882704 0 0.003833045560539454 0.00010967831575565422 0 0.0036487852950689253 0.00050088155767798843 0 0.0038419484274997457 0.00019239963648563367 0 0.003833045560539454 0.00010967831575565422 0 0.0036487852950689253 0.00050088155767798843 0 0.0038419484274997457 0.00019239963648563367 0 0.0037824234430334459 0.00040058332996236812 0 0.0040718147401520161 -0.00039001398487429885 0 0.003833045560539454 0.00010967831575565422 0 0.0039912118194909444 -7.8317838639453769e-05 0 0.0038419484274997457 0.00019239963648563367 0 0.003833045560539454 0.00010967831575565422 0 0.0039912118194909444 -7.8317838639453769e-05 0 0.0040718147401520161 -0.00039001398487429885 0 0.003833045560539454 0.00010967831575565422 0 0.0038098175693083575 7.4366846514886607e-06 0 0.0040364570111861625 -2.1688902950594886e-05 0 0.0039510500925001302 0.00026435953125699839 0 0.0040517623948677821 0.00011215609046780304 0 0.0040364570111861625 -2.1688902950594886e-05 0 0.0039109929256497429 0.00018172025694341613 0 0.0039510500925001302 0.00026435953125699839 0 0.0040364570111861625 -2.1688902950594886e-05 0 0.0039912118194909444 -7.8317838639453769e-05 0 0.0039109929256497429 0.00018172025694341613 0 0.0038419484274997457 0.00019239963648563367 0 0.0039912118194909444 -7.8317838639453769e-05 0 0.0039109929256497429 0.00018172025694341613 0 0.0039109929256497429 0.00018172025694341613 0 0.0037824234430334459 0.00040058332996236812 0 0.0038297334042930523 0.00044899368794280213 0 0.0038419484274997457 0.00019239963648563367 0 0.0039109929256497429 0.00018172025694341613 0 0.0037824234430334459 0.00040058332996236812 0 0.0037824234430334459 0.00040058332996236812 0 0.0038297334042930523 0.00044899368794280213 0 0.0037165985049489422 0.00068254269020915053 0 0.0038297334042930523 0.00044899368794280213 0 0.0039510500925001302 0.00026435953125699839 0 0.0037881138330173934 0.00074746788877230036 0 0.0039109929256497429 0.00018172025694341613 0 0.0038297334042930523 0.00044899368794280213 0 0.0039510500925001302 0.00026435953125699839 0 0.0038297334042930523 0.00044899368794280213 0 0.0037881138330173934 0.00074746788877230036 0 0.0037165985049489422 0.00068254269020915053 0 0.0037881138330173934 0.00074746788877230036 0 0.0037165985049489422 0.00068254269020915053 0 0.0035908839964164906 0.001066335579686865 0 0.00032022676471793005 0.0051562199402313087 0 0.0014396436592142054 0.0039531706732980421 0 0.0036487852950689253 0.00050088155767798843 0 0.0037824234430334459 0.00040058332996236812 0 0.0037165985049489422 0.00068254269020915053 0 0.0036487852950689253 0.00050088155767798843 0 0.0037165985049489422 0.00068254269020915053 0 0.0036445031493390948 0.00084420027509404013 0 0.0037165985049489422 0.00068254269020915053 0 0.0036445031493390948 0.00084420027509404013 0 0.0035908839964164906 0.001066335579686865 0 -0.0031457213623298447 0.0093287077214098107 0 -0.0030751186584668409 0.0096941126425972319 0 -0.002821182782680824 0.0095607510818460657 0 0.0037881138330173934 0.00074746788877230036 0 0.003539981159448289 0.0011569418868533467 0 0.0035908839964164906 0.001066335579686865 0 0.0014396436592142054 0.0039531706732980421 0 0.0022014914608049566 0.0029011046565253695 0 0.0036660733337575756 0.00097298225064830577 0 0.0036445031493390948 0.00084420027509404013 0 0.0035908839964164906 0.001066335579686865 0 0.0036660733337575756 0.00097298225064830577 0 0.0038058742938938701 0.0010719587561875347 0 0.0035908839964164906 0.001066335579686865 0 -0.0030751186584668409 0.0096941126425972319 0 -0.002821182782680824 0.0095607510818460657 0 -0.0030698362269003287 0.010038293319008396 0 -0.0031457213623298447 0.0093287077214098107 0 -0.0030751186584668409 0.0096941126425972319 0 -0.0032836835017026793 0.0098523653386388584 0 -0.002558167697872924 0.0090774595111098311 0 -0.0031457213623298447 0.0093287077214098107 0 -0.002821182782680824 0.0095607510818460657 0 -0.002558167697872924 0.0090774595111098311 0 -0.002821182782680824 0.0095607510818460657 0 -0.0024529220742161477 0.0095389034192256781 0 -0.002821182782680824 0.0095607510818460657 0 -0.0024529220742161477 0.0095389034192256781 0 -0.0027697007059385701 0.010220279534267358 0 0.00032022676471793005 0.0051562199402313087 0 0.00083397882492849376 0.0046416530737956943 0 -0.002558167697872924 0.0090774595111098311 0 -0.0024529220742161477 0.0095389034192256781 0 -0.0023286556087773703 0.0089307495955761457 0 -0.0024529220742161477 0.0095389034192256781 0 -0.0021916879862982869 0.0091958130038938234 0 -0.0023286556087773703 0.0089307495955761457 0 -0.0024529220742161477 0.0095389034192256781 0 -0.0021916879862982869 0.0091958130038938234 0 -0.0018788583326044711 0.0098777602808842509 0 -0.0024529220742161477 0.0095389034192256781 0 -0.0018788583326044711 0.0098777602808842509 0 -0.002432718464090741 0.010312588084674754 0 -0.0022963091760093753 0.010181013266683947 0 -0.0023210693164381281 0.0093799366932138233 0 -0.0026916276653468447 0.010499185604995954 0 -0.0023287507134581347 0.010122807404863503 0 -0.0026976278291574191 0.009642752409720675 0 -0.0026916276653468447 0.010499185604995954 0 -0.0023287507134581347 0.010122807404863503 0 -0.0022798092697535119 0.010785669239118497 0 -0.0023287507134581347 0.010122807404863503 0 -0.0026976278291574191 0.009642752409720675 0 -0.002048380971266626 0.0095895458441331363 0 -0.0021916879862982869 0.0091958130038938234 0 -0.0018788583326044711 0.0098777602808842509 0 -0.0019352814391275204 0.0090875951399818529 0 -0.0021916879862982869 0.0091958130038938234 0 -0.0019352814391275204 0.0090875951399818529 0 -0.0021549797158606741 0.0087622350224406138 0 -0.0019352814391275204 0.0090875951399818529 0 -0.0023861669547674781 0.0087855903739622494 0 -0.0021549797158606741 0.0087622350224406138 0 -0.0026976278291574191 0.009642752409720675 0 -0.002048380971266626 0.0095895458441331363 0 -0.0022314883863369765 0.0090957636603774625 0 -0.0026976278291574191 0.009642752409720675 0 -0.0023861669547674781 0.0087855903739622494 0 -0.0022314883863369765 0.0090957636603774625 0 -0.0023210693164381281 0.0093799366932138233 0 -0.0023668127937778289 0.0088521633273166075 0 -0.0023861669547674781 0.0087855903739622494 0 -0.0021549797158606741 0.0087622350224406138 0 -0.0023855821347748963 0.0087877518712247867 0 -0.0023861669547674781 0.0087855903739622494 0 -0.0025067881232116031 0.0087278977206110397 0 -0.0022314883863369765 0.0090957636603774625 0 -0.0023861669547674781 0.0087855903739622494 0 -0.0025067881232116031 0.0087278977206110397 0 -0.0023855821347748963 0.0087877518712247867 0 -0.0016358996420858922 0.0083950729226559082 0 -0.0014656944507595395 0.0051938242018780001 0 0.0013768336345322759 0.0042720642969334872 0 -0.0014656944507595395 0.0051938242018780001 0 0.0040265474857895485 0.00018537526184953399 0 0.0040731317191419012 0.00033356544135614469 0 0.0040718495467038764 8.5186639823642548e-05 0 0.0040517623948677821 0.00011215609046780304 0 0.0040731317191419012 0.00033356544135614469 0 0.0040718495467038764 8.5186639823642548e-05 0 0.0039510500925001302 0.00026435953125699839 0 0.0040517623948677821 0.00011215609046780304 0 0.0040731317191419012 0.00033356544135614469 0 0.0039510500925001302 0.00026435953125699839 0 0.0037881138330173934 0.00074746788877230036 0 0.0040731317191419012 0.00033356544135614469 0 0.0013768336345322759 0.0042720642969334872 0 0.00083397882492849376 0.0046416530737956943 0 -0.0021916879862982869 0.0091958130038938234 0 -0.0021549797158606741 0.0087622350224406138 0 -0.0023286556087773703 0.0089307495955761457 0 -0.0017146784149402814 0.0094590630232763429 0 -0.0016907704499224587 0.0096000037312533541 0 -0.0017237703369817048 0.0093977303281033275 0 -0.0017675695248264328 0.0093549696647449703 0 -0.0017146784149402814 0.0094590630232763429 0 -0.0016907704499224587 0.0096000037312533541 0 -0.00010145987416504637 0.010290705816734426 0 -0.0018726112452378942 0.0099888225146086314 0 -0.0018726112452378942 0.0099888225146086314 0 -0.001797041861296269 0.010053818431849246 0 -0.0016907704499224587 0.0096000037312533541 0 -0.0017713284453597434 0.0096069458821571203 0 -0.0017237703369817048 0.0093977303281033275 0 -0.0017713284453597434 0.0096069458821571203 0 -0.00182599327349844 0.0093570510041855719 0 -0.0017237703369817048 0.0093977303281033275 0 -0.0017713284453597434 0.0096069458821571203 0 -0.002048380971266626 0.0095895458441331363 0 -0.00182599327349844 0.0093570510041855719 0 -0.0017713284453597434 0.0096069458821571203 0 -0.0018983234354166775 0.010051835996486078 0 -0.002048380971266626 0.0095895458441331363 0 -0.0013828867896116864 0.010481646664170122 0 -0.0018983234354166775 0.010051835996486078 0 -0.001781408396945028 0.010769134919542501 0 -0.0016907704499224587 0.0096000037312533541 0 -0.0017713284453597434 0.0096069458821571203 0 -0.0018983234354166775 0.010051835996486078 0 -0.0023287507134581347 0.010122807404863503 0 -0.0018983234354166775 0.010051835996486078 0 -0.0022798092697535119 0.010785669239118497 0 -0.0023287507134581347 0.010122807404863503 0 -0.0018983234354166775 0.010051835996486078 0 -0.002048380971266626 0.0095895458441331363 0 -0.002048380971266626 0.0095895458441331363 0 -0.0022314883863369765 0.0090957636603774625 0 -0.0019254020311576811 0.0090816278351696939 0 -0.0025067881232116031 0.0087278977206110397 0 -0.0022314883863369765 0.0090957636603774625 0 -0.0019653657039261359 0.0088637741175983421 0 -0.0022314883863369765 0.0090957636603774625 0 -0.0019653657039261359 0.0088637741175983421 0 -0.0019254020311576811 0.0090816278351696939 0 -0.0025067881232116031 0.0087278977206110397 0 -0.0019653657039261359 0.0088637741175983421 0 -0.0022712236987616147 0.0081284662606877067 0 -0.0019653657039261359 0.0088637741175983421 0 -0.0019254020311576811 0.0090816278351696939 0 -0.0019178550789895831 0.0089242359087430487 0 -0.0019653657039261359 0.0088637741175983421 0 -0.0019178550789895831 0.0089242359087430487 0 -0.0020093117216436838 0.0087624544898550795 0 -0.0019254020311576811 0.0090816278351696939 0 -0.0019178550789895831 0.0089242359087430487 0 -0.0018147483655174589 0.0091604755687829265 0 -0.0019254020311576811 0.0090816278351696939 0 -0.00182599327349844 0.0093570510041855719 0 -0.0018147483655174589 0.0091604755687829265 0 -0.002048380971266626 0.0095895458441331363 0 -0.0019254020311576811 0.0090816278351696939 0 -0.00182599327349844 0.0093570510041855719 0 -0.0017237703369817048 0.0093977303281033275 0 -0.0018147483655174589 0.0091604755687829265 0 -0.0017680079279622752 0.0090954904222094214 0 -0.00182599327349844 0.0093570510041855719 0 -0.0017237703369817048 0.0093977303281033275 0 -0.0018147483655174589 0.0091604755687829265 0 -0.0019178550789895831 0.0089242359087430487 0 -0.0018147483655174589 0.0091604755687829265 0 -0.0018258540693402222 0.0089458012473194754 0 -0.0018147483655174589 0.0091604755687829265 0 -0.0018258540693402222 0.0089458012473194754 0 -0.0017680079279622752 0.0090954904222094214 0 -0.0019178550789895831 0.0089242359087430487 0 -0.0018258540693402222 0.0089458012473194754 0 -0.0018958421502305535 0.0087963673988467415 0 -0.0018258540693402222 0.0089458012473194754 0 -0.0017680079279622752 0.0090954904222094214 0 -0.0017287263994566157 0.0088338208930768009 0 -0.0034299095513330865 0.0098567397586346549 0 -0.010161510941331673 0.0047302506824570736 0 -0.0017680079279622752 0.0090954904222094214 0 -0.0016839545216351594 0.0092701606649953743 0 -0.00179506208472392 0.0088882596177575195 0 -0.011750034550369938 0.0054542672055391218 0 -0.010161510941331673 0.0047302506824570736 0 -0.021048228396205702 -0.00011743815138584171 0 -0.021085810050109226 0.0020326566710551683 0 -0.023505003508756197 -0.00073193584855915585 0 -0.0017146784149402814 0.0094590630232763429 0 -0.0017237703369817048 0.0093977303281033275 0 -0.0016839545216351594 0.0092701606649953743 0 -0.0017237703369817048 0.0093977303281033275 0 -0.0017680079279622752 0.0090954904222094214 0 -0.0016839545216351594 0.0092701606649953743 0 -0.021389435500901055 -0.0045946723198696327 0 -0.022149150196872584 -0.0021129739268076469 0 -0.023672934512812962 -0.0047920683668113018 0 -0.021389435500901055 -0.0045946723198696327 0 -0.023672934512812962 -0.0047920683668113018 0 -0.021876143930731437 -0.006700407486652858 0 -0.019843524599459476 -0.0030664479528844336 0 -0.021389435500901055 -0.0045946723198696327 0 -0.022149150196872584 -0.0021129739268076469 0 -0.021048228396205702 -0.00011743815138584171 0 -0.022149150196872584 -0.0021129739268076469 0 -0.023505003508756197 -0.00073193584855915585 0 -0.022149150196872584 -0.0021129739268076469 0 -0.023505003508756197 -0.00073193584855915585 0 -0.023672934512812962 -0.0047920683668113018 0 -0.010161510941331673 0.0047302506824570736 0 -0.019336152809404091 -0.0036302686637900896 0 -0.0017287263994566157 0.0088338208930768009 0 -0.0018958421502305535 0.0087963673988467415 0 -0.0019622700670603095 0.0084869546432053914 0 -0.010161510941331673 0.0047302506824570736 0 -0.0094128967904112022 0.0022126524453768615 0 -0.0018258540693402222 0.0089458012473194754 0 -0.0017287263994566157 0.0088338208930768009 0 -0.0018958421502305535 0.0087963673988467415 0 -0.013576861797283003 0.003983270549051782 0 -0.01338167444556344 -0.0014717598017958916 0 -0.016907513671879038 -0.00068854780171048778 0 -0.01338167444556344 -0.0014717598017958916 0 -0.016907513671879038 -0.00068854780171048778 0 -0.015053141750418471 -0.0038065835369608795 0 -0.0094128967904112022 0.0022126524453768615 0 -0.016801337943477469 -0.0056089832197676473 0 0.0013106509680899006 0.0049458786813170738 0 -0.00062858639323792322 0.0056775502142448935 0 -0.0017711259161158328 0.0039101122061563952 0 0.0013106509680899006 0.0049458786813170738 0 -0.00062858639323792322 0.0056775502142448935 0 -0.00057982697057439058 0.0074927463433738482 0 -0.0094128967904112022 0.0022126524453768615 0 -0.001169001797479317 0.0079388837414777844 0 -0.0018958421502305535 0.0087963673988467415 0 -0.0019622700670603095 0.0084869546432053914 0 -0.0020093117216436838 0.0087624544898550795 0 -0.0019178550789895831 0.0089242359087430487 0 -0.0018958421502305535 0.0087963673988467415 0 -0.0020093117216436838 0.0087624544898550795 0 -0.0018692835097336917 0.0088242123836835117 0 -0.001169001797479317 0.0079388837414777844 0 -0.00062858639323792322 0.0056775502142448935 0 -0.00057982697057439058 0.0074927463433738482 0 -0.0020961328640565552 0.0065584406661181784 0 -0.003380082707013502 0.007642811077783921 0 -0.0014656944507595395 0.0051938242018780001 0 -0.0020961328640565552 0.0065584406661181784 0 -0.0054733570058104614 0.0086450011031258857 0 -0.0047161696956077026 0.0055608188856594454 0 -0.00057982697057439058 0.0074927463433738482 0 -0.0020961328640565552 0.0065584406661181784 0 -0.0017247930449421902 0.0078331481533042823 0 -0.0020961328640565552 0.0065584406661181784 0 -0.0022712236987616147 0.0081284662606877067 0 -0.0029881444815806177 0.0080901093154638424 0 -0.0020961328640565552 0.0065584406661181784 0 -0.0017247930449421902 0.0078331481533042823 0 -0.0022712236987616147 0.0081284662606877067 0 -0.0019653657039261359 0.0088637741175983421 0 -0.0017247930449421902 0.0078331481533042823 0 -0.0022712236987616147 0.0081284662606877067 0 -0.0019653657039261359 0.0088637741175983421 0 -0.00057982697057439058 0.0074927463433738482 0 -0.0017247930449421902 0.0078331481533042823 0 -0.0020961328640565552 0.0065584406661181784 0 -0.0041157876455256738 0.0039421797593549484 0 -0.0047161696956077026 0.0055608188856594454 0 -0.00062858639323792322 0.0056775502142448935 0 -0.0020961328640565552 0.0065584406661181784 0 -0.0017711259161158328 0.0039101122061563952 0 -0.0020961328640565552 0.0065584406661181784 0 -0.0017711259161158328 0.0039101122061563952 0 -0.0041157876455256738 0.0039421797593549484 0 -0.0017711259161158328 0.0039101122061563952 0 -0.001636142024742082 0.00011469901445222688 0 -0.0036161117768058826 0.0016059692834381721 0 -0.0041157876455256738 0.0039421797593549484 0 -0.0036161117768058826 0.0016059692834381721 0 -0.0053255954131980884 0.0021756599432937651 0 -0.0017711259161158328 0.0039101122061563952 0 -0.0041157876455256738 0.0039421797593549484 0 -0.0036161117768058826 0.0016059692834381721 0 -0.022606089333194503 -0.0086838472811682915 0 -0.02490701189200532 -0.012125559533882878 0 -0.022505889206510359 -0.012415000114986832 0 -0.012261675850707166 -0.0047247674764041977 0 -0.015357183858407699 -0.0092189051701050528 0 -0.001636142024742082 0.00011469901445222688 0 -0.0036161117768058826 0.0016059692834381721 0 -0.0060704899999058579 -0.0061367774998923718 0 -0.022606089333194503 -0.0086838472811682915 0 -0.019781020621073658 -0.0093061353426749076 0 -0.020568045949145332 -0.011270640747568179 0 -0.022606089333194503 -0.0086838472811682915 0 -0.020568045949145332 -0.011270640747568179 0 -0.022505889206510359 -0.012415000114986832 0 0.0013106509680899006 0.0049458786813170738 0 -0.0017711259161158328 0.0039101122061563952 0 -0.001636142024742082 0.00011469901445222688 0 -0.0094128967904112022 0.0022126524453768615 0 -0.012261675850707166 -0.0047247674764041977 0 -0.022606089333194503 -0.0086838472811682915 0 -0.018930782053090379 -0.0073432274452723779 0 -0.019781020621073658 -0.0093061353426749076 0 -0.020145488396417804 -0.0051763968591480762 0 -0.022606089333194503 -0.0086838472811682915 0 -0.018930782053090379 -0.0073432274452723779 0 -0.019336152809404091 -0.0036302686637900896 0 -0.018495867649625727 -0.0085717597176740521 0 -0.01338167444556344 -0.0014717598017958916 0 -0.015053141750418471 -0.0038065835369608795 0 -0.01321755564916856 -0.0069210857595153018 0 -0.016801337943477469 -0.0056089832197676473 0 -0.018495867649625727 -0.0085717597176740521 0 -0.018930782053090379 -0.0073432274452723779 0 -0.019781020621073658 -0.0093061353426749076 0 -0.017756297034155415 -0.0094681408926616702 0 -0.019781020621073658 -0.0093061353426749076 0 -0.017756297034155415 -0.0094681408926616702 0 -0.020568045949145332 -0.011270640747568179 0 -0.018495867649625727 -0.0085717597176740521 0 -0.02084267853200043 -0.011277433112572677 0 -0.023640649066709801 -0.0090975039991671985 0 -0.021045459087870508 -0.0091149947239162806 0 -0.022284595126311535 -0.011445333188403295 0 -0.023640649066709801 -0.0090975039991671985 0 -0.021045459087870508 -0.0091149947239162806 0 -0.021876143930731437 -0.006700407486652858 0 -0.023672934512812962 -0.0047920683668113018 0 -0.023640649066709801 -0.0090975039991671985 0 -0.021876143930731437 -0.006700407486652858 0 0.0040891884014392582 -8.4720700979881835e-05 0 0.0040873547592431038 -2.7667735811793482e-05 0 0.0040634696231032661 4.7245865234691639e-05 0 0.0040891884014392582 -8.4720700979881835e-05 0 0.0040873547592431038 -2.7667735811793482e-05 0 0.0041273205494958285 -0.00014785462324488712 0 0.0040873547592431038 -2.7667735811793482e-05 0 0.0041273205494958285 -0.00014785462324488712 0 0.0040881520087909145 -3.7715871419757229e-05 0 0.004141087714401713 -0.00017952588571154202 0 0.0041273205494958285 -0.00014785462324488712 0 0.0040881520087909145 -3.7715871419757229e-05 0 0.0040517623948677821 0.00011215609046780304 0 0.0040881520087909145 -3.7715871419757229e-05 0 0.0040718495467038764 8.5186639823642548e-05 0 0.0040364570111861625 -2.1688902950594886e-05 0 0.0040517623948677821 0.00011215609046780304 0 0.0040881520087909145 -3.7715871419757229e-05 0 0.0040873547592431038 -2.7667735811793482e-05 0 0.0040881520087909145 -3.7715871419757229e-05 0 0.0040718495467038764 8.5186639823642548e-05 0 0.0040265474857895485 0.00018537526184953399 0 0.0040718495467038764 8.5186639823642548e-05 0 0.0040634696231032661 4.7245865234691639e-05 0 0.0040873547592431038 -2.7667735811793482e-05 0 0.0040718495467038764 8.5186639823642548e-05 0 0.0040634696231032661 4.7245865234691639e-05 0 0.0040265474857895485 0.00018537526184953399 0 0.0040634696231032661 4.7245865234691639e-05 0 0.0039989567072994739 0.00016472155631541748 0 -0.0025067881232116031 0.0087278977206110397 0 -0.0022712236987616147 0.0081284662606877067 0 -0.0029881444815806177 0.0080901093154638424 0 -0.0014656944507595395 0.0051938242018780001 0 -0.0013349862138052407 0.0013956312895066633 0 -0.0054733570058104614 0.0086450011031258857 0 -0.0047161696956077026 0.0055608188856594454 0 -0.0070126138576555941 0.0031719753012390407 0 -0.0041157876455256738 0.0039421797593549484 0 -0.0047161696956077026 0.0055608188856594454 0 -0.0070126138576555941 0.0031719753012390407 0 0.0040634696231032661 4.7245865234691639e-05 0 0.0039989567072994739 0.00016472155631541748 0 0.0041039150139960843 -6.2816907464188066e-05 0 0.0040891884014392582 -8.4720700979881835e-05 0 0.0040634696231032661 4.7245865234691639e-05 0 0.0041039150139960843 -6.2816907464188066e-05 0 0.0041039150139960843 -6.2816907464188066e-05 0 0.0040749197246363125 -0.0002092994392727344 0 0.0040929556181118947 -0.00016206446315349059 0 -0.0070126138576555941 0.0031719753012390407 0 -0.0060910283551187886 0.00055271020011931303 0 -0.0081800070291984887 -0.001493902780200678 0 0.0040891884014392582 -8.4720700979881835e-05 0 0.0041039150139960843 -6.2816907464188066e-05 0 0.0040929556181118947 -0.00016206446315349059 0 -0.0013349862138052407 0.0013956312895066633 0 -0.0022772270133889377 -0.00070879121742399174 0 -0.0041157876455256738 0.0039421797593549484 0 -0.0053255954131980884 0.0021756599432937651 0 -0.0070126138576555941 0.0031719753012390407 0 -0.0053255954131980884 0.0021756599432937651 0 -0.0070126138576555941 0.0031719753012390407 0 -0.0060910283551187886 0.00055271020011931303 0 -0.0036161117768058826 0.0016059692834381721 0 -0.0053255954131980884 0.0021756599432937651 0 -0.0060910283551187886 0.00055271020011931303 0 -0.0036161117768058826 0.0016059692834381721 0 -0.0060704899999058579 -0.0061367774998923718 0 -0.008350116500667526 -0.0049276811828345675 0 -0.0060910283551187886 0.00055271020011931303 0 -0.0081800070291984887 -0.001493902780200678 0 -0.0062582259781315342 -0.0022833192905535767 0 -0.0037407333131569535 0.0014294767115632693 0 -0.0074771230013661507 -0.003691962956909559 0 -0.0036161117768058826 0.0016059692834381721 0 -0.0060910283551187886 0.00055271020011931303 0 -0.0062582259781315342 -0.0022833192905535767 0 0.0040749197246363125 -0.0002092994392727344 0 0.0040969935703137755 -0.00020103702249876763 0 0.0040929556181118947 -0.00016206446315349059 0 0.0040969935703137755 -0.00020103702249876763 0 0.0041284013780192846 -0.00020755541754909312 0 0.0040994751508790627 -0.0001891730899128033 0 0.0040969935703137755 -0.00020103702249876763 0 0.0041284013780192846 -0.00020755541754909312 0 0.0041131066938367399 -0.00019409299779240828 0 0.0040749197246363125 -0.0002092994392727344 0 0.0040969935703137755 -0.00020103702249876763 0 0.0040994751508790627 -0.0001891730899128033 0 0.0041284013780192846 -0.00020755541754909312 0 0.0041131066938367399 -0.00019409299779240828 0 0.0041719274298099799 -0.00022622842802058626 0 0.0041131066938367399 -0.00019409299779240828 0 0.0041208290290735295 -0.00017220194185520762 0 0.0041719274298099799 -0.00022622842802058626 0 0.0040969935703137755 -0.00020103702249876763 0 0.0041131066938367399 -0.00019409299779240828 0 0.0040929556181118947 -0.00016206446315349059 0 0.0041131066938367399 -0.00019409299779240828 0 0.0040929556181118947 -0.00016206446315349059 0 0.0041208290290735295 -0.00017220194185520762 0 0.0040891884014392582 -8.4720700979881835e-05 0 0.0041273205494958285 -0.00014785462324488712 0 0.0041208290290735295 -0.00017220194185520762 0 0.0040891884014392582 -8.4720700979881835e-05 0 0.0040929556181118947 -0.00016206446315349059 0 0.0041208290290735295 -0.00017220194185520762 0 0.0042340298715411078 -0.00024255084257219294 0 0.0041273205494958285 -0.00014785462324488712 0 0.004176577028674822 -0.00021110622944007877 0 0.0041273205494958285 -0.00014785462324488712 0 0.0041208290290735295 -0.00017220194185520762 0 0.004176577028674822 -0.00021110622944007877 0 0.0041208290290735295 -0.00017220194185520762 0 0.004176577028674822 -0.00021110622944007877 0 0.0041719274298099799 -0.00022622842802058626 0 0.0042693319644642415 -0.00026157693047371139 0 0.004176577028674822 -0.00021110622944007877 0 0.0041719274298099799 -0.00022622842802058626 0 0.0041284013780192846 -0.00020755541754909312 0 0.0041719274298099799 -0.00022622842802058626 0 0.004169598977168165 -0.00020980435884418482 0 0.0041719274298099799 -0.00022622842802058626 0 0.0042615471439832716 -0.00025471011031987986 0 0.004169598977168165 -0.00020980435884418482 0 0.0042693319644642415 -0.00026157693047371139 0 0.0041719274298099799 -0.00022622842802058626 0 0.0042615471439832716 -0.00025471011031987986 0 0.0042615471439832716 -0.00025471011031987986 0 0.004169598977168165 -0.00020980435884418482 0 0.0042965889019991798 -0.00025027734000340952 0 0.004169598977168165 -0.00020980435884418482 0 0.004191474567778344 -0.00011990620339552491 0 0.0041302205789904697 -0.00017137747179907855 0 0.004169598977168165 -0.00020980435884418482 0 0.004191474567778344 -0.00011990620339552491 0 0.0042965889019991798 -0.00025027734000340952 0 0.0059852055471585237 -3.9898807226294966e-05 0 0.00026321260130452177 -0.0050146156279883497 0 0.0039321813439582862 7.9972887351983382e-05 0 0.0036572243339677638 -0.00015582596296793782 0 0.0032717175678207812 0.00010300736872122045 0 0.0062760184301787723 -0.0012398749769427333 0 0.0065764559313647103 -0.00178238663938926 0 0.0069512926634152017 -0.0018165059779117016 0 0.0039321813439582862 7.9972887351983382e-05 0 0.0032717175678207812 0.00010300736872122045 0 0.0028059109801154879 0.00042609315965381654 0 0.0062760184301787723 -0.0012398749769427333 0 0.0062794578544225097 -0.0015994652019736583 0 0.0065764559313647103 -0.00178238663938926 0 0.004191474567778344 -0.00011990620339552491 0 0.0040318172189449334 -0.00014751701172536848 0 0.0040787055590791634 -0.00016607377574955154 0 0.004744739301750533 8.1815020602159154e-05 0 -0.0011276150850886807 -0.0035387231134810832 0 0.0036572243339677638 -0.00015582596296793782 0 0.0026837407408065255 5.6795847682826718e-05 0 0.0032717175678207812 0.00010300736872122045 0 0.0026837407408065255 5.6795847682826718e-05 0 0.0032717175678207812 0.00010300736872122045 0 0.0028059109801154879 0.00042609315965381654 0 -0.0011276150850886807 -0.0035387231134810832 0 0.00026321260130452177 -0.0050146156279883497 0 0.0040749197246363125 -0.0002092994392727344 0 0.0040787055590791634 -0.00016607377574955154 0 0.0040994751508790627 -0.0001891730899128033 0 0.004191474567778344 -0.00011990620339552491 0 0.0040787055590791634 -0.00016607377574955154 0 0.0041302205789904697 -0.00017137747179907855 0 0.0040787055590791634 -0.00016607377574955154 0 0.0041302205789904697 -0.00017137747179907855 0 0.0040994751508790627 -0.0001891730899128033 0 0.0041284013780192846 -0.00020755541754909312 0 0.004169598977168165 -0.00020980435884418482 0 0.0040994751508790627 -0.0001891730899128033 0 0.004169598977168165 -0.00020980435884418482 0 0.0041302205789904697 -0.00017137747179907855 0 0.0040994751508790627 -0.0001891730899128033 0 0.0040749197246363125 -0.0002092994392727344 0 0.0040318172189449334 -0.00014751701172536848 0 0.0040787055590791634 -0.00016607377574955154 0 -0.0022772270133889377 -0.00070879121742399174 0 -0.0011276150850886807 -0.0035387231134810832 0 -0.0081800070291984887 -0.001493902780200678 0 -0.0093762218633153694 -0.0057284094311816098 0 -0.0081182028697269256 -0.0038738017803738476 0 -0.0074771230013661507 -0.003691962956909559 0 -0.0096151821370617299 -0.0085667018720703356 0 -0.0081182028697269256 -0.0038738017803738476 0 -0.0062582259781315342 -0.0022833192905535767 0 -0.0086477321811107375 -0.0059837399617271945 0 -0.0081800070291984887 -0.001493902780200678 0 -0.0081182028697269256 -0.0038738017803738476 0 -0.0062582259781315342 -0.0022833192905535767 0 -0.0060704899999058579 -0.0061367774998923718 0 -0.008350116500667526 -0.0049276811828345675 0 -0.01070369626785567 -0.012570022090294949 0 -0.027101550190911577 -0.015473103907301044 0 -0.025091795312653428 -0.016214253324777127 0 -0.024095673068969276 -0.014432542913831906 0 -0.015357183858407699 -0.0092189051701050528 0 -0.019760911066942756 -0.012849299029716382 0 -0.02490701189200532 -0.012125559533882878 0 -0.027101550190911577 -0.015473103907301044 0 -0.024095673068969276 -0.014432542913831906 0 -0.008350116500667526 -0.0049276811828345675 0 -0.01070369626785567 -0.012570022090294949 0 -0.012971344304616968 -0.01179573111255388 0 -0.0093762218633153694 -0.0057284094311816098 0 -0.0081182028697269256 -0.0038738017803738476 0 -0.0086477321811107375 -0.0059837399617271945 0 -0.015783260736660174 -0.011161445395318152 0 -0.014012614566152125 -0.011743331675921117 0 -0.014381153875365866 -0.0091991742106930906 0 -0.019760911066942756 -0.012849299029716382 0 -0.0096151821370617299 -0.0085667018720703356 0 -0.0041995147914889418 -0.0055768037921083693 0 -0.0035714388999115903 -0.005796355494747071 0 -0.0042882693333703512 -0.0069111392207635647 0 -0.0096151821370617299 -0.0085667018720703356 0 -0.0058349279674015124 -0.007368551886584869 0 -0.0011276150850886807 -0.0035387231134810832 0 -0.0096151821370617299 -0.0085667018720703356 0 -0.014012614566152125 -0.011743331675921117 0 -0.014381153875365866 -0.0091991742106930906 0 -0.012766208423730611 -0.0098578571296260142 0 -0.019802285911037134 -0.012852419983225762 0 -0.0058349279674015124 -0.007368551886584869 0 -0.026751933121323269 -0.01563774120154228 0 -0.027564211514088721 -0.016821521318022496 0 -0.025665604538347018 -0.017693952598059354 0 -0.019760911066942756 -0.012849299029716382 0 -0.019802285911037134 -0.012852419983225762 0 -0.019802285911037134 -0.012852419983225762 0 -0.027189622455636213 -0.016704120681414046 0 -0.026810322857646032 -0.017377134611252603 0 -0.025665604538347018 -0.017693952598059354 0 -0.026412805514303649 -0.018222615656364159 0 -0.026810322857646032 -0.017377134611252603 0 -0.026412805514303649 -0.018222615656364159 0 -0.027561260144039493 -0.018591732680282906 0 -0.019802285911037134 -0.012852419983225762 0 -0.019899305562357548 -0.015760743703957025 0 -0.019760911066942756 -0.012849299029716382 0 -0.026771492112114416 -0.015086779029398725 0 -0.026751933121323269 -0.01563774120154228 0 -0.025091795312653428 -0.016214253324777127 0 -0.025665604538347018 -0.017693952598059354 0 -0.025665604538347018 -0.017693952598059354 0 -0.025368874360178453 -0.018570162131020723 0 -0.024402337707480494 -0.017516108422248947 0 -0.025091795312653428 -0.016214253324777127 0 -0.025665604538347018 -0.017693952598059354 0 -0.024402337707480494 -0.017516108422248947 0 -0.025368874360178453 -0.018570162131020723 0 -0.024402337707480494 -0.017516108422248947 0 -0.02433253142842309 -0.01869001832506258 0 -0.025665604538347018 -0.017693952598059354 0 -0.025368874360178453 -0.018570162131020723 0 -0.026412805514303649 -0.018222615656364159 0 -0.025368874360178453 -0.018570162131020723 0 -0.026412805514303649 -0.018222615656364159 0 -0.026252475503503007 -0.019370074351641377 0 -0.025368874360178453 -0.018570162131020723 0 -0.025064109699898196 -0.019656844678120688 0 -0.026252475503503007 -0.019370074351641377 0 -0.025368874360178453 -0.018570162131020723 0 -0.025064109699898196 -0.019656844678120688 0 -0.02433253142842309 -0.01869001832506258 0 -0.026252475503503007 -0.019370074351641377 0 -0.027561260144039493 -0.018591732680282906 0 -0.02708331233347339 -0.020345400885962511 0 -0.026412805514303649 -0.018222615656364159 0 -0.026252475503503007 -0.019370074351641377 0 -0.027561260144039493 -0.018591732680282906 0 0.0066968920914503806 -0.0023243600443640837 0 0.0068299651679462007 -0.0020927335140289069 0 0.0066167123613286027 -0.0027727288952653778 0 -0.027561260144039493 -0.018591732680282906 0 -0.028219629774130266 -0.019856108764189143 0 -0.02708331233347339 -0.020345400885962511 0 0.00060455006480623853 -0.004265347974403891 0 -0.0090138399170426788 -0.01175379121998041 0 -0.010756592828535003 -0.010466971856745853 0 -0.010767878526920334 -0.010391458821066133 0 -0.010761034804361934 -0.01057435864647885 0 0.0066968920914503806 -0.0023243600443640837 0 0.0064844308230231637 -0.0024952940470501389 0 0.0065628481765774623 -0.0020986445506883064 0 -0.019899305562357548 -0.015760743703957025 0 -0.0090138399170426788 -0.01175379121998041 0 0.0066968920914503806 -0.0023243600443640837 0 0.0064844308230231637 -0.0024952940470501389 0 0.0066167123613286027 -0.0027727288952653778 0 0.0064844308230231637 -0.0024952940470501389 0 0.0062699143408085217 -0.0023806758333496138 0 0.0062104893187045988 -0.002791530094985483 0 0.0062699143408085217 -0.0023806758333496138 0 0.0065628481765774623 -0.0020986445506883064 0 0.0062316311693154198 -0.0020274251196795521 0 0.0064844308230231637 -0.0024952940470501389 0 0.0062699143408085217 -0.0023806758333496138 0 0.0065628481765774623 -0.0020986445506883064 0 0.0065628481765774623 -0.0020986445506883064 0 0.00645405077199238 -0.0018819403383422599 0 0.0065764559313647103 -0.00178238663938926 0 0.0065628481765774623 -0.0020986445506883064 0 0.0062316311693154198 -0.0020274251196795521 0 0.00645405077199238 -0.0018819403383422599 0 0.0062316311693154198 -0.0020274251196795521 0 0.0062794578544225097 -0.0015994652019736583 0 0.00645405077199238 -0.0018819403383422599 0 0.0062794578544225097 -0.0015994652019736583 0 0.00645405077199238 -0.0018819403383422599 0 0.0065764559313647103 -0.00178238663938926 0 0.0065764559313647103 -0.00178238663938926 0 0.0069512926634152017 -0.0018165059779117016 0 0.00688923436683003 -0.0020405349161965727 0 -0.00027083826908138047 -0.0052941103376414368 0 -0.00029389326109426528 -0.005286384254006387 0 -0.00023520588164665775 -0.0052192078138844486 0 -0.0041995147914889418 -0.0055768037921083693 0 -0.0045668777787864316 -0.006791428815293989 0 -0.0042882693333703512 -0.0069111392207635647 0 -0.010760887419939864 -0.010376373602118835 0 -0.010761544711963712 -0.010355656242185466 0 -0.010767878526920334 -0.010391458821066133 0 0.00026321260130452177 -0.0050146156279883497 0 0.00060455006480623853 -0.004265347974403891 0 0.00026321260130452177 -0.0050146156279883497 0 -0.0058349279674015124 -0.007368551886584869 0 -0.0058349279674015124 -0.007368551886584869 0 0.00060455006480623853 -0.004265347974403891 0 -0.010760887419939864 -0.010376373602118835 0 -0.010756592828535003 -0.010466971856745853 0 -0.010767878526920334 -0.010391458821066133 0 0.0066968920914503806 -0.0023243600443640837 0 0.0065628481765774623 -0.0020986445506883064 0 0.00688923436683003 -0.0020405349161965727 0 0.0065628481765774623 -0.0020986445506883064 0 0.0065764559313647103 -0.00178238663938926 0 0.00688923436683003 -0.0020405349161965727 0 0.0054665581916375347 -0.0010139180928171894 0 0.00060455006480623853 -0.004265347974403891 0 -0.020228962691412174 -0.013487448675381011 0 -0.020523996320257382 -0.016539091480605818 0 -0.018330032910802211 -0.013317714196968637 0 -0.020462344628992837 -0.012719905349666461 0 -0.02032517326662325 -0.015849514279381371 0 -0.019048016448905462 -0.012796902542550876 0 -0.020523996320257382 -0.016539091480605818 0 -0.02057314952926936 -0.016226471462554574 0 -0.020483583380660475 -0.014244317133595667 0 -0.022365855112356128 -0.016500326708942106 0 -0.020689211729293524 -0.013911673600107931 0 -0.020483583380660475 -0.014244317133595667 0 -0.022365855112356128 -0.016500326708942106 0 -0.018495867649625727 -0.0085717597176740521 0 -0.019048016448905462 -0.012796902542550876 0 -0.020585104234423109 -0.0095872119236332064 0 -0.019462199831438359 -0.011454351101211442 0 -0.020462344628992837 -0.012719905349666461 0 -0.018330032910802211 -0.013317714196968637 0 -0.019462199831438359 -0.011454351101211442 0 -0.020462344628992837 -0.012719905349666461 0 -0.020228962691412174 -0.013487448675381011 0 -0.02084267853200043 -0.011277433112572677 0 -0.017759500775932052 -0.012760939406110372 0 -0.019856197852454214 -0.013225210442894566 0 -0.020568045949145332 -0.011270640747568179 0 -0.017756297034155415 -0.0094681408926616702 0 -0.017759500775932052 -0.012760939406110372 0 -0.020568045949145332 -0.011270640747568179 0 -0.017759500775932052 -0.012760939406110372 0 -0.019856197852454214 -0.013225210442894566 0 -0.019778279309636427 -0.015221953974656664 0 -0.017759500775932052 -0.012760939406110372 0 -0.019778279309636427 -0.015221953974656664 0 -0.017768361437064555 -0.015972193957042784 0 -0.019778279309636427 -0.015221953974656664 0 -0.021746851481172474 -0.014623691434670249 0 -0.02160764237946303 -0.016592471141975342 0 -0.019856197852454214 -0.013225210442894566 0 -0.019778279309636427 -0.015221953974656664 0 -0.021746851481172474 -0.014623691434670249 0 -0.019856197852454214 -0.013225210442894566 0 -0.020568045949145332 -0.011270640747568179 0 -0.022505889206510359 -0.012415000114986832 0 -0.019856197852454214 -0.013225210442894566 0 -0.021746851481172474 -0.014623691434670249 0 -0.022505889206510359 -0.012415000114986832 0 -0.02490701189200532 -0.012125559533882878 0 -0.022505889206510359 -0.012415000114986832 0 -0.024095673068969276 -0.014432542913831906 0 -0.021746851481172474 -0.014623691434670249 0 -0.024095673068969276 -0.014432542913831906 0 -0.023165045779821248 -0.016124576585427208 0 -0.021746851481172474 -0.014623691434670249 0 -0.022505889206510359 -0.012415000114986832 0 -0.024095673068969276 -0.014432542913831906 0 -0.025091795312653428 -0.016214253324777127 0 -0.024095673068969276 -0.014432542913831906 0 -0.023165045779821248 -0.016124576585427208 0 -0.025091795312653428 -0.016214253324777127 0 -0.023165045779821248 -0.016124576585427208 0 -0.024402337707480494 -0.017516108422248947 0 -0.023165045779821248 -0.016124576585427208 0 -0.023356185663836838 -0.017277570615114743 0 -0.022583179424123145 -0.017301653215290654 0 -0.023356185663836838 -0.017277570615114743 0 -0.02325503118144789 -0.018143447634791962 0 -0.022583179424123145 -0.017301653215290654 0 -0.023356185663836838 -0.017277570615114743 0 -0.024402337707480494 -0.017516108422248947 0 -0.02325503118144789 -0.018143447634791962 0 -0.023165045779821248 -0.016124576585427208 0 -0.023356185663836838 -0.017277570615114743 0 -0.024402337707480494 -0.017516108422248947 0 -0.024402337707480494 -0.017516108422248947 0 -0.02433253142842309 -0.01869001832506258 0 -0.02325503118144789 -0.018143447634791962 0 -0.02433253142842309 -0.01869001832506258 0 -0.023733056181869425 -0.019535020342985748 0 -0.02325503118144789 -0.018143447634791962 0 -0.025064109699898196 -0.019656844678120688 0 -0.02433253142842309 -0.01869001832506258 0 -0.023733056181869425 -0.019535020342985748 0 -0.022836325856543521 -0.018837358104686321 0 -0.023733056181869425 -0.019535020342985748 0 -0.02325503118144789 -0.018143447634791962 0 -0.022836325856543521 -0.018837358104686321 0 -0.023733056181869425 -0.019535020342985748 0 -0.022459957326336058 -0.019338967281925482 0 -0.02325503118144789 -0.018143447634791962 0 -0.021855824815579412 -0.018297111717779316 0 -0.022583179424123145 -0.017301653215290654 0 -0.022836325856543521 -0.018837358104686321 0 -0.02325503118144789 -0.018143447634791962 0 -0.021855824815579412 -0.018297111717779316 0 -0.022836325856543521 -0.018837358104686321 0 -0.021855824815579412 -0.018297111717779316 0 -0.022459957326336058 -0.019338967281925482 0 -0.021855824815579412 -0.018297111717779316 0 -0.020282226610563184 -0.017008666080795518 0 -0.020394285954224434 -0.018875629330544465 0 -0.021855824815579412 -0.018297111717779316 0 -0.022459957326336058 -0.019338967281925482 0 -0.020394285954224434 -0.018875629330544465 0 -0.021855824815579412 -0.018297111717779316 0 -0.02160764237946303 -0.016592471141975342 0 -0.020282226610563184 -0.017008666080795518 0 -0.021855824815579412 -0.018297111717779316 0 -0.022583179424123145 -0.017301653215290654 0 -0.02160764237946303 -0.016592471141975342 0 -0.023165045779821248 -0.016124576585427208 0 -0.022583179424123145 -0.017301653215290654 0 -0.02160764237946303 -0.016592471141975342 0 -0.021746851481172474 -0.014623691434670249 0 -0.023165045779821248 -0.016124576585427208 0 -0.02160764237946303 -0.016592471141975342 0 -0.019778279309636427 -0.015221953974656664 0 -0.02160764237946303 -0.016592471141975342 0 -0.020282226610563184 -0.017008666080795518 0 -0.021445288105016721 -0.019292562545700713 0 -0.020523996320257382 -0.016539091480605818 0 -0.019778279309636427 -0.015221953974656664 0 -0.020282226610563184 -0.017008666080795518 0 -0.017768361437064555 -0.015972193957042784 0 -0.020282226610563184 -0.017008666080795518 0 -0.020394285954224434 -0.018875629330544465 0 -0.017768361437064555 -0.015972193957042784 0 -0.022652623998338138 -0.019581070652108189 0 -0.021729711674731991 -0.019710480872440591 0 -0.021776092696621049 -0.018399016440416457 0 -0.022652623998338138 -0.019581070652108189 0 -0.022398864079011451 -0.019858600622121535 0 -0.021729711674731991 -0.019710480872440591 0 -0.022652623998338138 -0.019581070652108189 0 -0.022398864079011451 -0.019858600622121535 0 -0.022696792616453174 -0.020770080914169965 0 -0.022398864079011451 -0.019858600622121535 0 -0.021729711674731991 -0.019710480872440591 0 -0.021867412734746711 -0.020176683702712899 0 -0.021729711674731991 -0.019710480872440591 0 -0.020686068476826067 -0.019379308525342444 0 -0.021191012848254708 -0.019943670905932406 0 -0.021729711674731991 -0.019710480872440591 0 -0.020686068476826067 -0.019379308525342444 0 -0.020924958671009544 -0.018095505540253146 0 -0.02212670383927649 -0.019929770867601403 0 -0.020523996320257382 -0.016539091480605818 0 -0.021729711674731991 -0.019710480872440591 0 -0.020924958671009544 -0.018095505540253146 0 -0.022365855112356128 -0.016500326708942106 0 -0.02057314952926936 -0.016226471462554574 0 -0.020924958671009544 -0.018095505540253146 0 -0.022365855112356128 -0.016500326708942106 0 -0.021321580459295636 -0.022872683827239077 0 -0.021887824451626767 -0.02153749692164246 0 -0.02127601760896888 -0.022602030448757537 0 -0.021809800649055928 -0.022077402894703248 0 -0.021750893504906513 -0.02128910794915656 0 -0.021405246542552017 -0.023038850319327238 0 -0.021488384884603084 -0.022596466067119108 0 -0.02184769317929355 -0.022318586024111804 0 -0.021809800649055928 -0.022077402894703248 0 -0.021750893504906513 -0.02128910794915656 0 -0.021971296460225231 -0.021322228502395294 0 -0.021488384884603084 -0.022596466067119108 0 -0.02157324833736898 -0.022334228275812728 0 -0.021443403916566687 -0.022441031917931554 0 -0.021488384884603084 -0.022596466067119108 0 -0.02157324833736898 -0.022334228275812728 0 -0.02184769317929355 -0.022318586024111804 0 -0.021357845018320294 -0.022499632576341841 0 -0.021488384884603084 -0.022596466067119108 0 -0.021443403916566687 -0.022441031917931554 0 -0.021380615047632771 -0.022357773322738285 0 -0.02157324833736898 -0.022334228275812728 0 -0.021443403916566687 -0.022441031917931554 0 -0.020626076348042182 -0.020462362521210763 0 -0.021887824451626767 -0.02153749692164246 0 -0.021358422028209111 -0.022160828224223241 0 -0.021380615047632771 -0.022357773322738285 0 -0.02157324833736898 -0.022334228275812728 0 -0.021358422028209111 -0.022160828224223241 0 -0.02157324833736898 -0.022334228275812728 0 -0.02184769317929355 -0.022318586024111804 0 -0.020502160940651441 -0.020587353530203096 0 -0.020798478233225986 -0.020351642717435968 0 -0.02178670512817156 -0.020889871067937073 0 -0.020686068476826067 -0.019379308525342444 0 -0.020798478233225986 -0.020351642717435968 0 -0.021191012848254708 -0.019943670905932406 0 -0.020798478233225986 -0.020351642717435968 0 -0.021191012848254708 -0.019943670905932406 0 -0.021535151929578503 -0.020246402469711235 0 -0.021729711674731991 -0.019710480872440591 0 -0.021191012848254708 -0.019943670905932406 0 -0.021535151929578503 -0.020246402469711235 0 -0.021729711674731991 -0.019710480872440591 0 -0.021867412734746711 -0.020176683702712899 0 -0.021535151929578503 -0.020246402469711235 0 -0.020798478233225986 -0.020351642717435968 0 -0.021535151929578503 -0.020246402469711235 0 -0.02178670512817156 -0.020889871067937073 0 -0.021867412734746711 -0.020176683702712899 0 -0.021535151929578503 -0.020246402469711235 0 -0.02178670512817156 -0.020889871067937073 0 -0.022398864079011451 -0.019858600622121535 0 -0.02168796008841143 -0.021231097684491378 0 -0.021971296460225231 -0.021322228502395294 0 -0.022384024107053695 -0.019807557958234221 0 -0.021887824451626767 -0.02153749692164246 0 -0.022398864079011451 -0.019858600622121535 0 -0.021971296460225231 -0.021322228502395294 0 -0.022696792616453174 -0.020770080914169965 0 -0.022398864079011451 -0.019858600622121535 0 -0.021867412734746711 -0.020176683702712899 0 -0.02178670512817156 -0.020889871067937073 0 -0.021790615510344814 -0.022629828386912822 0 -0.022730678608357386 -0.022140764150548432 0 -0.022696792616453174 -0.020770080914169965 0 -0.021809800649055928 -0.022077402894703248 0 -0.021971296460225231 -0.021322228502395294 0 -0.022696792616453174 -0.020770080914169965 0 -0.0218307378901413 -0.022363497776662602 0 -0.022685731929574151 -0.020848210579391385 0 -0.021887824451626767 -0.02153749692164246 0 -0.021870366541292766 -0.021494948928005062 0 -0.022730678608357386 -0.022140764150548432 0 -0.023103028205168619 -0.021563862965053259 0 -0.022696792616453174 -0.020770080914169965 0 -0.022730678608357386 -0.022140764150548432 0 -0.023538205284960739 -0.022216674613708465 0 -0.023323846000866785 -0.023256448363351511 0 -0.023538205284960739 -0.022216674613708465 0 -0.023103028205168619 -0.021563862965053259 0 -0.023413450092876983 -0.021169462122277518 0 -0.022730678608357386 -0.022140764150548432 0 -0.023538205284960739 -0.022216674613708465 0 -0.023103028205168619 -0.021563862965053259 0 -0.023103028205168619 -0.021563862965053259 0 -0.022696792616453174 -0.020770080914169965 0 -0.023413450092876983 -0.021169462122277518 0 -0.022652623998338138 -0.019581070652108189 0 -0.022696792616453174 -0.020770080914169965 0 -0.023413450092876983 -0.021169462122277518 0 -0.021445288105016721 -0.019292562545700713 0 -0.023255939969193923 -0.021008735356485623 0 -0.022459957326336058 -0.019338967281925482 0 -0.020394285954224434 -0.018875629330544465 0 -0.023413450092876983 -0.021169462122277518 0 -0.023733056181869425 -0.019535020342985748 0 -0.023413450092876983 -0.021169462122277518 0 -0.024719859081101418 -0.020997180781772106 0 -0.023733056181869425 -0.019535020342985748 0 -0.022459957326336058 -0.019338967281925482 0 -0.023413450092876983 -0.021169462122277518 0 -0.025064109699898196 -0.019656844678120688 0 -0.023733056181869425 -0.019535020342985748 0 -0.024719859081101418 -0.020997180781772106 0 -0.023413450092876983 -0.021169462122277518 0 -0.024719859081101418 -0.020997180781772106 0 -0.024652186243567221 -0.022278103753095038 0 -0.023538205284960739 -0.022216674613708465 0 -0.023413450092876983 -0.021169462122277518 0 -0.024652186243567221 -0.022278103753095038 0 -0.023538205284960739 -0.022216674613708465 0 -0.024652186243567221 -0.022278103753095038 0 -0.024464433960387357 -0.023504488058448885 0 -0.024464433960387357 -0.023504488058448885 0 -0.024992814989484781 -0.024651938080979863 0 -0.023904158272658856 -0.024480130467146963 0 -0.023904158272658856 -0.024480130467146963 0 -0.022897707585660339 -0.024420216295719818 0 -0.023502957234339678 -0.025214574840743045 0 -0.023904158272658856 -0.024480130467146963 0 -0.023323846000866785 -0.023256448363351511 0 -0.022897707585660339 -0.024420216295719818 0 -0.024464433960387357 -0.023504488058448885 0 -0.023904158272658856 -0.024480130467146963 0 -0.023323846000866785 -0.023256448363351511 0 -0.023538205284960739 -0.022216674613708465 0 -0.024464433960387357 -0.023504488058448885 0 -0.023323846000866785 -0.023256448363351511 0 -0.021790615510344814 -0.022629828386912822 0 -0.022730678608357386 -0.022140764150548432 0 -0.022545887776821393 -0.023313401071596202 0 -0.021790615510344814 -0.022629828386912822 0 -0.022545887776821393 -0.023313401071596202 0 -0.022012507333147455 -0.024077679156038492 0 -0.022730678608357386 -0.022140764150548432 0 -0.023323846000866785 -0.023256448363351511 0 -0.022545887776821393 -0.023313401071596202 0 -0.023323846000866785 -0.023256448363351511 0 -0.022545887776821393 -0.023313401071596202 0 -0.022897707585660339 -0.024420216295719818 0 -0.022897707585660339 -0.024420216295719818 0 -0.022012507333147455 -0.024077679156038492 0 -0.022247567837773919 -0.02518067579493773 0 -0.022545887776821393 -0.023313401071596202 0 -0.022897707585660339 -0.024420216295719818 0 -0.022012507333147455 -0.024077679156038492 0 -0.021039582080821281 -0.024285646976545002 0 -0.022012507333147455 -0.024077679156038492 0 -0.021605651209634136 -0.024960214447345093 0 -0.022012507333147455 -0.024077679156038492 0 -0.021605651209634136 -0.024960214447345093 0 -0.022247567837773919 -0.02518067579493773 0 -0.021043512292888335 -0.023459321100440963 0 -0.0218307378901413 -0.022363497776662602 0 -0.02127601760896888 -0.022602030448757537 0 -0.021260824294636219 -0.023143392465859589 0 -0.021809800649055928 -0.022077402894703248 0 -0.021039582080821281 -0.024285646976545002 0 -0.021790615510344814 -0.022629828386912822 0 -0.022012507333147455 -0.024077679156038492 0 -0.028586790848498751 -0.021862630178580179 0 -0.02708331233347339 -0.020345400885962511 0 -0.026949892912026426 -0.022281654062676848 0 -0.0071304841951103787 -0.015605148356460853 0 -0.0069383290464326442 -0.015601267533421923 0 -0.0068493879565641319 -0.014871649206626526 0 0.0012315772073396437 -0.0083110061569655457 0 -0.0090138399170426788 -0.01175379121998041 0 0.0061878365249350923 -0.0033412354067317252 0 0.0062104893187045988 -0.002791530094985483 0 0.0066167123613286027 -0.0027727288952653778 0 0.0064844308230231637 -0.0024952940470501389 0 0.0062104893187045988 -0.002791530094985483 0 0.0066167123613286027 -0.0027727288952653778 0 -0.018813464946930605 -0.020117376505546767 0 -0.0090138399170426788 -0.01175379121998041 0 -0.028586790848498751 -0.021862630178580179 0 -0.028219629774130266 -0.019856108764189143 0 -0.02708331233347339 -0.020345400885962511 0 -0.026252475503503007 -0.019370074351641377 0 -0.02708331233347339 -0.020345400885962511 0 -0.025930152669479452 -0.020806713797934254 0 -0.025064109699898196 -0.019656844678120688 0 -0.026252475503503007 -0.019370074351641377 0 -0.025930152669479452 -0.020806713797934254 0 -0.025064109699898196 -0.019656844678120688 0 -0.024719859081101418 -0.020997180781772106 0 -0.025930152669479452 -0.020806713797934254 0 -0.024719859081101418 -0.020997180781772106 0 -0.024652186243567221 -0.022278103753095038 0 -0.025889870164383769 -0.022084782873901122 0 -0.024719859081101418 -0.020997180781772106 0 -0.025930152669479452 -0.020806713797934254 0 -0.025889870164383769 -0.022084782873901122 0 -0.02708331233347339 -0.020345400885962511 0 -0.025930152669479452 -0.020806713797934254 0 -0.026949892912026426 -0.022281654062676848 0 -0.025930152669479452 -0.020806713797934254 0 -0.025889870164383769 -0.022084782873901122 0 -0.026949892912026426 -0.022281654062676848 0 -0.025889870164383769 -0.022084782873901122 0 -0.026949892912026426 -0.022281654062676848 0 -0.02585579237890424 -0.023543825275642839 0 -0.026949892912026426 -0.022281654062676848 0 -0.02585579237890424 -0.023543825275642839 0 -0.027618292899761386 -0.0233256519937593 0 -0.024652186243567221 -0.022278103753095038 0 -0.024464433960387357 -0.023504488058448885 0 -0.02585579237890424 -0.023543825275642839 0 -0.024652186243567221 -0.022278103753095038 0 -0.025889870164383769 -0.022084782873901122 0 -0.02585579237890424 -0.023543825275642839 0 -0.024464433960387357 -0.023504488058448885 0 -0.024992814989484781 -0.024651938080979863 0 -0.02585579237890424 -0.023543825275642839 0 -0.024992814989484781 -0.024651938080979863 0 -0.02585579237890424 -0.023543825275642839 0 -0.026035602582773834 -0.024976366569392103 0 -0.02585579237890424 -0.023543825275642839 0 -0.027296041227718556 -0.024677870001859198 0 -0.026035602582773834 -0.024976366569392103 0 -0.02585579237890424 -0.023543825275642839 0 -0.027296041227718556 -0.024677870001859198 0 -0.027618292899761386 -0.0233256519937593 0 -0.027296041227718556 -0.024677870001859198 0 -0.027618292899761386 -0.0233256519937593 0 -0.028845117482090694 -0.023614994335091063 0 -0.028586790848498751 -0.021862630178580179 0 -0.026949892912026426 -0.022281654062676848 0 -0.027618292899761386 -0.0233256519937593 0 -0.028586790848498751 -0.021862630178580179 0 -0.027618292899761386 -0.0233256519937593 0 -0.028845117482090694 -0.023614994335091063 0 -0.018813464946930605 -0.020117376505546767 0 -0.01783619156175997 -0.019613623285429243 0 -0.0071304841951103787 -0.015605148356460853 0 -0.0069383290464326442 -0.015601267533421923 0 -0.0070832061465859577 -0.016145333736303762 0 -0.027296041227718556 -0.024677870001859198 0 -0.028845117482090694 -0.023614994335091063 0 -0.029130434473980685 -0.025183061482358448 0 -0.01783619156175997 -0.019613623285429243 0 -0.018059814302082405 -0.02054616281772834 0 -0.0070832061465859577 -0.016145333736303762 0 -0.0072954573545047493 -0.016150128149333677 0 -0.0072265344461069272 -0.016477208799186502 0 -0.0072954573545047493 -0.016150128149333677 0 -0.0072265344461069272 -0.016477208799186502 0 -0.0073102899990198002 -0.016451111848477792 0 0.0059376752702090122 -0.0035410675269325728 0 0.0064758134511298361 -0.0035672910388211791 0 0.006475042291022008 -0.0031697134197862437 0 -0.0014329876599333323 -0.01076699793665873 0 0.0020274332367577939 -0.0082745692650607969 0 0.00081371107507483139 -0.0076416527056889002 0 -0.0015196179387848717 -0.010891846772560885 0 -0.0038554327782992942 -0.012827418452454293 0 -0.0015196179387848717 -0.010891846772560885 0 0.0051651442074486876 -0.0049436512452972637 0 0.0059376752702090122 -0.0035410675269325728 0 0.005951216591997867 -0.0034725845340392342 0 0.0064758134511298361 -0.0035672910388211791 0 0.0061878365249350923 -0.0033412354067317252 0 0.0059376752702090122 -0.0035410675269325728 0 0.005951216591997867 -0.0034725845340392342 0 0.0012315772073396437 -0.0083110061569655457 0 -0.0015196179387848717 -0.010891846772560885 0 -0.0071304841951103787 -0.015605148356460853 0 -0.0070832061465859577 -0.016145333736303762 0 -0.0072507849635803359 -0.016071270075027493 0 -0.0070832061465859577 -0.016145333736303762 0 -0.0072954573545047493 -0.016150128149333677 0 -0.0072507849635803359 -0.016071270075027493 0 -0.0071304841951103787 -0.015605148356460853 0 -0.0073041578159834522 -0.016145190077403917 0 -0.0072507849635803359 -0.016071270075027493 0 -0.0015196179387848717 -0.010891846772560885 0 -0.0054969699059000659 -0.014013342141526755 0 0.0072755186818413767 -0.0034791507398996987 0 0.0064758134511298361 -0.0035672910388211791 0 0.0076643125343111868 -0.0037539575475110387 0 0.0072755186818413767 -0.0034791507398996987 0 0.0076643125343111868 -0.0037539575475110387 0 0.0078138258593716016 -0.0035161919028094614 0 0.0072755186818413767 -0.0034791507398996987 0 0.0073408445761793959 -0.0032855574010269089 0 0.0078138258593716016 -0.0035161919028094614 0 0.0072755186818413767 -0.0034791507398996987 0 0.0073408445761793959 -0.0032855574010269089 0 0.0068636642445106802 -0.0033736931699113811 0 0.0072755186818413767 -0.0034791507398996987 0 0.0068636642445106802 -0.0033736931699113811 0 0.0064758134511298361 -0.0035672910388211791 0 0.0073408445761793959 -0.0032855574010269089 0 0.0068636642445106802 -0.0033736931699113811 0 0.006475042291022008 -0.0031697134197862437 0 0.0068636642445106802 -0.0033736931699113811 0 0.0064758134511298361 -0.0035672910388211791 0 0.006475042291022008 -0.0031697134197862437 0 0.0064341015089047415 -0.003489205721064652 0 0.0064223642678457845 -0.0036458476863300998 0 0.005951216591997867 -0.0034725845340392342 0 0.0064758134511298361 -0.0035672910388211791 0 0.0052984686450927689 -0.0032599287801879338 0 0.0064758134511298361 -0.0035672910388211791 0 0.0076643125343111868 -0.0037539575475110387 0 0.0075635086934785749 -0.004156984930407239 0 0.0076643125343111868 -0.0037539575475110387 0 0.0075635086934785749 -0.004156984930407239 0 0.0081029593368774494 -0.0039815516601107489 0 0.005951216591997867 -0.0034725845340392342 0 0.0052984686450927689 -0.0032599287801879338 0 0.005830179028293591 -0.0029850342580589888 0 0.0052984686450927689 -0.0032599287801879338 0 0.005830179028293591 -0.0029850342580589888 0 0.0052450800745250398 -0.0023035013952008502 0 0.0064223642678457845 -0.0036458476863300998 0 0.0063197182159776587 -0.0032568331410833388 0 0.0052984686450927689 -0.0032599287801879338 0 0.0052450800745250398 -0.0023035013952008502 0 0.0045602226673245099 -0.0023526127732193679 0 0.0061878365249350923 -0.0033412354067317252 0 0.005951216591997867 -0.0034725845340392342 0 0.005830179028293591 -0.0029850342580589888 0 0.0062104893187045988 -0.002791530094985483 0 0.005830179028293591 -0.0029850342580589888 0 0.0058947185421232085 -0.0023642909598864379 0 0.0061878365249350923 -0.0033412354067317252 0 0.0062104893187045988 -0.002791530094985483 0 0.005830179028293591 -0.0029850342580589888 0 0.0062699143408085217 -0.0023806758333496138 0 0.0062104893187045988 -0.002791530094985483 0 0.0058947185421232085 -0.0023642909598864379 0 0.0062699143408085217 -0.0023806758333496138 0 0.0062316311693154198 -0.0020274251196795521 0 0.0058947185421232085 -0.0023642909598864379 0 0.0058947185421232085 -0.0023642909598864379 0 0.0059213878864601633 -0.0017774615870584346 0 0.0054711755821281989 -0.0018364371814562231 0 0.0062316311693154198 -0.0020274251196795521 0 0.0058947185421232085 -0.0023642909598864379 0 0.0059213878864601633 -0.0017774615870584346 0 0.0062316311693154198 -0.0020274251196795521 0 0.0062794578544225097 -0.0015994652019736583 0 0.0059213878864601633 -0.0017774615870584346 0 0.0062794578544225097 -0.0015994652019736583 0 0.0059213878864601633 -0.0017774615870584346 0 0.0057941080412218645 -0.0013158439421072456 0 0.0054711755821281989 -0.0018364371814562231 0 0.0052450800745250398 -0.0023035013952008502 0 0.0048669907587359802 -0.0013104703883248122 0 0.0054711755821281989 -0.0018364371814562231 0 0.0048669907587359802 -0.0013104703883248122 0 0.0054286054488172477 -0.0013258806555233856 0 0.0059213878864601633 -0.0017774615870584346 0 0.0054711755821281989 -0.0018364371814562231 0 0.0054286054488172477 -0.0013258806555233856 0 0.0058947185421232085 -0.0023642909598864379 0 0.0054711755821281989 -0.0018364371814562231 0 0.0052450800745250398 -0.0023035013952008502 0 0.005830179028293591 -0.0029850342580589888 0 0.0058947185421232085 -0.0023642909598864379 0 0.0052450800745250398 -0.0023035013952008502 0 0.0052450800745250398 -0.0023035013952008502 0 0.0045602226673245099 -0.0023526127732193679 0 0.0046660911785870373 -0.001731223946151587 0 0.0045602226673245099 -0.0023526127732193679 0 0.0046660911785870373 -0.001731223946151587 0 0.004261712978368146 -0.0015148300962889644 0 0.0052450800745250398 -0.0023035013952008502 0 0.0046660911785870373 -0.001731223946151587 0 0.0048669907587359802 -0.0013104703883248122 0 0.0048669907587359802 -0.0013104703883248122 0 0.0042878050317280737 -0.00038144429964886701 0 0.0046780077076055485 -0.00056974413717479329 0 0.0050047303959802301 -0.001347203881469642 0 0.0041285410443779938 -0.00058965324031633811 0 0.0048669907587359802 -0.0013104703883248122 0 0.0046780077076055485 -0.00056974413717479329 0 0.0049675816674669866 -0.00092242480983153975 0 0.0046660911785870373 -0.001731223946151587 0 0.0048669907587359802 -0.0013104703883248122 0 0.0045239963795385679 -0.0011839131164024237 0 0.0046660911785870373 -0.001731223946151587 0 0.0045239963795385679 -0.0011839131164024237 0 0.004261712978368146 -0.0015148300962889644 0 0.004405346112386928 -0.00017088604830082065 0 0.0042878050317280737 -0.00038144429964886701 0 0.0044790364269582635 -0.00031925109134114564 0 0.0044388735104435783 -0.00022226394873743255 0 0.004405346112386928 -0.00017088604830082065 0 0.0044790364269582635 -0.00031925109134114564 0 0.0042878050317280737 -0.00038144429964886701 0 0.0046780077076055485 -0.00056974413717479329 0 0.0044790364269582635 -0.00031925109134114564 0 0.0046780077076055485 -0.00056974413717479329 0 0.004623663645350903 -0.00030607306604847319 0 0.0048695531174321651 -0.00039905137352465363 0 0.0046780077076055485 -0.00056974413717479329 0 0.0044790364269582635 -0.00031925109134114564 0 0.004623663645350903 -0.00030607306604847319 0 0.0044388735104435783 -0.00022226394873743255 0 0.0044790364269582635 -0.00031925109134114564 0 0.004623663645350903 -0.00030607306604847319 0 0.004530810543097211 -0.00032241720893151301 0 0.004623663645350903 -0.00030607306604847319 0 0.0048695531174321651 -0.00039905137352465363 0 0.0046780077076055485 -0.00056974413717479329 0 0.0048695531174321651 -0.00039905137352465363 0 0.0049675816674669866 -0.00092242480983153975 0 0.0043686013045362449 -0.00028900169640440668 0 0.004530810543097211 -0.00032241720893151301 0 0.0044891013604308402 -0.00033528798346674763 0 0.004530810543097211 -0.00032241720893151301 0 0.0048695531174321651 -0.00039905137352465363 0 0.0044891013604308402 -0.00033528798346674763 0 0.004744739301750533 8.1815020602159154e-05 0 0.0041365014255798612 -0.00031359549752041913 0 0.004191474567778344 -0.00011990620339552491 0 0.0042965889019991798 -0.00025027734000340952 0 0.0044891013604308402 -0.00033528798346674763 0 0.0043686013045362449 -0.00028900169640440668 0 0.0042965889019991798 -0.00025027734000340952 0 0.0044891013604308402 -0.00033528798346674763 0 0.0039321813439582862 7.9972887351983382e-05 0 0.0048695531174321651 -0.00039905137352465363 0 0.0044891013604308402 -0.00033528798346674763 0 0.0043686013045362449 -0.00028900169640440668 0 0.0042615471439832716 -0.00025471011031987986 0 0.0042965889019991798 -0.00025027734000340952 0 0.0059852055471585237 -3.9898807226294966e-05 0 0.0045230157979487045 -0.00052197772827882025 0 0.0062760184301787723 -0.0012398749769427333 0 0.0048695531174321651 -0.00039905137352465363 0 0.0057941080412218645 -0.0013158439421072456 0 0.0039321813439582862 7.9972887351983382e-05 0 0.0036572243339677638 -0.00015582596296793782 0 0.0044891013604308402 -0.00033528798346674763 0 0.0062760184301787723 -0.0012398749769427333 0 0.0062794578544225097 -0.0015994652019736583 0 0.0057941080412218645 -0.0013158439421072456 0 0.0059213878864601633 -0.0017774615870584346 0 0.0057941080412218645 -0.0013158439421072456 0 0.0054286054488172477 -0.0013258806555233856 0 0.0048695531174321651 -0.00039905137352465363 0 0.0054286054488172477 -0.0013258806555233856 0 0.0049675816674669866 -0.00092242480983153975 0 0.0048669907587359802 -0.0013104703883248122 0 0.0054286054488172477 -0.0013258806555233856 0 0.0049675816674669866 -0.00092242480983153975 0 0.0048695531174321651 -0.00039905137352465363 0 0.0057941080412218645 -0.0013158439421072456 0 0.0054286054488172477 -0.0013258806555233856 0 0.0089236066021711018 -0.0044559571698286988 0 0.008869975483836617 -0.0044517376385264078 0 0.0088191788456309615 -0.0044200458132671143 0 0.0089236066021711018 -0.0044559571698286988 0 0.0089871791992776357 -0.0044356563537650056 0 0.0088191788456309615 -0.0044200458132671143 0 0.0089236066021711018 -0.0044559571698286988 0 0.0089871791992776357 -0.0044356563537650056 0 0.0090336961136262602 -0.0044919758644043073 0 0.0089871791992776357 -0.0044356563537650056 0 0.0091533758403728495 -0.004438522846758843 0 0.0090469893529533021 -0.0043374733062108229 0 0.0091533758403728495 -0.004438522846758843 0 0.0091925810364799649 -0.0045242206445717361 0 0.0094631453421069218 -0.0044438344763914929 0 0.0089871791992776357 -0.0044356563537650056 0 0.0091533758403728495 -0.004438522846758843 0 0.0090336961136262602 -0.0044919758644043073 0 0.0091533758403728495 -0.004438522846758843 0 0.0091925810364799649 -0.0045242206445717361 0 0.0090336961136262602 -0.0044919758644043073 0 0.0091925810364799649 -0.0045242206445717361 0 0.0090336961136262602 -0.0044919758644043073 0 0.0091781284486520381 -0.0046033448441050598 0 0.0091925810364799649 -0.0045242206445717361 0 0.0091781284486520381 -0.0046033448441050598 0 0.0093796556526730464 -0.0046031885366679673 0 0.0090336961136262602 -0.0044919758644043073 0 0.0091781284486520381 -0.0046033448441050598 0 0.0090404085747121648 -0.0045233986845403034 0 0.0090120825418757676 -0.0046254799488814769 0 0.0091781284486520381 -0.0046033448441050598 0 0.0090404085747121648 -0.0045233986845403034 0 0.0090336961136262602 -0.0044919758644043073 0 0.0090404085747121648 -0.0045233986845403034 0 0.0089402169894900792 -0.0044321889892320956 0 0.0090120825418757676 -0.0046254799488814769 0 0.0090404085747121648 -0.0045233986845403034 0 0.0089402169894900792 -0.0044321889892320956 0 0.0089236066021711018 -0.0044559571698286988 0 0.0090336961136262602 -0.0044919758644043073 0 0.0089402169894900792 -0.0044321889892320956 0 0.0089236066021711018 -0.0044559571698286988 0 0.0089402169894900792 -0.0044321889892320956 0 0.0088952395978991929 -0.0043934181670364442 0 0.0089236066021711018 -0.0044559571698286988 0 0.0088952395978991929 -0.0043934181670364442 0 0.008869975483836617 -0.0044517376385264078 0 0.0088980476009650651 -0.0040964196031401546 0 0.0089402169894900792 -0.0044321889892320956 0 0.0088952395978991929 -0.0043934181670364442 0 0.0088980476009650651 -0.0040964196031401546 0 0.0088952395978991929 -0.0043934181670364442 0 0.0089225083730096987 -0.0044153539100256628 0 0.0088980476009650651 -0.0040964196031401546 0 0.0089225083730096987 -0.0044153539100256628 0 0.0090319605240455868 -0.0044047334393061618 0 0.0089225083730096987 -0.0044153539100256628 0 0.0090319605240455868 -0.0044047334393061618 0 0.0087951903240058565 -0.0044581058719496483 0 0.0088952395978991929 -0.0043934181670364442 0 0.0089225083730096987 -0.0044153539100256628 0 0.008869975483836617 -0.0044517376385264078 0 0.004405346112386928 -0.00017088604830082065 0 0.0042878050317280737 -0.00038144429964886701 0 0.0046004588735608781 5.2950807554420725e-06 0 0.0041285410443779938 -0.00058965324031633811 0 0.0057785803760185932 -0.0015908488505677787 0 0.0045239963795385679 -0.0011839131164024237 0 0.0041272237515082456 -0.00094646135598806238 0 0.004261712978368146 -0.0015148300962889644 0 0.0090319605240455868 -0.0044047334393061618 0 0.0085868630039937204 -0.0044619486274500965 0 0.0087951903240058565 -0.0044581058719496483 0 0.0085868630039937204 -0.0044619486274500965 0 0.0087951903240058565 -0.0044581058719496483 0 0.0085770914594940004 -0.0044041963344275429 0 0.0057785803760185932 -0.0015908488505677787 0 0.0065647368088150729 -0.0032271574213941687 0 0.008869975483836617 -0.0044517376385264078 0 0.0087951903240058565 -0.0044581058719496483 0 0.0088191788456309615 -0.0044200458132671143 0 0.0089225083730096987 -0.0044153539100256628 0 0.008869975483836617 -0.0044517376385264078 0 0.0087951903240058565 -0.0044581058719496483 0 0.0087951903240058565 -0.0044581058719496483 0 0.0088191788456309615 -0.0044200458132671143 0 0.0085770914594940004 -0.0044041963344275429 0 0.0088191788456309615 -0.0044200458132671143 0 0.0085770914594940004 -0.0044041963344275429 0 0.0085648107607744963 -0.0043197031333082631 0 0.0081259449487007876 -0.0043266988184554357 0 0.0085868630039937204 -0.0044619486274500965 0 0.0085770914594940004 -0.0044041963344275429 0 0.0063197182159776587 -0.0032568331410833388 0 0.0065647368088150729 -0.0032271574213941687 0 0.0081259449487007876 -0.0043266988184554357 0 0.0085648107607744963 -0.0043197031333082631 0 0.0083769557314839413 -0.0041748019730963792 0 0.0081259449487007876 -0.0043266988184554357 0 0.0085770914594940004 -0.0044041963344275429 0 0.0085648107607744963 -0.0043197031333082631 0 0.0088191788456309615 -0.0044200458132671143 0 0.0085648107607744963 -0.0043197031333082631 0 0.0088435445933496819 -0.0042154747731843771 0 0.0085648107607744963 -0.0043197031333082631 0 0.0088435445933496819 -0.0042154747731843771 0 0.0083769557314839413 -0.0041748019730963792 0 0.0088191788456309615 -0.0044200458132671143 0 0.0088435445933496819 -0.0042154747731843771 0 0.0090469893529533021 -0.0043374733062108229 0 0.0089871791992776357 -0.0044356563537650056 0 0.0088191788456309615 -0.0044200458132671143 0 0.0090469893529533021 -0.0043374733062108229 0 0.0091533758403728495 -0.004438522846758843 0 0.0090469893529533021 -0.0043374733062108229 0 0.0093708812045184484 -0.0042616056817011807 0 0.0091533758403728495 -0.004438522846758843 0 0.0094631453421069218 -0.0044438344763914929 0 0.0093708812045184484 -0.0042616056817011807 0 0.0088435445933496819 -0.0042154747731843771 0 0.0090469893529533021 -0.0043374733062108229 0 0.0091983626922605838 -0.0041031340975108384 0 0.0090469893529533021 -0.0043374733062108229 0 0.0091983626922605838 -0.0041031340975108384 0 0.0093708812045184484 -0.0042616056817011807 0 0.0091983626922605838 -0.0041031340975108384 0 0.0089407405519819471 -0.0040537566704856717 0 0.0090257194369338864 -0.003856464524169398 0 0.0088435445933496819 -0.0042154747731843771 0 0.0091983626922605838 -0.0041031340975108384 0 0.0089407405519819471 -0.0040537566704856717 0 0.0091983626922605838 -0.0041031340975108384 0 0.0090257194369338864 -0.003856464524169398 0 0.0093627797826275477 -0.0038494447913794794 0 0.0087026673324656113 -0.0040310898397284594 0 0.0089407405519819471 -0.0040537566704856717 0 0.0090257194369338864 -0.003856464524169398 0 0.0088435445933496819 -0.0042154747731843771 0 0.0087026673324656113 -0.0040310898397284594 0 0.0089407405519819471 -0.0040537566704856717 0 0.0086542129368026004 -0.0038035142824144942 0 0.0090257194369338864 -0.003856464524169398 0 0.0088115234620875435 -0.003593049097193643 0 0.0087026673324656113 -0.0040310898397284594 0 0.0086542129368026004 -0.0038035142824144942 0 0.008439576476202847 -0.0039651710942758623 0 0.0087026673324656113 -0.0040310898397284594 0 0.0086542129368026004 -0.0038035142824144942 0 0.0090257194369338864 -0.003856464524169398 0 0.0090257194369338864 -0.003856464524169398 0 0.0090624539200815785 -0.003519651784973868 0 0.0093627797826275477 -0.0038494447913794794 0 0.0075635086934785749 -0.004156984930407239 0 0.0081259449487007876 -0.0043266988184554357 0 0.0083769557314839413 -0.0041748019730963792 0 0.0088435445933496819 -0.0042154747731843771 0 0.0087026673324656113 -0.0040310898397284594 0 0.0083769557314839413 -0.0041748019730963792 0 0.0087026673324656113 -0.0040310898397284594 0 0.0083769557314839413 -0.0041748019730963792 0 0.008439576476202847 -0.0039651710942758623 0 0.0083769557314839413 -0.0041748019730963792 0 0.008439576476202847 -0.0039651710942758623 0 0.0081029593368774494 -0.0039815516601107489 0 0.0086542129368026004 -0.0038035142824144942 0 0.008439576476202847 -0.0039651710942758623 0 0.0083456681371309599 -0.0037976463944335037 0 0.008439576476202847 -0.0039651710942758623 0 0.0081029593368774494 -0.0039815516601107489 0 0.0083456681371309599 -0.0037976463944335037 0 0.0075635086934785749 -0.004156984930407239 0 0.0083769557314839413 -0.0041748019730963792 0 0.0081029593368774494 -0.0039815516601107489 0 0.0076643125343111868 -0.0037539575475110387 0 0.0083456681371309599 -0.0037976463944335037 0 0.0081987703689922684 -0.0035905828627849721 0 0.0076643125343111868 -0.0037539575475110387 0 0.0081029593368774494 -0.0039815516601107489 0 0.0083456681371309599 -0.0037976463944335037 0 0.0086542129368026004 -0.0038035142824144942 0 0.0083456681371309599 -0.0037976463944335037 0 0.0085228540625693436 -0.003619327081993444 0 0.0083456681371309599 -0.0037976463944335037 0 0.0081987703689922684 -0.0035905828627849721 0 0.0085228540625693436 -0.003619327081993444 0 0.0083906572301260026 -0.0034535389003101016 0 0.0081987703689922684 -0.0035905828627849721 0 0.007984388738334779 -0.0033144278911973746 0 0.0083906572301260026 -0.0034535389003101016 0 0.0081987703689922684 -0.0035905828627849721 0 0.0085228540625693436 -0.003619327081993444 0 0.0081987703689922684 -0.0035905828627849721 0 0.0078138258593716016 -0.0035161919028094614 0 0.007984388738334779 -0.0033144278911973746 0 0.0073408445761793959 -0.0032855574010269089 0 0.0078138258593716016 -0.0035161919028094614 0 0.007984388738334779 -0.0033144278911973746 0 0.0076643125343111868 -0.0037539575475110387 0 0.0081987703689922684 -0.0035905828627849721 0 0.0078138258593716016 -0.0035161919028094614 0 0.0090624539200815785 -0.003519651784973868 0 0.0088115234620875435 -0.003593049097193643 0 0.008887861929319148 -0.0034759756545651352 0 0.0090257194369338864 -0.003856464524169398 0 0.0090624539200815785 -0.003519651784973868 0 0.0088115234620875435 -0.003593049097193643 0 0.0086542129368026004 -0.0038035142824144942 0 0.0085228540625693436 -0.003619327081993444 0 0.0088115234620875435 -0.003593049097193643 0 0.0085228540625693436 -0.003619327081993444 0 0.0088115234620875435 -0.003593049097193643 0 0.0086690406687845098 -0.0035074261741755608 0 0.0083906572301260026 -0.0034535389003101016 0 0.0085228540625693436 -0.003619327081993444 0 0.0086690406687845098 -0.0035074261741755608 0 0.0083906572301260026 -0.0034535389003101016 0 0.0086690406687845098 -0.0035074261741755608 0 0.0086351599089300752 -0.0034170997356334034 0 0.0086690406687845098 -0.0035074261741755608 0 0.008887861929319148 -0.0034759756545651352 0 0.0086351599089300752 -0.0034170997356334034 0 0.0090624539200815785 -0.003519651784973868 0 0.008887861929319148 -0.0034759756545651352 0 0.0089865897240837909 -0.0034733659770664178 0 0.0088115234620875435 -0.003593049097193643 0 0.0086690406687845098 -0.0035074261741755608 0 0.008887861929319148 -0.0034759756545651352 0 0.008887861929319148 -0.0034759756545651352 0 0.0088352076384793539 -0.0034341002775254256 0 0.00897756429610117 -0.0034714551203066314 0 0.008887861929319148 -0.0034759756545651352 0 0.0088352076384793539 -0.0034341002775254256 0 0.0086351599089300752 -0.0034170997356334034 0 0.0086351599089300752 -0.0034170997356334034 0 0.0085088526030570478 -0.0033063492357990019 0 0.0083084728440676672 -0.0033195990058804007 0 0.0083906572301260026 -0.0034535389003101016 0 0.0086351599089300752 -0.0034170997356334034 0 0.0083084728440676672 -0.0033195990058804007 0 0.0088352076384793539 -0.0034341002775254256 0 0.0086351599089300752 -0.0034170997356334034 0 0.0085088526030570478 -0.0033063492357990019 0 0.0085088526030570478 -0.0033063492357990019 0 0.0082150128787506632 -0.003254523398889762 0 0.0083084728440676672 -0.0033195990058804007 0 0.0088352076384793539 -0.0034341002775254256 0 0.0085088526030570478 -0.0033063492357990019 0 0.0088292467640410915 -0.0033514356064366997 0 0.0088352076384793539 -0.0034341002775254256 0 0.0088292467640410915 -0.0033514356064366997 0 0.0089293222370467884 -0.003457816612392335 0 0.0088352076384793539 -0.0034341002775254256 0 0.0089826607677431728 -0.0034803088523031383 0 0.0089293222370467884 -0.003457816612392335 0 0.0088292467640410915 -0.0033514356064366997 0 0.0089440276529279567 -0.0034488528911932881 0 0.0089293222370467884 -0.003457816612392335 0 0.0059929221948249699 -0.0084809574823060813 0 0.0076045791062128486 -0.007527580543057584 0 0.0088292467640410915 -0.0033514356064366997 0 0.0089440276529279567 -0.0034488528911932881 0 0.0089775747386576839 -0.0034418728348448104 0 0.0087398977836211835 -0.0030143724912531462 0 0.0089775747386576839 -0.0034418728348448104 0 0.009039935556488252 -0.0034587705198292321 0 0.0088292467640410915 -0.0033514356064366997 0 0.0087398977836211835 -0.0030143724912531462 0 0.0089775747386576839 -0.0034418728348448104 0 0.0085088526030570478 -0.0033063492357990019 0 0.0087398977836211835 -0.0030143724912531462 0 0.0080281406362891772 -0.0032427165391921524 0 0.0059929221948249699 -0.0084809574823060813 0 0.0069948509794917233 -0.0074388247866746301 0 0.0085088526030570478 -0.0033063492357990019 0 0.0088292467640410915 -0.0033514356064366997 0 0.0087398977836211835 -0.0030143724912531462 0 0.0041276195005763988 -0.01363695627181628 0 0.0041604006831338566 -0.013709168689729281 0 0.0041334984099351477 -0.013753719575650013 0 0.0041276195005763988 -0.01363695627181628 0 0.0040744588496580136 -0.013698590590907663 0 0.0040697511401893609 -0.013564086385024146 0 0.0041276195005763988 -0.01363695627181628 0 0.0040744588496580136 -0.013698590590907663 0 0.0041334984099351477 -0.013753719575650013 0 0.0041604006831338566 -0.013709168689729281 0 0.0041317171614182798 -0.013759294291983378 0 0.0041566671486513032 -0.013797270259262169 0 7.0275224082936113e-05 -0.014440117957996041 0 0.00081418905204372761 -0.020674348338052317 0 0.0069948509794917233 -0.0074388247866746301 0 7.0275224082936113e-05 -0.014440117957996041 0 0.0041604006831338566 -0.013709168689729281 0 0.0041334984099351477 -0.013753719575650013 0 0.0041566671486513032 -0.013797270259262169 0 0.0087398977836211835 -0.0030143724912531462 0 0.0079748915259789457 -0.0025013905434333153 0 0.0080281406362891772 -0.0032427165391921524 0 0.0079748915259789457 -0.0025013905434333153 0 0.0060091068865548167 -0.0035412939306553211 0 0.0051222464868236131 -0.0020309451389610182 0 0.0079748915259789457 -0.0025013905434333153 0 0.0080281406362891772 -0.0032427165391921524 0 0.0060091068865548167 -0.0035412939306553211 0 0.0080281406362891772 -0.0032427165391921524 0 0.0060091068865548167 -0.0035412939306553211 0 0.0053020972882506165 -0.0058022007985540948 0 0.0080281406362891772 -0.0032427165391921524 0 0.0080327314008351719 -0.0031815602905176103 0 0.0076235241563738518 -0.0029353412199849115 0 0.0080259076741427456 -0.0032448528216293851 0 0.0062005180635690757 -0.0045556891638447103 0 0.0085088526030570478 -0.0033063492357990019 0 0.0080281406362891772 -0.0032427165391921524 0 0.0082150128787506632 -0.003254523398889762 0 0.0080281406362891772 -0.0032427165391921524 0 0.0082150128787506632 -0.003254523398889762 0 0.0080327314008351719 -0.0031815602905176103 0 0.0082150128787506632 -0.003254523398889762 0 0.0080327314008351719 -0.0031815602905176103 0 0.0083084728440676672 -0.0033195990058804007 0 0.0083906572301260026 -0.0034535389003101016 0 0.0083084728440676672 -0.0033195990058804007 0 0.007984388738334779 -0.0033144278911973746 0 0.0080327314008351719 -0.0031815602905176103 0 0.0083084728440676672 -0.0033195990058804007 0 0.007984388738334779 -0.0033144278911973746 0 0.0073408445761793959 -0.0032855574010269089 0 0.007984388738334779 -0.0033144278911973746 0 0.0076235241563738518 -0.0029353412199849115 0 0.0080327314008351719 -0.0031815602905176103 0 0.007984388738334779 -0.0033144278911973746 0 0.0076235241563738518 -0.0029353412199849115 0 0.0073408445761793959 -0.0032855574010269089 0 0.006475042291022008 -0.0031697134197862437 0 0.0076235241563738518 -0.0029353412199849115 0 0.0051651442074486876 -0.0049436512452972637 0 0.0062005180635690757 -0.0045556891638447103 0 0.0020274332367577939 -0.0082745692650607969 0 0.0030348484151322529 -0.0046189948286938839 0 0.00081371107507483139 -0.0076416527056889002 0 -0.0071073805189438861 -0.016517346646504085 0 -0.007281586568991502 -0.016523825952138593 0 -0.0072348114751797374 -0.016499559594567056 0 -0.0018101376372932532 -0.0095032635830788921 0 -0.0038554327782992942 -0.012827418452454293 0 -0.0071073805189438861 -0.016517346646504085 0 -0.0073102899990198002 -0.016451111848477792 0 -0.007281586568991502 -0.016523825952138593 0 0.0020274332367577939 -0.0082745692650607969 0 0.0030348484151322529 -0.0046189948286938839 0 0.0053020972882506165 -0.0058022007985540948 0 0.0060091068865548167 -0.0035412939306553211 0 0.0030348484151322529 -0.0046189948286938839 0 0.0053020972882506165 -0.0058022007985540948 0 -0.0072265344461069272 -0.016477208799186502 0 -0.0073102899990198002 -0.016451111848477792 0 -0.007281586568991502 -0.016523825952138593 0 -0.007281586568991502 -0.016523825952138593 0 -0.0072856256466499424 -0.016528192639749004 0 -0.0072348114751797374 -0.016499559594567056 0 -0.007281586568991502 -0.016523825952138593 0 -0.0073141361350406017 -0.0165697651191813 0 -0.0072856256466499424 -0.016528192639749004 0 -0.0072265344461069272 -0.016477208799186502 0 -0.007281586568991502 -0.016523825952138593 0 -0.0073141361350406017 -0.0165697651191813 0 -0.018059814302082405 -0.02054616281772834 0 -0.019285638655152326 -0.02311291854299722 0 -0.0073141361350406017 -0.0165697651191813 0 -0.0072856256466499424 -0.016528192639749004 0 -0.007330050311720902 -0.016488107221171111 0 -0.019801638425272227 -0.031896286872781926 0 -0.019717045568515602 -0.03185927877131383 0 -0.019748058333630632 -0.031873321024254685 0 -0.019801638425272227 -0.031896286872781926 0 -0.019748058333630632 -0.031873321024254685 0 -0.019847923074620622 -0.031901504479535055 0 -0.019285638655152326 -0.02311291854299722 0 -0.011037719441093344 -0.026731515548459175 0 -0.0072856256466499424 -0.016528192639749004 0 -0.0072348114751797374 -0.016499559594567056 0 -0.007330050311720902 -0.016488107221171111 0 -0.0072348114751797374 -0.016499559594567056 0 -0.007330050311720902 -0.016488107221171111 0 -0.0071378235780035389 -0.016384750070741545 0 -0.005167726196690872 -0.026668803203462602 0 -0.0039965598160732734 -0.026710530244889643 0 -0.0046670531208190258 -0.025261436269330952 0 -0.011037719441093344 -0.026731515548459175 0 -0.005569401266916043 -0.021680370339174426 0 -0.011037719441093344 -0.026731515548459175 0 -0.016632419521165513 -0.02776954278450279 0 -0.019702412101790499 -0.031873105700367721 0 -0.019748058333630632 -0.031873321024254685 0 -0.019744880588169717 -0.031860505907631238 0 -0.019748058333630632 -0.031873321024254685 0 -0.019809426065036266 -0.031876963297908109 0 -0.019744880588169717 -0.031860505907631238 0 -0.019748058333630632 -0.031873321024254685 0 -0.019809426065036266 -0.031876963297908109 0 -0.019847923074620622 -0.031901504479535055 0 0.0060091068865548167 -0.0035412939306553211 0 0.0030348484151322529 -0.0046189948286938839 0 0.0051222464868236131 -0.0020309451389610182 0 -0.0018101376372932532 -0.0095032635830788921 0 7.0275224082936113e-05 -0.014440117957996041 0 -0.0071073805189438861 -0.016517346646504085 0 -0.0072348114751797374 -0.016499559594567056 0 -0.0071378235780035389 -0.016384750070741545 0 -0.0071073805189438861 -0.016517346646504085 0 -0.0071378235780035389 -0.016384750070741545 0 -0.0068421744459653613 -0.016337453433842398 0 -0.005569401266916043 -0.021680370339174426 0 7.0275224082936113e-05 -0.014440117957996041 0 -0.0039965598160732734 -0.026710530244889643 0 -0.0028368240641016744 -0.026719827470030034 0 -0.003386734375201188 -0.025874402842845208 0 -0.0028368240641016744 -0.026719827470030034 0 -0.003386734375201188 -0.025874402842845208 0 -0.0021386168171042535 -0.025784715855598689 0 -0.003386734375201188 -0.025874402842845208 0 -0.0033224789832691712 -0.024899608887989366 0 -0.0021386168171042535 -0.025784715855598689 0 -0.0039965598160732734 -0.026710530244889643 0 -0.003386734375201188 -0.025874402842845208 0 -0.0046670531208190258 -0.025261436269330952 0 -0.0033224789832691712 -0.024899608887989366 0 -0.0046670531208190258 -0.025261436269330952 0 -0.0041924388317297863 -0.023909062805610035 0 -0.003386734375201188 -0.025874402842845208 0 -0.0033224789832691712 -0.024899608887989366 0 -0.0046670531208190258 -0.025261436269330952 0 -0.019744880588169717 -0.031860505907631238 0 -0.019566186274037115 -0.031820370358221675 0 -0.019774690574505951 -0.031832300604648249 0 -0.019744880588169717 -0.031860505907631238 0 -0.019774690574505951 -0.031832300604648249 0 -0.01985233686041599 -0.031867185409735439 0 -0.019809426065036266 -0.031876963297908109 0 -0.019744880588169717 -0.031860505907631238 0 -0.01985233686041599 -0.031867185409735439 0 -0.019702412101790499 -0.031873105700367721 0 -0.019744880588169717 -0.031860505907631238 0 -0.019566186274037115 -0.031820370358221675 0 -0.011037719441093344 -0.026731515548459175 0 -0.012325720584399711 -0.029090226150819194 0 -0.019566186274037115 -0.031820370358221675 0 -0.019774690574505951 -0.031832300604648249 0 -0.019645876893036849 -0.031759554709073184 0 -0.019774690574505951 -0.031832300604648249 0 -0.019645876893036849 -0.031759554709073184 0 -0.019808938697120287 -0.031786926122687055 0 -0.019705372856526446 -0.031674025079880395 0 -0.019645876893036849 -0.031759554709073184 0 -0.019808938697120287 -0.031786926122687055 0 -0.019566186274037115 -0.031820370358221675 0 -0.019645876893036849 -0.031759554709073184 0 -0.019348285706008998 -0.031630038602027601 0 -0.012325720584399711 -0.029090226150819194 0 -0.012101886134833484 -0.027807120763629924 0 -0.019705372856526446 -0.031674025079880395 0 -0.019645876893036849 -0.031759554709073184 0 -0.019348285706008998 -0.031630038602027601 0 -0.019705372856526446 -0.031674025079880395 0 -0.019501727269937697 -0.031509009394135368 0 -0.019348285706008998 -0.031630038602027601 0 -0.019705372856526446 -0.031674025079880395 0 -0.019501727269937697 -0.031509009394135368 0 -0.019734165380557663 -0.031526724955425953 0 -0.0033224789832691712 -0.024899608887989366 0 -0.0031899864995192538 -0.023837989393460081 0 -0.0023254654102475023 -0.024598127883432935 0 -0.0033224789832691712 -0.024899608887989366 0 -0.0031899864995192538 -0.023837989393460081 0 -0.0041924388317297863 -0.023909062805610035 0 -0.012101886134833484 -0.027807120763629924 0 -0.0089727205562561869 -0.026407955963564031 0 -0.0031899864995192538 -0.023837989393460081 0 -0.0041924388317297863 -0.023909062805610035 0 -0.0032319707801673164 -0.022940108004661418 0 -0.0041924388317297863 -0.023909062805610035 0 -0.0032319707801673164 -0.022940108004661418 0 -0.0037473825156743462 -0.022539383494362252 0 -0.019501727269937697 -0.031509009394135368 0 -0.019348285706008998 -0.031630038602027601 0 -0.019147054211259694 -0.031319386711971826 0 -0.0031899864995192538 -0.023837989393460081 0 -0.0025345242820517151 -0.023230381827874153 0 -0.0032319707801673164 -0.022940108004661418 0 -0.0031899864995192538 -0.023837989393460081 0 -0.0025345242820517151 -0.023230381827874153 0 -0.0022989028996012032 -0.02385629605892298 0 -0.0025345242820517151 -0.023230381827874153 0 -0.0022989028996012032 -0.02385629605892298 0 -0.0017737329132118398 -0.023281129144797057 0 -0.0022989028996012032 -0.02385629605892298 0 -0.0015437346716406515 -0.024007163840847331 0 -0.0017737329132118398 -0.023281129144797057 0 -0.0031899864995192538 -0.023837989393460081 0 -0.0022989028996012032 -0.02385629605892298 0 -0.0023254654102475023 -0.024598127883432935 0 -0.0022989028996012032 -0.02385629605892298 0 -0.0015437346716406515 -0.024007163840847331 0 -0.0023254654102475023 -0.024598127883432935 0 -0.0015437346716406515 -0.024007163840847331 0 -0.00071180456823572954 -0.02390735356881225 0 -0.0014298555847353088 -0.02485176066863673 0 -0.0015437346716406515 -0.024007163840847331 0 -0.0023254654102475023 -0.024598127883432935 0 -0.0014298555847353088 -0.02485176066863673 0 0.0038485397320913643 -0.017769928814282514 0 0.0010977686372016511 -0.019520279715481037 0 -0.0017737329132118398 -0.023281129144797057 0 -0.0010053442424173039 -0.023393303349305103 0 -0.0011525637073689107 -0.022543425571127627 0 -0.0015437346716406515 -0.024007163840847331 0 -0.0010053442424173039 -0.023393303349305103 0 -0.00071180456823572954 -0.02390735356881225 0 -0.0015437346716406515 -0.024007163840847331 0 -0.0017737329132118398 -0.023281129144797057 0 -0.0010053442424173039 -0.023393303349305103 0 0.0038485397320913643 -0.017769928814282514 0 0.0068799474300431504 -0.018003532525558249 0 -0.0010053442424173039 -0.023393303349305103 0 -0.00066629481523763716 -0.023915343475236505 0 9.478152227300677e-05 -0.02294039424232993 0 0.00076886421463126509 -0.023334428433035872 0 0.0038485397320913643 -0.017769928814282514 0 0.011951211862823221 -0.011078156439895546 0 0.014845896751451928 -0.011241360601615532 0 0.01210532480187243 -0.015200224711638516 0 0.011951211862823221 -0.011078156439895546 0 0.01210532480187243 -0.015200224711638516 0 0.0092096072508896318 -0.012160520594807146 0 0.011951211862823221 -0.011078156439895546 0 0.010930120140758342 -0.0094779663319503309 0 0.012556645330244079 -0.007214449374830542 0 0.011951211862823221 -0.011078156439895546 0 0.010930120140758342 -0.0094779663319503309 0 0.0092096072508896318 -0.012160520594807146 0 0.010930120140758342 -0.0094779663319503309 0 0.011447593636136465 -0.0077256723038386151 0 0.009068339808467045 -0.0093863253945607166 0 0.011951211862823221 -0.011078156439895546 0 0.014845896751451928 -0.011241360601615532 0 0.012556645330244079 -0.007214449374830542 0 0.0038485397320913643 -0.017769928814282514 0 0.0087332911935584911 -0.0098748235730639899 0 0.004081156409503941 -0.013836956849396901 0 0.0041334984099351477 -0.013753719575650013 0 0.0041551908223846235 -0.013881372569464413 0 0.0041118776390371104 -0.013999336675617789 0 0.004081156409503941 -0.013836956849396901 0 0.0041551908223846235 -0.013881372569464413 0 0.010930120140758342 -0.0094779663319503309 0 0.011447593636136465 -0.0077256723038386151 0 0.012556645330244079 -0.007214449374830542 0 0.011447593636136465 -0.0077256723038386151 0 0.012556645330244079 -0.007214449374830542 0 0.011085586609329838 -0.0065973947409037085 0 0.011447593636136465 -0.0077256723038386151 0 0.011085586609329838 -0.0065973947409037085 0 0.010749518609436791 -0.007170409602594058 0 0.0087332911935584911 -0.0098748235730639899 0 0.0077052747062095698 -0.010018911771134479 0 0.012556645330244079 -0.007214449374830542 0 0.01124686020884502 -0.0056394173483244785 0 0.011085586609329838 -0.0065973947409037085 0 0.004081156409503941 -0.013836956849396901 0 0.0040744588496580136 -0.013698590590907663 0 0.0041334984099351477 -0.013753719575650013 0 0.00081418905204372761 -0.020674348338052317 0 0.0010977686372016511 -0.019520279715481037 0 0.0041334984099351477 -0.013753719575650013 0 0.0041566671486513032 -0.013797270259262169 0 0.0041551908223846235 -0.013881372569464413 0 -0.0021386168171042535 -0.025784715855598689 0 -0.0023254654102475023 -0.024598127883432935 0 -0.0014298555847353088 -0.02485176066863673 0 -0.0033224789832691712 -0.024899608887989366 0 -0.0021386168171042535 -0.025784715855598689 0 -0.0023254654102475023 -0.024598127883432935 0 -0.022307008693246876 -0.028560203087714744 0 -0.022790524066527724 -0.028562866796158048 0 -0.022458785802294112 -0.027998553198593991 0 -0.022790524066527724 -0.028562866796158048 0 -0.023077054129162639 -0.027622405693178569 0 -0.022458785802294112 -0.027998553198593991 0 -0.022790524066527724 -0.028562866796158048 0 -0.023077054129162639 -0.027622405693178569 0 -0.0235704956158738 -0.028990660940333132 0 -0.022023133882784717 -0.027830124382138811 0 -0.022307008693246876 -0.028560203087714744 0 -0.022458785802294112 -0.027998553198593991 0 -0.023077054129162639 -0.027622405693178569 0 -0.022316928940197996 -0.027383224024836745 0 -0.022458785802294112 -0.027998553198593991 0 -0.022023133882784717 -0.027830124382138811 0 -0.022316928940197996 -0.027383224024836745 0 -0.022458785802294112 -0.027998553198593991 0 -0.02170722424284648 -0.027081136981817199 0 -0.022023133882784717 -0.027830124382138811 0 -0.022316928940197996 -0.027383224024836745 0 -0.02170722424284648 -0.027081136981817199 0 -0.021792016238548248 -0.025934277916116057 0 -0.022593416304747031 -0.026576280511007407 0 -0.02170722424284648 -0.027081136981817199 0 -0.022316928940197996 -0.027383224024836745 0 -0.022593416304747031 -0.026576280511007407 0 -0.021792016238548248 -0.025934277916116057 0 -0.022247567837773919 -0.02518067579493773 0 -0.022593416304747031 -0.026576280511007407 0 -0.021605651209634136 -0.024960214447345093 0 -0.021792016238548248 -0.025934277916116057 0 -0.022247567837773919 -0.02518067579493773 0 -0.020868915608617249 -0.025394290207953227 0 -0.021605651209634136 -0.024960214447345093 0 -0.021792016238548248 -0.025934277916116057 0 -0.022897707585660339 -0.024420216295719818 0 -0.022903259581412913 -0.025729727172402701 0 -0.023502957234339678 -0.025214574840743045 0 -0.022897707585660339 -0.024420216295719818 0 -0.022247567837773919 -0.02518067579493773 0 -0.022903259581412913 -0.025729727172402701 0 -0.022247567837773919 -0.02518067579493773 0 -0.022903259581412913 -0.025729727172402701 0 -0.022593416304747031 -0.026576280511007407 0 -0.023077054129162639 -0.027622405693178569 0 -0.022316928940197996 -0.027383224024836745 0 -0.022593416304747031 -0.026576280511007407 0 -0.022903259581412913 -0.025729727172402701 0 -0.022593416304747031 -0.026576280511007407 0 -0.02348690459757391 -0.026419214112290923 0 -0.023077054129162639 -0.027622405693178569 0 -0.022593416304747031 -0.026576280511007407 0 -0.02348690459757391 -0.026419214112290923 0 -0.02348690459757391 -0.026419214112290923 0 -0.024596461131666223 -0.026617632384628765 0 -0.024171058389943573 -0.027699868442024062 0 -0.022903259581412913 -0.025729727172402701 0 -0.02348690459757391 -0.026419214112290923 0 -0.023502957234339678 -0.025214574840743045 0 -0.02348690459757391 -0.026419214112290923 0 -0.023502957234339678 -0.025214574840743045 0 -0.024298599389686894 -0.025568976152123744 0 -0.023904158272658856 -0.024480130467146963 0 -0.023502957234339678 -0.025214574840743045 0 -0.024298599389686894 -0.025568976152123744 0 -0.024992814989484781 -0.024651938080979863 0 -0.023904158272658856 -0.024480130467146963 0 -0.024298599389686894 -0.025568976152123744 0 -0.024992814989484781 -0.024651938080979863 0 -0.024298599389686894 -0.025568976152123744 0 -0.025342116389885986 -0.025933129221222463 0 -0.02348690459757391 -0.026419214112290923 0 -0.024298599389686894 -0.025568976152123744 0 -0.024596461131666223 -0.026617632384628765 0 -0.024298599389686894 -0.025568976152123744 0 -0.024596461131666223 -0.026617632384628765 0 -0.025342116389885986 -0.025933129221222463 0 -0.024171058389943573 -0.027699868442024062 0 -0.024885487151100921 -0.028563864994085086 0 -0.02531525303609445 -0.027223948065618238 0 -0.024596461131666223 -0.026617632384628765 0 -0.024171058389943573 -0.027699868442024062 0 -0.02531525303609445 -0.027223948065618238 0 -0.023077054129162639 -0.027622405693178569 0 -0.02348690459757391 -0.026419214112290923 0 -0.024171058389943573 -0.027699868442024062 0 -0.023077054129162639 -0.027622405693178569 0 -0.024171058389943573 -0.027699868442024062 0 -0.0235704956158738 -0.028990660940333132 0 -0.024171058389943573 -0.027699868442024062 0 -0.024885487151100921 -0.028563864994085086 0 -0.0235704956158738 -0.028990660940333132 0 -0.024885487151100921 -0.028563864994085086 0 -0.02638903717553848 -0.028033391466247202 0 -0.02531525303609445 -0.027223948065618238 0 -0.022841853629364271 -0.030428924417101866 0 -0.022942346011513397 -0.030403790850726805 0 -0.022994481610730363 -0.030341215594291794 0 -0.024052099776464483 -0.029405787817453521 0 -0.023880941440706308 -0.029628442235448322 0 -0.020102221678055896 -0.031920359440174399 0 -0.020041570921459233 -0.031885941517406778 0 -0.020085193449090877 -0.031871250513871408 0 -0.022942346011513397 -0.030403790850726805 0 -0.022994481610730363 -0.030341215594291794 0 -0.023019803094841602 -0.030629234016771506 0 -0.023880941440706308 -0.029628442235448322 0 -0.021455787738189337 -0.031530333025914035 0 -0.026393973562579984 -0.027951707685703604 0 -0.026458600608756658 -0.026386864887099265 0 -0.027939144019525821 -0.027318366933244225 0 -0.023880941440706308 -0.029628442235448322 0 -0.026988171346248736 -0.025787130247791973 0 -0.02638903717553848 -0.028033391466247202 0 -0.02531525303609445 -0.027223948065618238 0 -0.026458600608756658 -0.026386864887099265 0 -0.02531525303609445 -0.027223948065618238 0 -0.025342116389885986 -0.025933129221222463 0 -0.026458600608756658 -0.026386864887099265 0 -0.024596461131666223 -0.026617632384628765 0 -0.02531525303609445 -0.027223948065618238 0 -0.025342116389885986 -0.025933129221222463 0 -0.025342116389885986 -0.025933129221222463 0 -0.026035602582773834 -0.024976366569392103 0 -0.026458600608756658 -0.026386864887099265 0 -0.024992814989484781 -0.024651938080979863 0 -0.025342116389885986 -0.025933129221222463 0 -0.026035602582773834 -0.024976366569392103 0 -0.027296041227718556 -0.024677870001859198 0 -0.026035602582773834 -0.024976366569392103 0 -0.026458600608756658 -0.026386864887099265 0 -0.026458600608756658 -0.026386864887099265 0 -0.027941507309171137 -0.025943016285630387 0 -0.027939144019525821 -0.027318366933244225 0 -0.027296041227718556 -0.024677870001859198 0 -0.026458600608756658 -0.026386864887099265 0 -0.027941507309171137 -0.025943016285630387 0 -0.027296041227718556 -0.024677870001859198 0 -0.029130434473980685 -0.025183061482358448 0 -0.027941507309171137 -0.025943016285630387 0 -0.029130434473980685 -0.025183061482358448 0 -0.029450465836264008 -0.026648372879559429 0 -0.027941507309171137 -0.025943016285630387 0 -0.029450465836264008 -0.026648372879559429 0 -0.027941507309171137 -0.025943016285630387 0 -0.027939144019525821 -0.027318366933244225 0 -0.019801638425272227 -0.031896286872781926 0 -0.019961437548126352 -0.031940495336343439 0 -0.019847923074620622 -0.031901504479535055 0 -0.019285638655152326 -0.02311291854299722 0 -0.024681909114051836 -0.030312076180538414 0 -0.023880941440706308 -0.029628442235448322 0 -0.024681909114051836 -0.030312076180538414 0 -0.020102221678055896 -0.031920359440174399 0 -0.019961437548126352 -0.031940495336343439 0 -0.019981826502840534 -0.03190112077044896 0 -0.020102221678055896 -0.031920359440174399 0 -0.019981826502840534 -0.03190112077044896 0 -0.020041570921459233 -0.031885941517406778 0 -0.019981826502840534 -0.03190112077044896 0 -0.019893723213994345 -0.031887744153039403 0 -0.019975991822463474 -0.031876344747440492 0 -0.019981826502840534 -0.03190112077044896 0 -0.019975991822463474 -0.031876344747440492 0 -0.020041570921459233 -0.031885941517406778 0 -0.019961437548126352 -0.031940495336343439 0 -0.019847923074620622 -0.031901504479535055 0 -0.019893723213994345 -0.031887744153039403 0 -0.019961437548126352 -0.031940495336343439 0 -0.019981826502840534 -0.03190112077044896 0 -0.019893723213994345 -0.031887744153039403 0 -0.019809426065036266 -0.031876963297908109 0 -0.019893723213994345 -0.031887744153039403 0 -0.01985233686041599 -0.031867185409735439 0 -0.019809426065036266 -0.031876963297908109 0 -0.019847923074620622 -0.031901504479535055 0 -0.019893723213994345 -0.031887744153039403 0 -0.01990204168646572 -0.031854646505992901 0 -0.01985233686041599 -0.031867185409735439 0 -0.019975991822463474 -0.031876344747440492 0 -0.01990204168646572 -0.031854646505992901 0 -0.019975991822463474 -0.031876344747440492 0 -0.01997491863363424 -0.031862794096714629 0 -0.019774690574505951 -0.031832300604648249 0 -0.01990204168646572 -0.031854646505992901 0 -0.01985233686041599 -0.031867185409735439 0 -0.019893723213994345 -0.031887744153039403 0 -0.01985233686041599 -0.031867185409735439 0 -0.019975991822463474 -0.031876344747440492 0 -0.019975991822463474 -0.031876344747440492 0 -0.020041570921459233 -0.031885941517406778 0 -0.020051070453756755 -0.031874221637142951 0 -0.020051070453756755 -0.031874221637142951 0 -0.020039344416591279 -0.031866304821226647 0 -0.020088146212991268 -0.031868711893398044 0 -0.019975991822463474 -0.031876344747440492 0 -0.020051070453756755 -0.031874221637142951 0 -0.020039344416591279 -0.031866304821226647 0 -0.019975991822463474 -0.031876344747440492 0 -0.01997491863363424 -0.031862794096714629 0 -0.020039344416591279 -0.031866304821226647 0 -0.01997491863363424 -0.031862794096714629 0 -0.020033482368707112 -0.031857529108670242 0 -0.019963148323892912 -0.031844944873149254 0 -0.01997491863363424 -0.031862794096714629 0 -0.020039344416591279 -0.031866304821226647 0 -0.020033482368707112 -0.031857529108670242 0 -0.020039344416591279 -0.031866304821226647 0 -0.020076579020181763 -0.031865104581690645 0 -0.020088146212991268 -0.031868711893398044 0 -0.020039344416591279 -0.031866304821226647 0 -0.020076579020181763 -0.031865104581690645 0 -0.020033482368707112 -0.031857529108670242 0 -0.020095868210051417 -0.031863165843055805 0 -0.020033482368707112 -0.031857529108670242 0 -0.020022413070889637 -0.031833379650595003 0 -0.020076579020181763 -0.031865104581690645 0 -0.020095868210051417 -0.031863165843055805 0 -0.020119430452331135 -0.03186898506311938 0 -0.020076579020181763 -0.031865104581690645 0 -0.020095868210051417 -0.031863165843055805 0 -0.020033482368707112 -0.031857529108670242 0 -0.019930756888318742 -0.03181738827015871 0 -0.019963148323892912 -0.031844944873149254 0 -0.020022413070889637 -0.031833379650595003 0 -0.020033482368707112 -0.031857529108670242 0 -0.019963148323892912 -0.031844944873149254 0 -0.020022413070889637 -0.031833379650595003 0 -0.019930756888318742 -0.03181738827015871 0 -0.019963148323892912 -0.031844944873149254 0 -0.01987883366887571 -0.031827860010480713 0 -0.01990204168646572 -0.031854646505992901 0 -0.019963148323892912 -0.031844944873149254 0 -0.01987883366887571 -0.031827860010480713 0 -0.01990204168646572 -0.031854646505992901 0 -0.01997491863363424 -0.031862794096714629 0 -0.019963148323892912 -0.031844944873149254 0 -0.019774690574505951 -0.031832300604648249 0 -0.01990204168646572 -0.031854646505992901 0 -0.01987883366887571 -0.031827860010480713 0 -0.019774690574505951 -0.031832300604648249 0 -0.01987883366887571 -0.031827860010480713 0 -0.019808938697120287 -0.031786926122687055 0 -0.019930756888318742 -0.03181738827015871 0 -0.01987883366887571 -0.031827860010480713 0 -0.019808938697120287 -0.031786926122687055 0 -0.019930756888318742 -0.03181738827015871 0 -0.019808938697120287 -0.031786926122687055 0 -0.019907175032751866 -0.031767421079579604 0 -0.019705372856526446 -0.031674025079880395 0 -0.019808938697120287 -0.031786926122687055 0 -0.019907175032751866 -0.031767421079579604 0 -0.019705372856526446 -0.031674025079880395 0 -0.019907175032751866 -0.031767421079579604 0 -0.019916953949996194 -0.031675659346867918 0 -0.019930756888318742 -0.03181738827015871 0 -0.019907175032751866 -0.031767421079579604 0 -0.020022413070889637 -0.031833379650595003 0 -0.019907175032751866 -0.031767421079579604 0 -0.019916953949996194 -0.031675659346867918 0 -0.020026257586925014 -0.031767142997543255 0 -0.019705372856526446 -0.031674025079880395 0 -0.019916953949996194 -0.031675659346867918 0 -0.019734165380557663 -0.031526724955425953 0 -0.019916953949996194 -0.031675659346867918 0 -0.019999109059173591 -0.031544749991293981 0 -0.019734165380557663 -0.031526724955425953 0 -0.020124256910921165 -0.031714265418612893 0 -0.02025648901981306 -0.031629738778391585 0 -0.019999109059173591 -0.031544749991293981 0 -0.019916953949996194 -0.031675659346867918 0 -0.020124256910921165 -0.031714265418612893 0 -0.019999109059173591 -0.031544749991293981 0 -0.019916953949996194 -0.031675659346867918 0 -0.020124256910921165 -0.031714265418612893 0 -0.020026257586925014 -0.031767142997543255 0 -0.020124256910921165 -0.031714265418612893 0 -0.020143731498284231 -0.031845334199121049 0 -0.020270681140307709 -0.031793491945944559 0 -0.020124256910921165 -0.031714265418612893 0 -0.020143731498284231 -0.031845334199121049 0 -0.020026257586925014 -0.031767142997543255 0 -0.020143731498284231 -0.031845334199121049 0 -0.020026257586925014 -0.031767142997543255 0 -0.020022413070889637 -0.031833379650595003 0 -0.019907175032751866 -0.031767421079579604 0 -0.020026257586925014 -0.031767142997543255 0 -0.020022413070889637 -0.031833379650595003 0 -0.020095868210051417 -0.031863165843055805 0 -0.020143731498284231 -0.031845334199121049 0 -0.020022413070889637 -0.031833379650595003 0 -0.020095868210051417 -0.031863165843055805 0 -0.020143731498284231 -0.031845334199121049 0 -0.020162513455519341 -0.031878225223180873 0 -0.020162513455519341 -0.031878225223180873 0 -0.020312783659134682 -0.031907638929661988 0 -0.020142105766221344 -0.031874503292458299 0 -0.020312783659134682 -0.031907638929661988 0 -0.020623169675312535 -0.031901180804554688 0 -0.020306071043943198 -0.032168683437122585 0 -0.020143731498284231 -0.031845334199121049 0 -0.020162513455519341 -0.031878225223180873 0 -0.020312783659134682 -0.031907638929661988 0 -0.020395620292647 -0.032048366040341357 0 -0.021073208977529168 -0.031501849564744722 0 -0.020143731498284231 -0.031845334199121049 0 -0.020312783659134682 -0.031907638929661988 0 -0.020270681140307709 -0.031793491945944559 0 -0.020312783659134682 -0.031907638929661988 0 -0.020270681140307709 -0.031793491945944559 0 -0.020476541369439681 -0.031819366449268228 0 -0.020270681140307709 -0.031793491945944559 0 -0.020476541369439681 -0.031819366449268228 0 -0.02048272168108535 -0.031703103435334251 0 -0.020270681140307709 -0.031793491945944559 0 -0.02048272168108535 -0.031703103435334251 0 -0.02025648901981306 -0.031629738778391585 0 -0.020124256910921165 -0.031714265418612893 0 -0.020270681140307709 -0.031793491945944559 0 -0.02025648901981306 -0.031629738778391585 0 -0.020696750263401488 -0.031798449964678656 0 -0.020623169675312535 -0.031901180804554688 0 -0.020966011403427118 -0.031794427365438187 0 -0.021736315088685381 -0.031653092326425075 0 -0.021754536835040059 -0.031607596521442301 0 -0.020696750263401488 -0.031798449964678656 0 -0.020966011403427118 -0.031794427365438187 0 -0.020839533009364676 -0.031776780970267718 0 -0.020476541369439681 -0.031819366449268228 0 -0.02048272168108535 -0.031703103435334251 0 -0.020696750263401488 -0.031798449964678656 0 -0.02048272168108535 -0.031703103435334251 0 -0.020696750263401488 -0.031798449964678656 0 -0.020732784265789117 -0.031704720675354521 0 -0.020476541369439681 -0.031819366449268228 0 -0.020696750263401488 -0.031798449964678656 0 -0.020623169675312535 -0.031901180804554688 0 -0.022724147934362646 -0.031391139301682365 0 -0.022750275267586235 -0.031118709119502087 0 -0.023002767438293589 -0.031030630050543986 0 -0.021736315088685381 -0.031653092326425075 0 -0.021073208977529168 -0.031501849564744722 0 -0.020312783659134682 -0.031907638929661988 0 -0.020476541369439681 -0.031819366449268228 0 -0.020623169675312535 -0.031901180804554688 0 -0.022724147934362646 -0.031391139301682365 0 -0.022750275267586235 -0.031118709119502087 0 -0.022495090752002133 -0.031223628247152899 0 -0.022750275267586235 -0.031118709119502087 0 -0.022708561930556769 -0.030780858823737222 0 -0.022495090752002133 -0.031223628247152899 0 -0.022750275267586235 -0.031118709119502087 0 -0.023002767438293589 -0.031030630050543986 0 -0.022708561930556769 -0.030780858823737222 0 -0.022799404464542237 -0.030664492549187166 0 -0.02267862074123023 -0.030910847563574109 0 -0.020134084570877519 -0.031868662270774402 0 -0.020129877093283077 -0.031869067753128859 0 -0.020085193449090877 -0.031871250513871408 0 -0.020129877093283077 -0.031869067753128859 0 -0.020088146212991268 -0.031868711893398044 0 -0.020085193449090877 -0.031871250513871408 0 -0.021073208977529168 -0.031501849564744722 0 -0.021455787738189337 -0.031530333025914035 0 -0.023002767438293589 -0.031030630050543986 0 -0.023019803094841602 -0.030629234016771506 0 -0.022708561930556769 -0.030780858823737222 0 -0.021073208977529168 -0.031501849564744722 0 -0.020986826042345651 -0.031583168926969864 0 -0.020095868210051417 -0.031863165843055805 0 -0.020162513455519341 -0.031878225223180873 0 -0.020119430452331135 -0.03186898506311938 0 -0.020162513455519341 -0.031878225223180873 0 -0.020142105766221344 -0.031874503292458299 0 -0.020119430452331135 -0.03186898506311938 0 -0.020142105766221344 -0.031874503292458299 0 -0.020129877093283077 -0.031869067753128859 0 -0.020119430452331135 -0.03186898506311938 0 -0.020129877093283077 -0.031869067753128859 0 -0.020119430452331135 -0.03186898506311938 0 -0.020088146212991268 -0.031868711893398044 0 -0.020076579020181763 -0.031865104581690645 0 -0.020119430452331135 -0.03186898506311938 0 -0.020088146212991268 -0.031868711893398044 0 -0.020051070453756755 -0.031874221637142951 0 -0.020088146212991268 -0.031868711893398044 0 -0.020085193449090877 -0.031871250513871408 0 -0.020041570921459233 -0.031885941517406778 0 -0.020051070453756755 -0.031874221637142951 0 -0.020085193449090877 -0.031871250513871408 0 -0.022942346011513397 -0.030403790850726805 0 -0.023019803094841602 -0.030629234016771506 0 -0.022708561930556769 -0.030780858823737222 0 -0.022928333403806275 -0.030419032879044478 0 -0.022799404464542237 -0.030664492549187166 0 -0.022841853629364271 -0.030428924417101866 0 -0.022942346011513397 -0.030403790850726805 0 -0.022889538057332844 -0.030533346028174053 0 -0.024052099776464483 -0.029405787817453521 0 -0.023116328222106748 -0.029747396322403283 0 -0.022841853629364271 -0.030428924417101866 0 -0.022820063223823753 -0.030499699138738012 0 -0.022720277500488349 -0.030475520565208952 0 -0.022820063223823753 -0.030499699138738012 0 -0.022720277500488349 -0.030475520565208952 0 -0.022810968079438176 -0.030570175095375362 0 -0.022841853629364271 -0.030428924417101866 0 -0.022889538057332844 -0.030533346028174053 0 -0.022820063223823753 -0.030499699138738012 0 -0.022889538057332844 -0.030533346028174053 0 -0.022820063223823753 -0.030499699138738012 0 -0.022810968079438176 -0.030570175095375362 0 -0.022720277500488349 -0.030475520565208952 0 -0.02273193296680116 -0.030607535511400597 0 -0.022643194728571604 -0.030599474896833886 0 -0.022720277500488349 -0.030475520565208952 0 -0.02273193296680116 -0.030607535511400597 0 -0.022810968079438176 -0.030570175095375362 0 -0.022889538057332844 -0.030533346028174053 0 -0.022810968079438176 -0.030570175095375362 0 -0.02284062148568855 -0.030659260274768584 0 -0.02273193296680116 -0.030607535511400597 0 -0.022810968079438176 -0.030570175095375362 0 -0.02284062148568855 -0.030659260274768584 0 -0.02284062148568855 -0.030659260274768584 0 -0.022785933984478816 -0.030791294388747198 0 -0.022757415760402321 -0.030694091601289351 0 -0.02273193296680116 -0.030607535511400597 0 -0.02284062148568855 -0.030659260274768584 0 -0.022757415760402321 -0.030694091601289351 0 -0.022724147934362646 -0.031391139301682365 0 -0.022495090752002133 -0.031223628247152899 0 -0.022491302428986296 -0.031498793904567314 0 -0.022495090752002133 -0.031223628247152899 0 -0.022491302428986296 -0.031498793904567314 0 -0.022296411404490742 -0.031665611019855835 0 -0.022724147934362646 -0.031391139301682365 0 -0.022491302428986296 -0.031498793904567314 0 -0.022442568754230171 -0.031750048605601808 0 -0.02267862074123023 -0.030910847563574109 0 -0.022502825078018582 -0.031383068537047573 0 -0.022491302428986296 -0.031498793904567314 0 -0.022296411404490742 -0.031665611019855835 0 -0.022442568754230171 -0.031750048605601808 0 -0.022502825078018582 -0.031383068537047573 0 -0.021754536835040059 -0.031607596521442301 0 -0.022502825078018582 -0.031383068537047573 0 -0.022608481999803844 -0.031040889520606119 0 -0.022785933984478816 -0.030791294388747198 0 -0.022757415760402321 -0.030694091601289351 0 -0.022671469523957741 -0.030719279406156205 0 -0.022416233457113379 -0.031520234931876626 0 -0.02255830021937175 -0.031450666317208054 0 -0.022457333726394489 -0.03150235143126362 0 -0.02273193296680116 -0.030607535511400597 0 -0.022757415760402321 -0.030694091601289351 0 -0.022671469523957741 -0.030719279406156205 0 -0.02273193296680116 -0.030607535511400597 0 -0.022671469523957741 -0.030719279406156205 0 -0.022643194728571604 -0.030599474896833886 0 -0.022671469523957741 -0.030719279406156205 0 -0.022558130002458595 -0.030649188655361884 0 -0.022643194728571604 -0.030599474896833886 0 -0.022608481999803844 -0.031040889520606119 0 -0.022633506889344669 -0.030955491754732084 0 -0.02255830021937175 -0.031450666317208054 0 -0.022581314585105611 -0.031487939670446802 0 -0.022457333726394489 -0.03150235143126362 0 -0.02255830021937175 -0.031450666317208054 0 -0.022675151854593973 -0.03134182814809499 0 -0.022581314585105611 -0.031487939670446802 0 -0.02255830021937175 -0.031450666317208054 0 -0.022675151854593973 -0.03134182814809499 0 -0.022705068311256359 -0.031178361521183303 0 -0.022558130002458595 -0.030649188655361884 0 -0.022643194728571604 -0.030599474896833886 0 -0.022580366286058032 -0.030526036548380871 0 -0.022440890586752627 -0.030577615553159892 0 -0.022558130002458595 -0.030649188655361884 0 -0.022580366286058032 -0.030526036548380871 0 -0.022720277500488349 -0.030475520565208952 0 -0.022643194728571604 -0.030599474896833886 0 -0.022580366286058032 -0.030526036548380871 0 -0.023116328222106748 -0.029747396322403283 0 -0.022585639810577589 -0.029857176175713596 0 -0.022790524066527724 -0.028562866796158048 0 -0.0235704956158738 -0.028990660940333132 0 -0.022612315872722007 -0.029235009195475635 0 -0.022146011760454422 -0.029063129116103106 0 -0.022307008693246876 -0.028560203087714744 0 -0.022612315872722007 -0.029235009195475635 0 -0.022307008693246876 -0.028560203087714744 0 -0.022790524066527724 -0.028562866796158048 0 -0.022612315872722007 -0.029235009195475635 0 -0.02403767628052135 -0.032361827596951699 0 -0.020248425165667858 -0.035298793034265898 0 -0.022627375648120399 -0.031102764414681135 0 -0.022365136370687995 -0.031113002259107618 0 -0.022585007861165234 -0.031381416294064095 0 -0.022627375648120399 -0.031102764414681135 0 -0.022365136370687995 -0.031113002259107618 0 -0.022213112292774326 -0.030685284567373104 0 -0.022365136370687995 -0.031113002259107618 0 -0.021991642192804674 -0.031078705470265339 0 -0.022213112292774326 -0.030685284567373104 0 -0.022365136370687995 -0.031113002259107618 0 -0.022320274224785833 -0.031297688634489222 0 -0.022585007861165234 -0.031381416294064095 0 -0.022320274224785833 -0.031297688634489222 0 -0.022082898365549761 -0.031280936564684066 0 -0.021991642192804674 -0.031078705470265339 0 -0.022365136370687995 -0.031113002259107618 0 -0.022320274224785833 -0.031297688634489222 0 -0.021991642192804674 -0.031078705470265339 0 -0.022320274224785833 -0.031297688634489222 0 -0.022272143859740995 -0.031398492595065691 0 -0.022082898365549761 -0.031280936564684066 0 -0.022320274224785833 -0.031297688634489222 0 -0.022272143859740995 -0.031398492595065691 0 -0.022482243950183823 -0.03149505402083954 0 -0.022684516791682905 -0.031608303555233558 0 -0.022585007861165234 -0.031381416294064095 0 -0.022482243950183823 -0.03149505402083954 0 -0.022320274224785833 -0.031297688634489222 0 -0.022585007861165234 -0.031381416294064095 0 -0.022482243950183823 -0.03149505402083954 0 -0.022661656282597361 -0.03158579895908039 0 -0.022465390947744562 -0.031526225031244332 0 -0.022482243950183823 -0.03149505402083954 0 -0.022684516791682905 -0.031608303555233558 0 -0.022661656282597361 -0.03158579895908039 0 -0.022482243950183823 -0.03149505402083954 0 -0.022661656282597361 -0.03158579895908039 0 -0.022581314585105611 -0.031487939670446802 0 -0.022465390947744562 -0.031526225031244332 0 -0.022675151854593973 -0.03134182814809499 0 -0.022661656282597361 -0.03158579895908039 0 -0.022581314585105611 -0.031487939670446802 0 -0.022581314585105611 -0.031487939670446802 0 -0.022457333726394489 -0.03150235143126362 0 -0.022465390947744562 -0.031526225031244332 0 -0.022457333726394489 -0.03150235143126362 0 -0.022465390947744562 -0.031526225031244332 0 -0.022352665430772398 -0.031506399403280254 0 -0.022465390947744562 -0.031526225031244332 0 -0.02229994272763261 -0.031493961252552077 0 -0.022352665430772398 -0.031506399403280254 0 -0.022465390947744562 -0.031526225031244332 0 -0.02229994272763261 -0.031493961252552077 0 -0.022482243950183823 -0.03149505402083954 0 -0.022272143859740995 -0.031398492595065691 0 -0.02229994272763261 -0.031493961252552077 0 -0.022482243950183823 -0.03149505402083954 0 -0.022272143859740995 -0.031398492595065691 0 -0.02229994272763261 -0.031493961252552077 0 -0.022076555234931305 -0.031454353266210419 0 -0.02229994272763261 -0.031493961252552077 0 -0.022076555234931305 -0.031454353266210419 0 -0.022193075344510479 -0.031472413012236126 0 -0.022076555234931305 -0.031454353266210419 0 -0.021449438962539518 -0.031407110334990544 0 -0.02176372858278347 -0.031188248995722982 0 -0.022061600093195261 -0.031428459251187681 0 -0.021893298321835127 -0.031556157448947741 0 -0.022076555234931305 -0.031454353266210419 0 -0.021466388869337688 -0.031715609174097881 0 -0.021449438962539518 -0.031407110334990544 0 -0.022076555234931305 -0.031454353266210419 0 -0.022193075344510479 -0.031472413012236126 0 -0.022287514871948719 -0.031455138343603278 0 -0.02229994272763261 -0.031493961252552077 0 -0.022193075344510479 -0.031472413012236126 0 -0.022352665430772398 -0.031506399403280254 0 -0.02232987289599183 -0.031361482016798913 0 -0.022193075344510479 -0.031472413012236126 0 -0.022287514871948719 -0.031455138343603278 0 -0.022416233457113379 -0.031520234931876626 0 -0.022193075344510479 -0.031472413012236126 0 -0.022352665430772398 -0.031506399403280254 0 -0.022416233457113379 -0.031520234931876626 0 -0.022457333726394489 -0.03150235143126362 0 -0.022352665430772398 -0.031506399403280254 0 -0.022502825078018582 -0.031383068537047573 0 -0.022183947111149457 -0.031501335290196456 0 -0.02232987289599183 -0.031361482016798913 0 -0.022287514871948719 -0.031455138343603278 0 -0.022363944190271073 -0.031384783181720492 0 -0.020932264375319615 -0.031787945820310859 0 -0.021057433805507224 -0.031871913972333923 0 -0.021087170295485735 -0.03171587816854269 0 -0.020932264375319615 -0.031787945820310859 0 -0.021087170295485735 -0.03171587816854269 0 -0.020891165405242707 -0.031661405167418569 0 -0.020932264375319615 -0.031787945820310859 0 -0.020966011403427118 -0.031794427365438187 0 -0.020839533009364676 -0.031776780970267718 0 -0.021426253452284678 -0.031540966015639486 0 -0.021754536835040059 -0.031607596521442301 0 -0.021893298321835127 -0.031556157448947741 0 -0.021754536835040059 -0.031607596521442301 0 -0.021466388869337688 -0.031715609174097881 0 -0.021057433805507224 -0.031871913972333923 0 -0.021087170295485735 -0.03171587816854269 0 -0.021466388869337688 -0.031715609174097881 0 -0.021087170295485735 -0.03171587816854269 0 -0.021064938217997702 -0.031543901856819406 0 -0.021087170295485735 -0.03171587816854269 0 -0.021064938217997702 -0.031543901856819406 0 -0.020891165405242707 -0.031661405167418569 0 -0.021466388869337688 -0.031715609174097881 0 -0.021064938217997702 -0.031543901856819406 0 -0.021449438962539518 -0.031407110334990544 0 -0.021064938217997702 -0.031543901856819406 0 -0.021449438962539518 -0.031407110334990544 0 -0.021129948915946061 -0.031292055604380219 0 -0.021129948915946061 -0.031292055604380219 0 -0.021386621623877857 -0.031103745886204806 0 -0.020966315186191492 -0.031064231197319388 0 -0.021386621623877857 -0.031103745886204806 0 -0.021212993040858434 -0.030877611017939476 0 -0.020966315186191492 -0.031064231197319388 0 -0.021386621623877857 -0.031103745886204806 0 -0.021646568062971175 -0.030910574454772619 0 -0.021212993040858434 -0.030877611017939476 0 -0.021449438962539518 -0.031407110334990544 0 -0.021129948915946061 -0.031292055604380219 0 -0.021386621623877857 -0.031103745886204806 0 -0.021449438962539518 -0.031407110334990544 0 -0.021386621623877857 -0.031103745886204806 0 -0.02176372858278347 -0.031188248995722982 0 -0.022272143859740995 -0.031398492595065691 0 -0.022076555234931305 -0.031454353266210419 0 -0.022082898365549761 -0.031280936564684066 0 -0.022076555234931305 -0.031454353266210419 0 -0.02176372858278347 -0.031188248995722982 0 -0.022082898365549761 -0.031280936564684066 0 -0.02176372858278347 -0.031188248995722982 0 -0.022082898365549761 -0.031280936564684066 0 -0.021991642192804674 -0.031078705470265339 0 -0.021386621623877857 -0.031103745886204806 0 -0.02176372858278347 -0.031188248995722982 0 -0.021646568062971175 -0.030910574454772619 0 -0.02176372858278347 -0.031188248995722982 0 -0.021991642192804674 -0.031078705470265339 0 -0.021646568062971175 -0.030910574454772619 0 -0.021991642192804674 -0.031078705470265339 0 -0.021646568062971175 -0.030910574454772619 0 -0.022213112292774326 -0.030685284567373104 0 -0.021646568062971175 -0.030910574454772619 0 -0.021452104369864052 -0.030613003660054299 0 -0.022213112292774326 -0.030685284567373104 0 -0.021452104369864052 -0.030613003660054299 0 -0.021212993040858434 -0.030877611017939476 0 -0.020641442073557767 -0.030700625118684363 0 -0.021646568062971175 -0.030910574454772619 0 -0.021452104369864052 -0.030613003660054299 0 -0.021212993040858434 -0.030877611017939476 0 -0.01646870091928827 -0.03803719302387621 0 -0.01446449540585462 -0.038348015300897285 0 -0.015500203271508698 -0.037321792725369049 0 -0.021212993040858434 -0.030877611017939476 0 -0.020641442073557767 -0.030700625118684363 0 -0.020966315186191492 -0.031064231197319388 0 -0.019022937502661413 -0.034185401271677324 0 -0.017429264544934014 -0.034554728578633218 0 -0.017429264544934014 -0.034554728578633218 0 -0.016985107896228625 -0.034647035925333601 0 -0.01446449540585462 -0.038348015300897285 0 -0.012764625206120967 -0.038516857758839368 0 -0.013133072634114071 -0.037044420365201149 0 -0.020641442073557767 -0.030700625118684363 0 -0.020325293272387485 -0.031075991666013474 0 -0.020049082247770411 -0.030849064301606242 0 -0.020641442073557767 -0.030700625118684363 0 -0.020325293272387485 -0.031075991666013474 0 -0.020636331426045734 -0.031113367750777512 0 -0.020325293272387485 -0.031075991666013474 0 -0.020636331426045734 -0.031113367750777512 0 -0.020461341940951953 -0.031342631438625854 0 -0.020636331426045734 -0.031113367750777512 0 -0.020966315186191492 -0.031064231197319388 0 -0.020811478737545873 -0.031326720332011504 0 -0.020641442073557767 -0.030700625118684363 0 -0.020636331426045734 -0.031113367750777512 0 -0.020966315186191492 -0.031064231197319388 0 -0.021129948915946061 -0.031292055604380219 0 -0.020966315186191492 -0.031064231197319388 0 -0.020811478737545873 -0.031326720332011504 0 -0.021064938217997702 -0.031543901856819406 0 -0.021129948915946061 -0.031292055604380219 0 -0.020811478737545873 -0.031326720332011504 0 -0.020636331426045734 -0.031113367750777512 0 -0.020811478737545873 -0.031326720332011504 0 -0.020461341940951953 -0.031342631438625854 0 -0.020811478737545873 -0.031326720332011504 0 -0.020729430474205276 -0.031544784284546941 0 -0.020461341940951953 -0.031342631438625854 0 -0.021064938217997702 -0.031543901856819406 0 -0.020811478737545873 -0.031326720332011504 0 -0.020729430474205276 -0.031544784284546941 0 -0.021064938217997702 -0.031543901856819406 0 -0.020891165405242707 -0.031661405167418569 0 -0.020729430474205276 -0.031544784284546941 0 -0.020891165405242707 -0.031661405167418569 0 -0.020729430474205276 -0.031544784284546941 0 -0.020732784265789117 -0.031704720675354521 0 -0.020729430474205276 -0.031544784284546941 0 -0.020732784265789117 -0.031704720675354521 0 -0.020472327070893144 -0.031570355521861521 0 -0.02048272168108535 -0.031703103435334251 0 -0.020732784265789117 -0.031704720675354521 0 -0.020472327070893144 -0.031570355521861521 0 -0.020932264375319615 -0.031787945820310859 0 -0.020732784265789117 -0.031704720675354521 0 -0.020839533009364676 -0.031776780970267718 0 -0.020932264375319615 -0.031787945820310859 0 -0.020891165405242707 -0.031661405167418569 0 -0.020732784265789117 -0.031704720675354521 0 -0.020696750263401488 -0.031798449964678656 0 -0.020732784265789117 -0.031704720675354521 0 -0.020839533009364676 -0.031776780970267718 0 -0.02048272168108535 -0.031703103435334251 0 -0.02025648901981306 -0.031629738778391585 0 -0.020472327070893144 -0.031570355521861521 0 -0.02025648901981306 -0.031629738778391585 0 -0.020472327070893144 -0.031570355521861521 0 -0.020205193167842229 -0.031461820266284135 0 -0.020472327070893144 -0.031570355521861521 0 -0.020461341940951953 -0.031342631438625854 0 -0.020205193167842229 -0.031461820266284135 0 -0.020461341940951953 -0.031342631438625854 0 -0.020147116720852606 -0.031264688989012177 0 -0.020205193167842229 -0.031461820266284135 0 -0.020729430474205276 -0.031544784284546941 0 -0.020472327070893144 -0.031570355521861521 0 -0.020461341940951953 -0.031342631438625854 0 -0.020325293272387485 -0.031075991666013474 0 -0.020461341940951953 -0.031342631438625854 0 -0.020147116720852606 -0.031264688989012177 0 -0.020147116720852606 -0.031264688989012177 0 -0.01999483000677808 -0.031366904805617463 0 -0.019897167871817736 -0.031161804073649501 0 -0.020147116720852606 -0.031264688989012177 0 -0.01999483000677808 -0.031366904805617463 0 -0.020205193167842229 -0.031461820266284135 0 -0.01999483000677808 -0.031366904805617463 0 -0.020205193167842229 -0.031461820266284135 0 -0.019999109059173591 -0.031544749991293981 0 -0.02025648901981306 -0.031629738778391585 0 -0.020205193167842229 -0.031461820266284135 0 -0.019999109059173591 -0.031544749991293981 0 -0.019999109059173591 -0.031544749991293981 0 -0.019779118586138161 -0.03137273309630919 0 -0.019734165380557663 -0.031526724955425953 0 -0.01999483000677808 -0.031366904805617463 0 -0.019999109059173591 -0.031544749991293981 0 -0.019779118586138161 -0.03137273309630919 0 -0.019779118586138161 -0.03137273309630919 0 -0.019897167871817736 -0.031161804073649501 0 -0.019648959718728223 -0.031197472498068486 0 -0.01999483000677808 -0.031366904805617463 0 -0.019779118586138161 -0.03137273309630919 0 -0.019897167871817736 -0.031161804073649501 0 -0.019897167871817736 -0.031161804073649501 0 -0.020049082247770411 -0.030849064301606242 0 -0.019618512954948455 -0.030966898849317713 0 -0.019897167871817736 -0.031161804073649501 0 -0.019648959718728223 -0.031197472498068486 0 -0.019618512954948455 -0.030966898849317713 0 -0.019897167871817736 -0.031161804073649501 0 -0.020100246937232887 -0.031077632498150144 0 -0.020049082247770411 -0.030849064301606242 0 -0.020147116720852606 -0.031264688989012177 0 -0.019897167871817736 -0.031161804073649501 0 -0.020100246937232887 -0.031077632498150144 0 -0.020325293272387485 -0.031075991666013474 0 -0.020147116720852606 -0.031264688989012177 0 -0.020100246937232887 -0.031077632498150144 0 -0.020325293272387485 -0.031075991666013474 0 -0.020100246937232887 -0.031077632498150144 0 -0.020049082247770411 -0.030849064301606242 0 -0.012764625206120967 -0.038516857758839368 0 -0.012296668887618658 -0.037957111337847259 0 -0.013133072634114071 -0.037044420365201149 0 -0.011145547514590291 -0.039086966228959609 0 -0.012994806956902832 -0.034661311542214197 0 -0.012764625206120967 -0.038516857758839368 0 -0.012296668887618658 -0.037957111337847259 0 -0.01150487864059753 -0.03862737953452821 0 -0.011340504317932456 -0.038671402346008132 0 -0.0096355038387017106 -0.039984366019970241 0 -0.009917027532405984 -0.038674320045934837 0 -0.016985107896228625 -0.034647035925333601 0 -0.012994806956902832 -0.034661311542214197 0 -0.010873581193032701 -0.03774486901280151 0 -0.011020715653880474 -0.036393457958112517 0 -0.0090732988498088227 -0.037875487165072046 0 -0.010873581193032701 -0.03774486901280151 0 -0.009917027532405984 -0.038674320045934837 0 -0.0090732988498088227 -0.037875487165072046 0 -0.011340504317932456 -0.038671402346008132 0 -0.010873581193032701 -0.03774486901280151 0 -0.009917027532405984 -0.038674320045934837 0 -0.011145547514590291 -0.039086966228959609 0 -0.01334778002149156 -0.036851145882160818 0 -0.010873581193032701 -0.03774486901280151 0 -0.013133072634114071 -0.037044420365201149 0 -0.011020715653880474 -0.036393457958112517 0 -0.011340504317932456 -0.038671402346008132 0 -0.010873581193032701 -0.03774486901280151 0 -0.013133072634114071 -0.037044420365201149 0 -0.013133072634114071 -0.037044420365201149 0 -0.012443131712854761 -0.035754025220726432 0 -0.011020715653880474 -0.036393457958112517 0 -0.012443131712854761 -0.035754025220726432 0 -0.011020715653880474 -0.036393457958112517 0 -0.01180992854912556 -0.034257052885243874 0 -0.0095859426273108839 -0.036064432171052076 0 -0.0081199833888320333 -0.036738466976430552 0 -0.0082404930988885655 -0.036074114845961895 0 -0.010741700410069019 -0.035735277983751687 0 -0.0086991933940267618 -0.03607604240704277 0 -0.011020715653880474 -0.036393457958112517 0 -0.01180992854912556 -0.034257052885243874 0 -0.0092589260715215012 -0.035575866859452111 0 -0.010741700410069019 -0.035735277983751687 0 -0.0083467370120955155 -0.035600800118241391 0 -0.0090527401808556153 -0.035178905328391019 0 -0.01007408472707186 -0.036337455807975975 0 -0.0085327756205076169 -0.035543431690688278 0 -0.0090527401808556153 -0.035178905328391019 0 -0.010008280452863847 -0.034999970838299671 0 -0.0079835243060950595 -0.034999842389477551 0 -0.0090527401808556153 -0.035178905328391019 0 -0.010192561862676088 -0.035434967193528663 0 -0.01007408472707186 -0.036337455807975975 0 -0.0095859426273108839 -0.036064432171052076 0 -0.0082404930988885655 -0.036074114845961895 0 -0.0085327756205076169 -0.035543431690688278 0 -0.0090527401808556153 -0.035178905328391019 0 -0.010008280452863847 -0.034999970838299671 0 -0.010143710477145365 -0.035453479792837229 0 -0.0092207427701191166 -0.035220306368160273 0 -0.010108586418936772 -0.035426530687633587 0 -0.010192561862676088 -0.035434967193528663 0 -0.01007408472707186 -0.036337455807975975 0 -0.011330228742550375 -0.035696025109495322 0 -0.010741700410069019 -0.035735277983751687 0 -0.011521771840682574 -0.035694203446676079 0 -0.010008280452863847 -0.034999970838299671 0 -0.010143710477145365 -0.035453479792837229 0 -0.011217087898957938 -0.035697278778424969 0 -0.010108586418936772 -0.035426530687633587 0 -0.011521771840682574 -0.035694203446676079 0 -0.012443131712854761 -0.035754025220726432 0 -0.01180992854912556 -0.034257052885243874 0 -0.013725176838276384 -0.035303846543693063 0 -0.010741700410069019 -0.035735277983751687 0 -0.013137466900933261 -0.035971827876239627 0 -0.011208783790995526 -0.036127244912219317 0 -0.012364522590505949 -0.036704346094499386 0 -0.012153687654804372 -0.035648870374280196 0 -0.012364522590505949 -0.036704346094499386 0 -0.012153687654804372 -0.035648870374280196 0 -0.013577038931751892 -0.035986686288648179 0 -0.010008280452863847 -0.034999970838299671 0 -0.011217087898957938 -0.035697278778424969 0 -0.012032521582059934 -0.035000007970837133 0 -0.011214239729953531 -0.035704516739308807 0 -0.011811902701807077 -0.035391986761544959 0 -0.01254524012349181 -0.03552918948801026 0 -0.011521771840682574 -0.035694203446676079 0 -0.011650202327766174 -0.035541954772766109 0 -0.011217087898957938 -0.035697278778424969 0 -0.011811902701807077 -0.035391986761544959 0 -0.012032521582059934 -0.035000007970837133 0 -0.011214239729953531 -0.035704516739308807 0 -0.01254524012349181 -0.03552918948801026 0 -0.013029603268908211 -0.036077752895176035 0 -0.01254524012349181 -0.03552918948801026 0 -0.012032521582059934 -0.035000007970837133 0 -0.014057040400001313 -0.034999881545406578 0 -0.011521771840682574 -0.035694203446676079 0 -0.013354861688452804 -0.036029349498599678 0 -0.011811902701807077 -0.035391986761544959 0 -0.01254524012349181 -0.03552918948801026 0 -0.012032521582059934 -0.035000007970837133 0 -0.012364522590505949 -0.036704346094499386 0 -0.013577038931751892 -0.035986686288648179 0 -0.013504044792649569 -0.037275318938808311 0 -0.013725176838276384 -0.035303846543693063 0 -0.015298480455521251 -0.03613507914965923 0 -0.01443756383441005 -0.037093078328204326 0 -0.013137466900933261 -0.035971827876239627 0 -0.014453201468693935 -0.03670297062554928 0 -0.013133072634114071 -0.037044420365201149 0 -0.013725176838276384 -0.035303846543693063 0 -0.01443756383441005 -0.037093078328204326 0 -0.013133072634114071 -0.037044420365201149 0 -0.012443131712854761 -0.035754025220726432 0 -0.013725176838276384 -0.035303846543693063 0 -0.01446449540585462 -0.038348015300897285 0 -0.013133072634114071 -0.037044420365201149 0 -0.01443756383441005 -0.037093078328204326 0 -0.01446449540585462 -0.038348015300897285 0 -0.015500203271508698 -0.037321792725369049 0 -0.01443756383441005 -0.037093078328204326 0 -0.015298480455521251 -0.03613507914965923 0 -0.015500203271508698 -0.037321792725369049 0 -0.01443756383441005 -0.037093078328204326 0 -0.01646870091928827 -0.03803719302387621 0 -0.015500203271508698 -0.037321792725369049 0 -0.016874106501309279 -0.036872363095298857 0 -0.015298480455521251 -0.03613507914965923 0 -0.015500203271508698 -0.037321792725369049 0 -0.016874106501309279 -0.036872363095298857 0 -0.019022937502661413 -0.034185401271677324 0 -0.020248425165667858 -0.035298793034265898 0 -0.01646870091928827 -0.03803719302387621 0 -0.016874106501309279 -0.036872363095298857 0 -0.018513292376149924 -0.037640905412426436 0 -0.015371989838760189 -0.037539358410442897 0 -0.020248425165667858 -0.035298793034265898 0 -0.014678011153965389 -0.03788450758507541 0 -0.015561538564548035 -0.037303479520175896 0 -0.01599587856093122 -0.038521701090658104 0 -0.014370009754255231 -0.036973620470266678 0 -0.014950417600732603 -0.036324922277004762 0 -0.015561538564548035 -0.037303479520175896 0 -0.014678011153965389 -0.03788450758507541 0 -0.014370009754255231 -0.036973620470266678 0 -0.015561538564548035 -0.037303479520175896 0 -0.014453201468693935 -0.03670297062554928 0 -0.015371989838760189 -0.037539358410442897 0 -0.013504044792649569 -0.037275318938808311 0 -0.014678011153965389 -0.03788450758507541 0 -0.014370009754255231 -0.036973620470266678 0 -0.013577038931751892 -0.035986686288648179 0 -0.013504044792649569 -0.037275318938808311 0 -0.014370009754255231 -0.036973620470266678 0 -0.013577038931751892 -0.035986686288648179 0 -0.014370009754255231 -0.036973620470266678 0 -0.014950417600732603 -0.036324922277004762 0 -0.013354861688452804 -0.036029349498599678 0 -0.014827699178700138 -0.036315732345507251 0 -0.013029603268908211 -0.036077752895176035 0 -0.014057040400001313 -0.034999881545406578 0 -0.014950417600732603 -0.036324922277004762 0 -0.01254524012349181 -0.03552918948801026 0 -0.013029603268908211 -0.036077752895176035 0 -0.014057040400001313 -0.034999881545406578 0 -0.014057040400001313 -0.034999881545406578 0 -0.014950417600732603 -0.036324922277004762 0 -0.016081272625031697 -0.034999841282977985 0 -0.014950417600732603 -0.036324922277004762 0 -0.016162379165212497 -0.036332719903326691 0 -0.015561538564548035 -0.037303479520175896 0 -0.014950417600732603 -0.036324922277004762 0 -0.016162379165212497 -0.036332719903326691 0 -0.016081272625031697 -0.034999841282977985 0 -0.018105597325514946 -0.034999632982549808 0 -0.016081272625031697 -0.034999841282977985 0 -0.017419080559493694 -0.035922694940711368 0 -0.016162379165212497 -0.036332719903326691 0 -0.016081272625031697 -0.034999841282977985 0 -0.017419080559493694 -0.035922694940711368 0 -0.016162379165212497 -0.036332719903326691 0 -0.017419080559493694 -0.035922694940711368 0 -0.016831421072345251 -0.037087944308663759 0 -0.018502726711204932 -0.036700948843446879 0 -0.017419080559493694 -0.035922694940711368 0 -0.016831421072345251 -0.037087944308663759 0 -0.016831421072345251 -0.037087944308663759 0 -0.015561538564548035 -0.037303479520175896 0 -0.01599587856093122 -0.038521701090658104 0 -0.016162379165212497 -0.036332719903326691 0 -0.016831421072345251 -0.037087944308663759 0 -0.015561538564548035 -0.037303479520175896 0 -0.024244961329081351 -0.034367546964843773 0 -0.024620235105795456 -0.033777711179594862 0 -0.025208484956719054 -0.034116294732301385 0 -0.021141763999594183 -0.036359654227908003 0 -0.020248425165667858 -0.035298793034265898 0 -0.017935814517270554 -0.038067734053902659 0 -0.016831421072345251 -0.037087944308663759 0 -0.01599587856093122 -0.038521701090658104 0 -0.00096720260404302774 -0.032088833063606791 0 -0.0018105446034129044 -0.032568448557344774 0 -0.0016067501690340466 -0.031380626687640426 0 -0.00096720260404302774 -0.032088833063606791 0 -0.0018105446034129044 -0.032568448557344774 0 -0.0003639970818840389 -0.032801258663869202 0 -0.0018105446034129044 -0.032568448557344774 0 -0.0022691573181498003 -0.03189071902534453 0 -0.0016067501690340466 -0.031380626687640426 0 -0.0018105446034129044 -0.032568448557344774 0 -0.0022691573181498003 -0.03189071902534453 0 -0.0032675583434809067 -0.032319389044891636 0 -0.0013776550236503158 -0.026637847905225172 0 -0.0051573961597151871 -0.030194503804550889 0 -0.0020306187106158228 -0.035027359054265073 0 -0.0038548257543224345 -0.037635514838641866 0 -0.0026346225155842221 -0.039169251263532136 0 -0.004008008195789935 -0.039236783762291616 0 -0.0037262831037942453 -0.038313090042327705 0 -0.0022691573181498003 -0.03189071902534453 0 -0.0016067501690340466 -0.031380626687640426 0 -0.0029989081324839325 -0.03148839406121183 0 -0.00096720260404302774 -0.032088833063606791 0 -0.0016067501690340466 -0.031380626687640426 0 -0.0002266860533001545 -0.031303403412324619 0 -0.0026346225155842221 -0.039169251263532136 0 -0.0011844625419847432 -0.039153548907651686 0 -0.0022348574322353805 -0.038359017992929297 0 -0.0020306187106158228 -0.035027359054265073 0 -0.00068642279667282754 -0.035266773509578769 0 -0.0011844625419847432 -0.039153548907651686 0 -0.00060957682603169543 -0.038519909027094665 0 0.00045508068484950871 -0.039126898062556995 0 -0.00068642279667282754 -0.035266773509578769 0 0.00061252848781499141 -0.035088788327199166 0 -0.0002266860533001545 -0.031303403412324619 0 0.00051209919823405972 -0.032101701393527811 0 0.0011028012960040774 -0.031257331995077367 0 -0.00096720260404302774 -0.032088833063606791 0 0.00051209919823405972 -0.032101701393527811 0 -0.0003639970818840389 -0.032801258663869202 0 -0.00096720260404302774 -0.032088833063606791 0 -0.0002266860533001545 -0.031303403412324619 0 0.00051209919823405972 -0.032101701393527811 0 -0.0012619245495594685 -0.027488245934855656 0 0.0045039654289879766 -0.025390850244942559 0 0.00051209919823405972 -0.032101701393527811 0 -0.0003639970818840389 -0.032801258663869202 0 0.0010465189356692614 -0.03301688281463571 0 -0.00054652110073508575 -0.021694086504830776 0 9.478152227300677e-05 -0.02294039424232993 0 0.00087820103626212894 -0.021937769815751271 0 0.0068799474300431504 -0.018003532525558249 0 0.0045039654289879766 -0.025390850244942559 0 -0.0010053442424173039 -0.023393303349305103 0 9.478152227300677e-05 -0.02294039424232993 0 -0.0011525637073689107 -0.022543425571127627 0 -0.00054652110073508575 -0.021694086504830776 0 9.478152227300677e-05 -0.02294039424232993 0 -0.0011525637073689107 -0.022543425571127627 0 -0.0017737329132118398 -0.023281129144797057 0 -0.0011525637073689107 -0.022543425571127627 0 -0.0020982567170474841 -0.02265216757822773 0 -0.0013776550236503158 -0.026637847905225172 0 -0.0012619245495594685 -0.027488245934855656 0 -0.0019542568631145067 -0.021503883339642694 0 -0.0011525637073689107 -0.022543425571127627 0 -0.0020982567170474841 -0.02265216757822773 0 -0.0019542568631145067 -0.021503883339642694 0 -0.00054652110073508575 -0.021694086504830776 0 -0.0011525637073689107 -0.022543425571127627 0 -0.0019542568631145067 -0.021503883339642694 0 -0.0020982567170474841 -0.02265216757822773 0 -0.0027946228633662171 -0.022246876897519738 0 -0.0020982567170474841 -0.02265216757822773 0 -0.0026650769282511809 -0.02276700494913984 0 -0.0027946228633662171 -0.022246876897519738 0 -0.0025345242820517151 -0.023230381827874153 0 -0.0017737329132118398 -0.023281129144797057 0 -0.0020982567170474841 -0.02265216757822773 0 -0.0025345242820517151 -0.023230381827874153 0 -0.0020982567170474841 -0.02265216757822773 0 -0.0026650769282511809 -0.02276700494913984 0 -0.0032319707801673164 -0.022940108004661418 0 -0.0037020295982491021 -0.022561239827146091 0 -0.0027946228633662171 -0.022246876897519738 0 -0.0025345242820517151 -0.023230381827874153 0 -0.0026650769282511809 -0.02276700494913984 0 -0.0032319707801673164 -0.022940108004661418 0 -0.0026650769282511809 -0.02276700494913984 0 -0.0032319707801673164 -0.022940108004661418 0 -0.0027946228633662171 -0.022246876897519738 0 -0.0040068925874577358 -0.024110208061463814 0 -0.0089727205562561869 -0.026407955963564031 0 -0.0099726604352011715 -0.031028326068143697 0 -0.010089933345691433 -0.03068245659955942 0 -0.010395291713884898 -0.030744802269936023 0 -0.0089727205562561869 -0.026407955963564031 0 -0.016170930015136732 -0.030701104195869012 0 -0.0099726604352011715 -0.031028326068143697 0 -0.010089933345691433 -0.03068245659955942 0 -0.0097883976853049941 -0.030552106034658782 0 -0.0089727205562561869 -0.026407955963564031 0 -0.0051573961597151871 -0.030194503804550889 0 -0.0037020295982491021 -0.022561239827146091 0 -0.0027946228633662171 -0.022246876897519738 0 -0.0033076473140842295 -0.0213484378790392 0 -0.0019542568631145067 -0.021503883339642694 0 -0.0027946228633662171 -0.022246876897519738 0 -0.0033076473140842295 -0.0213484378790392 0 -0.019501727269937697 -0.031509009394135368 0 -0.019536577222132451 -0.031349344271724464 0 -0.019734165380557663 -0.031526724955425953 0 -0.019779118586138161 -0.03137273309630919 0 -0.019536577222132451 -0.031349344271724464 0 -0.019734165380557663 -0.031526724955425953 0 -0.019501727269937697 -0.031509009394135368 0 -0.019147054211259694 -0.031319386711971826 0 -0.019536577222132451 -0.031349344271724464 0 -0.019147054211259694 -0.031319386711971826 0 -0.019536577222132451 -0.031349344271724464 0 -0.019400442000033893 -0.031167528203524475 0 -0.019536577222132451 -0.031349344271724464 0 -0.019400442000033893 -0.031167528203524475 0 -0.019648959718728223 -0.031197472498068486 0 -0.019779118586138161 -0.03137273309630919 0 -0.019536577222132451 -0.031349344271724464 0 -0.019648959718728223 -0.031197472498068486 0 -0.012994806956902832 -0.034661311542214197 0 -0.0087440476398985608 -0.03592982850721313 0 -0.016170930015136732 -0.030701104195869012 0 -0.012994806956902832 -0.034661311542214197 0 -0.019400442000033893 -0.031167528203524475 0 -0.019648959718728223 -0.031197472498068486 0 -0.019618512954948455 -0.030966898849317713 0 -0.010395291713884898 -0.030744802269936023 0 -0.010849565008927944 -0.030472169267247259 0 -0.010304036418210587 -0.030493971932795884 0 -0.0096355038387017106 -0.039984366019970241 0 -0.0075217551395251438 -0.040218441329256192 0 -0.0079919670397755414 -0.039488773152625611 0 -0.010089933345691433 -0.03068245659955942 0 -0.010395291713884898 -0.030744802269936023 0 -0.010304036418210587 -0.030493971932795884 0 -0.0075217551395251438 -0.040218441329256192 0 -0.0071555577612747445 -0.039595738114048588 0 -0.0079919670397755414 -0.039488773152625611 0 -0.0071555577612747445 -0.039595738114048588 0 -0.0079919670397755414 -0.039488773152625611 0 -0.0067946503564268526 -0.039308418905894239 0 -0.0074308169064224751 -0.038877564107479182 0 -0.0079919670397755414 -0.039488773152625611 0 -0.0068118925196066415 -0.039378855891643541 0 -0.0078000574349399747 -0.039423314993124792 0 -0.0067622332257167225 -0.03919777933484072 0 -0.0074308169064224751 -0.038877564107479182 0 -0.008198162071928557 -0.038757637137785531 0 -0.0074338300773367063 -0.038280404055618486 0 -0.0074308169064224751 -0.038877564107479182 0 -0.0067549046148289845 -0.03849889372608651 0 -0.0074338300773367063 -0.038280404055618486 0 -0.008198162071928557 -0.038757637137785531 0 -0.0079919670397755414 -0.039488773152625611 0 -0.0089941361316841079 -0.038990916842517168 0 -0.0074308169064224751 -0.038877564107479182 0 -0.008198162071928557 -0.038757637137785531 0 -0.0079919670397755414 -0.039488773152625611 0 -0.0096355038387017106 -0.039984366019970241 0 -0.0079919670397755414 -0.039488773152625611 0 -0.0089941361316841079 -0.038990916842517168 0 -0.008198162071928557 -0.038757637137785531 0 -0.0089941361316841079 -0.038990916842517168 0 -0.0090732988498088227 -0.037875487165072046 0 -0.0089941361316841079 -0.038990916842517168 0 -0.009917027532405984 -0.038674320045934837 0 -0.0090732988498088227 -0.037875487165072046 0 -0.0096355038387017106 -0.039984366019970241 0 -0.0089941361316841079 -0.038990916842517168 0 -0.009917027532405984 -0.038674320045934837 0 -0.0051573961597151871 -0.030194503804550889 0 -0.0038548257543224345 -0.037635514838641866 0 -0.0022691573181498003 -0.03189071902534453 0 -0.0032675583434809067 -0.032319389044891636 0 -0.0029989081324839325 -0.03148839406121183 0 -0.0087440476398985608 -0.03592982850721313 0 -0.0051573961597151871 -0.030194503804550889 0 -0.0075217551395251438 -0.040218441329256192 0 -0.0071555577612747445 -0.039595738114048588 0 -0.0054494339951209753 -0.040488326225465054 0 -0.0071555577612747445 -0.039595738114048588 0 -0.0054494339951209753 -0.040488326225465054 0 -0.0067843330401235373 -0.039302265424190255 0 -0.010089933345691433 -0.03068245659955942 0 -0.010304036418210587 -0.030493971932795884 0 -0.0097883976853049941 -0.030552106034658782 0 -0.0067622332257167225 -0.03919777933484072 0 -0.0038548257543224345 -0.037635514838641866 0 -0.0060907166899203825 -0.038791221111643737 0 -0.0047111022869352898 -0.038689588796779237 0 -0.0052157465931667087 -0.038148442517793299 0 -0.0054494339951209753 -0.040488326225465054 0 -0.0067843330401235373 -0.039302265424190255 0 -0.0050182293517255349 -0.039115959765394788 0 -0.0069482656445904864 -0.039357541841603144 0 -0.0067622332257167225 -0.03919777933484072 0 -0.0068118925196066415 -0.039378855891643541 0 -0.0067549046148289845 -0.03849889372608651 0 -0.0058871952390538353 -0.038573948988683986 0 -0.0074308169064224751 -0.038877564107479182 0 -0.0068118925196066415 -0.039378855891643541 0 -0.0067549046148289845 -0.03849889372608651 0 -0.0067622332257167225 -0.03919777933484072 0 -0.0055187537273786213 -0.038360537958799151 0 -0.0038548257543224345 -0.037635514838641866 0 -0.0044055218125785634 -0.038123405436865702 0 -0.0047111022869352898 -0.038689588796779237 0 -0.0052157465931667087 -0.038148442517793299 0 -0.0043505117184374342 -0.037515495270691736 0 -0.0058871952390538353 -0.038573948988683986 0 -0.0051211629150656451 -0.037941729450539183 0 -0.0056507318309888688 -0.037113359920211066 0 -0.0055187537273786213 -0.038360537958799151 0 -0.0044055218125785634 -0.038123405436865702 0 -0.0067549046148289845 -0.03849889372608651 0 -0.0067825110363795198 -0.037185086651826439 0 -0.0074338300773367063 -0.038280404055618486 0 -0.0067549046148289845 -0.03849889372608651 0 -0.0058871952390538353 -0.038573948988683986 0 -0.0067825110363795198 -0.037185086651826439 0 -0.0058871952390538353 -0.038573948988683986 0 -0.0067825110363795198 -0.037185086651826439 0 -0.0056507318309888688 -0.037113359920211066 0 -0.0067825110363795198 -0.037185086651826439 0 -0.0069896312542172892 -0.036160973633280899 0 -0.0060771761160282271 -0.036431114431450501 0 -0.0067825110363795198 -0.037185086651826439 0 -0.0056507318309888688 -0.037113359920211066 0 -0.0060771761160282271 -0.036431114431450501 0 -0.0051211629150656451 -0.037941729450539183 0 -0.0056507318309888688 -0.037113359920211066 0 -0.0048538259608629517 -0.036803538597598148 0 -0.0056507318309888688 -0.037113359920211066 0 -0.0053009262958309223 -0.03613682530468388 0 -0.0048538259608629517 -0.036803538597598148 0 -0.0067825110363795198 -0.037185086651826439 0 -0.0090732988498088227 -0.037875487165072046 0 -0.0074338300773367063 -0.038280404055618486 0 -0.008198162071928557 -0.038757637137785531 0 -0.0090732988498088227 -0.037875487165072046 0 -0.0074338300773367063 -0.038280404055618486 0 -0.0067825110363795198 -0.037185086651826439 0 -0.0090732988498088227 -0.037875487165072046 0 -0.0092589260715215012 -0.035575866859452111 0 -0.0067825110363795198 -0.037185086651826439 0 -0.0081199833888320333 -0.036738466976430552 0 -0.0069896312542172892 -0.036160973633280899 0 -0.0068818214154327782 -0.03714709866878458 0 -0.0086991933940267618 -0.03607604240704277 0 -0.011020715653880474 -0.036393457958112517 0 -0.0090732988498088227 -0.037875487165072046 0 -0.0092589260715215012 -0.035575866859452111 0 -0.0082404930988885655 -0.036074114845961895 0 -0.0069896312542172892 -0.036160973633280899 0 -0.0077667377748691507 -0.035708065050052445 0 -0.0081199833888320333 -0.036738466976430552 0 -0.0082404930988885655 -0.036074114845961895 0 -0.0069896312542172892 -0.036160973633280899 0 -0.0077667377748691507 -0.035708065050052445 0 -0.0079835243060950595 -0.034999842389477551 0 -0.0059608042420924963 -0.03499992176072491 0 -0.0069896312542172892 -0.036160973633280899 0 -0.0077667377748691507 -0.035708065050052445 0 -0.0059608042420924963 -0.03499992176072491 0 -0.0077667377748691507 -0.035708065050052445 0 -0.0079835243060950595 -0.034999842389477551 0 -0.0085327756205076169 -0.035543431690688278 0 -0.0090527401808556153 -0.035178905328391019 0 -0.0079835243060950595 -0.034999842389477551 0 -0.0085327756205076169 -0.035543431690688278 0 -0.0082404930988885655 -0.036074114845961895 0 -0.0077667377748691507 -0.035708065050052445 0 -0.0085327756205076169 -0.035543431690688278 0 -0.0056507318309888688 -0.037113359920211066 0 -0.0053009262958309223 -0.03613682530468388 0 -0.0060771761160282271 -0.036431114431450501 0 -0.0053009262958309223 -0.03613682530468388 0 -0.0053724577231303167 -0.035435291060343703 0 -0.0045859962753890147 -0.035842513877033973 0 -0.0053009262958309223 -0.03613682530468388 0 -0.0059325612558748641 -0.035777956209977674 0 -0.0053724577231303167 -0.035435291060343703 0 -0.0053009262958309223 -0.03613682530468388 0 -0.0060771761160282271 -0.036431114431450501 0 -0.0059325612558748641 -0.035777956209977674 0 -0.0069896312542172892 -0.036160973633280899 0 -0.0060771761160282271 -0.036431114431450501 0 -0.0059325612558748641 -0.035777956209977674 0 -0.0059325612558748641 -0.035777956209977674 0 -0.0059608042420924963 -0.03499992176072491 0 -0.0053724577231303167 -0.035435291060343703 0 -0.0069896312542172892 -0.036160973633280899 0 -0.0059325612558748641 -0.035777956209977674 0 -0.0059608042420924963 -0.03499992176072491 0 -0.0059594427953316171 -0.035000161637632386 0 -0.005147396877358588 -0.035488848556656655 0 -0.0059596802285181907 -0.034999999164999455 0 -0.004854623130241059 -0.035596606816075238 0 -0.0046706762825983001 -0.034999997138350274 0 -0.004854623130241059 -0.035596606816075238 0 -0.0046706762825983001 -0.034999997138350274 0 -0.0040907840263092084 -0.035504223084343395 0 -0.0033817797631787491 -0.035000402435096535 0 -0.0038827568480590421 -0.036006916718273795 0 -0.0046706762825983001 -0.034999997138350274 0 -0.0033816841362318243 -0.034999997876304347 0 -0.0040907840263092084 -0.035504223084343395 0 -0.0033816841362318243 -0.034999997876304347 0 -0.0040907840263092084 -0.035504223084343395 0 -0.0037529785513830513 -0.036192093386428557 0 -0.005147396877358588 -0.035488848556656655 0 -0.0038827568480590421 -0.036006916718273795 0 -0.004854623130241059 -0.035596606816075238 0 -0.0040907840263092084 -0.035504223084343395 0 -0.0037529785513830513 -0.036192093386428557 0 -0.0033814681600441788 -0.034999912806196187 0 -0.0025908184019408495 -0.036014943107098955 0 -0.0036864039440348616 -0.036129365099251465 0 -0.0033814681600441788 -0.034999912806196187 0 -0.0025908184019408495 -0.036014943107098955 0 -0.0013755103681571095 -0.034999912798297436 0 -0.0036344502375481509 -0.036068427885008927 0 -0.0033326662167939194 -0.036797824205623011 0 -0.0023968554896018133 -0.036738238398866717 0 -0.0025908184019408495 -0.036014943107098955 0 -0.0036864039440348616 -0.036129365099251465 0 -0.0020412328810764267 -0.036943709370479104 0 -0.0038827568480590421 -0.036006916718273795 0 -0.0020641313070042851 -0.036855677878550569 0 -0.0025908184019408495 -0.036014943107098955 0 -0.0020412328810764267 -0.036943709370479104 0 -0.0018842069912506484 -0.036364800889715505 0 -0.0053009262958309223 -0.03613682530468388 0 -0.0045859962753890147 -0.035842513877033973 0 -0.0048538259608629517 -0.036803538597598148 0 -0.0036344502375481509 -0.036068427885008927 0 -0.0033326662167939194 -0.036797824205623011 0 -0.0039480783600063509 -0.037090101395651345 0 -0.0038827568480590421 -0.036006916718273795 0 -0.0044227569930527545 -0.036950616937341321 0 -0.0042637091452672081 -0.038111635288663473 0 -0.0039480783600063509 -0.037090101395651345 0 -0.0033303491131283463 -0.037424532471990408 0 -0.0044055218125785634 -0.038123405436865702 0 -0.0044227569930527545 -0.036950616937341321 0 -0.0033326662167939194 -0.036797824205623011 0 -0.0039480783600063509 -0.037090101395651345 0 -0.0033303491131283463 -0.037424532471990408 0 -0.0027790469033862671 -0.037610497072769561 0 -0.0022348574322353805 -0.038359017992929297 0 -0.0018389682552348433 -0.037604776616872365 0 -0.0027790469033862671 -0.037610497072769561 0 -0.0018389682552348433 -0.037604776616872365 0 -0.0018387354672562231 -0.036897193086753752 0 -0.0030044418660048079 -0.037500328726643287 0 -0.0020641313070042851 -0.036855677878550569 0 -0.0033326662167939194 -0.036797824205623011 0 -0.0033303491131283463 -0.037424532471990408 0 -0.0023968554896018133 -0.036738238398866717 0 -0.0037262831037942453 -0.038313090042327705 0 -0.0027790469033862671 -0.037610497072769561 0 -0.0022348574322353805 -0.038359017992929297 0 -0.0026346225155842221 -0.039169251263532136 0 -0.0037262831037942453 -0.038313090042327705 0 -0.0022348574322353805 -0.038359017992929297 0 -0.0044055218125785634 -0.038123405436865702 0 -0.0030044418660048079 -0.037500328726643287 0 -0.00060957682603169543 -0.038519909027094665 0 -0.00017334528739254852 -0.037943430132827825 0 -0.0012746012343395185 -0.038085497326829781 0 -0.00060957682603169543 -0.038519909027094665 0 -0.00017334528739254852 -0.037943430132827825 0 0.00045508068484950871 -0.039126898062556995 0 -0.0011844625419847432 -0.039153548907651686 0 -0.0022348574322353805 -0.038359017992929297 0 -0.0012746012343395185 -0.038085497326829781 0 -0.0011844625419847432 -0.039153548907651686 0 -0.00060957682603169543 -0.038519909027094665 0 -0.0012746012343395185 -0.038085497326829781 0 -0.0022348574322353805 -0.038359017992929297 0 -0.0012746012343395185 -0.038085497326829781 0 -0.0018389682552348433 -0.037604776616872365 0 -0.0012746012343395185 -0.038085497326829781 0 -0.0013955611453521609 -0.037559946778488625 0 -0.00089467793882484303 -0.037306949308784816 0 -0.0012746012343395185 -0.038085497326829781 0 -0.0013955611453521609 -0.037559946778488625 0 -0.0018389682552348433 -0.037604776616872365 0 -0.0018389682552348433 -0.037604776616872365 0 -0.0015559738100364615 -0.037054788284029416 0 -0.0018387354672562231 -0.036897193086753752 0 -0.0013955611453521609 -0.037559946778488625 0 -0.0018389682552348433 -0.037604776616872365 0 -0.0015559738100364615 -0.037054788284029416 0 -0.0015559738100364615 -0.037054788284029416 0 -0.00089467793882484303 -0.037306949308784816 0 -0.0012866055641755048 -0.036772967473490244 0 -0.0013955611453521609 -0.037559946778488625 0 -0.0015559738100364615 -0.037054788284029416 0 -0.00089467793882484303 -0.037306949308784816 0 -0.00017334528739254852 -0.037943430132827825 0 -0.0012746012343395185 -0.038085497326829781 0 -0.00089467793882484303 -0.037306949308784816 0 -0.00017334528739254852 -0.037943430132827825 0 -0.00089467793882484303 -0.037306949308784816 0 0.00033365530801889677 -0.037102479657990066 0 -0.00089467793882484303 -0.037306949308784816 0 -4.2205316685295995e-05 -0.036403354726785069 0 0.00033365530801889677 -0.037102479657990066 0 -0.00089467793882484303 -0.037306949308784816 0 -0.0008772006144558076 -0.03660794946553677 0 -4.2205316685295995e-05 -0.036403354726785069 0 -0.0008772006144558076 -0.03660794946553677 0 -0.0013541503670598642 -0.03636613146644934 0 -0.00073328721194812463 -0.035846077520390505 0 -0.0008772006144558076 -0.03660794946553677 0 -4.2205316685295995e-05 -0.036403354726785069 0 -0.00073328721194812463 -0.035846077520390505 0 -0.0020412328810764267 -0.036943709370479104 0 -0.0017304309268625516 -0.036726290076819254 0 -0.0018842069912506484 -0.036364800889715505 0 -0.0017766421990261245 -0.036989580651011086 0 -0.0020641313070042851 -0.036855677878550569 0 -0.0015559738100364615 -0.037054788284029416 0 -0.0019411115739757746 -0.036889687286684104 0 -0.0017304309268625516 -0.036726290076819254 0 -0.0020641313070042851 -0.036855677878550569 0 -0.0019436604569877869 -0.036789516505490595 0 -0.0015559738100364615 -0.037054788284029416 0 -0.0017304309268625516 -0.036726290076819254 0 -0.0012866055641755048 -0.036772967473490244 0 -0.00089467793882484303 -0.037306949308784816 0 -0.0008772006144558076 -0.03660794946553677 0 -0.0012866055641755048 -0.036772967473490244 0 -0.0017304309268625516 -0.036726290076819254 0 -0.0012866055641755048 -0.036772967473490244 0 -0.0013541503670598642 -0.03636613146644934 0 -0.0008772006144558076 -0.03660794946553677 0 -0.0012866055641755048 -0.036772967473490244 0 -0.0013541503670598642 -0.03636613146644934 0 -0.0013541503670598642 -0.03636613146644934 0 -0.0016335071694340872 -0.035878386343231962 0 -0.00073328721194812463 -0.035846077520390505 0 -0.0025908184019408495 -0.036014943107098955 0 -0.0018842069912506484 -0.036364800889715505 0 -0.0016335071694340872 -0.035878386343231962 0 -0.0017304309268625516 -0.036726290076819254 0 -0.0013541503670598642 -0.03636613146644934 0 -0.0018842069912506484 -0.036364800889715505 0 -0.0013541503670598642 -0.03636613146644934 0 -0.0018842069912506484 -0.036364800889715505 0 -0.0016335071694340872 -0.035878386343231962 0 -0.0025908184019408495 -0.036014943107098955 0 -0.0016335071694340872 -0.035878386343231962 0 -0.0013755103681571095 -0.034999912798297436 0 -0.0016335071694340872 -0.035878386343231962 0 -0.0013755103681571095 -0.034999912798297436 0 -0.00073328721194812463 -0.035846077520390505 0 -0.0013755103681571095 -0.034999912798297436 0 -0.00073328721194812463 -0.035846077520390505 0 0.00063051580136628291 -0.034999850530943954 0 -4.2205316685295995e-05 -0.036403354726785069 0 -0.00073328721194812463 -0.035846077520390505 0 0.00063051580136628291 -0.034999850530943954 0 -4.2205316685295995e-05 -0.036403354726785069 0 0.00063051580136628291 -0.034999850530943954 0 0.0012152386623256798 -0.036300377731006216 0 0.0012152386623256798 -0.036300377731006216 0 0.0026365186735517149 -0.034999884040299321 0 0.002473778289755185 -0.036819449703252183 0 0.00063051580136628291 -0.034999850530943954 0 0.0012152386623256798 -0.036300377731006216 0 0.0026365186735517149 -0.034999884040299321 0 -4.2205316685295995e-05 -0.036403354726785069 0 0.0012152386623256798 -0.036300377731006216 0 0.00033365530801889677 -0.037102479657990066 0 0.0026365186735517149 -0.034999884040299321 0 0.0035821925880343991 -0.036049713689085036 0 0.002473778289755185 -0.036819449703252183 0 0.0035821925880343991 -0.036049713689085036 0 0.0045522765589541157 -0.036699326700031058 0 0.0046422846044850037 -0.034999932087485024 0 0.0026365186735517149 -0.034999884040299321 0 0.0035821925880343991 -0.036049713689085036 0 0.0046422846044850037 -0.034999932087485024 0 0.0035821925880343991 -0.036049713689085036 0 0.003611022266616908 -0.036915909393849845 0 0.002473778289755185 -0.036819449703252183 0 0.0035821925880343991 -0.036049713689085036 0 0.003611022266616908 -0.036915909393849845 0 0.0045522765589541157 -0.036699326700031058 0 0.0041314503076460467 -0.037280559545765674 0 0.003611022266616908 -0.036915909393849845 0 0.003132040521911419 -0.037747821145634526 0 0.0041314503076460467 -0.037280559545765674 0 0.003611022266616908 -0.036915909393849845 0 0.0045522765589541157 -0.036699326700031058 0 0.003611022266616908 -0.036915909393849845 0 0.002473778289755185 -0.036819449703252183 0 0.003132040521911419 -0.037747821145634526 0 0.002473778289755185 -0.036819449703252183 0 0.003132040521911419 -0.037747821145634526 0 0.001972773300915864 -0.038019520027492267 0 0.003132040521911419 -0.037747821145634526 0 0.0027815786163645972 -0.038250280996574043 0 0.0038469088916188825 -0.038041443561216581 0 0.0026095338543363116 -0.038573134942179503 0 0.003205091349919172 -0.036100451615966783 0 0.003132040521911419 -0.037747821145634526 0 0.001972773300915864 -0.038019520027492267 0 0.0022893407593669157 -0.039013703413484424 0 0.0041314503076460467 -0.037280559545765674 0 0.003132040521911419 -0.037747821145634526 0 0.0038469088916188825 -0.038041443561216581 0 -0.00017334528739254852 -0.037943430132827825 0 0.00033365530801889677 -0.037102479657990066 0 0.0011153381945082225 -0.037504492164522486 0 0.0012152386623256798 -0.036300377731006216 0 0.00033365530801889677 -0.037102479657990066 0 0.0011153381945082225 -0.037504492164522486 0 0.0012152386623256798 -0.036300377731006216 0 0.002473778289755185 -0.036819449703252183 0 0.0011153381945082225 -0.037504492164522486 0 0.002473778289755185 -0.036819449703252183 0 0.0011153381945082225 -0.037504492164522486 0 0.001972773300915864 -0.038019520027492267 0 0.001972773300915864 -0.038019520027492267 0 0.00045508068484950871 -0.039126898062556995 0 0.0022893407593669157 -0.039013703413484424 0 0.0011153381945082225 -0.037504492164522486 0 0.001972773300915864 -0.038019520027492267 0 0.00045508068484950871 -0.039126898062556995 0 -0.00017334528739254852 -0.037943430132827825 0 0.0011153381945082225 -0.037504492164522486 0 0.00045508068484950871 -0.039126898062556995 0 0.00051209919823405972 -0.032101701393527811 0 0.0011028012960040774 -0.031257331995077367 0 0.001229862851339524 -0.031830067369757964 0 0.0011028012960040774 -0.031257331995077367 0 0.0014917799464040605 -0.031324925228100403 0 0.001229862851339524 -0.031830067369757964 0 0.0014917799464040605 -0.031324925228100403 0 0.0015881107072858852 -0.031767259693311366 0 0.001229862851339524 -0.031830067369757964 0 0.00051209919823405972 -0.032101701393527811 0 0.0015627129075579187 -0.032307515388630935 0 0.0010465189356692614 -0.03301688281463571 0 0.00051209919823405972 -0.032101701393527811 0 0.001229862851339524 -0.031830067369757964 0 0.0015627129075579187 -0.032307515388630935 0 0.0015881107072858852 -0.031767259693311366 0 0.001229862851339524 -0.031830067369757964 0 0.0015627129075579187 -0.032307515388630935 0 0.0053306026085008897 -0.03015200263231483 0 0.0043431287746727608 -0.030054893868608115 0 0.0047245999528669593 -0.031038426538027419 0 0.0015881107072858852 -0.031767259693311366 0 0.0015627129075579187 -0.032307515388630935 0 0.0020655144025606888 -0.031613833581832153 0 0.0030180796276075336 -0.031845471123952314 0 0.0041706006750251807 -0.032953111695804255 0 0.0011028012960040774 -0.031257331995077367 0 0.0014917799464040605 -0.031324925228100403 0 0.0024732227573183788 -0.031258570984761869 0 0.00061252848781499141 -0.035088788327199166 0 0.003205091349919172 -0.036100451615966783 0 0.0014917799464040605 -0.031324925228100403 0 0.0021456421729846853 -0.03170240136744272 0 0.0024732227573183788 -0.031258570984761869 0 0.0010644810340254647 -0.031163952476735309 0 0.0041706006750251807 -0.032953111695804255 0 0.0014917799464040605 -0.031324925228100403 0 0.0015881107072858852 -0.031767259693311366 0 0.0020655144025606888 -0.031613833581832153 0 0.0041706006750251807 -0.032953111695804255 0 0.003205091349919172 -0.036100451615966783 0 0.0041706006750251807 -0.032953111695804255 0 0.0050764112047993921 -0.033518351490450633 0 0.0065508092960957992 -0.036641914682263604 0 0.006447685697845114 -0.036819649818365614 0 0.0062484763458917555 -0.03648944134013566 0 0.006447685697845114 -0.036819649818365614 0 0.0061577256973629107 -0.036735288636776983 0 0.0059691213750972796 -0.036987057298528601 0 0.006447685697845114 -0.036819649818365614 0 0.0061577256973629107 -0.036735288636776983 0 0.0062484763458917555 -0.03648944134013566 0 0.003205091349919172 -0.036100451615966783 0 0.0051762264627311007 -0.037618827280055375 0 0.0061577256973629107 -0.036735288636776983 0 0.005931397090427875 -0.036651702311016228 0 0.0062484763458917555 -0.03648944134013566 0 0.0061577256973629107 -0.036735288636776983 0 0.0059691213750972796 -0.036987057298528601 0 0.005931397090427875 -0.036651702311016228 0 0.0059238679274491108 -0.037021861312390082 0 0.004890981119182237 -0.034887845070198854 0 0.004890981119182237 -0.034887845070198854 0 0.0050764112047993921 -0.033518351490450633 0 0.0027591197789236014 -0.030035653118007204 0 0.0037455220738127903 -0.030531669044858673 0 0.0035753464532461469 -0.029653268964828408 0 0.005931397090427875 -0.036651702311016228 0 0.0059027997356894566 -0.03629401298051281 0 0.0062484763458917555 -0.03648944134013566 0 0.005931397090427875 -0.036651702311016228 0 0.0059420987001415288 -0.03607539260343174 0 0.0056622065176710774 -0.036363151006040949 0 0.0043431287746727608 -0.030054893868608115 0 0.0047245999528669593 -0.031038426538027419 0 0.0037455220738127903 -0.030531669044858673 0 0.0043431287746727608 -0.030054893868608115 0 0.0037455220738127903 -0.030531669044858673 0 0.0035753464532461469 -0.029653268964828408 0 0.0035753464532461469 -0.029653268964828408 0 0.0027008280123657497 -0.028668120640345702 0 0.0043227463591452488 -0.028967076638899199 0 0.0043431287746727608 -0.030054893868608115 0 0.0035753464532461469 -0.029653268964828408 0 0.0043227463591452488 -0.028967076638899199 0 0.004890981119182237 -0.034887845070198854 0 0.0028188049626904502 -0.026518099704068123 0 0.0027591197789236014 -0.030035653118007204 0 0.0035753464532461469 -0.029653268964828408 0 0.0027008280123657497 -0.028668120640345702 0 -0.00071890435602895808 -0.017155374531918458 0 -0.00079613765300913498 -0.015227934061097211 0 0.0023591940348783114 -0.015801254048350675 0 0.0028188049626904502 -0.026518099704068123 0 0.0048997209458171518 -0.017131657383025096 0 -0.00071890435602895808 -0.017155374531918458 0 0.0023591940348783114 -0.015801254048350675 0 0.0042460557842912321 -0.018080531499009882 0 0.0028188049626904502 -0.026518099704068123 0 0.0044891353000175742 -0.022912868296301507 0 0.0023591940348783114 -0.015801254048350675 0 0.0066701553630955914 -0.01519443647086441 0 0.0042460557842912321 -0.018080531499009882 0 0.0066701553630955914 -0.01519443647086441 0 0.0093354876933798916 -0.01909517243570456 0 0.0042460557842912321 -0.018080531499009882 0 0.01210532480187243 -0.015200224711638516 0 0.0066701553630955914 -0.01519443647086441 0 0.0093354876933798916 -0.01909517243570456 0 0.0030180796276075336 -0.031845471123952314 0 0.0045039654289879766 -0.025390850244942559 0 0.0053306026085008897 -0.03015200263231483 0 0.0059355820911532655 -0.029254539231221347 0 0.0043227463591452488 -0.028967076638899199 0 0.0053306026085008897 -0.03015200263231483 0 0.0043431287746727608 -0.030054893868608115 0 0.0043227463591452488 -0.028967076638899199 0 0.0045039654289879766 -0.025390850244942559 0 0.0044891353000175742 -0.022912868296301507 0 0.0048222706835067183 -0.035307558866437994 0 0.0050293948537434669 -0.035616374468020663 0 0.0051121142110313851 -0.035392991356531844 0 0.0048222706835067183 -0.035307558866437994 0 0.004904729852939143 -0.035843578285917978 0 0.0050293948537434669 -0.035616374468020663 0 0.0048222706835067183 -0.035307558866437994 0 0.004904729852939143 -0.035843578285917978 0 0.0046597307957095598 -0.035806558850586347 0 0.0048222706835067183 -0.035307558866437994 0 0.0046597307957095598 -0.035806558850586347 0 0.0040954798871286691 -0.035548694577296869 0 0.0046597307957095598 -0.035806558850586347 0 0.0040954798871286691 -0.035548694577296869 0 0.0044603391759541304 -0.036111451623803366 0 0.0048222706835067183 -0.035307558866437994 0 0.0040954798871286691 -0.035548694577296869 0 0.0043007252895407994 -0.034283749803774986 0 0.006139123656016942 -0.033751269695681756 0 0.0087414307609490673 -0.014501116412689303 0 0.0095265239168446404 -0.026956895148969345 0 0.0089105464745149882 -0.022869935532054898 0 0.011076184906840432 -0.022347462765602958 0 0.0048222706835067183 -0.035307558866437994 0 0.0052307002536732946 -0.034391254222987735 0 0.006376004199515695 -0.034510810126008769 0 0.0087414307609490673 -0.014501116412689303 0 0.0064818148454222893 -0.020226628957633105 0 0.0048222706835067183 -0.035307558866437994 0 0.0043007252895407994 -0.034283749803774986 0 0.0052307002536732946 -0.034391254222987735 0 0.0036754438414191553 -0.037403845756520115 0 0.0064682478415160789 -0.024163985209198692 0 0.0081079300524202133 -0.0063128920431110725 0 0.0080640879421516563 -0.0062611623279478813 0 0.0081320548634084156 -0.0061972783298814794 0 0.0048222706835067183 -0.035307558866437994 0 0.0051950686076679157 -0.035214401987220083 0 0.0051121142110313851 -0.035392991356531844 0 0.0064818148454222893 -0.020226628957633105 0 0.0064682478415160789 -0.024163985209198692 0 0.0052792218929909353 -0.035355670154777107 0 0.0053834448321377218 -0.035265572568342972 0 0.0052217296601601562 -0.035524223921476646 0 0.0064682478415160789 -0.024163985209198692 0 0.0053383132520172308 -0.028206046747031293 0 0.0051950686076679157 -0.035214401987220083 0 0.0052792218929909353 -0.035355670154777107 0 0.0051121142110313851 -0.035392991356531844 0 0.0051950686076679157 -0.035214401987220083 0 0.0052792218929909353 -0.035355670154777107 0 0.0054466491682551169 -0.035218752912315979 0 0.0041630780607376109 -0.020357618890642189 0 0.0058714390780072621 -0.020649817925950376 0 0.0078120889508543293 -0.018619289556278874 0 0.0064682478415160789 -0.024163985209198692 0 0.0075740839521896714 -0.010083160754240797 0 0.0048997209458171518 -0.017131657383025096 0 0.0053383132520172308 -0.028206046747031293 0 0.0047323554047318129 -0.024593576723552793 0 0.0046966645375571261 -0.023574951017401452 0 0.0034028224923008149 -0.024359153493631051 0 0.0078446507494404263 -0.019447951920830726 0 0.0058714390780072621 -0.020649817925950376 0 0.0078120889508543293 -0.018619289556278874 0 0.0037909502602876373 -0.032524745764141549 0 0.0053383132520172308 -0.028206046747031293 0 0.0028188049626904502 -0.026518099704068123 0 0.0053383132520172308 -0.028206046747031293 0 0.0055645572737802159 -0.035580676372061366 0 0.0055499013935728543 -0.035266663822987182 0 0.0053834448321377218 -0.035265572568342972 0 0.004890981119182237 -0.034887845070198854 0 0.0056373217173848406 -0.035879646888785352 0 0.0055645572737802159 -0.035580676372061366 0 0.0053834448321377218 -0.035265572568342972 0 0.0052217296601601562 -0.035524223921476646 0 0.0050293948537434669 -0.035616374468020663 0 0.0051121142110313851 -0.035392991356531844 0 0.0052217296601601562 -0.035524223921476646 0 0.0052792218929909353 -0.035355670154777107 0 0.0051121142110313851 -0.035392991356531844 0 0.0052217296601601562 -0.035524223921476646 0 0.0050293948537434669 -0.035616374468020663 0 0.0052217296601601562 -0.035524223921476646 0 0.0050852151553117267 -0.036014100686192166 0 0.004904729852939143 -0.035843578285917978 0 0.0050293948537434669 -0.035616374468020663 0 0.0050852151553117267 -0.036014100686192166 0 0.0050852151553117267 -0.036014100686192166 0 0.0053390768451861918 -0.036295856129742537 0 0.004963930397954501 -0.036651709074961313 0 0.0052217296601601562 -0.035524223921476646 0 0.0050852151553117267 -0.036014100686192166 0 0.0053390768451861918 -0.036295856129742537 0 0.0050852151553117267 -0.036014100686192166 0 0.004963930397954501 -0.036651709074961313 0 0.0047400363305342124 -0.036365442589561633 0 0.0059420987001415288 -0.03607539260343174 0 0.0052217296601601562 -0.035524223921476646 0 0.0053390768451861918 -0.036295856129742537 0 0.0059420987001415288 -0.03607539260343174 0 0.0056622065176710774 -0.036363151006040949 0 0.0053390768451861918 -0.036295856129742537 0 0.005931397090427875 -0.036651702311016228 0 0.0056622065176710774 -0.036363151006040949 0 0.0050063990605658058 -0.037198996855497303 0 0.0059691213750972796 -0.036987057298528601 0 0.005931397090427875 -0.036651702311016228 0 0.0050063990605658058 -0.037198996855497303 0 0.0051762264627311007 -0.037618827280055375 0 0.0048302122333275426 -0.037246629135876924 0 0.0056622065176710774 -0.036363151006040949 0 0.0053390768451861918 -0.036295856129742537 0 0.0050063990605658058 -0.037198996855497303 0 0.004963930397954501 -0.036651709074961313 0 0.0047801864662769741 -0.036812155922575744 0 0.0050063990605658058 -0.037198996855497303 0 0.0053390768451861918 -0.036295856129742537 0 0.004963930397954501 -0.036651709074961313 0 0.0050063990605658058 -0.037198996855497303 0 0.0047801864662769741 -0.036812155922575744 0 0.0047400363305342124 -0.036365442589561633 0 0.0045400462364154322 -0.036713188944494102 0 0.004963930397954501 -0.036651709074961313 0 0.0047801864662769741 -0.036812155922575744 0 0.0047400363305342124 -0.036365442589561633 0 0.004904729852939143 -0.035843578285917978 0 0.0046597307957095598 -0.035806558850586347 0 0.0047400363305342124 -0.036365442589561633 0 0.0046597307957095598 -0.035806558850586347 0 0.0047400363305342124 -0.036365442589561633 0 0.0044603391759541304 -0.036111451623803366 0 0.004904729852939143 -0.035843578285917978 0 0.0050852151553117267 -0.036014100686192166 0 0.0047400363305342124 -0.036365442589561633 0 0.0040954798871286691 -0.035548694577296869 0 0.0044603391759541304 -0.036111451623803366 0 0.0041692239417762669 -0.036320816988172348 0 0.0047400363305342124 -0.036365442589561633 0 0.0044603391759541304 -0.036111451623803366 0 0.0044351771505907727 -0.036436167515957955 0 0.0044603391759541304 -0.036111451623803366 0 0.0044351771505907727 -0.036436167515957955 0 0.0041692239417762669 -0.036320816988172348 0 0.0044351771505907727 -0.036436167515957955 0 0.0041692239417762669 -0.036320816988172348 0 0.0043890743320868439 -0.036621643240604969 0 0.0047400363305342124 -0.036365442589561633 0 0.0044351771505907727 -0.036436167515957955 0 0.0045400462364154322 -0.036713188944494102 0 0.0044351771505907727 -0.036436167515957955 0 0.0045400462364154322 -0.036713188944494102 0 0.0043890743320868439 -0.036621643240604969 0 0.0047801864662769741 -0.036812155922575744 0 0.0045400462364154322 -0.036713188944494102 0 0.0046230495591847208 -0.036889194875526631 0 0.0045400462364154322 -0.036713188944494102 0 0.0043890743320868439 -0.036621643240604969 0 0.0044614144621922406 -0.036789598198741037 0 0.0045400462364154322 -0.036713188944494102 0 0.0046230495591847208 -0.036889194875526631 0 0.0044614144621922406 -0.036789598198741037 0 0.0046230495591847208 -0.036889194875526631 0 0.0045725551442322163 -0.036933825412389445 0 0.0045506424261565022 -0.036895836326760127 0 0.0046230495591847208 -0.036889194875526631 0 0.0048285758000891155 -0.037009701480089661 0 0.0045725551442322163 -0.036933825412389445 0 0.0046230495591847208 -0.036889194875526631 0 0.0045506424261565022 -0.036895836326760127 0 0.0044614144621922406 -0.036789598198741037 0 0.0047801864662769741 -0.036812155922575744 0 0.0048285758000891155 -0.037009701480089661 0 0.0050063990605658058 -0.037198996855497303 0 0.0047801864662769741 -0.036812155922575744 0 0.0046230495591847208 -0.036889194875526631 0 0.0048285758000891155 -0.037009701480089661 0 0.0049019880346435184 -0.036932572580622214 0 0.0048716176936530482 -0.036886897279542155 0 0.0049544708213370963 -0.036858990527803587 0 0.0048285758000891155 -0.037009701480089661 0 0.0049019880346435184 -0.036932572580622214 0 0.0048716176936530482 -0.036886897279542155 0 0.0050234166499658998 -0.036968236731729137 0 0.0049544708213370963 -0.036858990527803587 0 0.0052407864133881127 -0.03684061206548471 0 0.0049019880346435184 -0.036932572580622214 0 0.0050234166499658998 -0.036968236731729137 0 0.0049544708213370963 -0.036858990527803587 0 0.0048285758000891155 -0.037009701480089661 0 0.0049019880346435184 -0.036932572580622214 0 0.0050234166499658998 -0.036968236731729137 0 0.0049416282631396628 -0.036916414405158929 0 0.0045138034836022869 -0.037109245040068586 0 0.0041314503076460467 -0.037280559545765674 0 0.0038469088916188825 -0.038041443561216581 0 0.0050063990605658058 -0.037198996855497303 0 0.0041314503076460467 -0.037280559545765674 0 0.0050063990605658058 -0.037198996855497303 0 0.0047980940835345058 -0.037046401645119853 0 0.0048285758000891155 -0.037009701480089661 0 0.0050063990605658058 -0.037198996855497303 0 0.0047980940835345058 -0.037046401645119853 0 0.0047980940835345058 -0.037046401645119853 0 0.0045522765589541157 -0.036699326700031058 0 0.0048716176936530482 -0.036886897279542155 0 0.0048285758000891155 -0.037009701480089661 0 0.0047980940835345058 -0.037046401645119853 0 0.0048716176936530482 -0.036886897279542155 0 0.0041314503076460467 -0.037280559545765674 0 0.0047980940835345058 -0.037046401645119853 0 0.0045522765589541157 -0.036699326700031058 0 0.0045522765589541157 -0.036699326700031058 0 0.0063028238584991684 -0.036890239101329547 0 0.0055025076946147696 -0.035859911556448187 0 0.0046324794591520802 -0.036739818483847872 0 0.0055433301818996802 -0.036864192170569118 0 0.0055025076946147696 -0.035859911556448187 0 0.0046422846044850037 -0.034999932087485024 0 0.0066484031030545855 -0.034999919503598667 0 0.0063028238584991684 -0.036890239101329547 0 0.0055025076946147696 -0.035859911556448187 0 0.0066484031030545855 -0.034999919503598667 0 0.0045522765589541157 -0.036699326700031058 0 0.0055025076946147696 -0.035859911556448187 0 0.0046422846044850037 -0.034999932087485024 0 0.008707110136273389 -0.036185768678279648 0 0.0079653224434057274 -0.036971704596930589 0 0.0076339127383550573 -0.035855299739176207 0 0.0063028238584991684 -0.036890239101329547 0 0.0079653224434057274 -0.036971704596930589 0 0.0076339127383550573 -0.035855299739176207 0 0.0055433301818996802 -0.036864192170569118 0 0.0065763896827699241 -0.036950181488457155 0 0.0063028238584991684 -0.036890239101329547 0 0.0066484031030545855 -0.034999919503598667 0 0.0076339127383550573 -0.035855299739176207 0 0.0066484031030545855 -0.034999919503598667 0 0.0076339127383550573 -0.035855299739176207 0 0.0086544894152419567 -0.035000001755578075 0 0.008707110136273389 -0.036185768678279648 0 0.0076339127383550573 -0.035855299739176207 0 0.0086544894152419567 -0.035000001755578075 0 0.008707110136273389 -0.036185768678279648 0 0.0086544894152419567 -0.035000001755578075 0 0.0096254592931959045 -0.035928557877188079 0 0.0086544894152419567 -0.035000001755578075 0 0.0096254592931959045 -0.035928557877188079 0 0.0106604998143838 -0.034999982359051426 0 0.0065763896827699241 -0.036950181488457155 0 0.0069299448296380938 -0.036575299472193241 0 0.008707110136273389 -0.036185768678279648 0 0.0079653224434057274 -0.036971704596930589 0 0.0096073738744475029 -0.037023636474449208 0 0.008707110136273389 -0.036185768678279648 0 0.0096254592931959045 -0.035928557877188079 0 0.0096073738744475029 -0.037023636474449208 0 0.0096254592931959045 -0.035928557877188079 0 0.0096073738744475029 -0.037023636474449208 0 0.010498359487944531 -0.036437483025934095 0 0.012569450085422035 -0.034804024178764811 0 0.010941911910421867 -0.036011534392910584 0 0.0069299448296380938 -0.036575299472193241 0 0.012569450085422035 -0.034804024178764811 0 0.0069299448296380938 -0.036575299472193241 0 0.010941911910421867 -0.036011534392910584 0 0.0085722487079606235 -0.036271745565984441 0 0.010794862057230566 -0.036335615976359002 0 0.010958975339153821 -0.034693110100823522 0 0.0048850675964952524 -0.036816043386828187 0 0.0044981955850289168 -0.03709609481433529 0 0.0048895073454152446 -0.03677537766515044 0 0.010527704687318734 -0.036433184602477992 0 0.010660560727443579 -0.034999995288378265 0 0.011579632269538226 -0.035736162854789755 0 0.010941911910421867 -0.036011534392910584 0 0.010660367453615515 -0.035000857111777167 0 0.0096254592931959045 -0.035928557877188079 0 0.010498359487944531 -0.036437483025934095 0 0.0106604998143838 -0.034999982359051426 0 0.010660560727443579 -0.034999995288378265 0 0.011579632269538226 -0.035736162854789755 0 0.012526841304041152 -0.034999993305797519 0 0.012646041497679167 -0.034999860767466875 0 0.012767053321781945 -0.035709620587202437 0 0.013556462572453812 -0.03547114864337883 0 0.011579632269538226 -0.035736162854789755 0 0.012645223834121996 -0.035000007725573129 0 0.012526841304041152 -0.034999993305797519 0 0.011769874778197298 -0.035650392164885983 0 0.012579173513779067 -0.035060609351493993 0 0.012002790291538147 -0.035547779631685955 0 0.012646041497679167 -0.034999860767466875 0 0.012767053321781945 -0.035709620587202437 0 0.012767053321781945 -0.035709620587202437 0 0.013556462572453812 -0.03547114864337883 0 0.013474480589574629 -0.036001829718075799 0 0.012767053321781945 -0.035709620587202437 0 0.012606088777066975 -0.036671207937679889 0 0.013474480589574629 -0.036001829718075799 0 0.012002790291538147 -0.035547779631685955 0 0.012767053321781945 -0.035709620587202437 0 0.012606088777066975 -0.036671207937679889 0 0.012569450085422035 -0.034804024178764811 0 0.016886165978298309 -0.035228698654238465 0 0.011138251097343951 -0.036585502479049854 0 0.011176665494097404 -0.036110579624249205 0 0.012606088777066975 -0.036671207937679889 0 0.011176665494097404 -0.036110579624249205 0 0.012002790291538147 -0.035547779631685955 0 0.012606088777066975 -0.036671207937679889 0 0.010941911910421867 -0.036011534392910584 0 0.011769874778197298 -0.035650392164885983 0 0.020228189157751653 -0.033621878566477616 0 0.019757223148383716 -0.033660396286605283 0 0.019978336051912418 -0.033264084110547598 0 0.019757223148383716 -0.033660396286605283 0 0.01966617674650448 -0.033112595245566555 0 0.01954926282540043 -0.033514285575191094 0 0.019757223148383716 -0.033660396286605283 0 0.019978336051912418 -0.033264084110547598 0 0.01966617674650448 -0.033112595245566555 0 0.01966617674650448 -0.033112595245566555 0 0.019916285425928552 -0.03281939505022162 0 0.019644236790044269 -0.032632542646637036 0 0.01966617674650448 -0.033112595245566555 0 0.019411787704115665 -0.032590955185086291 0 0.019644236790044269 -0.032632542646637036 0 0.019978336051912418 -0.033264084110547598 0 0.019916285425928552 -0.03281939505022162 0 0.020340458108741844 -0.033035772637920263 0 0.019978336051912418 -0.033264084110547598 0 0.01966617674650448 -0.033112595245566555 0 0.019916285425928552 -0.03281939505022162 0 0.0046309151934093998 -0.035221899316930448 0 0.0055527153091602163 -0.035050525043439952 0 0.0054238692783294727 -0.035594809228877748 0 0.0046309151934093998 -0.035221899316930448 0 0.0055527153091602163 -0.035050525043439952 0 0.0062868556231808091 -0.033627371655226043 0 0.0050585821932372689 -0.036234023695155979 0 0.005688941412812969 -0.035272568662155432 0 0.0058424818051167667 -0.034626187580797885 0 0.005688941412812969 -0.035272568662155432 0 0.0045157622125583385 -0.036877304286928467 0 0.0046240724586425995 -0.036927301014660727 0 0.0043751545192091913 -0.03679138478108316 0 0.0055527153091602163 -0.035050525043439952 0 0.0054238692783294727 -0.035594809228877748 0 0.0061728516635709682 -0.034107272426755646 0 0.0045157622125583385 -0.036877304286928467 0 0.0044614144621922406 -0.036789598198741037 0 0.0043751545192091913 -0.03679138478108316 0 0.0045157622125583385 -0.036877304286928467 0 0.0045506424261565022 -0.036895836326760127 0 0.0044614144621922406 -0.036789598198741037 0 0.0045725551442322163 -0.036933825412389445 0 0.0045506424261565022 -0.036895836326760127 0 0.0045946809001788614 -0.036914016959601816 0 0.0045157622125583385 -0.036877304286928467 0 0.0045506424261565022 -0.036895836326760127 0 0.0045946809001788614 -0.036914016959601816 0 0.0045157622125583385 -0.036877304286928467 0 0.0045946809001788614 -0.036914016959601816 0 0.0046240724586425995 -0.036927301014660727 0 0.0046240724586425995 -0.036927301014660727 0 0.004665570827396711 -0.036895550461502967 0 0.0047595470407359045 -0.03684845022485269 0 0.0046240724586425995 -0.036927301014660727 0 0.0047595470407359045 -0.03684845022485269 0 0.0048895073454152446 -0.03677537766515044 0 0.0045138034836022869 -0.037109245040068586 0 0.0069299448296380938 -0.036575299472193241 0 0.0045946809001788614 -0.036914016959601816 0 0.0046240724586425995 -0.036927301014660727 0 0.004665570827396711 -0.036895550461502967 0 0.0045725551442322163 -0.036933825412389445 0 0.0048850675964952524 -0.036816043386828187 0 0.0047595470407359045 -0.03684845022485269 0 0.0045725551442322163 -0.036933825412389445 0 0.0045946809001788614 -0.036914016959601816 0 0.004665570827396711 -0.036895550461502967 0 0.0045725551442322163 -0.036933825412389445 0 0.004665570827396711 -0.036895550461502967 0 0.0047595470407359045 -0.03684845022485269 0 0.0048850675964952524 -0.036816043386828187 0 0.0047595470407359045 -0.03684845022485269 0 0.0048895073454152446 -0.03677537766515044 0 0.020228189157751653 -0.033621878566477616 0 0.019978336051912418 -0.033264084110547598 0 0.020340458108741844 -0.033035772637920263 0 0.0046309151934093998 -0.035221899316930448 0 0.0054238692783294727 -0.035594809228877748 0 0.0048895073454152446 -0.03677537766515044 0 0.0044981955850289168 -0.03709609481433529 0 0.0046309151934093998 -0.035221899316930448 0 0.0048895073454152446 -0.03677537766515044 0 0.012569450085422035 -0.034804024178764811 0 0.012447594560553561 -0.034328682139156685 0 0.0050585821932372689 -0.036234023695155979 0 0.0049276178226976908 -0.036660385344673613 0 0.016842672371065917 -0.035472676326122533 0 0.016911063630928425 -0.035543073747757739 0 0.017254253237428734 -0.035677052068434183 0 0.016842672371065917 -0.035472676326122533 0 0.016911063630928425 -0.035543073747757739 0 0.016979154224232299 -0.035590354000195536 0 0.016911063630928425 -0.035543073747757739 0 0.01626039183875758 -0.03499962558590821 0 0.018123502792233234 -0.034999707771987451 0 0.01626039183875758 -0.03499962558590821 0 0.01580233746922606 -0.035508414827191116 0 0.014393470163114892 -0.034999518205998267 0 0.016911063630928425 -0.035543073747757739 0 0.01626039183875758 -0.03499962558590821 0 0.01580233746922606 -0.035508414827191116 0 0.016911063630928425 -0.035543073747757739 0 0.01580233746922606 -0.035508414827191116 0 0.016979154224232299 -0.035590354000195536 0 0.01580233746922606 -0.035508414827191116 0 0.014377413529528546 -0.035676867405906705 0 0.014518058390149104 -0.036664544510400625 0 0.01580233746922606 -0.035508414827191116 0 0.014518058390149104 -0.036664544510400625 0 0.016979154224232299 -0.035590354000195536 0 0.01580233746922606 -0.035508414827191116 0 0.014393470163114892 -0.034999518205998267 0 0.014377413529528546 -0.035676867405906705 0 0.014393470163114892 -0.034999518205998267 0 0.014377413529528546 -0.035676867405906705 0 0.013556462572453812 -0.03547114864337883 0 0.012646041497679167 -0.034999860767466875 0 0.014393470163114892 -0.034999518205998267 0 0.013556462572453812 -0.03547114864337883 0 0.014377413529528546 -0.035676867405906705 0 0.013556462572453812 -0.03547114864337883 0 0.013474480589574629 -0.036001829718075799 0 0.014377413529528546 -0.035676867405906705 0 0.014518058390149104 -0.036664544510400625 0 0.013474480589574629 -0.036001829718075799 0 0.016886165978298309 -0.035228698654238465 0 0.016659697508639472 -0.035407324327864281 0 0.012606088777066975 -0.036671207937679889 0 0.014518058390149104 -0.036664544510400625 0 0.013474480589574629 -0.036001829718075799 0 0.019319999653560117 -0.034180985755653731 0 0.01954926282540043 -0.033514285575191094 0 0.019296646898681567 -0.033068997905830705 0 0.019757223148383716 -0.033660396286605283 0 0.019319999653560117 -0.034180985755653731 0 0.01954926282540043 -0.033514285575191094 0 0.01966617674650448 -0.033112595245566555 0 0.019296646898681567 -0.033068997905830705 0 0.019411787704115665 -0.032590955185086291 0 0.01966617674650448 -0.033112595245566555 0 0.01954926282540043 -0.033514285575191094 0 0.019296646898681567 -0.033068997905830705 0 0.019296646898681567 -0.033068997905830705 0 0.018837275853078789 -0.032430756834458126 0 0.019107395853476039 -0.032307824731825939 0 0.018837275853078789 -0.032430756834458126 0 0.0186363734056894 -0.033625463260165286 0 0.018325902119762837 -0.032400990553622423 0 0.019296646898681567 -0.033068997905830705 0 0.018837275853078789 -0.032430756834458126 0 0.0186363734056894 -0.033625463260165286 0 0.019319999653560117 -0.034180985755653731 0 0.019296646898681567 -0.033068997905830705 0 0.0186363734056894 -0.033625463260165286 0 0.019319999653560117 -0.034180985755653731 0 0.0186363734056894 -0.033625463260165286 0 0.016979154224232299 -0.035590354000195536 0 0.016659697508639472 -0.035407324327864281 0 0.016913455655970324 -0.035561839431118153 0 0.0186363734056894 -0.033625463260165286 0 0.016979154224232299 -0.035590354000195536 0 0.018325902119762837 -0.032400990553622423 0 0.016979154224232299 -0.035590354000195536 0 0.018325902119762837 -0.032400990553622423 0 0.016469442839010081 -0.034752848749023485 0 0.018309418905758129 -0.03245004736225323 0 0.017916234271637743 -0.033059902151383207 0 0.019235167713773437 -0.031926157330014859 0 0.019143598709397545 -0.031370120456104635 0 0.019683697784815133 -0.03148141711120598 0 0.018325902119762837 -0.032400990553622423 0 0.019235167713773437 -0.031926157330014859 0 0.019143598709397545 -0.031370120456104635 0 0.016842672371065917 -0.035472676326122533 0 0.016979154224232299 -0.035590354000195536 0 0.016469442839010081 -0.034752848749023485 0 0.016842672371065917 -0.035472676326122533 0 0.016469442839010081 -0.034752848749023485 0 0.017254253237428734 -0.035677052068434183 0 0.017916234271637743 -0.033059902151383207 0 0.018504482448991302 -0.033123918850622276 0 0.019438676551607317 -0.031862225654099172 0 0.018918716239919472 -0.032058186245140438 0 0.019217788424496507 -0.031963360461375968 0 0.019438676551607317 -0.031862225654099172 0 0.019217788424496507 -0.031963360461375968 0 0.019497373955272873 -0.03191403190486608 0 0.019235167713773437 -0.031926157330014859 0 0.019438676551607317 -0.031862225654099172 0 0.018918716239919472 -0.032058186245140438 0 0.018325902119762837 -0.032400990553622423 0 0.019235167713773437 -0.031926157330014859 0 0.018918716239919472 -0.032058186245140438 0 0.018837275853078789 -0.032430756834458126 0 0.018325902119762837 -0.032400990553622423 0 0.018918716239919472 -0.032058186245140438 0 0.018918716239919472 -0.032058186245140438 0 0.01909057424457835 -0.031994081972042621 0 0.018987374215146482 -0.032127670147675973 0 0.018918716239919472 -0.032058186245140438 0 0.019217788424496507 -0.031963360461375968 0 0.01909057424457835 -0.031994081972042621 0 0.019217788424496507 -0.031963360461375968 0 0.01909057424457835 -0.031994081972042621 0 0.019271440963544564 -0.03201014958613832 0 0.01909057424457835 -0.031994081972042621 0 0.019081785699476654 -0.032012551944833122 0 0.018987374215146482 -0.032127670147675973 0 0.01909057424457835 -0.031994081972042621 0 0.019081785699476654 -0.032012551944833122 0 0.019125252391716176 -0.031995531136822554 0 0.019081785699476654 -0.032012551944833122 0 0.019110865216887606 -0.032013082104151748 0 0.019128511417998713 -0.031968140158583729 0 0.019081785699476654 -0.032012551944833122 0 0.019110865216887606 -0.032013082104151748 0 0.019071502909154606 -0.032089319608145116 0 0.019081785699476654 -0.032012551944833122 0 0.019071502909154606 -0.032089319608145116 0 0.018987374215146482 -0.032127670147675973 0 0.018837275853078789 -0.032430756834458126 0 0.018918716239919472 -0.032058186245140438 0 0.018987374215146482 -0.032127670147675973 0 0.018837275853078789 -0.032430756834458126 0 0.018987374215146482 -0.032127670147675973 0 0.019107395853476039 -0.032307824731825939 0 0.019071502909154606 -0.032089319608145116 0 0.018987374215146482 -0.032127670147675973 0 0.019107395853476039 -0.032307824731825939 0 0.019107395853476039 -0.032307824731825939 0 0.019258917705160167 -0.032261711555319345 0 0.019147333944187061 -0.032118445425618571 0 0.019296646898681567 -0.033068997905830705 0 0.019107395853476039 -0.032307824731825939 0 0.019411787704115665 -0.032590955185086291 0 0.019411787704115665 -0.032590955185086291 0 0.019258917705160167 -0.032261711555319345 0 0.019428076809269494 -0.032272413181795481 0 0.019107395853476039 -0.032307824731825939 0 0.019411787704115665 -0.032590955185086291 0 0.019258917705160167 -0.032261711555319345 0 0.019258917705160167 -0.032261711555319345 0 0.019236217033708557 -0.032081975944702398 0 0.019147333944187061 -0.032118445425618571 0 0.019236217033708557 -0.032081975944702398 0 0.019147333944187061 -0.032118445425618571 0 0.019158911305522518 -0.032022741721647603 0 0.019258917705160167 -0.032261711555319345 0 0.019236217033708557 -0.032081975944702398 0 0.019428076809269494 -0.032272413181795481 0 0.019071502909154606 -0.032089319608145116 0 0.019107395853476039 -0.032307824731825939 0 0.019147333944187061 -0.032118445425618571 0 0.019110865216887606 -0.032013082104151748 0 0.019071502909154606 -0.032089319608145116 0 0.019147333944187061 -0.032118445425618571 0 0.019110865216887606 -0.032013082104151748 0 0.019149331919248874 -0.031955542276010891 0 0.019128511417998713 -0.031968140158583729 0 0.019110865216887606 -0.032013082104151748 0 0.019147333944187061 -0.032118445425618571 0 0.019158911305522518 -0.032022741721647603 0 0.019110865216887606 -0.032013082104151748 0 0.019158911305522518 -0.032022741721647603 0 0.019149331919248874 -0.031955542276010891 0 0.019158911305522518 -0.032022741721647603 0 0.019149331919248874 -0.031955542276010891 0 0.019201783564002053 -0.031939854794396462 0 0.019149331919248874 -0.031955542276010891 0 0.019201783564002053 -0.031939854794396462 0 0.01916661312282179 -0.031891736375081796 0 0.019236217033708557 -0.032081975944702398 0 0.019201783564002053 -0.031939854794396462 0 0.019309015945206162 -0.032010355471608312 0 0.019236217033708557 -0.032081975944702398 0 0.019158911305522518 -0.032022741721647603 0 0.019201783564002053 -0.031939854794396462 0 0.01915069036353538 -0.03191596620392266 0 0.01915040000107102 -0.031933727221614437 0 0.01914558630333427 -0.031952322586406748 0 0.01915069036353538 -0.03191596620392266 0 0.01916661312282179 -0.031891736375081796 0 0.01915040000107102 -0.031933727221614437 0 0.01915069036353538 -0.03191596620392266 0 0.01916661312282179 -0.031891736375081796 0 0.019151924198468468 -0.03183030073430234 0 0.01915069036353538 -0.03191596620392266 0 0.019118457017667116 -0.031894737277914975 0 0.019151924198468468 -0.03183030073430234 0 0.01916661312282179 -0.031891736375081796 0 0.019151924198468468 -0.03183030073430234 0 0.019192181574113877 -0.031862420902912685 0 0.019201783564002053 -0.031939854794396462 0 0.01916661312282179 -0.031891736375081796 0 0.019192181574113877 -0.031862420902912685 0 0.019149331919248874 -0.031955542276010891 0 0.01916661312282179 -0.031891736375081796 0 0.01915040000107102 -0.031933727221614437 0 0.019149331919248874 -0.031955542276010891 0 0.019128511417998713 -0.031968140158583729 0 0.01915040000107102 -0.031933727221614437 0 0.019128511417998713 -0.031968140158583729 0 0.01915040000107102 -0.031933727221614437 0 0.01914558630333427 -0.031952322586406748 0 0.019128511417998713 -0.031968140158583729 0 0.01914558630333427 -0.031952322586406748 0 0.019143636778895731 -0.031994101228403481 0 0.01914558630333427 -0.031952322586406748 0 0.019139780511564258 -0.031974647962584063 0 0.019143636778895731 -0.031994101228403481 0 0.01915069036353538 -0.03191596620392266 0 0.019139780511564258 -0.031974647962584063 0 0.019118457017667116 -0.031894737277914975 0 0.01915069036353538 -0.03191596620392266 0 0.01914558630333427 -0.031952322586406748 0 0.019139780511564258 -0.031974647962584063 0 0.022590680684385255 -0.026328401156212097 0 0.022206621765602407 -0.025323815417934239 0 0.019139780511564258 -0.031974647962584063 0 0.019162272079138429 -0.032080185079510028 0 0.019143636778895731 -0.031994101228403481 0 0.019139780511564258 -0.031974647962584063 0 0.019118457017667116 -0.031894737277914975 0 0.019116834175991648 -0.03199521238090796 0 0.019139780511564258 -0.031974647962584063 0 0.019162272079138429 -0.032080185079510028 0 0.019116834175991648 -0.03199521238090796 0 0.019162272079138429 -0.032080185079510028 0 0.01919293760653341 -0.032105238697151921 0 0.019143636778895731 -0.031994101228403481 0 0.019162272079138429 -0.032080185079510028 0 0.01919293760653341 -0.032105238697151921 0 0.019266300429175064 -0.032264178805873733 0 0.01919293760653341 -0.032105238697151921 0 0.019158635262218601 -0.032029183111930704 0 0.019195848065286895 -0.03205788287077331 0 0.01919293760653341 -0.032105238697151921 0 0.019158635262218601 -0.032029183111930704 0 0.019143636778895731 -0.031994101228403481 0 0.019158635262218601 -0.032029183111930704 0 0.019125252391716176 -0.031995531136822554 0 0.01915812344769259 -0.032009559265626208 0 0.019158635262218601 -0.032029183111930704 0 0.01915812344769259 -0.032009559265626208 0 0.019195848065286895 -0.03205788287077331 0 0.019158635262218601 -0.032029183111930704 0 0.019143636778895731 -0.031994101228403481 0 0.019125252391716176 -0.031995531136822554 0 0.019081785699476654 -0.032012551944833122 0 0.019128511417998713 -0.031968140158583729 0 0.019125252391716176 -0.031995531136822554 0 0.019128511417998713 -0.031968140158583729 0 0.019143636778895731 -0.031994101228403481 0 0.019125252391716176 -0.031995531136822554 0 0.01909057424457835 -0.031994081972042621 0 0.019125252391716176 -0.031995531136822554 0 0.01915812344769259 -0.032009559265626208 0 0.01909057424457835 -0.031994081972042621 0 0.01915812344769259 -0.032009559265626208 0 0.019271440963544564 -0.03201014958613832 0 0.019271440963544564 -0.03201014958613832 0 0.019218361683829652 -0.03204220503491359 0 0.019260337546546238 -0.032090618893254701 0 0.019271440963544564 -0.03201014958613832 0 0.019260337546546238 -0.032090618893254701 0 0.019349297873125195 -0.032129500986352748 0 0.019218361683829652 -0.03204220503491359 0 0.019195848065286895 -0.03205788287077331 0 0.019260337546546238 -0.032090618893254701 0 0.01915812344769259 -0.032009559265626208 0 0.019271440963544564 -0.03201014958613832 0 0.019218361683829652 -0.03204220503491359 0 0.01915812344769259 -0.032009559265626208 0 0.019218361683829652 -0.03204220503491359 0 0.019195848065286895 -0.03205788287077331 0 0.01919293760653341 -0.032105238697151921 0 0.019195848065286895 -0.03205788287077331 0 0.01925167737083093 -0.032136068284697818 0 0.019195848065286895 -0.03205788287077331 0 0.019260337546546238 -0.032090618893254701 0 0.01925167737083093 -0.032136068284697818 0 0.01919293760653341 -0.032105238697151921 0 0.019266609888419588 -0.032259372094763046 0 0.019266300429175064 -0.032264178805873733 0 0.01919293760653341 -0.032105238697151921 0 0.01925167737083093 -0.032136068284697818 0 0.019266609888419588 -0.032259372094763046 0 0.01925167737083093 -0.032136068284697818 0 0.019343858395613665 -0.03220245246711901 0 0.019266609888419588 -0.032259372094763046 0 0.019482393913233434 -0.032268922763299616 0 0.019266609888419588 -0.032259372094763046 0 0.019254516667418717 -0.032304978015782866 0 0.019343858395613665 -0.03220245246711901 0 0.019482393913233434 -0.032268922763299616 0 0.019266609888419588 -0.032259372094763046 0 0.019343858395613665 -0.03220245246711901 0 0.019349297873125195 -0.032129500986352748 0 0.019482393913233434 -0.032268922763299616 0 0.01925167737083093 -0.032136068284697818 0 0.019343858395613665 -0.03220245246711901 0 0.019349297873125195 -0.032129500986352748 0 0.019260337546546238 -0.032090618893254701 0 0.01925167737083093 -0.032136068284697818 0 0.019349297873125195 -0.032129500986352748 0 0.019482393913233434 -0.032268922763299616 0 0.019664584521551984 -0.032580211299916173 0 0.020013750432219053 -0.032211420764449467 0 0.019482393913233434 -0.032268922763299616 0 0.019566305750430335 -0.032051532033219705 0 0.020013750432219053 -0.032211420764449467 0 0.019349297873125195 -0.032129500986352748 0 0.019482393913233434 -0.032268922763299616 0 0.019566305750430335 -0.032051532033219705 0 0.019566305750430335 -0.032051532033219705 0 0.019497373955272873 -0.03191403190486608 0 0.020050801768515591 -0.031726980661310682 0 0.019271440963544564 -0.03201014958613832 0 0.019349297873125195 -0.032129500986352748 0 0.019566305750430335 -0.032051532033219705 0 0.019271440963544564 -0.03201014958613832 0 0.019566305750430335 -0.032051532033219705 0 0.019497373955272873 -0.03191403190486608 0 0.019217788424496507 -0.031963360461375968 0 0.019271440963544564 -0.03201014958613832 0 0.019497373955272873 -0.03191403190486608 0 0.020417653023137975 -0.032270376346334215 0 0.02002504971506152 -0.032354228773534319 0 0.020010595923330387 -0.031565146446143118 0 0.020417653023137975 -0.032270376346334215 0 0.020520431807673972 -0.031313255068815056 0 0.020010595923330387 -0.031565146446143118 0 0.012764598278360777 -0.031111520788908262 0 0.012704745102680551 -0.031518061341538874 0 0.0049871643022094628 -0.031143722797278676 0 0.0076082243932742832 -0.028606152162302619 0 0.0054120017441701123 -0.026505351463545015 0 0.0076302698246587903 -0.028915264346957289 0 0.005688941412812969 -0.035272568662155432 0 0.0095265239168446404 -0.026956895148969345 0 0.0074642583449713966 -0.029554221782108647 0 0.0077997265538277622 -0.031624363028265198 0 0.0049871643022094628 -0.031143722797278676 0 0.0076082243932742832 -0.028606152162302619 0 0.0062868556231808091 -0.033627371655226043 0 0.0074642583449713966 -0.029554221782108647 0 0.0077997265538277622 -0.031624363028265198 0 0.006081337132406512 -0.036294924284125687 0 0.0041692239417762669 -0.036320816988172348 0 0.0043890743320868439 -0.036621643240604969 0 0.0043751545192091913 -0.03679138478108316 0 0.0060664600336468527 -0.033713615890509654 0 0.005688941412812969 -0.035272568662155432 0 0.0043890743320868439 -0.036621643240604969 0 0.0044614144621922406 -0.036789598198741037 0 0.0043751545192091913 -0.03679138478108316 0 0.012447594560553561 -0.034328682139156685 0 0.012764598278360777 -0.031111520788908262 0 0.0046309151934093998 -0.035221899316930448 0 0.0049871643022094628 -0.031143722797278676 0 0.0062868556231808091 -0.033627371655226043 0 0.020340458108741844 -0.033035772637920263 0 0.020417653023137975 -0.032270376346334215 0 0.02002504971506152 -0.032354228773534319 0 0.019916285425928552 -0.03281939505022162 0 0.020340458108741844 -0.033035772637920263 0 0.02002504971506152 -0.032354228773534319 0 0.019916285425928552 -0.03281939505022162 0 0.019695598038286306 -0.032325136426457103 0 0.019644236790044269 -0.032632542646637036 0 0.019916285425928552 -0.03281939505022162 0 0.019695598038286306 -0.032325136426457103 0 0.02002504971506152 -0.032354228773534319 0 0.019411787704115665 -0.032590955185086291 0 0.019644236790044269 -0.032632542646637036 0 0.019428076809269494 -0.032272413181795481 0 0.019695598038286306 -0.032325136426457103 0 0.019644236790044269 -0.032632542646637036 0 0.019428076809269494 -0.032272413181795481 0 0.019236217033708557 -0.032081975944702398 0 0.019428076809269494 -0.032272413181795481 0 0.019309015945206162 -0.032010355471608312 0 0.019428076809269494 -0.032272413181795481 0 0.019475055947492902 -0.032035206549510746 0 0.019309015945206162 -0.032010355471608312 0 0.019695598038286306 -0.032325136426457103 0 0.019428076809269494 -0.032272413181795481 0 0.019475055947492902 -0.032035206549510746 0 0.019439142397880273 -0.031805120995482543 0 0.019475055947492902 -0.032035206549510746 0 0.019725257767321803 -0.031930200478621718 0 0.019439142397880273 -0.031805120995482543 0 0.019475055947492902 -0.032035206549510746 0 0.019319905214262034 -0.031879255589564955 0 0.019475055947492902 -0.032035206549510746 0 0.019319905214262034 -0.031879255589564955 0 0.019309015945206162 -0.032010355471608312 0 0.019319905214262034 -0.031879255589564955 0 0.019252917128553267 -0.031911084721601958 0 0.019240093850275069 -0.031814984490136838 0 0.019201783564002053 -0.031939854794396462 0 0.019252917128553267 -0.031911084721601958 0 0.019309015945206162 -0.032010355471608312 0 0.019319905214262034 -0.031879255589564955 0 0.019252917128553267 -0.031911084721601958 0 0.019309015945206162 -0.032010355471608312 0 0.019201783564002053 -0.031939854794396462 0 0.019252917128553267 -0.031911084721601958 0 0.019192181574113877 -0.031862420902912685 0 0.02002504971506152 -0.032354228773534319 0 0.019725257767321803 -0.031930200478621718 0 0.020010595923330387 -0.031565146446143118 0 0.019695598038286306 -0.032325136426457103 0 0.019475055947492902 -0.032035206549510746 0 0.019725257767321803 -0.031930200478621718 0 0.019695598038286306 -0.032325136426457103 0 0.02002504971506152 -0.032354228773534319 0 0.019725257767321803 -0.031930200478621718 0 0.019439142397880273 -0.031805120995482543 0 0.019725257767321803 -0.031930200478621718 0 0.019615464652873026 -0.031595365234905623 0 0.019592488583372054 -0.031192133167427114 0 0.019697201164810149 -0.030736880492927155 0 0.020010595923330387 -0.031565146446143118 0 0.019725257767321803 -0.031930200478621718 0 0.019615464652873026 -0.031595365234905623 0 0.020010595923330387 -0.031565146446143118 0 0.019592488583372054 -0.031192133167427114 0 0.019389690018628909 -0.031567862902734431 0 0.019424950142388774 -0.03084949746843001 0 0.019615464652873026 -0.031595365234905623 0 0.019592488583372054 -0.031192133167427114 0 0.020010595923330387 -0.031565146446143118 0 0.019615464652873026 -0.031595365234905623 0 0.019592488583372054 -0.031192133167427114 0 0.019389690018628909 -0.031567862902734431 0 0.019168229530100212 -0.031626075379963994 0 0.019389690018628909 -0.031567862902734431 0 0.019424950142388774 -0.03084949746843001 0 0.019631741953227679 -0.032005955067664127 0 0.020058608572954256 -0.028333435180443355 0 0.019168229530100212 -0.031626075379963994 0 0.019246172038267804 -0.031709491317900171 0 0.019389690018628909 -0.031567862902734431 0 0.019168229530100212 -0.031626075379963994 0 0.01919644675534311 -0.031796854794092534 0 0.019246172038267804 -0.031709491317900171 0 0.019631741953227679 -0.032005955067664127 0 0.01957892090366747 -0.031998887480314153 0 0.019168229530100212 -0.031626075379963994 0 0.019151924198468468 -0.03183030073430234 0 0.01919644675534311 -0.031796854794092534 0 0.019151924198468468 -0.03183030073430234 0 0.019192181574113877 -0.031862420902912685 0 0.01919644675534311 -0.031796854794092534 0 0.019252917128553267 -0.031911084721601958 0 0.019192181574113877 -0.031862420902912685 0 0.019240093850275069 -0.031814984490136838 0 0.019240093850275069 -0.031814984490136838 0 0.01919644675534311 -0.031796854794092534 0 0.019246172038267804 -0.031709491317900171 0 0.019192181574113877 -0.031862420902912685 0 0.019240093850275069 -0.031814984490136838 0 0.01919644675534311 -0.031796854794092534 0 0.019240093850275069 -0.031814984490136838 0 0.019325129628585489 -0.031758684468885322 0 0.019246172038267804 -0.031709491317900171 0 0.019319905214262034 -0.031879255589564955 0 0.019240093850275069 -0.031814984490136838 0 0.019325129628585489 -0.031758684468885322 0 0.019325129628585489 -0.031758684468885322 0 0.019246172038267804 -0.031709491317900171 0 0.019389690018628909 -0.031567862902734431 0 0.019439142397880273 -0.031805120995482543 0 0.019615464652873026 -0.031595365234905623 0 0.019389690018628909 -0.031567862902734431 0 0.019439142397880273 -0.031805120995482543 0 0.019319905214262034 -0.031879255589564955 0 0.019325129628585489 -0.031758684468885322 0 0.019439142397880273 -0.031805120995482543 0 0.019325129628585489 -0.031758684468885322 0 0.019389690018628909 -0.031567862902734431 0 0.019631741953227679 -0.032005955067664127 0 0.022206621765602407 -0.025323815417934239 0 0.020077233474748102 -0.030398946272272152 0 0.019881377753145378 -0.027615621650889443 0 0.021885317318933045 -0.028010199879388756 0 0.022206621765602407 -0.025323815417934239 0 0.020058608572954256 -0.028333435180443355 0 0.019697201164810149 -0.030736880492927155 0 0.018654403698660425 -0.030508660015448108 0 0.019341434549334017 -0.029459576518864564 0 0.019592488583372054 -0.031192133167427114 0 0.019697201164810149 -0.030736880492927155 0 0.019424950142388774 -0.03084949746843001 0 0.019540113507815704 -0.030348103900061166 0 0.020058608572954256 -0.028333435180443355 0 0.019697201164810149 -0.030736880492927155 0 0.020520431807673972 -0.031313255068815056 0 0.020575039485472024 -0.029762374754194014 0 0.012704745102680551 -0.031518061341538874 0 0.014382693684561387 -0.013496031752070526 0 0.019697201164810149 -0.030736880492927155 0 0.020520431807673972 -0.031313255068815056 0 0.020010595923330387 -0.031565146446143118 0 0.0089105464745149882 -0.022869935532054898 0 0.0076082243932742832 -0.028606152162302619 0 0.0054120017441701123 -0.026505351463545015 0 0.0088078339300975122 -0.023201933981314853 0 0.0076302698246587903 -0.028915264346957289 0 0.006139123656016942 -0.033751269695681756 0 0.0060664600336468527 -0.033713615890509654 0 0.0095265239168446404 -0.026956895148969345 0 0.0089105464745149882 -0.022869935532054898 0 0.0074642583449713966 -0.029554221782108647 0 0.0089105464745149882 -0.022869935532054898 0 0.0054120017441701123 -0.026505351463545015 0 0.0058650512553401722 -0.021399282970504963 0 0.0089105464745149882 -0.022869935532054898 0 0.011076184906840432 -0.022347462765602958 0 0.0058650512553401722 -0.021399282970504963 0 0.015320881717082652 0.0020935546607559448 0 0.014380649417586225 0.0016593025003247967 0 0.014810157257083687 0.0010033710639176278 0 0.0087414307609490673 -0.014501116412689303 0 0.014382693684561387 -0.013496031752070526 0 0.013568903479505238 0.0023746946682951585 0 0.015320881717082652 0.0020935546607559448 0 0.014380649417586225 0.0016593025003247967 0 0.015320881717082652 0.0020935546607559448 0 0.014810157257083687 0.0010033710639176278 0 0.015302646283802349 0.00024651290384936921 0 0.014382693684561387 -0.013496031752070526 0 0.015858925606056101 0.0059564168063794337 0 0.014380649417586225 0.0016593025003247967 0 0.014380159915495721 0.0010535416652057905 0 0.014810157257083687 0.0010033710639176278 0 0.014380159915495721 0.0010535416652057905 0 0.014810157257083687 0.0010033710639176278 0 0.01453839932214235 0.00065012095766575661 0 0.014810157257083687 0.0010033710639176278 0 0.015302646283802349 0.00024651290384936921 0 0.014908570829266084 0.00045655122529443542 0 0.015302646283802349 0.00024651290384936921 0 0.014908570829266084 0.00045655122529443542 0 0.01512557595886505 0.00027692051736902951 0 0.014810157257083687 0.0010033710639176278 0 0.014908570829266084 0.00045655122529443542 0 0.01453839932214235 0.00065012095766575661 0 0.014908570829266084 0.00045655122529443542 0 0.014755205123411972 0.00035071917720244688 0 0.01512557595886505 0.00027692051736902951 0 0.014908570829266084 0.00045655122529443542 0 0.014755205123411972 0.00035071917720244688 0 0.01453839932214235 0.00065012095766575661 0 0.014755205123411972 0.00035071917720244688 0 0.01453839932214235 0.00065012095766575661 0 0.014325418090628657 0.00040187290554945926 0 0.015719897768511185 -0.0017751334137824639 0 0.015302646283802349 0.00024651290384936921 0 0.01483793291532143 -0.00038590252307338152 0 0.020814064875765377 -0.0093966262384031184 0 0.020676700068573334 -0.0091748409003715031 0 0.020975198310883014 -0.0091107045257953889 0 0.015302646283802349 0.00024651290384936921 0 0.01483793291532143 -0.00038590252307338152 0 0.015213752136082483 0.00046936746514416005 0 0.018498324449304611 -0.0038767500116287743 0 0.016897999943733418 -0.00444830605900964 0 0.014382693684561387 -0.013496031752070526 0 0.018652452075787446 -0.014214211163004318 0 0.015719897768511185 -0.0017751334137824639 0 0.01483793291532143 -0.00038590252307338152 0 0.014308806648970602 -0.0015670032932706211 0 0.018498324449304611 -0.0038767500116287743 0 0.018652452075787446 -0.014214211163004318 0 0.019697201164810149 -0.030736880492927155 0 0.020575039485472024 -0.029762374754194014 0 0.019341434549334017 -0.029459576518864564 0 0.020058608572954256 -0.028333435180443355 0 0.018652452075787446 -0.014214211163004318 0 0.021172577406884805 -0.020490713564968527 0 0.021539488893921994 -0.019954628439255419 0 0.02064001780157862 -0.019791255355787275 0 0.02067463630148754 -0.020394236834067145 0 0.021172577406884805 -0.020490713564968527 0 0.02064001780157862 -0.019791255355787275 0 0.018652452075787446 -0.014214211163004318 0 0.023905380912825298 -0.016589116383042717 0 0.022206621765602407 -0.025323815417934239 0 0.023905380912825298 -0.016589116383042717 0 0.020629587606823815 -0.0097060113657721318 0 0.020473255052162524 -0.0093633284432908508 0 0.02018603446577907 -0.0096593154185923569 0 0.020473255052162524 -0.0093633284432908508 0 0.02018603446577907 -0.0096593154185923569 0 0.020151648405216587 -0.0092436685016443962 0 0.020814064875765377 -0.0093966262384031184 0 0.020629587606823815 -0.0097060113657721318 0 0.020473255052162524 -0.0093633284432908508 0 0.020814064875765377 -0.0093966262384031184 0 0.020473255052162524 -0.0093633284432908508 0 0.020676700068573334 -0.0091748409003715031 0 0.020676700068573334 -0.0091748409003715031 0 0.020423808214209426 -0.0090286245407173397 0 0.02068694574567171 -0.0089008065860233 0 0.020473255052162524 -0.0093633284432908508 0 0.020676700068573334 -0.0091748409003715031 0 0.020423808214209426 -0.0090286245407173397 0 0.020423808214209426 -0.0090286245407173397 0 0.020151648405216587 -0.0092436685016443962 0 0.020130609653583671 -0.008828886560648461 0 0.020473255052162524 -0.0093633284432908508 0 0.020423808214209426 -0.0090286245407173397 0 0.020151648405216587 -0.0092436685016443962 0 0.020423808214209426 -0.0090286245407173397 0 0.020130609653583671 -0.008828886560648461 0 0.020403184728798502 -0.0086656260840284379 0 0.016135080435853055 0.00041843379670594428 0 0.016049292801742748 -0.00055688831505206035 0 0.017384373006533529 2.6239636788014233e-05 0 0.020423808214209426 -0.0090286245407173397 0 0.02068694574567171 -0.0089008065860233 0 0.020403184728798502 -0.0086656260840284379 0 0.018756989299586687 -0.0044303709627795942 0 0.018166889559148431 -0.0038743598460799777 0 0.016135080435853055 0.00041843379670594428 0 0.015448398081449495 3.2594189752864727e-05 0 0.015276201695048015 0.00028518299105806003 0 0.016135080435853055 0.00041843379670594428 0 0.015448398081449495 3.2594189752864727e-05 0 0.016049292801742748 -0.00055688831505206035 0 0.015448398081449495 3.2594189752864727e-05 0 0.014977620645743603 0.00013064664657156001 0 0.01493200456486923 -0.00029122012678970652 0 0.014977620645743603 0.00013064664657156001 0 0.01493200456486923 -0.00029122012678970652 0 0.01454809335424434 -1.3691858513979879e-05 0 0.014977620645743603 0.00013064664657156001 0 0.014689869236310639 0.00014685330349998148 0 0.01454809335424434 -1.3691858513979879e-05 0 0.014977620645743603 0.00013064664657156001 0 0.014998831680802819 0.00022014402660900452 0 0.014689869236310639 0.00014685330349998148 0 0.015448398081449495 3.2594189752864727e-05 0 0.014977620645743603 0.00013064664657156001 0 0.015276201695048015 0.00028518299105806003 0 0.015276201695048015 0.00028518299105806003 0 0.015090444366212114 0.0002870041985467069 0 0.015142586348962768 0.00038254573627641178 0 0.014977620645743603 0.00013064664657156001 0 0.015276201695048015 0.00028518299105806003 0 0.014998831680802819 0.00022014402660900452 0 0.014998831680802819 0.00022014402660900452 0 0.015090444366212114 0.0002870041985467069 0 0.014981935167760554 0.00022442360040415919 0 0.015276201695048015 0.00028518299105806003 0 0.014998831680802819 0.00022014402660900452 0 0.015090444366212114 0.0002870041985467069 0 0.014689869236310639 0.00014685330349998148 0 0.014981935167760554 0.00022442360040415919 0 0.014829691534999497 0.00012291893394378555 0 0.014998831680802819 0.00022014402660900452 0 0.014689869236310639 0.00014685330349998148 0 0.014981935167760554 0.00022442360040415919 0 0.014981935167760554 0.00022442360040415919 0 0.014829691534999497 0.00012291893394378555 0 0.01512557595886505 0.00027692051736902951 0 0.014755205123411972 0.00035071917720244688 0 0.014829691534999497 0.00012291893394378555 0 0.01512557595886505 0.00027692051736902951 0 0.014755205123411972 0.00035071917720244688 0 0.014829691534999497 0.00012291893394378555 0 0.014325418090628657 0.00040187290554945926 0 0.015090444366212114 0.0002870041985467069 0 0.015142586348962768 0.00038254573627641178 0 0.015089828040144809 0.00030351132070723888 0 0.015142586348962768 0.00038254573627641178 0 0.015089828040144809 0.00030351132070723888 0 0.01512557595886505 0.00027692051736902951 0 0.014981935167760554 0.00022442360040415919 0 0.015089828040144809 0.00030351132070723888 0 0.01512557595886505 0.00027692051736902951 0 0.015090444366212114 0.0002870041985467069 0 0.014981935167760554 0.00022442360040415919 0 0.015089828040144809 0.00030351132070723888 0 0.016897999943733418 -0.00444830605900964 0 0.015062922707747166 -0.0022425695063492232 0 0.015302646283802349 0.00024651290384936921 0 0.015213752136082483 0.00046936746514416005 0 0.01512557595886505 0.00027692051736902951 0 0.020676700068573334 -0.0091748409003715031 0 0.02068694574567171 -0.0089008065860233 0 0.020975198310883014 -0.0091107045257953889 0 0.016135080435853055 0.00041843379670594428 0 0.015276201695048015 0.00028518299105806003 0 0.015142586348962768 0.00038254573627641178 0 0.018756989299586687 -0.0044303709627795942 0 0.016897999943733418 -0.00444830605900964 0 0.039599798985408767 -0.02687448424615322 0 0.041741007942259295 -0.023664421443046098 0 0.037585088029756589 -0.024479329423204053 0 0.029190571378036125 -0.026182633010411231 0 0.029097402847771969 -0.026451080201409408 0 0.029703233142126643 -0.026542680294108594 0 0.019482393913233434 -0.032268922763299616 0 0.019664584521551984 -0.032580211299916173 0 0.019254516667418717 -0.032304978015782866 0 0.029190571378036125 -0.026182633010411231 0 0.029097402847771969 -0.026451080201409408 0 0.028509401995815 -0.026403020047977468 0 0.023862832652126031 -0.026420268600280097 0 0.032414205217896119 -0.022048552870343421 0 0.029190571378036125 -0.026182633010411231 0 0.029703233142126643 -0.026542680294108594 0 0.029902407744620208 -0.025987304864843273 0 0.024813817650562935 -0.020319917204767949 0 0.025161884146946253 -0.018979398773508488 0 0.025724395277376164 -0.019196913258894825 0 0.023845948693713467 -0.02956621277486212 0 0.023862832652126031 -0.026420268600280097 0 0.023310177792476201 -0.027703545567273925 0 0.023862832652126031 -0.026420268600280097 0 0.039599798985408767 -0.02687448424615322 0 0.043188948818560592 -0.026066972011763577 0 0.041741007942259295 -0.023664421443046098 0 0.043188948818560592 -0.026066972011763577 0 0.044335117127385665 -0.022475156839396868 0 0.041741007942259295 -0.023664421443046098 0 0.035817834359716839 -0.026504113053948501 0 0.032414205217896119 -0.022048552870343421 0 0.02504428389298409 -0.018976079805263862 0 0.025343817616143363 -0.018909691842432578 0 0.025873560057903505 -0.016091754482108717 0 0.032414205217896119 -0.022048552870343421 0 0.035237017128088924 -0.019294097669717299 0 0.026453275045898856 -0.017667001473726109 0 0.025343817616143363 -0.018909691842432578 0 0.025873560057903505 -0.016091754482108717 0 0.026453275045898856 -0.017667001473726109 0 0.025724395277376164 -0.019196913258894825 0 0.027315243981927535 -0.018731109490305306 0 0.026453275045898856 -0.017667001473726109 0 0.025724395277376164 -0.019196913258894825 0 0.025343817616143363 -0.018909691842432578 0 0.025161884146946253 -0.018979398773508488 0 0.025724395277376164 -0.019196913258894825 0 0.025343817616143363 -0.018909691842432578 0 0.032414205217896119 -0.022048552870343421 0 0.031191896152842621 -0.022059126669893354 0 0.0262294256653221 -0.020512369172431117 0 0.024813817650562935 -0.020319917204767949 0 0.025724395277376164 -0.019196913258894825 0 0.022590680684385255 -0.026328401156212097 0 0.023862832652126031 -0.026420268600280097 0 0.0262294256653221 -0.020512369172431117 0 0.027447612834354276 -0.02075556752966088 0 0.027398173758853929 -0.019629867896135113 0 0.0262294256653221 -0.020512369172431117 0 0.025724395277376164 -0.019196913258894825 0 0.027398173758853929 -0.019629867896135113 0 0.027785457864778845 -0.020127938327314347 0 0.023905380912825298 -0.016589116383042717 0 0.029210939180209259 -0.019792046784284933 0 0.027886367410818444 -0.018284082748683556 0 0.029038793781306995 -0.01693845395512247 0 0.026453275045898856 -0.017667001473726109 0 0.027886367410818444 -0.018284082748683556 0 0.029038793781306995 -0.01693845395512247 0 0.025724395277376164 -0.019196913258894825 0 0.029210939180209259 -0.019792046784284933 0 0.027315243981927535 -0.018731109490305306 0 0.023905380912825298 -0.016589116383042717 0 0.024617221127618771 -0.012583151312019477 0 0.029210939180209259 -0.019792046784284933 0 0.027315243981927535 -0.018731109490305306 0 0.027886367410818444 -0.018284082748683556 0 0.026453275045898856 -0.017667001473726109 0 0.027315243981927535 -0.018731109490305306 0 0.027886367410818444 -0.018284082748683556 0 0.024617221127618771 -0.012583151312019477 0 0.024636381660176211 -0.012216378670575175 0 0.026453275045898856 -0.017667001473726109 0 0.029038793781306995 -0.01693845395512247 0 0.0273155948521938 -0.014956809892404103 0 0.029038793781306995 -0.01693845395512247 0 0.028895734681746103 -0.014045185200833175 0 0.0273155948521938 -0.014956809892404103 0 0.028895734681746103 -0.014045185200833175 0 0.0273155948521938 -0.014956809892404103 0 0.026790301490379947 -0.013212477613623177 0 0.0273155948521938 -0.014956809892404103 0 0.026790301490379947 -0.013212477613623177 0 0.025873560057903505 -0.016091754482108717 0 0.045443254510717533 -0.01882274111537861 0 0.044335117127385665 -0.022475156839396868 0 0.04172324671988098 -0.019993096103299527 0 0.036089089407108636 -0.016093286118291188 0 0.035237017128088924 -0.019294097669717299 0 0.026453275045898856 -0.017667001473726109 0 0.0273155948521938 -0.014956809892404103 0 0.025873560057903505 -0.016091754482108717 0 0.044335117127385665 -0.022475156839396868 0 0.041741007942259295 -0.023664421443046098 0 0.04172324671988098 -0.019993096103299527 0 0.041741007942259295 -0.023664421443046098 0 0.04172324671988098 -0.019993096103299527 0 0.039478104065387973 -0.02200364107644576 0 0.04172324671988098 -0.019993096103299527 0 0.03901587085042494 -0.019627688861337252 0 0.039351736074268229 -0.016885906483506741 0 0.04172324671988098 -0.019993096103299527 0 0.03901587085042494 -0.019627688861337252 0 0.039478104065387973 -0.02200364107644576 0 0.03901587085042494 -0.019627688861337252 0 0.039478104065387973 -0.02200364107644576 0 0.037083556534543129 -0.021980897311065933 0 0.041741007942259295 -0.023664421443046098 0 0.039478104065387973 -0.02200364107644576 0 0.037585088029756589 -0.024479329423204053 0 0.038943276123498266 -0.013463134243781224 0 0.039351736074268229 -0.016885906483506741 0 0.037785275037018923 -0.015300558243116262 0 0.038943276123498266 -0.013463134243781224 0 0.039351736074268229 -0.016885906483506741 0 0.04132326966243758 -0.014152943713451258 0 0.03901587085042494 -0.019627688861337252 0 0.039351736074268229 -0.016885906483506741 0 0.036663093844054681 -0.019389492346226927 0 0.04172324671988098 -0.019993096103299527 0 0.039351736074268229 -0.016885906483506741 0 0.042664816565506886 -0.01656603693551759 0 0.045443254510717533 -0.01882274111537861 0 0.04172324671988098 -0.019993096103299527 0 0.042664816565506886 -0.01656603693551759 0 0.039351736074268229 -0.016885906483506741 0 0.042664816565506886 -0.01656603693551759 0 0.04132326966243758 -0.014152943713451258 0 0.042664816565506886 -0.01656603693551759 0 0.04132326966243758 -0.014152943713451258 0 0.043907433951438521 -0.01313602992182999 0 0.042664816565506886 -0.01656603693551759 0 0.046542400514448072 -0.015154620320008845 0 0.043907433951438521 -0.01313602992182999 0 0.043235706629537324 -0.01241984437888119 0 0.042914860974310083 -0.011289447888721486 0 0.042134459874258179 -0.011610852029266911 0 0.037168298447224732 -0.012385546422375635 0 0.044125671827881685 -0.01307987600261701 0 0.045443254510717533 -0.01882274111537861 0 0.042664816565506886 -0.01656603693551759 0 0.046542400514448072 -0.015154620320008845 0 0.036089089407108636 -0.016093286118291188 0 0.037168298447224732 -0.012385546422375635 0 0.028895734681746103 -0.014045185200833175 0 0.026790301490379947 -0.013212477613623177 0 0.028739061389684128 -0.011123857162789836 0 0.024636381660176211 -0.012216378670575175 0 0.023106349668221102 -0.0062736329450323435 0 0.026790301490379947 -0.013212477613623177 0 0.028739061389684128 -0.011123857162789836 0 0.027720352857324316 -0.010342638288268863 0 0.037168298447224732 -0.012385546422375635 0 0.027665574152242828 -0.0052252671418093373 0 0.028704463745891699 -0.0089769031207794208 0 0.027995622841820635 -0.0084353201178590399 0 0.028563456467723861 -0.0066108460751165988 0 0.023106349668221102 -0.0062736329450323435 0 0.027665574152242828 -0.0052252671418093373 0 0.018641968106350545 -0.00061781992627736885 0 0.01895224522371149 -0.0019738947531806788 0 0.01823687585892406 -0.0013257641281774273 0 0.023106349668221102 -0.0062736329450323435 0 0.037168298447224732 -0.012385546422375635 0 0.043235706629537324 -0.01241984437888119 0 0.04372387431019796 -0.010961812313420678 0 0.042914860974310083 -0.011289447888721486 0 0.027665574152242828 -0.0052252671418093373 0 0.023643551605143531 -0.003747151227682884 0 0.01895224522371149 -0.0019738947531806788 0 0.018914075456414086 -0.0024025740290838033 0 0.018396303579163099 -0.0023039657181895649 0 0.027665574152242828 -0.0052252671418093373 0 0.031428836924459899 -0.0063893870352166064 0 0.04372387431019796 -0.010961812313420678 0 0.043683704414997623 -0.0095094379264550975 0 0.042571199862982821 -0.01042422159217166 0 0.019069974687126044 -0.0019941120421178757 0 0.018914075456414086 -0.0024025740290838033 0 0.019133545826274849 -0.0029207557977220136 0 0.018914075456414086 -0.0024025740290838033 0 0.019133545826274849 -0.0029207557977220136 0 0.018591629650870245 -0.0029756992158608293 0 0.019133545826274849 -0.0029207557977220136 0 0.018591629650870245 -0.0029756992158608293 0 0.019001037585150825 -0.0032531197610138258 0 0.043683704414997623 -0.0095094379264550975 0 0.04264549324155132 -0.0092387362138074518 0 0.042571199862982821 -0.01042422159217166 0 0.04264549324155132 -0.0092387362138074518 0 0.04170811211639322 -0.0098235029951119473 0 0.041607180015734525 -0.0083910787293830485 0 0.04264549324155132 -0.0092387362138074518 0 0.042571199862982821 -0.01042422159217166 0 0.04170811211639322 -0.0098235029951119473 0 0.04372387431019796 -0.010961812313420678 0 0.042571199862982821 -0.01042422159217166 0 0.042914860974310083 -0.011289447888721486 0 0.042571199862982821 -0.01042422159217166 0 0.042914860974310083 -0.011289447888721486 0 0.042134459874258179 -0.011610852029266911 0 0.042571199862982821 -0.01042422159217166 0 0.042134459874258179 -0.011610852029266911 0 0.040951705887298573 -0.011029712641344671 0 0.04132326966243758 -0.014152943713451258 0 0.043907433951438521 -0.01313602992182999 0 0.040951705887298573 -0.011029712641344671 0 0.044125671827881685 -0.01307987600261701 0 0.040764124622942315 -0.010839835209008991 0 0.042571199862982821 -0.01042422159217166 0 0.040951705887298573 -0.011029712641344671 0 0.04170811211639322 -0.0098235029951119473 0 0.04170811211639322 -0.0098235029951119473 0 0.03878098595809009 -0.0085408945916860875 0 0.041607180015734525 -0.0083910787293830485 0 0.040951705887298573 -0.011029712641344671 0 0.04170811211639322 -0.0098235029951119473 0 0.03878098595809009 -0.0085408945916860875 0 0.040951705887298573 -0.011029712641344671 0 0.03878098595809009 -0.0085408945916860875 0 0.037401700025501652 -0.010960003177367653 0 0.038943276123498266 -0.013463134243781224 0 0.040951705887298573 -0.011029712641344671 0 0.037401700025501652 -0.010960003177367653 0 0.038943276123498266 -0.013463134243781224 0 0.04132326966243758 -0.014152943713451258 0 0.040951705887298573 -0.011029712641344671 0 0.014952740152900688 -0.0010243570921953027 0 0.016049292801742748 -0.00055688831505206035 0 0.015598170278279234 -0.0015146252373638531 0 0.016049292801742748 -0.00055688831505206035 0 0.016736490692013627 -0.0015683845092304952 0 0.015598170278279234 -0.0015146252373638531 0 0.014952740152900688 -0.0010243570921953027 0 0.014213669547862547 -0.0013783145112388098 0 0.014469797764201176 -0.00073891100737583613 0 0.014952740152900688 -0.0010243570921953027 0 0.01493200456486923 -0.00029122012678970652 0 0.016049292801742748 -0.00055688831505206035 0 0.014952740152900688 -0.0010243570921953027 0 0.01493200456486923 -0.00029122012678970652 0 0.014469797764201176 -0.00073891100737583613 0 0.015448398081449495 3.2594189752864727e-05 0 0.01493200456486923 -0.00029122012678970652 0 0.016049292801742748 -0.00055688831505206035 0 0.016049292801742748 -0.00055688831505206035 0 0.017384373006533529 2.6239636788014233e-05 0 0.017466943231592213 -0.0009292725613522664 0 0.020130609653583671 -0.008828886560648461 0 0.020123642909097465 -0.0084147823919876671 0 0.020403184728798502 -0.0086656260840284379 0 0.023106349668221102 -0.0062736329450323435 0 0.018166889559148431 -0.0038743598460799777 0 0.018641968106350545 -0.00061781992627736885 0 0.017384373006533529 2.6239636788014233e-05 0 0.017466943231592213 -0.0009292725613522664 0 0.018641968106350545 -0.00061781992627736885 0 0.017466943231592213 -0.0009292725613522664 0 0.01823687585892406 -0.0013257641281774273 0 0.017466943231592213 -0.0009292725613522664 0 0.01823687585892406 -0.0013257641281774273 0 0.017893492225867145 -0.0017535288949029554 0 0.016049292801742748 -0.00055688831505206035 0 0.017466943231592213 -0.0009292725613522664 0 0.016736490692013627 -0.0015683845092304952 0 0.017466943231592213 -0.0009292725613522664 0 0.016736490692013627 -0.0015683845092304952 0 0.017893492225867145 -0.0017535288949029554 0 0.016736490692013627 -0.0015683845092304952 0 0.017636975343077007 -0.002412415463957999 0 0.016088068437906167 -0.0024254587920226368 0 0.016736490692013627 -0.0015683845092304952 0 0.017893492225867145 -0.0017535288949029554 0 0.017636975343077007 -0.002412415463957999 0 0.01895224522371149 -0.0019738947531806788 0 0.017893492225867145 -0.0017535288949029554 0 0.018396303579163099 -0.0023039657181895649 0 0.01895224522371149 -0.0019738947531806788 0 0.01823687585892406 -0.0013257641281774273 0 0.017893492225867145 -0.0017535288949029554 0 0.017893492225867145 -0.0017535288949029554 0 0.018396303579163099 -0.0023039657181895649 0 0.017636975343077007 -0.002412415463957999 0 0.018591629650870245 -0.0029756992158608293 0 0.017636975343077007 -0.002412415463957999 0 0.018404889470713177 -0.0036452182410128559 0 0.018914075456414086 -0.0024025740290838033 0 0.018396303579163099 -0.0023039657181895649 0 0.018591629650870245 -0.0029756992158608293 0 0.018396303579163099 -0.0023039657181895649 0 0.018591629650870245 -0.0029756992158608293 0 0.017636975343077007 -0.002412415463957999 0 0.017636975343077007 -0.002412415463957999 0 0.016088068437906167 -0.0024254587920226368 0 0.018404889470713177 -0.0036452182410128559 0 0.016088068437906167 -0.0024254587920226368 0 0.014911395734060242 -0.0027490175593240683 0 0.015003117503248366 -0.0037031783887138963 0 0.016088068437906167 -0.0024254587920226368 0 0.015598170278279234 -0.0015146252373638531 0 0.014742031884407161 -0.0019851485638703592 0 0.016736490692013627 -0.0015683845092304952 0 0.016088068437906167 -0.0024254587920226368 0 0.015598170278279234 -0.0015146252373638531 0 0.014952740152900688 -0.0010243570921953027 0 0.014742031884407161 -0.0019851485638703592 0 0.014213669547862547 -0.0013783145112388098 0 0.014952740152900688 -0.0010243570921953027 0 0.015598170278279234 -0.0015146252373638531 0 0.014742031884407161 -0.0019851485638703592 0 0.016088068437906167 -0.0024254587920226368 0 0.014742031884407161 -0.0019851485638703592 0 0.014911395734060242 -0.0027490175593240683 0 0.014742031884407161 -0.0019851485638703592 0 0.014911395734060242 -0.0027490175593240683 0 0.013950218595826191 -0.0028958521888297951 0 0.013201117502781102 -0.0023379956820727037 0 0.013210467359814909 -0.002976480725778486 0 0.013950218595826191 -0.0028958521888297951 0 0.013201117502781102 -0.0023379956820727037 0 0.013908158588686818 -0.0020499626157070411 0 0.013950218595826191 -0.0028958521888297951 0 0.014742031884407161 -0.0019851485638703592 0 0.013908158588686818 -0.0020499626157070411 0 0.013950218595826191 -0.0028958521888297951 0 0.013201117502781102 -0.0023379956820727037 0 0.012504447242555117 -0.0022260426586925819 0 0.012669530535814958 -0.0026802063845007152 0 0.013201117502781102 -0.0023379956820727037 0 0.012849862842502153 -0.0018632154233798083 0 0.012504447242555117 -0.0022260426586925819 0 0.013201117502781102 -0.0023379956820727037 0 0.012669530535814958 -0.0026802063845007152 0 0.013210467359814909 -0.002976480725778486 0 0.013201117502781102 -0.0023379956820727037 0 0.013450170613285855 -0.0015967434513887767 0 0.013908158588686818 -0.0020499626157070411 0 0.013201117502781102 -0.0023379956820727037 0 0.013450170613285855 -0.0015967434513887767 0 0.012849862842502153 -0.0018632154233798083 0 0.013450170613285855 -0.0015967434513887767 0 0.012893043928948108 -0.0014569864385621839 0 0.012849862842502153 -0.0018632154233798083 0 0.014742031884407161 -0.0019851485638703592 0 0.013908158588686818 -0.0020499626157070411 0 0.014213669547862547 -0.0013783145112388098 0 0.013450170613285855 -0.0015967434513887767 0 0.013908158588686818 -0.0020499626157070411 0 0.014213669547862547 -0.0013783145112388098 0 0.014213669547862547 -0.0013783145112388098 0 0.013815739293600086 -0.00092031376001396146 0 0.014469797764201176 -0.00073891100737583613 0 0.013450170613285855 -0.0015967434513887767 0 0.014213669547862547 -0.0013783145112388098 0 0.013815739293600086 -0.00092031376001396146 0 0.013450170613285855 -0.0015967434513887767 0 0.013815739293600086 -0.00092031376001396146 0 0.013125273972163532 -0.00099730931774940257 0 0.013450170613285855 -0.0015967434513887767 0 0.013125273972163532 -0.00099730931774940257 0 0.012893043928948108 -0.0014569864385621839 0 0.013815739293600086 -0.00092031376001396146 0 0.013125273972163532 -0.00099730931774940257 0 0.013543398088588492 -0.00051120719140194785 0 0.011406418528800489 -0.0019955379823828607 0 0.013118678061016995 -0.00098084982867504807 0 0.010704022765842872 -0.0028460644415227057 0 0.010190461321147187 -0.003461048762405479 0 0.012329802428843285 -0.0021855897430068218 0 0.013125273972163532 -0.00099730931774940257 0 0.013543398088588492 -0.00051120719140194785 0 0.012579856996182071 -0.00051303039901119327 0 0.013543398088588492 -0.00051120719140194785 0 0.012579856996182071 -0.00051303039901119327 0 0.013902195868092718 0.00020482466021125583 0 0.013543398088588492 -0.00051120719140194785 0 0.014225739150058559 -0.00033412612823098005 0 0.013902195868092718 0.00020482466021125583 0 0.01493200456486923 -0.00029122012678970652 0 0.014225739150058559 -0.00033412612823098005 0 0.01454809335424434 -1.3691858513979879e-05 0 0.01493200456486923 -0.00029122012678970652 0 0.014225739150058559 -0.00033412612823098005 0 0.014469797764201176 -0.00073891100737583613 0 0.013815739293600086 -0.00092031376001396146 0 0.014225739150058559 -0.00033412612823098005 0 0.014469797764201176 -0.00073891100737583613 0 0.013815739293600086 -0.00092031376001396146 0 0.013543398088588492 -0.00051120719140194785 0 0.014225739150058559 -0.00033412612823098005 0 0.010257338159174447 -0.0031401740098340007 0 0.010190461321147187 -0.003461048762405479 0 0.010198739756757544 -0.0033357205643360873 0 0.0089455994368812398 -0.0043446450572017948 0 0.0089614862946011658 -0.003936758238058986 0 0.010257338159174447 -0.0031401740098340007 0 0.010198739756757544 -0.0033357205643360873 0 0.010127955501134555 -0.0033608785571777357 0 0.010257338159174447 -0.0031401740098340007 0 0.010328157967185296 -0.0031034389615097985 0 0.010190461321147187 -0.003461048762405479 0 0.010328157967185296 -0.0031034389615097985 0 0.010704022765842872 -0.0028460644415227057 0 0.010190461321147187 -0.003461048762405479 0 0.013125273972163532 -0.00099730931774940257 0 0.012579856996182071 -0.00051303039901119327 0 0.012474067156931818 -0.0012470318184778205 0 0.013125273972163532 -0.00099730931774940257 0 0.012893043928948108 -0.0014569864385621839 0 0.012474067156931818 -0.0012470318184778205 0 0.012893043928948108 -0.0014569864385621839 0 0.012474067156931818 -0.0012470318184778205 0 0.012558032741054768 -0.0015709050806968286 0 0.011406418528800489 -0.0019955379823828607 0 0.010958056905079623 -0.0022902660007586622 0 0.012579856996182071 -0.00051303039901119327 0 0.012474067156931818 -0.0012470318184778205 0 0.011553843633066089 -0.0013354379691851576 0 0.010190461321147187 -0.003461048762405479 0 0.010198739756757544 -0.0033357205643360873 0 0.010164423432285087 -0.0033454984927975711 0 0.012474067156931818 -0.0012470318184778205 0 0.011553843633066089 -0.0013354379691851576 0 0.012062865140977999 -0.0015993465219595326 0 0.010198739756757544 -0.0033357205643360873 0 0.010164423432285087 -0.0033454984927975711 0 0.010127955501134555 -0.0033608785571777357 0 0.011553843633066089 -0.0013354379691851576 0 0.012062865140977999 -0.0015993465219595326 0 0.011710580899934778 -0.001784617357164226 0 0.011553843633066089 -0.0013354379691851576 0 0.011710580899934778 -0.001784617357164226 0 0.011374561212833178 -0.0021327362070000765 0 0.012062865140977999 -0.0015993465219595326 0 0.011938059953327175 -0.0020358279598788162 0 0.011710580899934778 -0.001784617357164226 0 0.012062865140977999 -0.0015993465219595326 0 0.011938059953327175 -0.0020358279598788162 0 0.012346297699084479 -0.0018576931117814236 0 0.011938059953327175 -0.0020358279598788162 0 0.011710580899934778 -0.001784617357164226 0 0.011374561212833178 -0.0021327362070000765 0 0.012893043928948108 -0.0014569864385621839 0 0.012558032741054768 -0.0015709050806968286 0 0.012849862842502153 -0.0018632154233798083 0 0.012558032741054768 -0.0015709050806968286 0 0.012346297699084479 -0.0018576931117814236 0 0.012849862842502153 -0.0018632154233798083 0 0.012062865140977999 -0.0015993465219595326 0 0.012558032741054768 -0.0015709050806968286 0 0.012346297699084479 -0.0018576931117814236 0 0.012474067156931818 -0.0012470318184778205 0 0.012062865140977999 -0.0015993465219595326 0 0.012558032741054768 -0.0015709050806968286 0 0.011938059953327175 -0.0020358279598788162 0 0.012346297699084479 -0.0018576931117814236 0 0.012504447242555117 -0.0022260426586925819 0 0.012346297699084479 -0.0018576931117814236 0 0.012849862842502153 -0.0018632154233798083 0 0.012504447242555117 -0.0022260426586925819 0 0.012504447242555117 -0.0022260426586925819 0 0.012669530535814958 -0.0026802063845007152 0 0.011844365361813764 -0.0027124435096566638 0 0.011938059953327175 -0.0020358279598788162 0 0.011374561212833178 -0.0021327362070000765 0 0.011844365361813764 -0.0027124435096566638 0 0.011938059953327175 -0.0020358279598788162 0 0.012504447242555117 -0.0022260426586925819 0 0.011844365361813764 -0.0027124435096566638 0 0.011374561212833178 -0.0021327362070000765 0 0.010901824217326002 -0.0026864936876174234 0 0.011844365361813764 -0.0027124435096566638 0 0.011374561212833178 -0.0021327362070000765 0 0.010731274267279539 -0.0020312543304245633 0 0.010901824217326002 -0.0026864936876174234 0 0.0099200903773336343 -0.0028877158915707 0 0.01011082741209908 -0.0028051654536745082 0 0.010731274267279539 -0.0020312543304245633 0 0.010160047544541568 -0.002801433853213204 0 0.010901824217326002 -0.0026864936876174234 0 0.0086966022401848107 -0.0034374724639082057 0 0.008944255059777393 -0.003717428694277818 0 0.0086541415847699848 -0.0039885830775409888 0 0.0086966022401848107 -0.0034374724639082057 0 0.0079772229240899131 -0.00423924941845425 0 0.0086541415847699848 -0.0039885830775409888 0 0.0086966022401848107 -0.0034374724639082057 0 0.0089584584738619747 -0.0035101278456592454 0 0.008944255059777393 -0.003717428694277818 0 0.010164423432285087 -0.0033454984927975711 0 0.010090732039545769 -0.0033828802769711713 0 0.010127955501134555 -0.0033608785571777357 0 0.011553843633066089 -0.0013354379691851576 0 0.011374561212833178 -0.0021327362070000765 0 0.010731274267279539 -0.0020312543304245633 0 0.010958056905079623 -0.0022902660007586622 0 0.0099200903773336343 -0.0028877158915707 0 0.0099200903773336343 -0.0028877158915707 0 0.0089614862946011658 -0.003936758238058986 0 0.0088352076384793539 -0.0034341002775254256 0 0.0089826607677431728 -0.0034803088523031383 0 0.00897756429610117 -0.0034714551203066314 0 0.00897756429610117 -0.0034714551203066314 0 0.0089880163919051417 -0.003462286990527167 0 0.0089865897240837909 -0.0034733659770664178 0 0.00897756429610117 -0.0034714551203066314 0 0.0089903556880546222 -0.0034712265619323886 0 0.0089880163919051417 -0.003462286990527167 0 0.0089903556880546222 -0.0034712265619323886 0 0.0089880163919051417 -0.003462286990527167 0 0.0089862631530648711 -0.0034316090135150927 0 0.00897756429610117 -0.0034714551203066314 0 0.0089903556880546222 -0.0034712265619323886 0 0.0089993262485472385 -0.0034911185634579301 0 0.0089826607677431728 -0.0034803088523031383 0 0.00897756429610117 -0.0034714551203066314 0 0.0089993262485472385 -0.0034911185634579301 0 0.0086966022401848107 -0.0034374724639082057 0 0.0089584584738619747 -0.0035101278456592454 0 0.0089862631530648711 -0.0034316090135150927 0 0.010158907110605799 -0.0026021780135546328 0 0.0098526047086513087 -0.0030692298612256248 0 0.0096906037398174442 -0.0029803331312323504 0 0.0089903556880546222 -0.0034712265619323886 0 0.0089584584738619747 -0.0035101278456592454 0 0.0089862631530648711 -0.0034316090135150927 0 0.0099200903773336343 -0.0028877158915707 0 0.0092185358242568918 -0.0032651035361228836 0 0.0089903556880546222 -0.0034712265619323886 0 0.0089993262485472385 -0.0034911185634579301 0 0.0089584584738619747 -0.0035101278456592454 0 0.0089584584738619747 -0.0035101278456592454 0 0.008944255059777393 -0.003717428694277818 0 0.0090404333325171671 -0.0036205194368309932 0 0.008944255059777393 -0.003717428694277818 0 0.0090404333325171671 -0.0036205194368309932 0 0.0090805423924605541 -0.0037739151156185092 0 0.0089993262485472385 -0.0034911185634579301 0 0.0089584584738619747 -0.0035101278456592454 0 0.0090172470333871949 -0.0035310026501657655 0 0.0089584584738619747 -0.0035101278456592454 0 0.0090404333325171671 -0.0036205194368309932 0 0.0090172470333871949 -0.0035310026501657655 0 0.0089826607677431728 -0.0034803088523031383 0 0.0090172470333871949 -0.0035310026501657655 0 0.0090007236446298794 -0.0035105468603770134 0 0.0089826607677431728 -0.0034803088523031383 0 0.0089993262485472385 -0.0034911185634579301 0 0.0090172470333871949 -0.0035310026501657655 0 0.0090172470333871949 -0.0035310026501657655 0 0.0090281322269235124 -0.003558342823993684 0 0.0090007236446298794 -0.0035105468603770134 0 0.0090404333325171671 -0.0036205194368309932 0 0.0090281322269235124 -0.003558342823993684 0 0.0090427383958931653 -0.0035695588170111384 0 0.0090404333325171671 -0.0036205194368309932 0 0.0090172470333871949 -0.0035310026501657655 0 0.0090281322269235124 -0.003558342823993684 0 0.0090404333325171671 -0.0036205194368309932 0 0.0090427383958931653 -0.0035695588170111384 0 0.0090639930520184046 -0.0036429365127199588 0 0.0090281322269235124 -0.003558342823993684 0 0.0090427383958931653 -0.0035695588170111384 0 0.0090007236446298794 -0.0035105468603770134 0 0.0089440276529279567 -0.0034488528911932881 0 0.0089293222370467884 -0.003457816612392335 0 0.0090007236446298794 -0.0035105468603770134 0 0.0090427383958931653 -0.0035695588170111384 0 0.0089440276529279567 -0.0034488528911932881 0 0.0090007236446298794 -0.0035105468603770134 0 0.0089826607677431728 -0.0034803088523031383 0 0.0089293222370467884 -0.003457816612392335 0 0.0090007236446298794 -0.0035105468603770134 0 0.0089775747386576839 -0.0034418728348448104 0 0.0090663779862329482 -0.0035414244697467459 0 0.009039935556488252 -0.0034587705198292321 0 0.0090427383958931653 -0.0035695588170111384 0 0.0089440276529279567 -0.0034488528911932881 0 0.0089775747386576839 -0.0034418728348448104 0 0.0090427383958931653 -0.0035695588170111384 0 0.0089775747386576839 -0.0034418728348448104 0 0.0090464473256988854 -0.003564777594092499 0 0.0090639930520184046 -0.0036429365127199588 0 0.0090663779862329482 -0.0035414244697467459 0 0.0090805423924605541 -0.0037739151156185092 0 0.0089775747386576839 -0.0034418728348448104 0 0.0090464473256988854 -0.003564777594092499 0 0.0090663779862329482 -0.0035414244697467459 0 0.0090427383958931653 -0.0035695588170111384 0 0.0090464473256988854 -0.003564777594092499 0 0.0090639930520184046 -0.0036429365127199588 0 0.0090464473256988854 -0.003564777594092499 0 0.0090639930520184046 -0.0036429365127199588 0 0.0090663779862329482 -0.0035414244697467459 0 0.0074548134634593232 -0.0067113730305038638 0 0.0076045791062128486 -0.007527580543057584 0 0.0090663779862329482 -0.0035414244697467459 0 0.0090805423924605541 -0.0037739151156185092 0 0.0090910610071932348 -0.0041900203917662636 0 0.0090663779862329482 -0.0035414244697467459 0 0.0090641933784060442 -0.0035066399580473309 0 0.0090910610071932348 -0.0041900203917662636 0 0.0076045791062128486 -0.007527580543057584 0 0.009878977929140215 -0.0036527847638551177 0 0.0090404333325171671 -0.0036205194368309932 0 0.0090639930520184046 -0.0036429365127199588 0 0.0090805423924605541 -0.0037739151156185092 0 0.008944255059777393 -0.003717428694277818 0 0.0090805423924605541 -0.0037739151156185092 0 0.0090910610071932348 -0.0041900203917662636 0 0.01053623103318215 -0.0043491638740731477 0 0.0090910610071932348 -0.0041900203917662636 0 0.0097918815570392382 -0.0052405356088569936 0 0.0090910610071932348 -0.0041900203917662636 0 0.0097918815570392382 -0.0052405356088569936 0 0.0090049437099131331 -0.0053671293707035573 0 0.0077052747062095698 -0.010018911771134479 0 0.0076045791062128486 -0.007527580543057584 0 0.01124686020884502 -0.0056394173483244785 0 0.01053623103318215 -0.0043491638740731477 0 0.0097918815570392382 -0.0052405356088569936 0 0.0079772229240899131 -0.00423924941845425 0 0.0084842170382363347 -0.0045552717745963762 0 0.0079948753946037007 -0.0051631278315424885 0 0.0079772229240899131 -0.00423924941845425 0 0.0086541415847699848 -0.0039885830775409888 0 0.0084842170382363347 -0.0045552717745963762 0 0.008944255059777393 -0.003717428694277818 0 0.0090910610071932348 -0.0041900203917662636 0 0.0086541415847699848 -0.0039885830775409888 0 0.0090910610071932348 -0.0041900203917662636 0 0.0086541415847699848 -0.0039885830775409888 0 0.0084842170382363347 -0.0045552717745963762 0 0.0090910610071932348 -0.0041900203917662636 0 0.0084842170382363347 -0.0045552717745963762 0 0.0090049437099131331 -0.0053671293707035573 0 0.0084842170382363347 -0.0045552717745963762 0 0.0090049437099131331 -0.0053671293707035573 0 0.0084222254337815231 -0.0053167666668738015 0 0.0075044627305441251 -0.0056275388190968594 0 0.0079772229240899131 -0.00423924941845425 0 0.0079948753946037007 -0.0051631278315424885 0 0.0084842170382363347 -0.0045552717745963762 0 0.0084222254337815231 -0.0053167666668738015 0 0.0079948753946037007 -0.0051631278315424885 0 0.0084222254337815231 -0.0053167666668738015 0 0.0078098077623767036 -0.0060917650311448773 0 0.0085971655552874501 -0.0060170351898807773 0 0.0084222254337815231 -0.0053167666668738015 0 0.0079948753946037007 -0.0051631278315424885 0 0.0078098077623767036 -0.0060917650311448773 0 0.0078098077623767036 -0.0060917650311448773 0 0.0085971655552874501 -0.0060170351898807773 0 0.0085280659853010591 -0.0068094473450021412 0 0.0090049437099131331 -0.0053671293707035573 0 0.0084222254337815231 -0.0053167666668738015 0 0.0085971655552874501 -0.0060170351898807773 0 0.0090049437099131331 -0.0053671293707035573 0 0.0085971655552874501 -0.0060170351898807773 0 0.0092992372927219978 -0.0062169321169689429 0 0.0085971655552874501 -0.0060170351898807773 0 0.0085280659853010591 -0.0068094473450021412 0 0.0092992372927219978 -0.0062169321169689429 0 0.0085280659853010591 -0.0068094473450021412 0 0.0095405955810005452 -0.0071592652476910584 0 0.0089726776478862118 -0.0075357646008210842 0 0.0085280659853010591 -0.0068094473450021412 0 0.0092992372927219978 -0.0062169321169689429 0 0.0095405955810005452 -0.0071592652476910584 0 0.007806435354856282 -0.0063877655807597243 0 0.0078211069246233739 -0.006308292242367554 0 0.0085280659853010591 -0.0068094473450021412 0 0.0076978784482089838 -0.0075224715615914593 0 0.0089726776478862118 -0.0075357646008210842 0 0.0078098077623767036 -0.0060917650311448773 0 0.0085280659853010591 -0.0068094473450021412 0 0.0076978784482089838 -0.0075224715615914593 0 0.01124686020884502 -0.0056394173483244785 0 0.011085586609329838 -0.0065973947409037085 0 0.010211729838462613 -0.0060900627488076394 0 0.01124686020884502 -0.0056394173483244785 0 0.0097918815570392382 -0.0052405356088569936 0 0.010211729838462613 -0.0060900627488076394 0 0.011085586609329838 -0.0065973947409037085 0 0.010211729838462613 -0.0060900627488076394 0 0.010216913903113798 -0.0068420562908993055 0 0.0097918815570392382 -0.0052405356088569936 0 0.010211729838462613 -0.0060900627488076394 0 0.0092992372927219978 -0.0062169321169689429 0 0.010211729838462613 -0.0060900627488076394 0 0.0092992372927219978 -0.0062169321169689429 0 0.010216913903113798 -0.0068420562908993055 0 0.0097918815570392382 -0.0052405356088569936 0 0.0090049437099131331 -0.0053671293707035573 0 0.0092992372927219978 -0.0062169321169689429 0 0.0092992372927219978 -0.0062169321169689429 0 0.0095405955810005452 -0.0071592652476910584 0 0.010216913903113798 -0.0068420562908993055 0 0.0095405955810005452 -0.0071592652476910584 0 0.010348001466580587 -0.0074106024892800562 0 0.010088870416796196 -0.007892017756199304 0 0.0095405955810005452 -0.0071592652476910584 0 0.010216913903113798 -0.0068420562908993055 0 0.010348001466580587 -0.0074106024892800562 0 0.011447593636136465 -0.0077256723038386151 0 0.010348001466580587 -0.0074106024892800562 0 0.010088870416796196 -0.007892017756199304 0 0.011447593636136465 -0.0077256723038386151 0 0.010348001466580587 -0.0074106024892800562 0 0.010749518609436791 -0.007170409602594058 0 0.010216913903113798 -0.0068420562908993055 0 0.010348001466580587 -0.0074106024892800562 0 0.010749518609436791 -0.007170409602594058 0 0.011085586609329838 -0.0065973947409037085 0 0.010216913903113798 -0.0068420562908993055 0 0.010749518609436791 -0.007170409602594058 0 0.011447593636136465 -0.0077256723038386151 0 0.009068339808467045 -0.0093863253945607166 0 0.0070361913059831778 -0.01030744353753826 0 0.011395551680352292 -0.0075915053902760633 0 0.0084537835622339377 -0.0096794267724211146 0 0.010930120140758342 -0.0094779663319503309 0 0.009068339808467045 -0.0093863253945607166 0 0.0092096072508896318 -0.012160520594807146 0 0.0084080539196078434 -0.009698267037842814 0 0.0084537835622339377 -0.0096794267724211146 0 0.009068339808467045 -0.0093863253945607166 0 0.0071313063587908794 -0.010335953832707875 0 0.0092096072508896318 -0.012160520594807146 0 0.0071313063587908794 -0.010335953832707875 0 0.0068947761494463208 -0.012687677151132315 0 0.0092096072508896318 -0.012160520594807146 0 0.0095405955810005452 -0.0071592652476910584 0 0.010088870416796196 -0.007892017756199304 0 0.0089726776478862118 -0.0075357646008210842 0 0.0084537835622339377 -0.0096794267724211146 0 0.0045351463127432587 -0.011929004107872775 0 0.0084230028468520353 -0.010448768735486781 0 0.0068898910352455838 -0.011228158161570138 0 0.0068977934664012077 -0.011430362182075385 0 0.0084537835622339377 -0.0096794267724211146 0 0.0078946075422195398 -0.0097580095500596539 0 0.010088870416796196 -0.007892017756199304 0 0.0089726776478862118 -0.0075357646008210842 0 0.008941215311751188 -0.0083145019098566503 0 0.0071313063587908794 -0.010335953832707875 0 0.0068947761494463208 -0.012687677151132315 0 0.0031178878991349008 -0.012835358027382948 0 0.0066701553630955914 -0.01519443647086441 0 0.0068947761494463208 -0.012687677151132315 0 0.0031178878991349008 -0.012835358027382948 0 0.01210532480187243 -0.015200224711638516 0 0.0066701553630955914 -0.01519443647086441 0 0.0092096072508896318 -0.012160520594807146 0 0.0066701553630955914 -0.01519443647086441 0 0.0068947761494463208 -0.012687677151132315 0 0.0092096072508896318 -0.012160520594807146 0 0.0078211069246233739 -0.006308292242367554 0 0.0075740839521896714 -0.010083160754240797 0 0.0076978784482089838 -0.0075224715615914593 0 0.0089726776478862118 -0.0075357646008210842 0 0.008941215311751188 -0.0083145019098566503 0 0.0023591940348783114 -0.015801254048350675 0 0.0066701553630955914 -0.01519443647086441 0 0.0031178878991349008 -0.012835358027382948 0 -0.00079613765300913498 -0.015227934061097211 0 0.0023591940348783114 -0.015801254048350675 0 0.0031178878991349008 -0.012835358027382948 0 0.0068898910352455838 -0.011228158161570138 0 0.0068977934664012077 -0.011430362182075385 0 0.0054090708244790633 -0.011961495109770574 0 0.0078946075422195398 -0.0097580095500596539 0 0.0075740839521896714 -0.010083160754240797 0 0.0054242360284113608 -0.012360483712556868 0 0.0068977934664012077 -0.011430362182075385 0 0.0054090708244790633 -0.011961495109770574 0 0.0076978784482089838 -0.0075224715615914593 0 0.008941215311751188 -0.0083145019098566503 0 0.0077312412208948335 -0.0088489579480900155 0 0.0048997209458171518 -0.017131657383025096 0 0.0045351463127432587 -0.011929004107872775 0 0.0048997209458171518 -0.017131657383025096 0 0.0075740839521896714 -0.010083160754240797 0 0.0079652609820681404 -0.0062251008016542342 0 0.0079856815545738744 -0.0061903494917707929 0 0.0080237361614358856 -0.0062146268270522722 0 0.0080640879421516563 -0.0062611623279478813 0 0.0079652609820681404 -0.0062251008016542342 0 0.0080237361614358856 -0.0062146268270522722 0 0.00790864369460474 -0.0062163820663474513 0 0.0079856815545738744 -0.0061903494917707929 0 0.0078850853825450685 -0.0061970126293470389 0 0.00790864369460474 -0.0062163820663474513 0 0.0079652609820681404 -0.0062251008016542342 0 0.0079856815545738744 -0.0061903494917707929 0 0.007995549696829524 -0.0061691821711669318 0 0.0083743262291639149 -0.0060791758118597349 0 0.0078201222440191492 -0.006240601532901402 0 0.007995549696829524 -0.0061691821711669318 0 0.0079856815545738744 -0.0061903494917707929 0 0.0078850853825450685 -0.0061970126293470389 0 0.007995549696829524 -0.0061691821711669318 0 0.0079856815545738744 -0.0061903494917707929 0 0.0081207634850882018 -0.00613194097367885 0 0.007995549696829524 -0.0061691821711669318 0 0.0081207634850882018 -0.00613194097367885 0 0.0083743262291639149 -0.0060791758118597349 0 0.0079856815545738744 -0.0061903494917707929 0 0.0081207634850882018 -0.00613194097367885 0 0.0081320548634084156 -0.0061972783298814794 0 0.0079856815545738744 -0.0061903494917707929 0 0.0080237361614358856 -0.0062146268270522722 0 0.0081320548634084156 -0.0061972783298814794 0 0.0080640879421516563 -0.0062611623279478813 0 0.0080237361614358856 -0.0062146268270522722 0 0.0081320548634084156 -0.0061972783298814794 0 0.0081079300524202133 -0.0063128920431110725 0 0.0081320548634084156 -0.0061972783298814794 0 0.0080864785439574705 -0.0062346068869023729 0 0.008015153669837875 -0.0064059078408463081 0 0.0081079300524202133 -0.0063128920431110725 0 0.0080864785439574705 -0.0062346068869023729 0 0.0080864785439574705 -0.0062346068869023729 0 0.0081699481751346722 -0.0061313605649196056 0 0.008186413866036725 -0.0061428378923077892 0 0.0080864785439574705 -0.0062346068869023729 0 0.0081699481751346722 -0.0061313605649196056 0 0.0079455392481331683 -0.0059608510744709412 0 0.0081320548634084156 -0.0061972783298814794 0 0.0080864785439574705 -0.0062346068869023729 0 0.008186413866036725 -0.0061428378923077892 0 0.0081207634850882018 -0.00613194097367885 0 0.0081320548634084156 -0.0061972783298814794 0 0.008186413866036725 -0.0061428378923077892 0 0.0081699481751346722 -0.0061313605649196056 0 0.008186413866036725 -0.0061428378923077892 0 0.0083743262291639149 -0.0060791758118597349 0 0.0087414307609490673 -0.014501116412689303 0 0.011138246990684967 9.6905743004236744e-05 0 0.008015153669837875 -0.0064059078408463081 0 0.0080864785439574705 -0.0062346068869023729 0 0.0079455392481331683 -0.0059608510744709412 0 0.013568903479505238 0.0023746946682951585 0 0.013587519047958369 0.0016377062555807177 0 0.012890922382905234 0.0011314556710233523 0 0.013568903479505238 0.0023746946682951585 0 0.014380649417586225 0.0016593025003247967 0 0.013587519047958369 0.0016377062555807177 0 0.014380649417586225 0.0016593025003247967 0 0.013587519047958369 0.0016377062555807177 0 0.013845714908190922 0.0011794914289119389 0 0.014380649417586225 0.0016593025003247967 0 0.014380159915495721 0.0010535416652057905 0 0.013845714908190922 0.0011794914289119389 0 0.014380159915495721 0.0010535416652057905 0 0.01453839932214235 0.00065012095766575661 0 0.014000416222082812 0.0007354012725501038 0 0.014380159915495721 0.0010535416652057905 0 0.013845714908190922 0.0011794914289119389 0 0.014000416222082812 0.0007354012725501038 0 0.013845714908190922 0.0011794914289119389 0 0.013396344308531533 0.00084158712294596643 0 0.014000416222082812 0.0007354012725501038 0 0.013587519047958369 0.0016377062555807177 0 0.013412887813047345 0.0011923946456627327 0 0.012890922382905234 0.0011314556710233523 0 0.013845714908190922 0.0011794914289119389 0 0.013412887813047345 0.0011923946456627327 0 0.013396344308531533 0.00084158712294596643 0 0.013587519047958369 0.0016377062555807177 0 0.013845714908190922 0.0011794914289119389 0 0.013412887813047345 0.0011923946456627327 0 0.013412887813047345 0.0011923946456627327 0 0.013396344308531533 0.00084158712294596643 0 0.012890922382905234 0.0011314556710233523 0 0.013396344308531533 0.00084158712294596643 0 0.012862904382676482 0.00038106403657660792 0 0.013427249966107181 0.00019267025067353036 0 0.013396344308531533 0.00084158712294596643 0 0.014000416222082812 0.0007354012725501038 0 0.013427249966107181 0.00019267025067353036 0 0.013396344308531533 0.00084158712294596643 0 0.012890922382905234 0.0011314556710233523 0 0.012862904382676482 0.00038106403657660792 0 0.014000416222082812 0.0007354012725501038 0 0.014325418090628657 0.00040187290554945926 0 0.013427249966107181 0.00019267025067353036 0 0.01453839932214235 0.00065012095766575661 0 0.014000416222082812 0.0007354012725501038 0 0.014325418090628657 0.00040187290554945926 0 0.0083743262291639149 -0.0060791758118597349 0 0.0079455392481331683 -0.0059608510744709412 0 0.0091911157640497086 -0.0036649548347015273 0 0.011138246990684967 9.6905743004236744e-05 0 0.010286820016813724 -0.0028700831809363061 0 0.012890922382905234 0.0011314556710233523 0 0.012862904382676482 0.00038106403657660792 0 0.011684325752879235 -0.00076226752250911102 0 0.0084522820193085532 -0.0059755085112201548 0 0.0090428912780384247 -0.0049468764662888116 0 0.0081207634850882018 -0.00613194097367885 0 0.008186413866036725 -0.0061428378923077892 0 0.0083743262291639149 -0.0060791758118597349 0 0.0081699481751346722 -0.0061313605649196056 0 0.0083743262291639149 -0.0060791758118597349 0 0.0079455392481331683 -0.0059608510744709412 0 0.0083743262291639149 -0.0060791758118597349 0 0.0091911157640497086 -0.0036649548347015273 0 0.010381264049421159 -0.0036435513970496654 0 0.012862904382676482 0.00038106403657660792 0 0.012742313030408337 -0.00018716440568508619 0 0.011684325752879235 -0.00076226752250911102 0 0.012742313030408337 -0.00018716440568508619 0 0.011684325752879235 -0.00076226752250911102 0 0.012973619227866584 -0.00056062808765625115 0 0.011684325752879235 -0.00076226752250911102 0 0.012973619227866584 -0.00056062808765625115 0 0.012329802428843285 -0.0021855897430068218 0 0.014829691534999497 0.00012291893394378555 0 0.012973619227866584 -0.00056062808765625115 0 0.012329802428843285 -0.0021855897430068218 0 0.014691645506372145 5.7661512961237474e-05 0 0.013118678061016995 -0.00098084982867504807 0 0.014829691534999497 0.00012291893394378555 0 0.013427249966107181 0.00019267025067353036 0 0.012973619227866584 -0.00056062808765625115 0 0.014689869236310639 0.00014685330349998148 0 0.014829691534999497 0.00012291893394378555 0 0.013902195868092718 0.00020482466021125583 0 0.014829691534999497 0.00012291893394378555 0 0.014325418090628657 0.00040187290554945926 0 0.013427249966107181 0.00019267025067353036 0 0.012742313030408337 -0.00018716440568508619 0 0.013427249966107181 0.00019267025067353036 0 0.012973619227866584 -0.00056062808765625115 0 0.012862904382676482 0.00038106403657660792 0 0.012742313030408337 -0.00018716440568508619 0 0.013427249966107181 0.00019267025067353036 0 0.014225739150058559 -0.00033412612823098005 0 0.01454809335424434 -1.3691858513979879e-05 0 0.013902195868092718 0.00020482466021125583 0 0.014689869236310639 0.00014685330349998148 0 0.01454809335424434 -1.3691858513979879e-05 0 0.013902195868092718 0.00020482466021125583 0 0.010660666205652281 -0.0026205407666227208 0 0.010286820016813724 -0.0028700831809363061 0 0.010704022765842872 -0.0028460644415227057 0 0.011684325752879235 -0.00076226752250911102 0 0.012329802428843285 -0.0021855897430068218 0 0.010257338159174447 -0.0031401740098340007 0 0.010391259257036175 -0.0031767232119452784 0 0.010381264049421159 -0.0036435513970496654 0 0.010328157967185296 -0.0031034389615097985 0 0.010704022765842872 -0.0028460644415227057 0 0.010391259257036175 -0.0031767232119452784 0 0.010704022765842872 -0.0028460644415227057 0 0.0091911157640497086 -0.0036649548347015273 0 0.010391259257036175 -0.0031767232119452784 0 0.0089455994368812398 -0.0043446450572017948 0 0.0090428912780384247 -0.0049468764662888116 0 0.010257338159174447 -0.0031401740098340007 0 0.010328157967185296 -0.0031034389615097985 0 0.010391259257036175 -0.0031767232119452784 0 0.0075044627305441251 -0.0056275388190968594 0 0.0078098077623767036 -0.0060917650311448773 0 0.007803257705579803 -0.0061575710605732293 0 0.0075044627305441251 -0.0056275388190968594 0 0.007803257705579803 -0.0061575710605732293 0 0.0078201222440191492 -0.006240601532901402 0 0.0075044627305441251 -0.0056275388190968594 0 0.0079948753946037007 -0.0051631278315424885 0 0.0078098077623767036 -0.0060917650311448773 0 0.00790864369460474 -0.0062163820663474513 0 0.007803257705579803 -0.0061575710605732293 0 0.0078850853825450685 -0.0061970126293470389 0 0.0078098077623767036 -0.0060917650311448773 0 0.00790864369460474 -0.0062163820663474513 0 0.007803257705579803 -0.0061575710605732293 0 0.007995549696829524 -0.0061691821711669318 0 0.0078850853825450685 -0.0061970126293470389 0 0.0078201222440191492 -0.006240601532901402 0 0.007803257705579803 -0.0061575710605732293 0 0.0078850853825450685 -0.0061970126293470389 0 0.0078201222440191492 -0.006240601532901402 0 0.0091911157640497086 -0.0036649548347015273 0 0.010391259257036175 -0.0031767232119452784 0 0.010381264049421159 -0.0036435513970496654 0 0.036149720402864308 -0.028963852898015542 0 0.034997198688800607 -0.030239956428961001 0 0.035915664250677964 -0.025840012551124777 0 0.034997198688800607 -0.030239956428961001 0 0.035915664250677964 -0.025840012551124777 0 0.035000591697982648 -0.02438486853783365 0 0.036740207401828019 -0.027223130161664888 0 0.036149720402864308 -0.028963852898015542 0 0.035915664250677964 -0.025840012551124777 0 0.036273194515093775 -0.025855232731788694 0 0.035778498095817748 -0.025154120587295235 0 0.035892034630264372 -0.024556463893105847 0 0.035856008651191797 -0.024543902140849196 0 0.035915587753769782 -0.02452747783529232 0 0.035892034630264372 -0.024556463893105847 0 0.035863634527964698 -0.02452031521479359 0 0.035856008651191797 -0.024543902140849196 0 0.035863634527964698 -0.02452031521479359 0 0.035856008651191797 -0.024543902140849196 0 0.035814409039801917 -0.024503334300510285 0 0.036740207401828019 -0.027223130161664888 0 0.037710686495432313 -0.028568041980421191 0 0.036149720402864308 -0.028963852898015542 0 0.036273194515093775 -0.025855232731788694 0 0.036996319979292154 -0.026603815142505899 0 0.037799570201791595 -0.029888755430190057 0 0.036680575771127433 -0.030761365037404724 0 0.036149720402864308 -0.028963852898015542 0 0.037710686495432313 -0.028568041980421191 0 0.037799570201791595 -0.029888755430190057 0 0.036149720402864308 -0.028963852898015542 0 0.036996319979292154 -0.026603815142505899 0 0.036171210681892205 -0.027313855802442964 0 0.035863634527964698 -0.02452031521479359 0 0.035796391720254339 -0.024501090553976024 0 0.035814409039801917 -0.024503334300510285 0 0.037710686495432313 -0.028568041980421191 0 0.037799570201791595 -0.029888755430190057 0 0.03910264815074211 -0.030042270393296718 0 0.037799570201791595 -0.029888755430190057 0 0.038001043814028995 -0.03127830192998321 0 0.036680575771127433 -0.030761365037404724 0 0.038001043814028995 -0.03127830192998321 0 0.036680575771127433 -0.030761365037404724 0 0.036609544374666382 -0.032209516793847898 0 0.037799570201791595 -0.029888755430190057 0 0.038001043814028995 -0.03127830192998321 0 0.03910264815074211 -0.030042270393296718 0 0.036680575771127433 -0.030761365037404724 0 0.036149720402864308 -0.028963852898015542 0 0.035368826870401208 -0.03165977670419487 0 0.036149720402864308 -0.028963852898015542 0 0.034997198688800607 -0.030239956428961001 0 0.035368826870401208 -0.03165977670419487 0 0.034997198688800607 -0.030239956428961001 0 0.035368826870401208 -0.03165977670419487 0 0.034567974530594729 -0.034181869583836504 0 0.034997198688800607 -0.030239956428961001 0 0.034998494892279616 -0.034999123314127349 0 0.034567974530594729 -0.034181869583836504 0 0.035368826870401208 -0.03165977670419487 0 0.034567974530594729 -0.034181869583836504 0 0.034962709435262189 -0.033971635491102242 0 0.034998494892279616 -0.034999123314127349 0 0.034567974530594729 -0.034181869583836504 0 0.031126862845943935 -0.03499763767354197 0 0.031126862845943935 -0.03499763767354197 0 0.03248083653254031 -0.034801795830267289 0 0.030400292527761361 -0.035148397640029416 0 0.034567974530594729 -0.034181869583836504 0 0.031126862845943935 -0.03499763767354197 0 0.03248083653254031 -0.034801795830267289 0 0.035491426398715074 -0.034687786215805066 0 0.034672738889063318 -0.034192722634798625 0 0.03248083653254031 -0.034801795830267289 0 0.03211520143082805 -0.035955809824713865 0 0.031014305002061229 -0.035545265209863897 0 0.03248083653254031 -0.034801795830267289 0 0.03211520143082805 -0.035955809824713865 0 0.034962709435262189 -0.033971635491102242 0 0.034567974530594729 -0.034181869583836504 0 0.03248083653254031 -0.034801795830267289 0 0.034962709435262189 -0.033971635491102242 0 0.035368826870401208 -0.03165977670419487 0 0.034962709435262189 -0.033971635491102242 0 0.036609544374666382 -0.032209516793847898 0 0.038117356523184348 -0.033566059274833103 0 0.034962709435262189 -0.033971635491102242 0 0.036609544374666382 -0.032209516793847898 0 0.036680575771127433 -0.030761365037404724 0 0.035368826870401208 -0.03165977670419487 0 0.036609544374666382 -0.032209516793847898 0 0.038001043814028995 -0.03127830192998321 0 0.038117356523184348 -0.033566059274833103 0 0.036609544374666382 -0.032209516793847898 0 0.036977794786584223 -0.03092836348628453 0 0.033157020590953386 -0.034303509383249137 0 0.038001043814028995 -0.03127830192998321 0 0.038117356523184348 -0.033566059274833103 0 0.039719851800290779 -0.031648416955402506 0 0.038117356523184348 -0.033566059274833103 0 0.039719851800290779 -0.031648416955402506 0 0.040241737047200715 -0.033355355345664847 0 0.034405962394688176 -0.029764482552497647 0 0.034301580888301007 -0.030177586955880673 0 0.034703148687039546 -0.030144862421316011 0 0.034194256614945275 -0.029776083355604187 0 0.034405962394688176 -0.029764482552497647 0 0.034301580888301007 -0.030177586955880673 0 0.034951083078454612 -0.026685607820252571 0 0.032180244015035102 -0.030515925375380521 0 0.033157020590953386 -0.034303509383249137 0 0.029326242315944745 -0.03644863767313055 0 0.029536860455405142 -0.037859618182209065 0 0.028272826688219291 -0.037051823453617468 0 0.028337168912174176 -0.037938886302009256 0 0.033157020590953386 -0.034303509383249137 0 0.032180244015035102 -0.030515925375380521 0 0.029536860455405142 -0.037859618182209065 0 0.029093036005614151 -0.036604997283443567 0 0.028272826688219291 -0.037051823453617468 0 0.03211520143082805 -0.035955809824713865 0 0.030447301652730688 -0.036392592146122296 0 0.031014305002061229 -0.035545265209863897 0 0.030447301652730688 -0.036392592146122296 0 0.031014305002061229 -0.035545265209863897 0 0.029874561011370527 -0.035573070145186854 0 0.035491426398715074 -0.034687786215805066 0 0.033157020590953386 -0.034303509383249137 0 0.03248083653254031 -0.034801795830267289 0 0.031014305002061229 -0.035545265209863897 0 0.030400292527761361 -0.035148397640029416 0 0.031014305002061229 -0.035545265209863897 0 0.029874561011370527 -0.035573070145186854 0 0.030400292527761361 -0.035148397640029416 0 0.031126862845943935 -0.03499763767354197 0 0.030400292527761361 -0.035148397640029416 0 0.028246235737914425 -0.034999802841806031 0 0.029326242315944745 -0.03644863767313055 0 0.028833043758792271 -0.035077593733588958 0 0.029093036005614151 -0.036604997283443567 0 0.028730552133454712 -0.035232465777346893 0 0.028116144293317758 -0.036079502540420215 0 0.029874561011370527 -0.035573070145186854 0 0.028730552133454712 -0.035232465777346893 0 0.030400292527761361 -0.035148397640029416 0 0.028730552133454712 -0.035232465777346893 0 0.030400292527761361 -0.035148397640029416 0 0.028246235737914425 -0.034999802841806031 0 0.027151073729929188 -0.03576832682889388 0 0.028246235737914425 -0.034999802841806031 0 0.026110733922935957 -0.034999953522917959 0 0.027151073729929188 -0.03576832682889388 0 0.026110733922935957 -0.034999953522917959 0 0.026119108867102891 -0.035811362986623685 0 0.027151073729929188 -0.03576832682889388 0 0.026728695186118454 -0.036396708862534627 0 0.026119108867102891 -0.035811362986623685 0 0.028730552133454712 -0.035232465777346893 0 0.028246235737914425 -0.034999802841806031 0 0.028116144293317758 -0.036079502540420215 0 0.027151073729929188 -0.03576832682889388 0 0.028246235737914425 -0.034999802841806031 0 0.028116144293317758 -0.036079502540420215 0 0.027151073729929188 -0.03576832682889388 0 0.028116144293317758 -0.036079502540420215 0 0.0272389289599166 -0.036880699072764242 0 0.029093036005614151 -0.036604997283443567 0 0.028116144293317758 -0.036079502540420215 0 0.028272826688219291 -0.037051823453617468 0 0.028116144293317758 -0.036079502540420215 0 0.0272389289599166 -0.036880699072764242 0 0.028272826688219291 -0.037051823453617468 0 0.031829667203249076 -0.031304494360195917 0 0.032443992875506457 -0.031993056822711585 0 0.032761482516455748 -0.030585712375008761 0 0.027151073729929188 -0.03576832682889388 0 0.0272389289599166 -0.036880699072764242 0 0.026728695186118454 -0.036396708862534627 0 0.032443992875506457 -0.031993056822711585 0 0.032761482516455748 -0.030585712375008761 0 0.033278589000239188 -0.031641748111881592 0 0.029322944444467935 -0.034482322841597773 0 0.02953626256949541 -0.034416721903402857 0 0.02953626256949541 -0.034416721903402857 0 0.02715547941444971 -0.035414374797599235 0 0.02953626256949541 -0.034416721903402857 0 0.030781147472291465 -0.032626058213115108 0 0.031829667203249076 -0.031304494360195917 0 0.032761482516455748 -0.030585712375008761 0 0.03195870263131078 -0.029720780856097504 0 0.032761482516455748 -0.030585712375008761 0 0.03195870263131078 -0.029720780856097504 0 0.033446402564901015 -0.029609128238856721 0 0.032180244015035102 -0.030515925375380521 0 0.033714806708176046 -0.027041668313916137 0 0.029322944444467935 -0.034482322841597773 0 0.032180244015035102 -0.030515925375380521 0 0.031829667203249076 -0.031304494360195917 0 0.030499197237860834 -0.029820842120245487 0 0.03195870263131078 -0.029720780856097504 0 0.0272389289599166 -0.036880699072764242 0 0.028272826688219291 -0.037051823453617468 0 0.028337168912174176 -0.037938886302009256 0 0.035468568542105963 -0.024323556994908468 0 0.03545325633093839 -0.024389797852808853 0 0.035363713287886685 -0.024315648932355105 0 0.035579935365338045 -0.024372431582572261 0 0.035468568542105963 -0.024323556994908468 0 0.03545325633093839 -0.024389797852808853 0 0.03545325633093839 -0.024389797852808853 0 0.035363713287886685 -0.024315648932355105 0 0.03533745871237718 -0.024444876055043887 0 0.033714806708176046 -0.027041668313916137 0 0.034962151152327071 -0.026219714122777446 0 0.035363713287886685 -0.024315648932355105 0 0.03533745871237718 -0.024444876055043887 0 0.035200288702212403 -0.024307965522072612 0 0.03533745871237718 -0.024444876055043887 0 0.035327013469572108 -0.024481384925642169 0 0.035412048519231624 -0.024439295720925097 0 0.03533745871237718 -0.024444876055043887 0 0.035327013469572108 -0.024481384925642169 0 0.035175658374813797 -0.024618877614780588 0 0.035327013469572108 -0.024481384925642169 0 0.035413223429452557 -0.024402852042182305 0 0.035286807490585728 -0.02440051656219315 0 0.035327013469572108 -0.024481384925642169 0 0.035413223429452557 -0.024402852042182305 0 0.035459309796247923 -0.024433311186847589 0 0.035327013469572108 -0.024481384925642169 0 0.035412048519231624 -0.024439295720925097 0 0.035459309796247923 -0.024433311186847589 0 0.035412048519231624 -0.024439295720925097 0 0.035532252078222408 -0.024422544052725842 0 0.035459309796247923 -0.024433311186847589 0 0.03545325633093839 -0.024389797852808853 0 0.035412048519231624 -0.024439295720925097 0 0.035532252078222408 -0.024422544052725842 0 0.03545325633093839 -0.024389797852808853 0 0.03533745871237718 -0.024444876055043887 0 0.035412048519231624 -0.024439295720925097 0 0.035579935365338045 -0.024372431582572261 0 0.03545325633093839 -0.024389797852808853 0 0.035532252078222408 -0.024422544052725842 0 0.035579935365338045 -0.024372431582572261 0 0.035532252078222408 -0.024422544052725842 0 0.035724080613955211 -0.024418476289552522 0 0.038001043814028995 -0.03127830192998321 0 0.039719851800290779 -0.031648416955402506 0 0.03910264815074211 -0.030042270393296718 0 0.034194256614945275 -0.029776083355604187 0 0.034405962394688176 -0.029764482552497647 0 0.034099281136704081 -0.029335906120692552 0 0.036977794786584223 -0.03092836348628453 0 0.036171210681892205 -0.027313855802442964 0 0.034951083078454612 -0.026685607820252571 0 0.036171210681892205 -0.027313855802442964 0 0.035724080613955211 -0.024418476289552522 0 0.035814409039801917 -0.024503334300510285 0 0.035632418231021229 -0.024467596916124542 0 0.036171210681892205 -0.027313855802442964 0 0.035500873852071568 -0.023705228623137932 0 0.035532252078222408 -0.024422544052725842 0 0.035632418231021229 -0.024467596916124542 0 0.035459309796247923 -0.024433311186847589 0 0.035532252078222408 -0.024422544052725842 0 0.035724080613955211 -0.024418476289552522 0 0.035632418231021229 -0.024467596916124542 0 0.035646468702049586 -0.02439834178160457 0 0.035489599255995666 -0.024425777366839159 0 0.035632418231021229 -0.024467596916124542 0 0.035690952920193496 -0.024583643744473308 0 0.035459309796247923 -0.024433311186847589 0 0.035814409039801917 -0.024503334300510285 0 0.035632418231021229 -0.024467596916124542 0 0.035690952920193496 -0.024583643744473308 0 0.035856008651191797 -0.024543902140849196 0 0.035814409039801917 -0.024503334300510285 0 0.035690952920193496 -0.024583643744473308 0 0.035589583245937244 -0.024207492534114632 0 0.035650968012248811 -0.024200272031905317 0 0.03581222288998219 -0.024147588392425395 0 0.035856008651191797 -0.024543902140849196 0 0.035690952920193496 -0.024583643744473308 0 0.035915587753769782 -0.02452747783529232 0 0.035646468702049586 -0.02439834178160457 0 0.035854659072235236 -0.024335052239978863 0 0.035589583245937244 -0.024207492534114632 0 0.035528362147909026 -0.024259222060434182 0 0.035650968012248811 -0.024200272031905317 0 0.035528362147909026 -0.024259222060434182 0 0.035507771525566383 -0.024275990568411888 0 0.035563493924778269 -0.024226802452876523 0 0.035528362147909026 -0.024259222060434182 0 0.035507771525566383 -0.024275990568411888 0 0.035478525918652588 -0.024347194749304593 0 0.035507771525566383 -0.024275990568411888 0 0.035484953544995958 -0.024348058340857594 0 0.035518099080298481 -0.024232412776288521 0 0.034919091867390069 -0.024031174754316809 0 0.035010010677045476 -0.023760070429281136 0 0.034533948375074265 -0.023335259768862873 0 0.035776110696175714 -0.024469450582721694 0 0.030074580918285677 -0.02319519706018966 0 0.035507771525566383 -0.024275990568411888 0 0.035478525918652588 -0.024347194749304593 0 0.035484953544995958 -0.024348058340857594 0 0.035478525918652588 -0.024347194749304593 0 0.035413223429452557 -0.024402852042182305 0 0.035484953544995958 -0.024348058340857594 0 0.035478525918652588 -0.024347194749304593 0 0.035413223429452557 -0.024402852042182305 0 0.035459309796247923 -0.024433311186847589 0 0.035589583245937244 -0.024207492534114632 0 0.035528362147909026 -0.024259222060434182 0 0.035459309796247923 -0.024433311186847589 0 0.035528362147909026 -0.024259222060434182 0 0.035478525918652588 -0.024347194749304593 0 0.035459309796247923 -0.024433311186847589 0 0.025111821954877982 -0.030510277898490253 0 0.025037228329115063 -0.030446618392704593 0 0.025133906889730318 -0.030335739601047667 0 0.024782278434906827 -0.028784282766783329 0 0.030862224726871199 -0.027225386756367639 0 0.024782278434906827 -0.028784282766783329 0 0.022987768056564398 -0.031628382485310795 0 0.020428107867984324 -0.03186962482827755 0 0.020601930465738928 -0.032900079179103467 0 0.021107987876408437 -0.032569951198751119 0 0.019549574566464167 -0.031838371461908634 0 0.020428107867984324 -0.03186962482827755 0 0.020601930465738928 -0.032900079179103467 0 0.020848181416787449 -0.031383414054717548 0 0.021220724942284934 -0.032509181703887093 0 0.020428107867984324 -0.03186962482827755 0 0.020637052951182219 -0.031101495507401065 0 0.021107987876408437 -0.032569951198751119 0 0.035413223429452557 -0.024402852042182305 0 0.035484953544995958 -0.024348058340857594 0 0.035286807490585728 -0.02440051656219315 0 0.035776110696175714 -0.024469450582721694 0 0.035126560630622042 -0.024213608739052345 0 0.035307552526958018 -0.024130261137181478 0 0.034919091867390069 -0.024031174754316809 0 0.035286807490585728 -0.02440051656219315 0 0.024782278434906827 -0.028784282766783329 0 0.026691791200988607 -0.025033756213934871 0 0.020354345986591374 -0.028453467744456368 0 0.01954731906746264 -0.026522704858820131 0 0.020205095133233635 -0.025469522436458523 0 0.020354345986591374 -0.028453467744456368 0 0.01880505287176212 -0.026783843187337387 0 0.01954731906746264 -0.026522704858820131 0 0.035307552526958018 -0.024130261137181478 0 0.034919091867390069 -0.024031174754316809 0 0.035010010677045476 -0.023760070429281136 0 0.020668978607267241 -0.031115095950998914 0 0.020234555128051498 -0.030878505150567018 0 0.020032932875956196 -0.029098796605154572 0 0.019549574566464167 -0.031838371461908634 0 0.020234555128051498 -0.030878505150567018 0 0.019265954905264868 -0.029168428518739915 0 0.024782278434906827 -0.028784282766783329 0 0.019229158263926967 -0.027583896063855064 0 0.020848181416787449 -0.031383414054717548 0 0.020118987235105565 -0.029159329894586198 0 0.019549574566464167 -0.031838371461908634 0 0.020428107867984324 -0.03186962482827755 0 0.020234555128051498 -0.030878505150567018 0 0.020428107867984324 -0.03186962482827755 0 0.020637052951182219 -0.031101495507401065 0 0.020234555128051498 -0.030878505150567018 0 0.020848181416787449 -0.031383414054717548 0 0.020578285646655196 -0.031207809239545487 0 0.020848181416787449 -0.031383414054717548 0 0.021801225422070327 -0.031909406508387528 0 0.021106836208066554 -0.031120776098701865 0 0.02227839705562475 -0.030855175926372581 0 0.022747854483513207 -0.031460671388255985 0 0.021106836208066554 -0.031120776098701865 0 0.021688305987311477 -0.030425176338137173 0 0.02131710162983794 -0.02955804145888612 0 0.021106836208066554 -0.031120776098701865 0 0.021688305987311477 -0.030425176338137173 0 0.02227839705562475 -0.030855175926372581 0 0.021688305987311477 -0.030425176338137173 0 0.02227839705562475 -0.030855175926372581 0 0.022243962371936207 -0.02981169255770548 0 0.02227839705562475 -0.030855175926372581 0 0.023328651945775939 -0.030847403868040722 0 0.022243962371936207 -0.02981169255770548 0 0.023328651945775939 -0.030847403868040722 0 0.022747854483513207 -0.031460671388255985 0 0.022640688137124668 -0.031336565019723039 0 0.02227839705562475 -0.030855175926372581 0 0.023328651945775939 -0.030847403868040722 0 0.022747854483513207 -0.031460671388255985 0 0.022747854483513207 -0.031460671388255985 0 0.022290668581787867 -0.031083450595610712 0 0.022640688137124668 -0.031336565019723039 0 0.021801225422070327 -0.031909406508387528 0 0.021358283331365639 -0.031609320088698198 0 0.020832215006903628 -0.032266866311765348 0 0.020738296182704053 -0.032010303200449279 0 0.020469192411128486 -0.032080657443836633 0 0.020832215006903628 -0.032266866311765348 0 0.020930423623932676 -0.03212100084395772 0 0.020738296182704053 -0.032010303200449279 0 0.020832215006903628 -0.032266866311765348 0 0.020930423623932676 -0.03212100084395772 0 0.021086675153419068 -0.032204894980442732 0 0.021160885543214485 -0.032427878851498941 0 0.020832215006903628 -0.032266866311765348 0 0.021086675153419068 -0.032204894980442732 0 0.020601930465738928 -0.032900079179103467 0 0.021107987876408437 -0.032569951198751119 0 0.02156201073693877 -0.033901839999013118 0 0.020930423623932676 -0.03212100084395772 0 0.021086675153419068 -0.032204894980442732 0 0.02101602897229481 -0.031963124757312535 0 0.021220724942284934 -0.032509181703887093 0 0.023024429900901925 -0.031656362595942192 0 0.020930423623932676 -0.03212100084395772 0 0.02101602897229481 -0.031963124757312535 0 0.020738296182704053 -0.032010303200449279 0 0.022987768056564398 -0.031628382485310795 0 0.023024429900901925 -0.031656362595942192 0 0.023024429900901925 -0.031656362595942192 0 0.024720710617033612 -0.030283792103087487 0 0.02101602897229481 -0.031963124757312535 0 0.020738296182704053 -0.032010303200449279 0 0.020740644437841335 -0.031681240885452419 0 0.020738296182704053 -0.032010303200449279 0 0.020740644437841335 -0.031681240885452419 0 0.020427383333274648 -0.031768895047184713 0 0.024595535180807693 -0.030380114899436008 0 0.024794571550690543 -0.030426485248634613 0 0.024731206938884968 -0.030124144683862614 0 0.023024429900901925 -0.031656362595942192 0 0.022562917089539496 -0.030725395857109525 0 0.024863662512740383 -0.030714304016479378 0 0.024595535180807693 -0.030380114899436008 0 0.024794571550690543 -0.030426485248634613 0 0.024934291266841505 -0.030376396288217315 0 0.02485979570305475 -0.030258874807159442 0 0.025008873012008527 -0.030247020737739452 0 0.024720710617033612 -0.030283792103087487 0 0.024748353461190996 -0.030167531730708602 0 0.02485979570305475 -0.030258874807159442 0 0.025008873012008527 -0.030247020737739452 0 0.024957227947412571 -0.030127241665596306 0 0.030862224726871199 -0.027225386756367639 0 0.030681554142051311 -0.027203629210607996 0 0.025008873012008527 -0.030247020737739452 0 0.025133906889730318 -0.030335739601047667 0 0.025166740033816467 -0.030092526512004829 0 0.024934291266841505 -0.030376396288217315 0 0.025008873012008527 -0.030247020737739452 0 0.025133906889730318 -0.030335739601047667 0 0.025037228329115063 -0.030446618392704593 0 0.024934291266841505 -0.030376396288217315 0 0.025133906889730318 -0.030335739601047667 0 0.035307552526958018 -0.024130261137181478 0 0.035452239806371799 -0.02441965488817667 0 0.035286807490585728 -0.02440051656219315 0 0.035452239806371799 -0.02441965488817667 0 0.035286807490585728 -0.02440051656219315 0 0.035175658374813797 -0.024618877614780588 0 0.035327013469572108 -0.024481384925642169 0 0.035286807490585728 -0.02440051656219315 0 0.035175658374813797 -0.024618877614780588 0 0.035452239806371799 -0.02441965488817667 0 0.035175658374813797 -0.024618877614780588 0 0.035654612112724964 -0.025527331743732083 0 0.035175658374813797 -0.024618877614780588 0 0.034655504114998494 -0.026229086427037383 0 0.035654612112724964 -0.025527331743732083 0 0.035138750827665238 -0.024291283276487052 0 0.034962151152327071 -0.026219714122777446 0 0.03533745871237718 -0.024444876055043887 0 0.035175658374813797 -0.024618877614780588 0 0.035200288702212403 -0.024307965522072612 0 0.025008873012008527 -0.030247020737739452 0 0.025166740033816467 -0.030092526512004829 0 0.024957227947412571 -0.030127241665596306 0 0.025166740033816467 -0.030092526512004829 0 0.025032434441819202 -0.029961102477498523 0 0.024957227947412571 -0.030127241665596306 0 0.025166740033816467 -0.030092526512004829 0 0.025032434441819202 -0.029961102477498523 0 0.02518715211182938 -0.029770531090633247 0 0.025032434441819202 -0.029961102477498523 0 0.02518715211182938 -0.029770531090633247 0 0.024795821244514963 -0.029890074437992513 0 0.030681554142051311 -0.027203629210607996 0 0.027293334266400886 -0.03188269945629605 0 0.034655504114998494 -0.026229086427037383 0 0.0356974475441297 -0.027687490211292822 0 0.034389040334462218 -0.028238992152808399 0 0.034655504114998494 -0.026229086427037383 0 0.035654612112724964 -0.025527331743732083 0 0.0356974475441297 -0.027687490211292822 0 0.034962151152327071 -0.026219714122777446 0 0.030781147472291465 -0.032626058213115108 0 0.032761482516455748 -0.030585712375008761 0 0.033446402564901015 -0.029609128238856721 0 0.033278589000239188 -0.031641748111881592 0 0.028666903868780964 -0.034128570984140856 0 0.029222466941203246 -0.03389278410622918 0 0.029155884359149106 -0.03467154405795362 0 0.030781147472291465 -0.032626058213115108 0 0.02715547941444971 -0.035414374797599235 0 0.025796875308251518 -0.036199587479391088 0 0.025517428270070978 -0.035921772352711961 0 0.025843082456224215 -0.035654800051726526 0 0.025166578400411099 -0.036431257706142917 0 0.025796875308251518 -0.036199587479391088 0 0.025517428270070978 -0.035921772352711961 0 0.027293334266400886 -0.03188269945629605 0 0.030781147472291465 -0.032626058213115108 0 0.024881174366746563 -0.037067702991438509 0 0.02486350004714467 -0.036040025821937424 0 0.023719664391983 -0.036426991530546737 0 0.027293334266400886 -0.03188269945629605 0 0.025054736508519571 -0.036643546848137837 0 0.025166578400411099 -0.036431257706142917 0 0.025517428270070978 -0.035921772352711961 0 0.025099010884261305 -0.03581897921259497 0 0.025054736508519571 -0.036643546848137837 0 0.024890753214117621 -0.034999703369120623 0 0.025099010884261305 -0.03581897921259497 0 0.024891099763809266 -0.035000053370312686 0 0.025545640128985629 -0.035324305372484675 0 0.02486350004714467 -0.036040025821937424 0 0.024036010870559458 -0.035536124189825963 0 0.023719664391983 -0.036426991530546737 0 0.02486350004714467 -0.036040025821937424 0 0.024890575063320163 -0.034999962354438842 0 0.024036010870559458 -0.035536124189825963 0 0.024891099763809266 -0.035000053370312686 0 0.025545640128985629 -0.035324305372484675 0 0.026110235208106628 -0.034999861717050842 0 0.025545640128985629 -0.035324305372484675 0 0.026110235208106628 -0.034999861717050842 0 0.026032678846808398 -0.035847010657311697 0 0.026110908500650343 -0.035000554559801299 0 0.02715547941444971 -0.035414374797599235 0 0.025517428270070978 -0.035921772352711961 0 0.025545640128985629 -0.035324305372484675 0 0.025843082456224215 -0.035654800051726526 0 0.025929688576360313 -0.035099073223920592 0 0.02715547941444971 -0.035414374797599235 0 0.025517428270070978 -0.035921772352711961 0 0.025099010884261305 -0.03581897921259497 0 0.025545640128985629 -0.035324305372484675 0 0.023199497597972636 -0.034999955031449585 0 0.022358287804492248 -0.03629398020762601 0 0.021508219507302861 -0.034999956195930076 0 0.024036010870559458 -0.035536124189825963 0 0.023199497597972636 -0.034999955031449585 0 0.023719664391983 -0.036426991530546737 0 0.023199497597972636 -0.034999955031449585 0 0.023719664391983 -0.036426991530546737 0 0.022358287804492248 -0.03629398020762601 0 0.024890575063320163 -0.034999962354438842 0 0.024036010870559458 -0.035536124189825963 0 0.023199497597972636 -0.034999955031449585 0 0.023719664391983 -0.036426991530546737 0 0.022358287804492248 -0.03629398020762601 0 0.023158652267349721 -0.03774153563287027 0 0.023158652267349721 -0.03774153563287027 0 0.021437890875173109 -0.038383438304569473 0 0.02154565202933691 -0.037160903598654579 0 0.022358287804492248 -0.03629398020762601 0 0.023158652267349721 -0.03774153563287027 0 0.02154565202933691 -0.037160903598654579 0 0.023562401225755522 -0.034294244983988066 0 0.022162035414450082 -0.032565186077846642 0 0.024881174366746563 -0.037067702991438509 0 0.023719664391983 -0.036426991530546737 0 0.023158652267349721 -0.03774153563287027 0 0.027293334266400886 -0.03188269945629605 0 0.023562401225755522 -0.034294244983988066 0 0.025032434441819202 -0.029961102477498523 0 0.024795821244514963 -0.029890074437992513 0 0.024957227947412571 -0.030127241665596306 0 0.024795821244514963 -0.029890074437992513 0 0.024957227947412571 -0.030127241665596306 0 0.024731206938884968 -0.030124144683862614 0 0.02485979570305475 -0.030258874807159442 0 0.024957227947412571 -0.030127241665596306 0 0.024731206938884968 -0.030124144683862614 0 0.022562917089539496 -0.030725395857109525 0 0.022162035414450082 -0.032565186077846642 0 0.024795821244514963 -0.029890074437992513 0 0.024731206938884968 -0.030124144683862614 0 0.02429014911107024 -0.030058280399288415 0 0.024595535180807693 -0.030380114899436008 0 0.024731206938884968 -0.030124144683862614 0 0.02429014911107024 -0.030058280399288415 0 0.020740644437841335 -0.031681240885452419 0 0.020437950553223418 -0.031566566947192162 0 0.020464879465644684 -0.031438135024567146 0 0.020437950553223418 -0.031566566947192162 0 0.020434269754977148 -0.031451003178603575 0 0.020311984589498115 -0.031482278822683854 0 0.020437950553223418 -0.031566566947192162 0 0.020255927299765098 -0.031581052529604949 0 0.020311984589498115 -0.031482278822683854 0 0.020437950553223418 -0.031566566947192162 0 0.020434269754977148 -0.031451003178603575 0 0.020464879465644684 -0.031438135024567146 0 0.020434269754977148 -0.031451003178603575 0 0.020462710121087267 -0.031441528356003348 0 0.020231243596592587 -0.031400374153849921 0 0.020434269754977148 -0.031451003178603575 0 0.020231243596592587 -0.031400374153849921 0 0.020311984589498115 -0.031482278822683854 0 0.021992517726481847 -0.032567797413555005 0 0.022162035414450082 -0.032565186077846642 0 0.020255927299765098 -0.031581052529604949 0 0.020231243596592587 -0.031400374153849921 0 0.020001200075432754 -0.031535784828370148 0 0.020255927299765098 -0.031581052529604949 0 0.020231243596592587 -0.031400374153849921 0 0.020311984589498115 -0.031482278822683854 0 0.020231243596592587 -0.031400374153849921 0 0.020172395868333606 -0.031183774698728701 0 0.01989493937287385 -0.031213841008144689 0 0.020462710121087267 -0.031441528356003348 0 0.020231243596592587 -0.031400374153849921 0 0.020172395868333606 -0.031183774698728701 0 0.022162035414450082 -0.032565186077846642 0 0.020138362496642907 -0.034299358697130036 0 0.021437890875173109 -0.038383438304569473 0 0.020252204789607098 -0.037136439117321278 0 0.02154565202933691 -0.037160903598654579 0 0.022358287804492248 -0.03629398020762601 0 0.02154565202933691 -0.037160903598654579 0 0.020836250949627523 -0.036046487775601807 0 0.020252204789607098 -0.037136439117321278 0 0.02154565202933691 -0.037160903598654579 0 0.020836250949627523 -0.036046487775601807 0 0.020252204789607098 -0.037136439117321278 0 0.020039676819284698 -0.036023503587917005 0 0.019091712432727538 -0.035886680099863323 0 0.020252204789607098 -0.037136439117321278 0 0.020836250949627523 -0.036046487775601807 0 0.020039676819284698 -0.036023503587917005 0 0.020836250949627523 -0.036046487775601807 0 0.019983487252619864 -0.034999957982630482 0 0.021508219507302861 -0.034999956195930076 0 0.020836250949627523 -0.036046487775601807 0 0.020039676819284698 -0.036023503587917005 0 0.019983487252619864 -0.034999957982630482 0 0.022358287804492248 -0.03629398020762601 0 0.020836250949627523 -0.036046487775601807 0 0.021508219507302861 -0.034999956195930076 0 0.016911063630928425 -0.035543073747757739 0 0.017615614114065866 -0.035418079586045197 0 0.018123502792233234 -0.034999707771987451 0 0.017615614114065866 -0.035418079586045197 0 0.018123502792233234 -0.034999707771987451 0 0.018073868074697651 -0.035393608346706434 0 0.018126000999207106 -0.035000483270943017 0 0.019107830930493969 -0.034623304343671585 0 0.019817015525744556 -0.034999992467566875 0 0.01812579211060756 -0.034999993386110088 0 0.018994859186333962 -0.03594810529600477 0 0.020039676819284698 -0.036023503587917005 0 0.019983487252619864 -0.034999957982630482 0 0.019091712432727538 -0.035886680099863323 0 0.019817015525744556 -0.034999992467566875 0 0.019983292299923773 -0.035000008712884084 0 0.018994859186333962 -0.03594810529600477 0 0.019702279322303704 -0.035373718284318408 0 0.019107830930493969 -0.034623304343671585 0 0.020138362496642907 -0.034299358697130036 0 0.019107830930493969 -0.034623304343671585 0 0.020172395868333606 -0.031183774698728701 0 0.019874346269125091 -0.030878068727735977 0 0.01989493937287385 -0.031213841008144689 0 0.019874346269125091 -0.030878068727735977 0 0.01958920505195956 -0.031072587079458883 0 0.01989493937287385 -0.031213841008144689 0 0.019107830930493969 -0.034623304343671585 0 0.018504482448991302 -0.033123918850622276 0 0.017615614114065866 -0.035418079586045197 0 0.018073868074697651 -0.035393608346706434 0 0.017254253237428734 -0.035677052068434183 0 0.016911063630928425 -0.035543073747757739 0 0.017615614114065866 -0.035418079586045197 0 0.017254253237428734 -0.035677052068434183 0 0.01958920505195956 -0.031072587079458883 0 0.01989493937287385 -0.031213841008144689 0 0.019683697784815133 -0.03148141711120598 0 0.019143598709397545 -0.031370120456104635 0 0.01958920505195956 -0.031072587079458883 0 0.019683697784815133 -0.03148141711120598 0 0.020231243596592587 -0.031400374153849921 0 0.01989493937287385 -0.031213841008144689 0 0.020001200075432754 -0.031535784828370148 0 0.01989493937287385 -0.031213841008144689 0 0.020001200075432754 -0.031535784828370148 0 0.019683697784815133 -0.03148141711120598 0 0.020001200075432754 -0.031535784828370148 0 0.019683697784815133 -0.03148141711120598 0 0.019861383732052349 -0.031621349084957819 0 0.019235167713773437 -0.031926157330014859 0 0.019683697784815133 -0.03148141711120598 0 0.019861383732052349 -0.031621349084957819 0 0.019235167713773437 -0.031926157330014859 0 0.019438676551607317 -0.031862225654099172 0 0.019861383732052349 -0.031621349084957819 0 0.019438676551607317 -0.031862225654099172 0 0.019497373955272873 -0.03191403190486608 0 0.020050801768515591 -0.031726980661310682 0 0.019438676551607317 -0.031862225654099172 0 0.019861383732052349 -0.031621349084957819 0 0.020050801768515591 -0.031726980661310682 0 0.019861383732052349 -0.031621349084957819 0 0.020962903645291648 -0.031110830582081073 0 0.020050801768515591 -0.031726980661310682 0 0.020962903645291648 -0.031110830582081073 0 0.021097689232838737 -0.031466103304778441 0 0.020050801768515591 -0.031726980661310682 0 0.020001200075432754 -0.031535784828370148 0 0.019861383732052349 -0.031621349084957819 0 0.020118685847817838 -0.031864009276856634 0 0.019987104498626708 -0.031578869579796991 0 0.0205807950320997 -0.031530594298774507 0 0.020255927299765098 -0.031581052529604949 0 0.020001200075432754 -0.031535784828370148 0 0.020118685847817838 -0.031864009276856634 0 0.020255927299765098 -0.031581052529604949 0 0.020427383333274648 -0.031768895047184713 0 0.020118685847817838 -0.031864009276856634 0 0.020740644437841335 -0.031681240885452419 0 0.020437950553223418 -0.031566566947192162 0 0.020427383333274648 -0.031768895047184713 0 0.020437950553223418 -0.031566566947192162 0 0.020255927299765098 -0.031581052529604949 0 0.020427383333274648 -0.031768895047184713 0 0.020738296182704053 -0.032010303200449279 0 0.020427383333274648 -0.031768895047184713 0 0.020469192411128486 -0.032080657443836633 0 0.020427383333274648 -0.031768895047184713 0 0.020469192411128486 -0.032080657443836633 0 0.020118685847817838 -0.031864009276856634 0 0.022290668581787867 -0.031083450595610712 0 0.020962903645291648 -0.031110830582081073 0 0.021097689232838737 -0.031466103304778441 0 0.021358283331365639 -0.031609320088698198 0 0.0205807950320997 -0.031530594298774507 0 0.022290668581787867 -0.031083450595610712 0 0.021097689232838737 -0.031466103304778441 0 0.021733990745355706 -0.031565508866457301 0 0.021097689232838737 -0.031466103304778441 0 0.021733990745355706 -0.031565508866457301 0 0.020650625262154294 -0.031881321517913508 0 0.022290668581787867 -0.031083450595610712 0 0.021733990745355706 -0.031565508866457301 0 0.022640688137124668 -0.031336565019723039 0 0.021733990745355706 -0.031565508866457301 0 0.022640688137124668 -0.031336565019723039 0 0.022193661876001261 -0.031647937537378483 0 0.023328651945775939 -0.030847403868040722 0 0.022640688137124668 -0.031336565019723039 0 0.022193661876001261 -0.031647937537378483 0 0.023328651945775939 -0.030847403868040722 0 0.022193661876001261 -0.031647937537378483 0 0.021643718773442486 -0.032557242603648381 0 0.021733990745355706 -0.031565508866457301 0 0.02137272887634729 -0.032008624854763301 0 0.020650625262154294 -0.031881321517913508 0 0.02137272887634729 -0.032008624854763301 0 0.020766947081253376 -0.032274127011868388 0 0.021643718773442486 -0.032557242603648381 0 0.021733990745355706 -0.031565508866457301 0 0.022193661876001261 -0.031647937537378483 0 0.02137272887634729 -0.032008624854763301 0 0.022193661876001261 -0.031647937537378483 0 0.02137272887634729 -0.032008624854763301 0 0.021643718773442486 -0.032557242603648381 0 0.020766947081253376 -0.032274127011868388 0 0.020013750432219053 -0.032211420764449467 0 0.020650625262154294 -0.031881321517913508 0 0.02137272887634729 -0.032008624854763301 0 0.020766947081253376 -0.032274127011868388 0 0.020650625262154294 -0.031881321517913508 0 0.020013750432219053 -0.032211420764449467 0 0.020050801768515591 -0.031726980661310682 0 0.020650625262154294 -0.031881321517913508 0 0.019566305750430335 -0.032051532033219705 0 0.020013750432219053 -0.032211420764449467 0 0.020050801768515591 -0.031726980661310682 0 0.021097689232838737 -0.031466103304778441 0 0.020050801768515591 -0.031726980661310682 0 0.020650625262154294 -0.031881321517913508 0 0.034442249863568669 -0.025638405982809274 0 0.035997075379764938 -0.027730913666500084 0 0.031851300068635208 -0.027164148966618441 0 0.034442249863568669 -0.025638405982809274 0 0.037585088029756589 -0.024479329423204053 0 0.034684457553249483 -0.023306288437432775 0 0.034442249863568669 -0.025638405982809274 0 0.032538693580286743 -0.024531450899388126 0 0.034684457553249483 -0.023306288437432775 0 0.034442249863568669 -0.025638405982809274 0 0.037585088029756589 -0.024479329423204053 0 0.035997075379764938 -0.027730913666500084 0 0.039599798985408767 -0.02687448424615322 0 0.037585088029756589 -0.024479329423204053 0 0.035997075379764938 -0.027730913666500084 0 0.023845948693713467 -0.02956621277486212 0 0.028686436823649606 -0.029042993594609868 0 0.019664584521551984 -0.032580211299916173 0 0.020013750432219053 -0.032211420764449467 0 0.020320190444335976 -0.032814788877886129 0 0.020766947081253376 -0.032274127011868388 0 0.020013750432219053 -0.032211420764449467 0 0.020320190444335976 -0.032814788877886129 0 0.035817834359716839 -0.026504113053948501 0 0.028686436823649606 -0.029042993594609868 0 0.028686436823649606 -0.029042993594609868 0 0.030560723288103317 -0.028011135259344681 0 0.028686436823649606 -0.029042993594609868 0 0.02350368181044259 -0.031592223271961227 0 0.020766947081253376 -0.032274127011868388 0 0.020320190444335976 -0.032814788877886129 0 0.021643718773442486 -0.032557242603648381 0 0.030382748199293388 -0.029345410327725321 0 0.027102856485296135 -0.03006405007178907 0 0.027383351608670992 -0.028767326234776271 0 0.023684442239061139 -0.030858589904538502 0 0.02350368181044259 -0.031592223271961227 0 0.023328651945775939 -0.030847403868040722 0 0.027102856485296135 -0.03006405007178907 0 0.024228264684941957 -0.028058897946745504 0 0.027102856485296135 -0.03006405007178907 0 0.027383351608670992 -0.028767326234776271 0 0.024228264684941957 -0.028058897946745504 0 0.030560723288103317 -0.028011135259344681 0 0.025538851262246583 -0.027355064191765942 0 0.028760345726411798 -0.024100192451668091 0 0.026516827662149033 -0.023692542555425303 0 0.027456718605706351 -0.026835534539692875 0 0.031851300068635208 -0.027164148966618441 0 0.03037567830190362 -0.025313056315132004 0 0.027456718605706351 -0.026835534539692875 0 0.03037567830190362 -0.025313056315132004 0 0.028760345726411798 -0.024100192451668091 0 0.027456718605706351 -0.026835534539692875 0 0.034442249863568669 -0.025638405982809274 0 0.031851300068635208 -0.027164148966618441 0 0.032538693580286743 -0.024531450899388126 0 0.031851300068635208 -0.027164148966618441 0 0.03037567830190362 -0.025313056315132004 0 0.032538693580286743 -0.024531450899388126 0 0.031189539189105314 -0.023572703941132808 0 0.032697519924052794 -0.022217457945651983 0 0.031621020393424099 -0.020509843599061255 0 0.032538693580286743 -0.024531450899388126 0 0.031189539189105314 -0.023572703941132808 0 0.032697519924052794 -0.022217457945651983 0 0.03037567830190362 -0.025313056315132004 0 0.032538693580286743 -0.024531450899388126 0 0.031189539189105314 -0.023572703941132808 0 0.031189539189105314 -0.023572703941132808 0 0.028760345726411798 -0.024100192451668091 0 0.02819235657732605 -0.021119790778384134 0 0.028760345726411798 -0.024100192451668091 0 0.02819235657732605 -0.021119790778384134 0 0.026516827662149033 -0.023692542555425303 0 0.03037567830190362 -0.025313056315132004 0 0.031189539189105314 -0.023572703941132808 0 0.028760345726411798 -0.024100192451668091 0 0.02819235657732605 -0.021119790778384134 0 0.030426209841368197 -0.018202341505421143 0 0.02725445536272476 -0.017993150307014903 0 0.02819235657732605 -0.021119790778384134 0 0.031621020393424099 -0.020509843599061255 0 0.030426209841368197 -0.018202341505421143 0 0.031621020393424099 -0.020509843599061255 0 0.033728244417551019 -0.018109138575262553 0 0.030426209841368197 -0.018202341505421143 0 0.031189539189105314 -0.023572703941132808 0 0.02819235657732605 -0.021119790778384134 0 0.031621020393424099 -0.020509843599061255 0 0.032697519924052794 -0.022217457945651983 0 0.031621020393424099 -0.020509843599061255 0 0.03417219926593288 -0.020713606405191251 0 0.03417219926593288 -0.020713606405191251 0 0.036663093844054681 -0.019389492346226927 0 0.033728244417551019 -0.018109138575262553 0 0.031621020393424099 -0.020509843599061255 0 0.03417219926593288 -0.020713606405191251 0 0.033728244417551019 -0.018109138575262553 0 0.032697519924052794 -0.022217457945651983 0 0.03417219926593288 -0.020713606405191251 0 0.034684457553249483 -0.023306288437432775 0 0.03417219926593288 -0.020713606405191251 0 0.034684457553249483 -0.023306288437432775 0 0.037083556534543129 -0.021980897311065933 0 0.032538693580286743 -0.024531450899388126 0 0.032697519924052794 -0.022217457945651983 0 0.034684457553249483 -0.023306288437432775 0 0.037585088029756589 -0.024479329423204053 0 0.034684457553249483 -0.023306288437432775 0 0.037083556534543129 -0.021980897311065933 0 0.039478104065387973 -0.02200364107644576 0 0.037585088029756589 -0.024479329423204053 0 0.037083556534543129 -0.021980897311065933 0 0.03901587085042494 -0.019627688861337252 0 0.037083556534543129 -0.021980897311065933 0 0.036663093844054681 -0.019389492346226927 0 0.03417219926593288 -0.020713606405191251 0 0.037083556534543129 -0.021980897311065933 0 0.036663093844054681 -0.019389492346226927 0 0.039351736074268229 -0.016885906483506741 0 0.036663093844054681 -0.019389492346226927 0 0.036106140910687763 -0.01666649583416353 0 0.039351736074268229 -0.016885906483506741 0 0.036106140910687763 -0.01666649583416353 0 0.037785275037018923 -0.015300558243116262 0 0.036663093844054681 -0.019389492346226927 0 0.036106140910687763 -0.01666649583416353 0 0.033728244417551019 -0.018109138575262553 0 0.036106140910687763 -0.01666649583416353 0 0.033728244417551019 -0.018109138575262553 0 0.034355825535032081 -0.015735922672425483 0 0.033728244417551019 -0.018109138575262553 0 0.034355825535032081 -0.015735922672425483 0 0.032241165064508172 -0.015537638001813799 0 0.036106140910687763 -0.01666649583416353 0 0.034355825535032081 -0.015735922672425483 0 0.036176827655254519 -0.013879031373862165 0 0.034355825535032081 -0.015735922672425483 0 0.033816988778394258 -0.013828813377023704 0 0.032241165064508172 -0.015537638001813799 0 0.034355825535032081 -0.015735922672425483 0 0.033816988778394258 -0.013828813377023704 0 0.036176827655254519 -0.013879031373862165 0 0.038943276123498266 -0.013463134243781224 0 0.037785275037018923 -0.015300558243116262 0 0.036176827655254519 -0.013879031373862165 0 0.036106140910687763 -0.01666649583416353 0 0.037785275037018923 -0.015300558243116262 0 0.036176827655254519 -0.013879031373862165 0 0.038943276123498266 -0.013463134243781224 0 0.036176827655254519 -0.013879031373862165 0 0.037401700025501652 -0.010960003177367653 0 0.036176827655254519 -0.013879031373862165 0 0.037401700025501652 -0.010960003177367653 0 0.033969868367717114 -0.011216222357742302 0 0.033816988778394258 -0.013828813377023704 0 0.036176827655254519 -0.013879031373862165 0 0.033969868367717114 -0.011216222357742302 0 0.037401700025501652 -0.010960003177367653 0 0.033969868367717114 -0.011216222357742302 0 0.034672705851381415 -0.0089201986057848102 0 0.033969868367717114 -0.011216222357742302 0 0.034672705851381415 -0.0089201986057848102 0 0.032816548865682457 -0.0081603424660424313 0 0.036526268263848818 -0.0084033750248138223 0 0.034904577053780209 -0.0088634334473536944 0 0.03878098595809009 -0.0085408945916860875 0 0.037401700025501652 -0.010960003177367653 0 0.034672705851381415 -0.0089201986057848102 0 0.030858143507071285 -0.0085162947672892866 0 0.032629335607441891 -0.0081086859142756873 0 0.028009407552854589 -0.0095697599134757054 0 0.032816548865682457 -0.0081603424660424313 0 0.031304904326379293 -0.010811920588813671 0 0.033589376823570001 -0.00736290566651456 0 0.032816548865682457 -0.0081603424660424313 0 0.033399833756067525 -0.0078141384576620627 0 0.034672705851381415 -0.0089201986057848102 0 0.032816548865682457 -0.0081603424660424313 0 0.03386510547123868 -0.0079414873681619008 0 0.033969868367717114 -0.011216222357742302 0 0.032816548865682457 -0.0081603424660424313 0 0.031304904326379293 -0.010811920588813671 0 0.033969868367717114 -0.011216222357742302 0 0.031304904326379293 -0.010811920588813671 0 0.032295258726166842 -0.012817634328978866 0 0.033816988778394258 -0.013828813377023704 0 0.033969868367717114 -0.011216222357742302 0 0.032295258726166842 -0.012817634328978866 0 0.031304904326379293 -0.010811920588813671 0 0.032295258726166842 -0.012817634328978866 0 0.029699771550270083 -0.013062923768346814 0 0.028009407552854589 -0.0095697599134757054 0 0.029699771550270083 -0.013062923768346814 0 0.026392339879793447 -0.014025198644609676 0 0.028009407552854589 -0.0095697599134757054 0 0.031304904326379293 -0.010811920588813671 0 0.029699771550270083 -0.013062923768346814 0 0.029699771550270083 -0.013062923768346814 0 0.029338726420882547 -0.015914098383371277 0 0.032241165064508172 -0.015537638001813799 0 0.029699771550270083 -0.013062923768346814 0 0.029338726420882547 -0.015914098383371277 0 0.026392339879793447 -0.014025198644609676 0 0.033816988778394258 -0.013828813377023704 0 0.032295258726166842 -0.012817634328978866 0 0.032241165064508172 -0.015537638001813799 0 0.032295258726166842 -0.012817634328978866 0 0.029699771550270083 -0.013062923768346814 0 0.032241165064508172 -0.015537638001813799 0 0.029338726420882547 -0.015914098383371277 0 0.032241165064508172 -0.015537638001813799 0 0.030426209841368197 -0.018202341505421143 0 0.033728244417551019 -0.018109138575262553 0 0.032241165064508172 -0.015537638001813799 0 0.030426209841368197 -0.018202341505421143 0 0.029338726420882547 -0.015914098383371277 0 0.030426209841368197 -0.018202341505421143 0 0.02725445536272476 -0.017993150307014903 0 0.02725445536272476 -0.017993150307014903 0 0.024244364611644111 -0.017272141288150838 0 0.025141704429018665 -0.019366385150226782 0 0.02725445536272476 -0.017993150307014903 0 0.024244364611644111 -0.017272141288150838 0 0.026392339879793447 -0.014025198644609676 0 0.022207947999563677 -0.018868080404937065 0 0.024244364611644111 -0.017272141288150838 0 0.025141704429018665 -0.019366385150226782 0 0.022207947999563677 -0.018868080404937065 0 0.024244364611644111 -0.017272141288150838 0 0.022379229769698916 -0.015910055766904529 0 0.024244364611644111 -0.017272141288150838 0 0.022164556616837208 -0.0149540973740615 0 0.026392339879793447 -0.014025198644609676 0 0.022164556616837208 -0.0149540973740615 0 0.026392339879793447 -0.014025198644609676 0 0.023986953490222715 -0.011147418530862959 0 0.024149133609322491 -0.017234522827196775 0 0.021962368228397613 -0.014873186704844468 0 0.029338726420882547 -0.015914098383371277 0 0.02725445536272476 -0.017993150307014903 0 0.026392339879793447 -0.014025198644609676 0 0.030858143507071285 -0.0085162947672892866 0 0.028962074253905946 -0.0089233752023286962 0 0.028009407552854589 -0.0095697599134757054 0 0.026392339879793447 -0.014025198644609676 0 0.023986953490222715 -0.011147418530862959 0 0.028962074253905946 -0.0089233752023286962 0 0.02811074111693445 -0.012244409354071362 0 0.022164556616837208 -0.0149540973740615 0 0.023986953490222715 -0.011147418530862959 0 0.020091511847523877 -0.012720430516547662 0 0.034043303135534136 -0.0070526575802925167 0 0.034363499715994783 -0.0071858126575171056 0 0.034163505392026845 -0.0073779169037162104 0 0.034043303135534136 -0.0070526575802925167 0 0.033898153812560602 -0.007367259421423483 0 0.034163505392026845 -0.0073779169037162104 0 0.033589376823570001 -0.00736290566651456 0 0.033898153812560602 -0.007367259421423483 0 0.033841981452424563 -0.0075905379245494184 0 0.033589376823570001 -0.00736290566651456 0 0.034043303135534136 -0.0070526575802925167 0 0.033898153812560602 -0.007367259421423483 0 0.034730992507576199 -0.0071409745182684729 0 0.034363499715994783 -0.0071858126575171056 0 0.03451115736667127 -0.0073722682377096458 0 0.034363499715994783 -0.0071858126575171056 0 0.03451115736667127 -0.0073722682377096458 0 0.034163505392026845 -0.0073779169037162104 0 0.034043303135534136 -0.0070526575802925167 0 0.034363499715994783 -0.0071858126575171056 0 0.03440514047523182 -0.0069137066844618747 0 0.034730992507576199 -0.0071409745182684729 0 0.034363499715994783 -0.0071858126575171056 0 0.03440514047523182 -0.0069137066844618747 0 0.036355402703483641 -0.010556197287891209 0 0.02811074111693445 -0.012244409354071362 0 0.036179287635824744 -0.013703280197102322 0 0.035668847023296799 -0.013322355630077913 0 0.036327396288262932 -0.013153187370342568 0 0.02811074111693445 -0.012244409354071362 0 0.026172521163556482 -0.014672348501956582 0 0.020831647374201984 -0.014517913665727689 0 0.019791889482120711 -0.017013937021594691 0 0.017691482840986233 -0.016072823349616284 0 0.022379229769698916 -0.015910055766904529 0 0.020831647374201984 -0.014517913665727689 0 0.019791889482120711 -0.017013937021594691 0 0.021962368228397613 -0.014873186704844468 0 0.02811074111693445 -0.012244409354071362 0 0.022207947999563677 -0.018868080404937065 0 0.019791889482120711 -0.017013937021594691 0 0.019747238660702496 -0.019864441739579079 0 0.022207947999563677 -0.018868080404937065 0 0.022379229769698916 -0.015910055766904529 0 0.019791889482120711 -0.017013937021594691 0 0.019791889482120711 -0.017013937021594691 0 0.017579451225930111 -0.018618315155982897 0 0.017691482840986233 -0.016072823349616284 0 0.019791889482120711 -0.017013937021594691 0 0.019747238660702496 -0.019864441739579079 0 0.017579451225930111 -0.018618315155982897 0 0.019747238660702496 -0.019864441739579079 0 0.017899445588256409 -0.021163900454358054 0 0.017579451225930111 -0.018618315155982897 0 0.019999348643188912 -0.022563456416061573 0 0.018639832513277974 -0.023821075085933834 0 0.017899445588256409 -0.021163900454358054 0 0.019999348643188912 -0.022563456416061573 0 0.019747238660702496 -0.019864441739579079 0 0.017899445588256409 -0.021163900454358054 0 0.019611545977605421 -0.023615150221543101 0 0.019671202808301966 -0.02019785346187826 0 0.019011658901409007 -0.024856121295790751 0 0.021137510673872751 -0.022284489734764476 0 0.02237381558112141 -0.026535828109402446 0 0.019011658901409007 -0.024856121295790751 0 0.021137510673872751 -0.022284489734764476 0 0.019747238660702496 -0.019864441739579079 0 0.022207947999563677 -0.018868080404937065 0 0.021137510673872751 -0.022284489734764476 0 0.019747238660702496 -0.019864441739579079 0 0.022207947999563677 -0.018868080404937065 0 0.021137510673872751 -0.022284489734764476 0 0.023994560983149272 -0.021601067430348252 0 0.022207947999563677 -0.018868080404937065 0 0.023994560983149272 -0.021601067430348252 0 0.025141704429018665 -0.019366385150226782 0 0.02819235657732605 -0.021119790778384134 0 0.023994560983149272 -0.021601067430348252 0 0.025141704429018665 -0.019366385150226782 0 0.02819235657732605 -0.021119790778384134 0 0.02725445536272476 -0.017993150307014903 0 0.025141704429018665 -0.019366385150226782 0 0.02819235657732605 -0.021119790778384134 0 0.023994560983149272 -0.021601067430348252 0 0.026516827662149033 -0.023692542555425303 0 0.021137510673872751 -0.022284489734764476 0 0.023994560983149272 -0.021601067430348252 0 0.02237381558112141 -0.026535828109402446 0 0.023994560983149272 -0.021601067430348252 0 0.026516827662149033 -0.023692542555425303 0 0.02237381558112141 -0.026535828109402446 0 0.02237381558112141 -0.026535828109402446 0 0.023193834213507215 -0.028999550087817565 0 0.022058404428121927 -0.028621657069863169 0 0.02237381558112141 -0.026535828109402446 0 0.022058404428121927 -0.028621657069863169 0 0.020814783409823089 -0.028000578916341338 0 0.022562145037788237 -0.026624990471627294 0 0.025538851262246583 -0.027355064191765942 0 0.02237381558112141 -0.026535828109402446 0 0.024228264684941957 -0.028058897946745504 0 0.023193834213507215 -0.028999550087817565 0 0.026516827662149033 -0.023692542555425303 0 0.02237381558112141 -0.026535828109402446 0 0.027456718605706351 -0.026835534539692875 0 0.023328651945775939 -0.030847403868040722 0 0.024228264684941957 -0.028058897946745504 0 0.023193834213507215 -0.028999550087817565 0 0.023328651945775939 -0.030847403868040722 0 0.023193834213507215 -0.028999550087817565 0 0.022243962371936207 -0.02981169255770548 0 0.022058404428121927 -0.028621657069863169 0 0.02131710162983794 -0.02955804145888612 0 0.020814783409823089 -0.028000578916341338 0 0.023193834213507215 -0.028999550087817565 0 0.022058404428121927 -0.028621657069863169 0 0.022243962371936207 -0.02981169255770548 0 0.021688305987311477 -0.030425176338137173 0 0.022243962371936207 -0.02981169255770548 0 0.02131710162983794 -0.02955804145888612 0 0.022058404428121927 -0.028621657069863169 0 0.022243962371936207 -0.02981169255770548 0 0.02131710162983794 -0.02955804145888612 0 0.020234555128051498 -0.030878505150567018 0 0.020032932875956196 -0.029098796605154572 0 0.019265954905264868 -0.029168428518739915 0 0.021106836208066554 -0.031120776098701865 0 0.02131710162983794 -0.02955804145888612 0 0.020032932875956196 -0.029098796605154572 0 0.02131710162983794 -0.02955804145888612 0 0.020032932875956196 -0.029098796605154572 0 0.020814783409823089 -0.028000578916341338 0 0.020032932875956196 -0.029098796605154572 0 0.019265954905264868 -0.029168428518739915 0 0.020814783409823089 -0.028000578916341338 0 0.01954731906746264 -0.026522704858820131 0 0.020205095133233635 -0.025469522436458523 0 0.01883692870820057 -0.025395702517243358 0 0.01880505287176212 -0.026783843187337387 0 0.01954731906746264 -0.026522704858820131 0 0.01883692870820057 -0.025395702517243358 0 0.01880505287176212 -0.026783843187337387 0 0.01883692870820057 -0.025395702517243358 0 0.017330843483094591 -0.025127900905406137 0 0.01883692870820057 -0.025395702517243358 0 0.018639832513277974 -0.023821075085933834 0 0.017330843483094591 -0.025127900905406137 0 0.020205095133233635 -0.025469522436458523 0 0.01883692870820057 -0.025395702517243358 0 0.018639832513277974 -0.023821075085933834 0 0.019999348643188912 -0.022563456416061573 0 0.020205095133233635 -0.025469522436458523 0 0.018639832513277974 -0.023821075085933834 0 0.019611545977605421 -0.023615150221543101 0 0.019229158263926967 -0.027583896063855064 0 0.019011658901409007 -0.024856121295790751 0 0.02237381558112141 -0.026535828109402446 0 0.020814783409823089 -0.028000578916341338 0 0.019011658901409007 -0.024856121295790751 0 0.019265954905264868 -0.029168428518739915 0 0.020814783409823089 -0.028000578916341338 0 0.03558595505840819 -0.024225975747768528 0 0.035563493924778269 -0.024226802452876523 0 0.035650968012248811 -0.024200272031905317 0 0.03558595505840819 -0.024225975747768528 0 0.035518099080298481 -0.024232412776288521 0 0.035563493924778269 -0.024226802452876523 0 0.030967534708654598 -0.020770977551844001 0 0.030905004700521925 -0.020827176037919004 0 0.030932491257815088 -0.02078152800927725 0 0.018639832513277974 -0.023821075085933834 0 0.017330843483094591 -0.025127900905406137 0 0.016477389473646836 -0.022566459276100761 0 0.030074580918285677 -0.02319519706018966 0 0.023176238343463603 -0.021419634094043793 0 0.033720949177895608 -0.022509344373990499 0 0.030074580918285677 -0.02319519706018966 0 0.035507771525566383 -0.024275990568411888 0 0.035518099080298481 -0.024232412776288521 0 0.035563493924778269 -0.024226802452876523 0 0.026691791200988607 -0.025033756213934871 0 0.030074580918285677 -0.02319519706018966 0 0.035528362147909026 -0.024259222060434182 0 0.035563493924778269 -0.024226802452876523 0 0.035650968012248811 -0.024200272031905317 0 0.035650968012248811 -0.024200272031905317 0 0.035868327499056732 -0.024174588728901592 0 0.03581222288998219 -0.024147588392425395 0 0.035650968012248811 -0.024200272031905317 0 0.035722690240099185 -0.024206590385755237 0 0.035868327499056732 -0.024174588728901592 0 0.035722690240099185 -0.024206590385755237 0 0.03584460966028969 -0.024185415956182035 0 0.035868327499056732 -0.024174588728901592 0 0.03558595505840819 -0.024225975747768528 0 0.035650968012248811 -0.024200272031905317 0 0.035722690240099185 -0.024206590385755237 0 0.03558595505840819 -0.024225975747768528 0 0.035722690240099185 -0.024206590385755237 0 0.035697914312111466 -0.024249876095246585 0 0.033720949177895608 -0.022509344373990499 0 0.033210553522598787 -0.022897012611085357 0 0.035722690240099185 -0.024206590385755237 0 0.03584460966028969 -0.024185415956182035 0 0.035697914312111466 -0.024249876095246585 0 0.03584460966028969 -0.024185415956182035 0 0.035860598071829224 -0.024267308113983206 0 0.035697914312111466 -0.024249876095246585 0 0.033210553522598787 -0.022897012611085357 0 0.035506548903781521 -0.019471188056574613 0 0.035860598071829224 -0.024267308113983206 0 0.035697914312111466 -0.024249876095246585 0 0.035824721947147795 -0.024329980663147861 0 0.031106563816059495 -0.020792264427437961 0 0.031079178097960663 -0.020859723944625808 0 0.030968383868604725 -0.020825569787278921 0 0.031106563816059495 -0.020792264427437961 0 0.031079178097960663 -0.020859723944625808 0 0.031289709585941627 -0.020882724125898727 0 0.02272386419783293 -0.020571294781151873 0 0.023176238343463603 -0.021419634094043793 0 0.030967534708654598 -0.020770977551844001 0 0.031106563816059495 -0.020792264427437961 0 0.030968383868604725 -0.020825569787278921 0 0.030967534708654598 -0.020770977551844001 0 0.030968383868604725 -0.020825569787278921 0 0.030932491257815088 -0.02078152800927725 0 0.015640617441060142 -0.019989591282175451 0 0.017899445588256409 -0.021163900454358054 0 0.016477389473646836 -0.022566459276100761 0 0.018639832513277974 -0.023821075085933834 0 0.017899445588256409 -0.021163900454358054 0 0.016477389473646836 -0.022566459276100761 0 0.015640617441060142 -0.019989591282175451 0 0.017899445588256409 -0.021163900454358054 0 0.017579451225930111 -0.018618315155982897 0 0.017579451225930111 -0.018618315155982897 0 0.014874655098053205 -0.017392344741892534 0 0.017691482840986233 -0.016072823349616284 0 0.02272386419783293 -0.020571294781151873 0 0.030297772574316557 -0.017368019337862261 0 0.015640617441060142 -0.019989591282175451 0 0.017579451225930111 -0.018618315155982897 0 0.014874655098053205 -0.017392344741892534 0 0.031079178097960663 -0.020859723944625808 0 0.030968383868604725 -0.020825569787278921 0 0.031029686592277804 -0.020943311277318934 0 0.036851913076828724 -0.013028024950123139 0 0.036740367612882879 -0.013324786084377057 0 0.037062556138975133 -0.013497280581212476 0 0.030297772574316557 -0.017368019337862261 0 0.026172521163556482 -0.014672348501956582 0 0.036851913076828724 -0.013028024950123139 0 0.036740367612882879 -0.013324786084377057 0 0.036327396288262932 -0.013153187370342568 0 0.036179287635824744 -0.013703280197102322 0 0.036327396288262932 -0.013153187370342568 0 0.03670087199184309 -0.013603521752585623 0 0.036740367612882879 -0.013324786084377057 0 0.036327396288262932 -0.013153187370342568 0 0.03670087199184309 -0.013603521752585623 0 0.036740367612882879 -0.013324786084377057 0 0.03670087199184309 -0.013603521752585623 0 0.037062556138975133 -0.013497280581212476 0 0.03670087199184309 -0.013603521752585623 0 0.037062556138975133 -0.013497280581212476 0 0.037045828722540079 -0.013921506574600905 0 0.03670087199184309 -0.013603521752585623 0 0.036728238713549861 -0.013956624000165842 0 0.037045828722540079 -0.013921506574600905 0 0.036179287635824744 -0.013703280197102322 0 0.03670087199184309 -0.013603521752585623 0 0.036728238713549861 -0.013956624000165842 0 0.036355402703483641 -0.010556197287891209 0 0.035612105476637089 -0.01039854171330864 0 0.036992696465518136 -0.014592342049691667 0 0.036761054150346986 -0.014189587851945339 0 0.037209079111717586 -0.01399921469751025 0 0.036992696465518136 -0.014592342049691667 0 0.036761054150346986 -0.014189587851945339 0 0.03654168548721199 -0.014703702422597659 0 0.037209079111717586 -0.01399921469751025 0 0.037062556138975133 -0.013497280581212476 0 0.037045828722540079 -0.013921506574600905 0 0.036992696465518136 -0.014592342049691667 0 0.037209079111717586 -0.01399921469751025 0 0.037554071125043116 -0.014999205213668562 0 0.03710288651918419 -0.0141194662179638 0 0.037958879374679379 -0.013874671972547388 0 0.036992696465518136 -0.014592342049691667 0 0.037554071125043116 -0.014999205213668562 0 0.037023698730669415 -0.015143478808727916 0 0.037554071125043116 -0.014999205213668562 0 0.037023698730669415 -0.015143478808727916 0 0.037281836475468434 -0.015537753515331211 0 0.036992696465518136 -0.014592342049691667 0 0.037023698730669415 -0.015143478808727916 0 0.03654168548721199 -0.014703702422597659 0 0.037023698730669415 -0.015143478808727916 0 0.036569427267452506 -0.015239483004689127 0 0.03654168548721199 -0.014703702422597659 0 0.037023698730669415 -0.015143478808727916 0 0.036842507205273364 -0.015631753107203796 0 0.036569427267452506 -0.015239483004689127 0 0.037023698730669415 -0.015143478808727916 0 0.036842507205273364 -0.015631753107203796 0 0.037281836475468434 -0.015537753515331211 0 0.037732391518637311 -0.015845101620561446 0 0.037554071125043116 -0.014999205213668562 0 0.037281836475468434 -0.015537753515331211 0 0.030297772574316557 -0.017368019337862261 0 0.037958879374679379 -0.013874671972547388 0 0.036842507205273364 -0.015631753107203796 0 0.037281836475468434 -0.015537753515331211 0 0.037255205981583286 -0.016032162866260937 0 0.031079178097960663 -0.020859723944625808 0 0.031154635326699816 -0.020925317842432289 0 0.031289709585941627 -0.020882724125898727 0 0.031079178097960663 -0.020859723944625808 0 0.031029686592277804 -0.020943311277318934 0 0.031154635326699816 -0.020925317842432289 0 0.037732391518637311 -0.015845101620561446 0 0.037281836475468434 -0.015537753515331211 0 0.037255205981583286 -0.016032162866260937 0 0.030297772574316557 -0.017368019337862261 0 0.034521095090069905 -0.018307714930672469 0 0.036842507205273364 -0.015631753107203796 0 0.037255205981583286 -0.016032162866260937 0 0.036782061217687977 -0.016219397945310889 0 0.036842507205273364 -0.015631753107203796 0 0.036782061217687977 -0.016219397945310889 0 0.036290246499741018 -0.015653969447461745 0 0.034521095090069905 -0.018307714930672469 0 0.035506548903781521 -0.019471188056574613 0 0.037034933360598897 -0.016528948100903631 0 0.036453946131660267 -0.016278320395496097 0 0.036179338458012356 -0.01685708589301399 0 0.036453946131660267 -0.016278320395496097 0 0.035764654711425946 -0.015531209214050138 0 0.036179338458012356 -0.01685708589301399 0 0.035506548903781521 -0.019471188056574613 0 0.03637429988721165 -0.014917821260890614 0 0.037034933360598897 -0.016528948100903631 0 0.036453946131660267 -0.016278320395496097 0 0.036290246499741018 -0.015653969447461745 0 0.035545992688485191 -0.017733033368502658 0 0.036096879253162649 -0.021957025546425639 0 0.037063445044978563 -0.021574815583163681 0 0.036013529738213951 -0.017376102273742818 0 0.036007658217319556 -0.020875560822429137 0 0.036766302912130046 -0.021070409524091557 0 0.036006730118094847 -0.021334962968784271 0 0.036956285433246923 -0.023272740368017526 0 0.036013529738213951 -0.017376102273742818 0 0.036166813428503156 -0.023256321656870589 0 0.036006730118094847 -0.021334962968784271 0 0.035853566839926201 -0.022965912131588016 0 0.036956285433246923 -0.023272740368017526 0 0.036766302912130046 -0.021070409524091557 0 0.036193191838897049 -0.019559692990291224 0 0.036006730118094847 -0.021334962968784271 0 0.035764654711425946 -0.015531209214050138 0 0.036290246499741018 -0.015653969447461745 0 0.036114559838493453 -0.015014558698843638 0 0.036290246499741018 -0.015653969447461745 0 0.036569427267452506 -0.015239483004689127 0 0.036114559838493453 -0.015014558698843638 0 0.036842507205273364 -0.015631753107203796 0 0.036290246499741018 -0.015653969447461745 0 0.036569427267452506 -0.015239483004689127 0 0.036453946131660267 -0.016278320395496097 0 0.035764654711425946 -0.015531209214050138 0 0.036290246499741018 -0.015653969447461745 0 0.036569427267452506 -0.015239483004689127 0 0.03654168548721199 -0.014703702422597659 0 0.036114559838493453 -0.015014558698843638 0 0.03654168548721199 -0.014703702422597659 0 0.036114559838493453 -0.015014558698843638 0 0.036157096997997434 -0.01458149498876089 0 0.035764654711425946 -0.015531209214050138 0 0.036114559838493453 -0.015014558698843638 0 0.035792527106679517 -0.014600498082605658 0 0.035929250888421291 -0.015698255143941173 0 0.035635654467517826 -0.014934390903220322 0 0.035792527106679517 -0.014600498082605658 0 0.036013529738213951 -0.017376102273742818 0 0.035703231669251184 -0.013907808421012392 0 0.036013529738213951 -0.017376102273742818 0 0.036204347134361298 -0.017221130593952652 0 0.036114559838493453 -0.015014558698843638 0 0.035792527106679517 -0.014600498082605658 0 0.036157096997997434 -0.01458149498876089 0 0.035792527106679517 -0.014600498082605658 0 0.036016342774173732 -0.014324852833548096 0 0.036157096997997434 -0.01458149498876089 0 0.036204347134361298 -0.017221130593952652 0 0.035806781104676146 -0.013364902659951246 0 0.035635654467517826 -0.014934390903220322 0 0.035792527106679517 -0.014600498082605658 0 0.0358161717297803 -0.014168701648090967 0 0.035792527106679517 -0.014600498082605658 0 0.036016342774173732 -0.014324852833548096 0 0.0358161717297803 -0.014168701648090967 0 0.036016342774173732 -0.014324852833548096 0 0.036331957860761724 -0.014244495053377128 0 0.036157096997997434 -0.01458149498876089 0 0.036761054150346986 -0.014189587851945339 0 0.03654168548721199 -0.014703702422597659 0 0.036331957860761724 -0.014244495053377128 0 0.03654168548721199 -0.014703702422597659 0 0.036331957860761724 -0.014244495053377128 0 0.036157096997997434 -0.01458149498876089 0 0.034999944704190274 -0.018479073874622547 0 0.03617315445000107 -0.01854286174711588 0 0.03651971716810299 -0.01720488342838249 0 0.036204347134361298 -0.017221130593952652 0 0.036022437204519718 -0.015578512728221252 0 0.035734279957032829 -0.014868149181160232 0 0.035457821079656213 -0.014057973297235807 0 0.0358161717297803 -0.014168701648090967 0 0.03719455745444978 -0.018932448855262556 0 0.03617315445000107 -0.01854286174711588 0 0.03651971716810299 -0.01720488342838249 0 0.03719455745444978 -0.018932448855262556 0 0.035984278262987821 -0.019562058360316777 0 0.036977752603531533 -0.020482403189797032 0 0.03719455745444978 -0.018932448855262556 0 0.03617315445000107 -0.01854286174711588 0 0.035984278262987821 -0.019562058360316777 0 0.034999944704190274 -0.018479073874622547 0 0.03617315445000107 -0.01854286174711588 0 0.035984278262987821 -0.019562058360316777 0 0.034999944704190274 -0.018479073874622547 0 0.035984278262987821 -0.019562058360316777 0 0.03499998380565178 -0.020447898567879753 0 0.035984278262987821 -0.019562058360316777 0 0.03499998380565178 -0.020447898567879753 0 0.035884481629236749 -0.021294036586050471 0 0.036204347134361298 -0.017221130593952652 0 0.036493335627194555 -0.021302693818527597 0 0.035984278262987821 -0.019562058360316777 0 0.036977752603531533 -0.020482403189797032 0 0.035884481629236749 -0.021294036586050471 0 0.036977752603531533 -0.020482403189797032 0 0.035884481629236749 -0.021294036586050471 0 0.036695741675779041 -0.022069882920889256 0 0.036493335627194555 -0.021302693818527597 0 0.036270268877831816 -0.022414847271519014 0 0.03499998380565178 -0.020447898567879753 0 0.035884481629236749 -0.021294036586050471 0 0.034999604901272095 -0.022417462490432333 0 0.035884481629236749 -0.021294036586050471 0 0.03581416064835137 -0.022784144455566979 0 0.034999604901272095 -0.022417462490432333 0 0.034999604901272095 -0.022417462490432333 0 0.035630301227876131 -0.023946303814780665 0 0.035000264143242713 -0.024384537084899495 0 0.03581416064835137 -0.022784144455566979 0 0.034999604901272095 -0.022417462490432333 0 0.035630301227876131 -0.023946303814780665 0 0.035630301227876131 -0.023946303814780665 0 0.036004213045521843 -0.023764558007505761 0 0.035851672355616725 -0.024184390025542974 0 0.03581416064835137 -0.022784144455566979 0 0.035630301227876131 -0.023946303814780665 0 0.036004213045521843 -0.023764558007505761 0 0.036004213045521843 -0.023764558007505761 0 0.036054238302399517 -0.023788458456681427 0 0.035999391414121389 -0.024010363878833572 0 0.036004213045521843 -0.023764558007505761 0 0.035965021593375029 -0.023442598987283403 0 0.036054238302399517 -0.023788458456681427 0 0.036046802079920781 -0.02365882266820768 0 0.036270268877831816 -0.022414847271519014 0 0.035884481629236749 -0.021294036586050471 0 0.03581416064835137 -0.022784144455566979 0 0.036695741675779041 -0.022069882920889256 0 0.036004213045521843 -0.023764558007505761 0 0.035965021593375029 -0.023442598987283403 0 0.035853566839926201 -0.022965912131588016 0 0.03581416064835137 -0.022784144455566979 0 0.036004213045521843 -0.023764558007505761 0 0.036695741675779041 -0.022069882920889256 0 0.035965021593375029 -0.023442598987283403 0 0.036214075126972486 -0.023507404377209256 0 0.036054238302399517 -0.023788458456681427 0 0.036159567959478611 -0.023434602471472474 0 0.036166813428503156 -0.023256321656870589 0 0.035965021593375029 -0.023442598987283403 0 0.035853566839926201 -0.022965912131588016 0 0.036956285433246923 -0.023272740368017526 0 0.036166813428503156 -0.023256321656870589 0 0.036007658217319556 -0.020875560822429137 0 0.035860598071829224 -0.024267308113983206 0 0.035824721947147795 -0.024329980663147861 0 0.035983287170568257 -0.024301371255445514 0 0.035506548903781521 -0.019471188056574613 0 0.036007658217319556 -0.020875560822429137 0 0.035860598071829224 -0.024267308113983206 0 0.035976355239578435 -0.024284341405866421 0 0.035983287170568257 -0.024301371255445514 0 0.036069548387176749 -0.02429252977571332 0 0.035976355239578435 -0.024284341405866421 0 0.035988567158583153 -0.024311398811187563 0 0.036219010765317999 -0.021658837507648125 0 0.036007658217319556 -0.020875560822429137 0 0.036069548387176749 -0.02429252977571332 0 0.035976355239578435 -0.024284341405866421 0 0.035952866610605268 -0.024214215485529555 0 0.035860598071829224 -0.024267308113983206 0 0.035976355239578435 -0.024284341405866421 0 0.035952866610605268 -0.024214215485529555 0 0.03584460966028969 -0.024185415956182035 0 0.035860598071829224 -0.024267308113983206 0 0.035952866610605268 -0.024214215485529555 0 0.03584460966028969 -0.024185415956182035 0 0.036070167393013296 -0.024039051737942695 0 0.035868327499056732 -0.024174588728901592 0 0.036069548387176749 -0.02429252977571332 0 0.035952866610605268 -0.024214215485529555 0 0.036070167393013296 -0.024039051737942695 0 0.03584460966028969 -0.024185415956182035 0 0.035952866610605268 -0.024214215485529555 0 0.036070167393013296 -0.024039051737942695 0 0.036166813428503156 -0.023256321656870589 0 0.036109828176974466 -0.024243055928539207 0 0.036214075126972486 -0.023507404377209256 0 0.036054238302399517 -0.023788458456681427 0 0.036070167393013296 -0.024039051737942695 0 0.036054238302399517 -0.023788458456681427 0 0.036070167393013296 -0.024039051737942695 0 0.035999391414121389 -0.024010363878833572 0 0.036070167393013296 -0.024039051737942695 0 0.035999391414121389 -0.024010363878833572 0 0.035972276452878788 -0.024273396624696825 0 0.035999391414121389 -0.024010363878833572 0 0.035972276452878788 -0.024273396624696825 0 0.035851672355616725 -0.024184390025542974 0 0.036070167393013296 -0.024039051737942695 0 0.035868327499056732 -0.024174588728901592 0 0.035972276452878788 -0.024273396624696825 0 0.035868327499056732 -0.024174588728901592 0 0.03581222288998219 -0.024147588392425395 0 0.035972276452878788 -0.024273396624696825 0 0.035854659072235236 -0.024335052239978863 0 0.035948078254444092 -0.024280344907844052 0 0.035892034630264372 -0.024556463893105847 0 0.035915587753769782 -0.02452747783529232 0 0.035972276452878788 -0.024273396624696825 0 0.035972276452878788 -0.024273396624696825 0 0.035716944744243757 -0.024500459228373871 0 0.035851672355616725 -0.024184390025542974 0 0.035892034630264372 -0.024556463893105847 0 0.035972276452878788 -0.024273396624696825 0 0.035716944744243757 -0.024500459228373871 0 0.035630301227876131 -0.023946303814780665 0 0.035716944744243757 -0.024500459228373871 0 0.035000264143242713 -0.024384537084899495 0 0.035778498095817748 -0.025154120587295235 0 0.035000086067688098 -0.0243856802177384 0 0.035630301227876131 -0.023946303814780665 0 0.035716944744243757 -0.024500459228373871 0 0.035851672355616725 -0.024184390025542974 0 0.036004213045521843 -0.023764558007505761 0 0.035999391414121389 -0.024010363878833572 0 0.035851672355616725 -0.024184390025542974 0 0.035725760595466151 -0.0098063071306496337 0 0.034999503617544371 -0.010602958393495794 0 0.035496315302790689 -0.0092167253778539272 0 0.035725760595466151 -0.0098063071306496337 0 0.034999503617544371 -0.010602958393495794 0 0.035486068748964934 -0.011263414437818163 0 0.034999503617544371 -0.010602958393495794 0 0.035496315302790689 -0.0092167253778539272 0 0.034999588897558782 -0.0086359099614199165 0 0.035496315302790689 -0.0092167253778539272 0 0.035853439623192339 -0.0087466326906113657 0 0.035591239577683231 -0.0085837628612305851 0 0.035725760595466151 -0.0098063071306496337 0 0.035496315302790689 -0.0092167253778539272 0 0.035853439623192339 -0.0087466326906113657 0 0.035853439623192339 -0.0087466326906113657 0 0.035929981322194458 -0.0086217419153245527 0 0.036085288727775604 -0.0093028209551904561 0 0.035853439623192339 -0.0087466326906113657 0 0.035929981322194458 -0.0086217419153245527 0 0.035829776811079773 -0.0081878338414112309 0 0.036085288727775604 -0.0093028209551904561 0 0.036413635112457959 -0.0096306590436152622 0 0.03592931388730318 -0.0086829884502574242 0 0.035929981322194458 -0.0086217419153245527 0 0.036085288727775604 -0.0093028209551904561 0 0.03592931388730318 -0.0086829884502574242 0 0.035725760595466151 -0.0098063071306496337 0 0.035853439623192339 -0.0087466326906113657 0 0.036085288727775604 -0.0093028209551904561 0 0.035725760595466151 -0.0098063071306496337 0 0.036085288727775604 -0.0093028209551904561 0 0.035861399759740224 -0.010738394617238635 0 0.036085288727775604 -0.0093028209551904561 0 0.035861399759740224 -0.010738394617238635 0 0.036413635112457959 -0.0096306590436152622 0 0.035861399759740224 -0.010738394617238635 0 0.036413635112457959 -0.0096306590436152622 0 0.0362458421387334 -0.011402702624939691 0 0.036413635112457959 -0.0096306590436152622 0 0.0362458421387334 -0.011402702624939691 0 0.037402246158408987 -0.011856259112279754 0 0.035861399759740224 -0.010738394617238635 0 0.0362458421387334 -0.011402702624939691 0 0.035810011122313926 -0.012166501646457183 0 0.035557354949981232 -0.011931177717094541 0 0.035486068748964934 -0.011263414437818163 0 0.035333394549164954 -0.012478496653689315 0 0.035861399759740224 -0.010738394617238635 0 0.035557354949981232 -0.011931177717094541 0 0.035810011122313926 -0.012166501646457183 0 0.035861399759740224 -0.010738394617238635 0 0.035557354949981232 -0.011931177717094541 0 0.035486068748964934 -0.011263414437818163 0 0.035557354949981232 -0.011931177717094541 0 0.035333394549164954 -0.012478496653689315 0 0.035442531368183997 -0.01291870174822643 0 0.035725760595466151 -0.0098063071306496337 0 0.035861399759740224 -0.010738394617238635 0 0.035486068748964934 -0.011263414437818163 0 0.034999503617544371 -0.010602958393495794 0 0.035486068748964934 -0.011263414437818163 0 0.034999423960569605 -0.012571371650407157 0 0.035486068748964934 -0.011263414437818163 0 0.035333394549164954 -0.012478496653689315 0 0.034999423960569605 -0.012571371650407157 0 0.035333394549164954 -0.012478496653689315 0 0.034999423960569605 -0.012571371650407157 0 0.035129058424240842 -0.013612553861572094 0 0.034999423960569605 -0.012571371650407157 0 0.035129058424240842 -0.013612553861572094 0 0.03499991691830532 -0.014540709857936297 0 0.035129058424240842 -0.013612553861572094 0 0.035442531368183997 -0.01291870174822643 0 0.03536624696197016 -0.013265688998855659 0 0.035333394549164954 -0.012478496653689315 0 0.035129058424240842 -0.013612553861572094 0 0.035442531368183997 -0.01291870174822643 0 0.035557354949981232 -0.011931177717094541 0 0.035442531368183997 -0.01291870174822643 0 0.035810011122313926 -0.012166501646457183 0 0.035442531368183997 -0.01291870174822643 0 0.035699617873180767 -0.012778051472712661 0 0.035810011122313926 -0.012166501646457183 0 0.035442531368183997 -0.01291870174822643 0 0.035699617873180767 -0.012778051472712661 0 0.035649026053701904 -0.013156807483460046 0 0.035442531368183997 -0.01291870174822643 0 0.03536624696197016 -0.013265688998855659 0 0.035649026053701904 -0.013156807483460046 0 0.03536624696197016 -0.013265688998855659 0 0.035325266023705094 -0.013351757784372099 0 0.035557420816632067 -0.013391178009768934 0 0.035649026053701904 -0.013156807483460046 0 0.035557420816632067 -0.013391178009768934 0 0.035893354451016761 -0.013324136651566352 0 0.03536624696197016 -0.013265688998855659 0 0.035649026053701904 -0.013156807483460046 0 0.035557420816632067 -0.013391178009768934 0 0.035129058424240842 -0.013612553861572094 0 0.03499991691830532 -0.014540709857936297 0 0.035868855978489843 -0.015506454971885958 0 0.035165963877246458 -0.013624870347720043 0 0.03557251520921182 -0.014443914546360336 0 0.035129058424240842 -0.013612553861572094 0 0.03536624696197016 -0.013265688998855659 0 0.035325266023705094 -0.013351757784372099 0 0.03499991691830532 -0.014540709857936297 0 0.035868855978489843 -0.015506454971885958 0 0.035000051305230311 -0.016510499832663519 0 0.035868855978489843 -0.015506454971885958 0 0.03651971716810299 -0.01720488342838249 0 0.035000051305230311 -0.016510499832663519 0 0.03557251520921182 -0.014443914546360336 0 0.036022437204519718 -0.015578512728221252 0 0.035325266023705094 -0.013351757784372099 0 0.03556562747856367 -0.013655385109043759 0 0.035457821079656213 -0.014057973297235807 0 0.035325266023705094 -0.013351757784372099 0 0.035557420816632067 -0.013391178009768934 0 0.03556562747856367 -0.013655385109043759 0 0.03556562747856367 -0.013655385109043759 0 0.035714113613118659 -0.013892399715054186 0 0.035808601574313398 -0.013621598219707192 0 0.035557420816632067 -0.013391178009768934 0 0.03556562747856367 -0.013655385109043759 0 0.035808601574313398 -0.013621598219707192 0 0.03556562747856367 -0.013655385109043759 0 0.035714113613118659 -0.013892399715054186 0 0.035457821079656213 -0.014057973297235807 0 0.035714113613118659 -0.013892399715054186 0 0.035457821079656213 -0.014057973297235807 0 0.0358161717297803 -0.014168701648090967 0 0.034999944704190274 -0.018479073874622547 0 0.03651971716810299 -0.01720488342838249 0 0.035000051305230311 -0.016510499832663519 0 0.036491920555327219 -0.013850818849972399 0 0.036041429588226988 -0.013948737168102328 0 0.036163347989021766 -0.013583590760787282 0 0.036761054150346986 -0.014189587851945339 0 0.036331957860761724 -0.014244495053377128 0 0.036491920555327219 -0.013850818849972399 0 0.036331957860761724 -0.014244495053377128 0 0.036491920555327219 -0.013850818849972399 0 0.036041429588226988 -0.013948737168102328 0 0.036016342774173732 -0.014324852833548096 0 0.0358161717297803 -0.014168701648090967 0 0.036041429588226988 -0.013948737168102328 0 0.036016342774173732 -0.014324852833548096 0 0.036331957860761724 -0.014244495053377128 0 0.036041429588226988 -0.013948737168102328 0 0.035714113613118659 -0.013892399715054186 0 0.0358161717297803 -0.014168701648090967 0 0.036041429588226988 -0.013948737168102328 0 0.035714113613118659 -0.013892399715054186 0 0.036041429588226988 -0.013948737168102328 0 0.035808601574313398 -0.013621598219707192 0 0.036041429588226988 -0.013948737168102328 0 0.036163347989021766 -0.013583590760787282 0 0.035808601574313398 -0.013621598219707192 0 0.035557420816632067 -0.013391178009768934 0 0.035808601574313398 -0.013621598219707192 0 0.035893354451016761 -0.013324136651566352 0 0.036163347989021766 -0.013583590760787282 0 0.035808601574313398 -0.013621598219707192 0 0.035893354451016761 -0.013324136651566352 0 0.036163347989021766 -0.013583590760787282 0 0.036248035142203143 -0.013224985877182906 0 0.035893354451016761 -0.013324136651566352 0 0.036163347989021766 -0.013583590760787282 0 0.03650063454681178 -0.013497034823688841 0 0.036248035142203143 -0.013224985877182906 0 0.036491920555327219 -0.013850818849972399 0 0.036163347989021766 -0.013583590760787282 0 0.03650063454681178 -0.013497034823688841 0 0.036491920555327219 -0.013850818849972399 0 0.03650063454681178 -0.013497034823688841 0 0.036848175057203801 -0.013632683384025235 0 0.03650063454681178 -0.013497034823688841 0 0.036628268340914372 -0.012961977709207416 0 0.036839135924540502 -0.013348010837260088 0 0.036248035142203143 -0.013224985877182906 0 0.036628268340914372 -0.012961977709207416 0 0.036018920055677528 -0.012880304155827646 0 0.03650063454681178 -0.013497034823688841 0 0.036248035142203143 -0.013224985877182906 0 0.036628268340914372 -0.012961977709207416 0 0.036628268340914372 -0.012961977709207416 0 0.036018920055677528 -0.012880304155827646 0 0.036477515444222099 -0.012372605755453613 0 0.035649026053701904 -0.013156807483460046 0 0.035893354451016761 -0.013324136651566352 0 0.036018920055677528 -0.012880304155827646 0 0.036248035142203143 -0.013224985877182906 0 0.035893354451016761 -0.013324136651566352 0 0.036018920055677528 -0.012880304155827646 0 0.035699617873180767 -0.012778051472712661 0 0.035649026053701904 -0.013156807483460046 0 0.036018920055677528 -0.012880304155827646 0 0.035699617873180767 -0.012778051472712661 0 0.036018920055677528 -0.012880304155827646 0 0.035810011122313926 -0.012166501646457183 0 0.036018920055677528 -0.012880304155827646 0 0.035810011122313926 -0.012166501646457183 0 0.036477515444222099 -0.012372605755453613 0 0.0362458421387334 -0.011402702624939691 0 0.035810011122313926 -0.012166501646457183 0 0.036477515444222099 -0.012372605755453613 0 0.0362458421387334 -0.011402702624939691 0 0.036477515444222099 -0.012372605755453613 0 0.037402246158408987 -0.011856259112279754 0 0.036628268340914372 -0.012961977709207416 0 0.036477515444222099 -0.012372605755453613 0 0.037102408079897349 -0.012709823708219516 0 0.037102408079897349 -0.012709823708219516 0 0.037469938478501282 -0.013010586500548546 0 0.037402246158408987 -0.011856259112279754 0 0.036465925690093041 -0.010144317054979405 0 0.036643018531032939 -0.010015191582277507 0 0.036477515444222099 -0.012372605755453613 0 0.037102408079897349 -0.012709823708219516 0 0.037402246158408987 -0.011856259112279754 0 0.035479319365302839 -0.0079736716993111315 0 0.035454521829974155 -0.007786439225119012 0 0.035591474952874118 -0.0077143368504663488 0 0.035479319365302839 -0.0079736716993111315 0 0.035591474952874118 -0.0077143368504663488 0 0.03595247964333409 -0.0081333263909695881 0 0.037469938478501282 -0.013010586500548546 0 0.037375921377767893 -0.013145878211754718 0 0.037665356883498098 -0.013472020241800374 0 0.036465925690093041 -0.010144317054979405 0 0.036669755327689804 -0.011466882447657516 0 0.035591474952874118 -0.0077143368504663488 0 0.035294320726764652 -0.0074844577521838412 0 0.035434635631589398 -0.0076468797409965424 0 0.035476539909768352 -0.0077156234166261498 0 0.035591474952874118 -0.0077143368504663488 0 0.035434635631589398 -0.0076468797409965424 0 0.035476539909768352 -0.0077156234166261498 0 0.035454521829974155 -0.007786439225119012 0 0.035591474952874118 -0.0077143368504663488 0 0.037469938478501282 -0.013010586500548546 0 0.037375921377767893 -0.013145878211754718 0 0.037113607887265962 -0.013096034938892991 0 0.037206571349766973 -0.013254750775557626 0 0.037375921377767893 -0.013145878211754718 0 0.037113607887265962 -0.013096034938892991 0 0.037375921377767893 -0.013145878211754718 0 0.037224767348588213 -0.013398280243849444 0 0.037242563208930678 -0.013550135470298699 0 0.037206571349766973 -0.013254750775557626 0 0.037375921377767893 -0.013145878211754718 0 0.037224767348588213 -0.013398280243849444 0 0.037102408079897349 -0.012709823708219516 0 0.037469938478501282 -0.013010586500548546 0 0.037113607887265962 -0.013096034938892991 0 0.036628268340914372 -0.012961977709207416 0 0.037102408079897349 -0.012709823708219516 0 0.037113607887265962 -0.013096034938892991 0 0.037206571349766973 -0.013254750775557626 0 0.037113607887265962 -0.013096034938892991 0 0.037103584715648438 -0.013434539445181333 0 0.037113607887265962 -0.013096034938892991 0 0.036839135924540502 -0.013348010837260088 0 0.037103584715648438 -0.013434539445181333 0 0.036628268340914372 -0.012961977709207416 0 0.037113607887265962 -0.013096034938892991 0 0.036839135924540502 -0.013348010837260088 0 0.036839135924540502 -0.013348010837260088 0 0.036848175057203801 -0.013632683384025235 0 0.037103584715648438 -0.013434539445181333 0 0.03650063454681178 -0.013497034823688841 0 0.036839135924540502 -0.013348010837260088 0 0.036848175057203801 -0.013632683384025235 0 0.036848175057203801 -0.013632683384025235 0 0.037103584715648438 -0.013434539445181333 0 0.037095266611011604 -0.01373557521890096 0 0.037206571349766973 -0.013254750775557626 0 0.037103584715648438 -0.013434539445181333 0 0.037224767348588213 -0.013398280243849444 0 0.037375921377767893 -0.013145878211754718 0 0.037242563208930678 -0.013550135470298699 0 0.037188353309094965 -0.013838022918752349 0 0.037781501932244131 -0.013915579448975311 0 0.036669755327689804 -0.011466882447657516 0 0.037103584715648438 -0.013434539445181333 0 0.037224767348588213 -0.013398280243849444 0 0.037176468061789633 -0.013576176954026112 0 0.037224767348588213 -0.013398280243849444 0 0.037176468061789633 -0.013576176954026112 0 0.037242563208930678 -0.013550135470298699 0 0.037176468061789633 -0.013576176954026112 0 0.037242563208930678 -0.013550135470298699 0 0.037186410590243614 -0.013793543231305003 0 0.037242563208930678 -0.013550135470298699 0 0.037186410590243614 -0.013793543231305003 0 0.037188353309094965 -0.013838022918752349 0 0.037103584715648438 -0.013434539445181333 0 0.037176468061789633 -0.013576176954026112 0 0.037095266611011604 -0.01373557521890096 0 0.037176468061789633 -0.013576176954026112 0 0.037186410590243614 -0.013793543231305003 0 0.037095266611011604 -0.01373557521890096 0 0.037209079111717586 -0.01399921469751025 0 0.037186410590243614 -0.013793543231305003 0 0.037045828722540079 -0.013921506574600905 0 0.037209079111717586 -0.01399921469751025 0 0.037186410590243614 -0.013793543231305003 0 0.037095266611011604 -0.01373557521890096 0 0.036761054150346986 -0.014189587851945339 0 0.037209079111717586 -0.01399921469751025 0 0.036900730994591624 -0.013882455973490082 0 0.037209079111717586 -0.01399921469751025 0 0.037095266611011604 -0.01373557521890096 0 0.036900730994591624 -0.013882455973490082 0 0.036761054150346986 -0.014189587851945339 0 0.036491920555327219 -0.013850818849972399 0 0.036900730994591624 -0.013882455973490082 0 0.036491920555327219 -0.013850818849972399 0 0.036848175057203801 -0.013632683384025235 0 0.036900730994591624 -0.013882455973490082 0 0.036848175057203801 -0.013632683384025235 0 0.037095266611011604 -0.01373557521890096 0 0.036900730994591624 -0.013882455973490082 0 0.03502956559183356 -0.0073126872690588412 0 0.035294320726764652 -0.0074844577521838412 0 0.03505451768171821 -0.0074732028703949054 0 0.034730992507576199 -0.0071409745182684729 0 0.03502956559183356 -0.0073126872690588412 0 0.034843617150758135 -0.0074317975200602912 0 0.03502956559183356 -0.0073126872690588412 0 0.03505451768171821 -0.0074732028703949054 0 0.034843617150758135 -0.0074317975200602912 0 0.037186410590243614 -0.013793543231305003 0 0.037045828722540079 -0.013921506574600905 0 0.037188353309094965 -0.013838022918752349 0 0.035612105476637089 -0.01039854171330864 0 0.036669755327689804 -0.011466882447657516 0 0.036728238713549861 -0.013956624000165842 0 0.037045828722540079 -0.013921506574600905 0 0.037188353309094965 -0.013838022918752349 0 0.035294320726764652 -0.0074844577521838412 0 0.035178170198172765 -0.0075227373901712892 0 0.03505451768171821 -0.0074732028703949054 0 0.035294320726764652 -0.0074844577521838412 0 0.035354597623272942 -0.0075968597218725774 0 0.035291577070680522 -0.007570567425299041 0 0.035294320726764652 -0.0074844577521838412 0 0.035354597623272942 -0.0075968597218725774 0 0.035434635631589398 -0.0076468797409965424 0 0.035354597623272942 -0.0075968597218725774 0 0.035291577070680522 -0.007570567425299041 0 0.035316474966286718 -0.0076159243355468868 0 0.035178170198172765 -0.0075227373901712892 0 0.035252329353284886 -0.0075446436384727037 0 0.035200552170790038 -0.0075692741686200077 0 0.035294320726764652 -0.0074844577521838412 0 0.035178170198172765 -0.0075227373901712892 0 0.035252329353284886 -0.0075446436384727037 0 0.035294320726764652 -0.0074844577521838412 0 0.035252329353284886 -0.0075446436384727037 0 0.035291577070680522 -0.007570567425299041 0 0.035252329353284886 -0.0075446436384727037 0 0.035249678479548095 -0.0075726926077121651 0 0.035200552170790038 -0.0075692741686200077 0 0.035291577070680522 -0.007570567425299041 0 0.035316474966286718 -0.0076159243355468868 0 0.035254432149529245 -0.0076064288661746946 0 0.035252329353284886 -0.0075446436384727037 0 0.035249678479548095 -0.0075726926077121651 0 0.035291577070680522 -0.007570567425299041 0 0.035249678479548095 -0.0075726926077121651 0 0.035291577070680522 -0.007570567425299041 0 0.035254432149529245 -0.0076064288661746946 0 0.035249678479548095 -0.0075726926077121651 0 0.035200552170790038 -0.0075692741686200077 0 0.035254432149529245 -0.0076064288661746946 0 0.035200552170790038 -0.0075692741686200077 0 0.03516709541153025 -0.0076022422715211636 0 0.035254432149529245 -0.0076064288661746946 0 0.035200552170790038 -0.0075692741686200077 0 0.035092220783698204 -0.0075651132648048751 0 0.03516709541153025 -0.0076022422715211636 0 0.035178170198172765 -0.0075227373901712892 0 0.035092220783698204 -0.0075651132648048751 0 0.03505451768171821 -0.0074732028703949054 0 0.035178170198172765 -0.0075227373901712892 0 0.035200552170790038 -0.0075692741686200077 0 0.035092220783698204 -0.0075651132648048751 0 0.03505451768171821 -0.0074732028703949054 0 0.034958337325513109 -0.0075325549154449389 0 0.034843617150758135 -0.0074317975200602912 0 0.035092220783698204 -0.0075651132648048751 0 0.03505451768171821 -0.0074732028703949054 0 0.034958337325513109 -0.0075325549154449389 0 0.035092220783698204 -0.0075651132648048751 0 0.034958337325513109 -0.0075325549154449389 0 0.035005688663100741 -0.0076202971253276457 0 0.035005688663100741 -0.0076202971253276457 0 0.035100633841497496 -0.0077105753752503359 0 0.034983295395045293 -0.0076844022663429641 0 0.035092220783698204 -0.0075651132648048751 0 0.035005688663100741 -0.0076202971253276457 0 0.035132562104920391 -0.0076418489179300858 0 0.035005688663100741 -0.0076202971253276457 0 0.035132562104920391 -0.0076418489179300858 0 0.035100633841497496 -0.0077105753752503359 0 0.03516709541153025 -0.0076022422715211636 0 0.035132562104920391 -0.0076418489179300858 0 0.035230638081320986 -0.007658120356771477 0 0.035092220783698204 -0.0075651132648048751 0 0.03516709541153025 -0.0076022422715211636 0 0.035132562104920391 -0.0076418489179300858 0 0.035132562104920391 -0.0076418489179300858 0 0.035230638081320986 -0.007658120356771477 0 0.035214684496548694 -0.0077255693860289812 0 0.035132562104920391 -0.0076418489179300858 0 0.035100633841497496 -0.0077105753752503359 0 0.035214684496548694 -0.0077255693860289812 0 0.035100633841497496 -0.0077105753752503359 0 0.035214684496548694 -0.0077255693860289812 0 0.035214343700477602 -0.0078017973907228162 0 0.035100633841497496 -0.0077105753752503359 0 0.034983295395045293 -0.0076844022663429641 0 0.035105448397938666 -0.007783900977863089 0 0.034983295395045293 -0.0076844022663429641 0 0.035105448397938666 -0.007783900977863089 0 0.034892734083169362 -0.0077194428425327597 0 0.035434635631589398 -0.0076468797409965424 0 0.035366214074552621 -0.0076461501852610877 0 0.035392284831979315 -0.0077129976969558837 0 0.035354597623272942 -0.0075968597218725774 0 0.035434635631589398 -0.0076468797409965424 0 0.035366214074552621 -0.0076461501852610877 0 0.035354597623272942 -0.0075968597218725774 0 0.035316474966286718 -0.0076159243355468868 0 0.035366214074552621 -0.0076461501852610877 0 0.035316474966286718 -0.0076159243355468868 0 0.035315791418401361 -0.007660211328659447 0 0.035366214074552621 -0.0076461501852610877 0 0.035315791418401361 -0.007660211328659447 0 0.035366214074552621 -0.0076461501852610877 0 0.035392284831979315 -0.0077129976969558837 0 0.035315791418401361 -0.007660211328659447 0 0.035230638081320986 -0.007658120356771477 0 0.03530043361712365 -0.007712684818504045 0 0.035316474966286718 -0.0076159243355468868 0 0.035315791418401361 -0.007660211328659447 0 0.035254432149529245 -0.0076064288661746946 0 0.035315791418401361 -0.007660211328659447 0 0.035254432149529245 -0.0076064288661746946 0 0.035230638081320986 -0.007658120356771477 0 0.03516709541153025 -0.0076022422715211636 0 0.035254432149529245 -0.0076064288661746946 0 0.035230638081320986 -0.007658120356771477 0 0.035214684496548694 -0.0077255693860289812 0 0.03530043361712365 -0.007712684818504045 0 0.035339321321741078 -0.0078223357909625469 0 0.035230638081320986 -0.007658120356771477 0 0.035214684496548694 -0.0077255693860289812 0 0.03530043361712365 -0.007712684818504045 0 0.03530043361712365 -0.007712684818504045 0 0.035392284831979315 -0.0077129976969558837 0 0.035339321321741078 -0.0078223357909625469 0 0.035454521829974155 -0.007786439225119012 0 0.035392284831979315 -0.0077129976969558837 0 0.035339321321741078 -0.0078223357909625469 0 0.035315791418401361 -0.007660211328659447 0 0.03530043361712365 -0.007712684818504045 0 0.035392284831979315 -0.0077129976969558837 0 0.035476539909768352 -0.0077156234166261498 0 0.035454521829974155 -0.007786439225119012 0 0.035392284831979315 -0.0077129976969558837 0 0.035476539909768352 -0.0077156234166261498 0 0.035434635631589398 -0.0076468797409965424 0 0.035392284831979315 -0.0077129976969558837 0 0.035479319365302839 -0.0079736716993111315 0 0.035339321321741078 -0.0078223357909625469 0 0.035235881143212112 -0.0078989421627840371 0 0.035479319365302839 -0.0079736716993111315 0 0.035454521829974155 -0.007786439225119012 0 0.035339321321741078 -0.0078223357909625469 0 0.035214684496548694 -0.0077255693860289812 0 0.035339321321741078 -0.0078223357909625469 0 0.035214343700477602 -0.0078017973907228162 0 0.035339321321741078 -0.0078223357909625469 0 0.035214343700477602 -0.0078017973907228162 0 0.035235881143212112 -0.0078989421627840371 0 0.035105448397938666 -0.007783900977863089 0 0.035235881143212112 -0.0078989421627840371 0 0.035013090940362153 -0.0078085140433632096 0 0.035235881143212112 -0.0078989421627840371 0 0.035179424952156611 -0.0079272291587383741 0 0.035013090940362153 -0.0078085140433632096 0 0.035105448397938666 -0.007783900977863089 0 0.035214343700477602 -0.0078017973907228162 0 0.035235881143212112 -0.0078989421627840371 0 0.035100633841497496 -0.0077105753752503359 0 0.035105448397938666 -0.007783900977863089 0 0.035214343700477602 -0.0078017973907228162 0 0.035179424952156611 -0.0079272291587383741 0 0.035285035828268224 -0.0079206258010017429 0 0.035379664870808937 -0.0081126438138103014 0 0.035235881143212112 -0.0078989421627840371 0 0.035179424952156611 -0.0079272291587383741 0 0.035379664870808937 -0.0081126438138103014 0 0.035285035828268224 -0.0079206258010017429 0 0.035379664870808937 -0.0081126438138103014 0 0.035388469977008341 -0.0079026862967546251 0 0.035379664870808937 -0.0081126438138103014 0 0.035565568117467257 -0.00819896555523302 0 0.035388469977008341 -0.0079026862967546251 0 0.035479319365302839 -0.0079736716993111315 0 0.035235881143212112 -0.0078989421627840371 0 0.035379664870808937 -0.0081126438138103014 0 0.035630150894950793 -0.0082127815686625551 0 0.03595247964333409 -0.0081333263909695881 0 0.035733455489199602 -0.0085995866236783913 0 0.035379664870808937 -0.0081126438138103014 0 0.035630150894950793 -0.0082127815686625551 0 0.035733455489199602 -0.0085995866236783913 0 0.035479319365302839 -0.0079736716993111315 0 0.035379664870808937 -0.0081126438138103014 0 0.035630150894950793 -0.0082127815686625551 0 0.035479319365302839 -0.0079736716993111315 0 0.035630150894950793 -0.0082127815686625551 0 0.03595247964333409 -0.0081333263909695881 0 0.036399145368368767 -0.0095919060013514735 0 0.036643018531032939 -0.010015191582277507 0 0.036413635112457959 -0.0096306590436152622 0 0.03595247964333409 -0.0081333263909695881 0 0.035733455489199602 -0.0085995866236783913 0 0.036413635112457959 -0.0096306590436152622 0 0.035733455489199602 -0.0085995866236783913 0 0.03592931388730318 -0.0086829884502574242 0 0.035379664870808937 -0.0081126438138103014 0 0.035733455489199602 -0.0085995866236783913 0 0.035565568117467257 -0.00819896555523302 0 0.035565568117467257 -0.00819896555523302 0 0.03592931388730318 -0.0086829884502574242 0 0.03564181254533879 -0.0080457308423354454 0 0.035733455489199602 -0.0085995866236783913 0 0.035565568117467257 -0.00819896555523302 0 0.03592931388730318 -0.0086829884502574242 0 0.035929981322194458 -0.0086217419153245527 0 0.03592931388730318 -0.0086829884502574242 0 0.035798680331211329 -0.0082465285250289209 0 0.03592931388730318 -0.0086829884502574242 0 0.035798680331211329 -0.0082465285250289209 0 0.03564181254533879 -0.0080457308423354454 0 0.035929981322194458 -0.0086217419153245527 0 0.035798680331211329 -0.0082465285250289209 0 0.035829776811079773 -0.0081878338414112309 0 0.035798680331211329 -0.0082465285250289209 0 0.03564181254533879 -0.0080457308423354454 0 0.035651290463366861 -0.0077460368849357241 0 0.03564181254533879 -0.0080457308423354454 0 0.035506644832404732 -0.0073947904079007002 0 0.035651290463366861 -0.0077460368849357241 0 0.03564181254533879 -0.0080457308423354454 0 0.035472276081188088 -0.0075655523500327403 0 0.035506644832404732 -0.0073947904079007002 0 0.035472276081188088 -0.0075655523500327403 0 0.035500562377640633 -0.007027443369444511 0 0.035506644832404732 -0.0073947904079007002 0 0.035472276081188088 -0.0075655523500327403 0 0.035561250709021733 -0.0068303459087224816 0 0.035500562377640633 -0.007027443369444511 0 0.035472276081188088 -0.0075655523500327403 0 0.035561250709021733 -0.0068303459087224816 0 0.035499766437486008 -0.0072753429228170846 0 0.035285035828268224 -0.0079206258010017429 0 0.035388469977008341 -0.0079026862967546251 0 0.035499766437486008 -0.0072753429228170846 0 0.035472276081188088 -0.0075655523500327403 0 0.035388469977008341 -0.0079026862967546251 0 0.035499766437486008 -0.0072753429228170846 0 0.035565568117467257 -0.00819896555523302 0 0.035472276081188088 -0.0075655523500327403 0 0.035388469977008341 -0.0079026862967546251 0 0.035565568117467257 -0.00819896555523302 0 0.03564181254533879 -0.0080457308423354454 0 0.035472276081188088 -0.0075655523500327403 0 0.035553411966562705 -0.0063332759338028651 0 0.035608487619724301 -0.0065528697132748769 0 0.035423127069041327 -0.0061731226909843666 0 0.035553411966562705 -0.0063332759338028651 0 0.035499766437486008 -0.0072753429228170846 0 0.035608487619724301 -0.0065528697132748769 0 0.035285035828268224 -0.0079206258010017429 0 0.035144529565986266 -0.0079226719919301327 0 0.035499766437486008 -0.0072753429228170846 0 0.035287676450376546 -0.0071102694831591852 0 0.0354181924691492 -0.0072124204393995113 0 0.035561250709021733 -0.0068303459087224816 0 0.035499766437486008 -0.0072753429228170846 0 0.035608487619724301 -0.0065528697132748769 0 0.035608487619724301 -0.0065528697132748769 0 0.035423127069041327 -0.0061731226909843666 0 0.035582041953506456 -0.0060384944243778603 0 0.035423127069041327 -0.0061731226909843666 0 0.03542702938605298 -0.0058410190287653168 0 0.035582041953506456 -0.0060384944243778603 0 0.035244372511849503 -0.0058950475431807144 0 0.035322678243639015 -0.0056651368516538623 0 0.03542702938605298 -0.0058410190287653168 0 0.035423127069041327 -0.0061731226909843666 0 0.035244372511849503 -0.0058950475431807144 0 0.03542702938605298 -0.0058410190287653168 0 0.035423127069041327 -0.0061731226909843666 0 0.035260671403544483 -0.00601911423290528 0 0.035244372511849503 -0.0058950475431807144 0 0.035260671403544483 -0.00601911423290528 0 0.035086205179589429 -0.0059584816933465042 0 0.035244372511849503 -0.0058950475431807144 0 0.035423127069041327 -0.0061731226909843666 0 0.035260671403544483 -0.00601911423290528 0 0.035325935961245045 -0.0059826190551473197 0 0.035553411966562705 -0.0063332759338028651 0 0.035423127069041327 -0.0061731226909843666 0 0.035325935961245045 -0.0059826190551473197 0 0.035144529565986266 -0.0079226719919301327 0 0.034539437193742771 -0.0079767457495560842 0 0.034706582079692939 -0.0078398414861608149 0 0.035287676450376546 -0.0071102694831591852 0 0.034929940157912502 -0.006971327846834189 0 0.034929940157912502 -0.006971327846834189 0 0.034593155701477141 -0.0068207070960561852 0 0.035260671403544483 -0.00601911423290528 0 0.035325935961245045 -0.0059826190551473197 0 0.035086205179589429 -0.0059584816933465042 0 0.035325935961245045 -0.0059826190551473197 0 0.035055660590271036 -0.0059168857567961936 0 0.035086205179589429 -0.0059584816933465042 0 0.034539437193742771 -0.0079767457495560842 0 0.034313974497240829 -0.0076607297854148285 0 0.03409424412221361 -0.0077093035307741267 0 0.034539437193742771 -0.0079767457495560842 0 0.034313974497240829 -0.0076607297854148285 0 0.034706582079692939 -0.0078398414861608149 0 0.034313974497240829 -0.0076607297854148285 0 0.034706582079692939 -0.0078398414861608149 0 0.034551966625197404 -0.0076892877382623978 0 0.034706582079692939 -0.0078398414861608149 0 0.034937631853231649 -0.0078526964871200849 0 0.034551966625197404 -0.0076892877382623978 0 0.035144529565986266 -0.0079226719919301327 0 0.034706582079692939 -0.0078398414861608149 0 0.034937631853231649 -0.0078526964871200849 0 0.035285035828268224 -0.0079206258010017429 0 0.035144529565986266 -0.0079226719919301327 0 0.034937631853231649 -0.0078526964871200849 0 0.035179424952156611 -0.0079272291587383741 0 0.034937631853231649 -0.0078526964871200849 0 0.035013090940362153 -0.0078085140433632096 0 0.035179424952156611 -0.0079272291587383741 0 0.035285035828268224 -0.0079206258010017429 0 0.034937631853231649 -0.0078526964871200849 0 0.034937631853231649 -0.0078526964871200849 0 0.035013090940362153 -0.0078085140433632096 0 0.034825453000926695 -0.0077536195249920323 0 0.035013090940362153 -0.0078085140433632096 0 0.034892734083169362 -0.0077194428425327597 0 0.034825453000926695 -0.0077536195249920323 0 0.034892734083169362 -0.0077194428425327597 0 0.034825453000926695 -0.0077536195249920323 0 0.034671421060603565 -0.0076618964945383231 0 0.035105448397938666 -0.007783900977863089 0 0.035013090940362153 -0.0078085140433632096 0 0.034892734083169362 -0.0077194428425327597 0 0.034937631853231649 -0.0078526964871200849 0 0.034825453000926695 -0.0077536195249920323 0 0.034551966625197404 -0.0076892877382623978 0 0.034825453000926695 -0.0077536195249920323 0 0.034671421060603565 -0.0076618964945383231 0 0.034551966625197404 -0.0076892877382623978 0 0.034671421060603565 -0.0076618964945383231 0 0.034372868750279791 -0.0075883395570132857 0 0.034551966625197404 -0.0076892877382623978 0 0.034671421060603565 -0.0076618964945383231 0 0.034797616272232226 -0.0075728749255427417 0 0.034554918594997902 -0.0075708801096817232 0 0.034671421060603565 -0.0076618964945383231 0 0.034554918594997902 -0.0075708801096817232 0 0.034372868750279791 -0.0075883395570132857 0 0.034892734083169362 -0.0077194428425327597 0 0.034671421060603565 -0.0076618964945383231 0 0.034797616272232226 -0.0075728749255427417 0 0.034983295395045293 -0.0076844022663429641 0 0.034892734083169362 -0.0077194428425327597 0 0.034797616272232226 -0.0075728749255427417 0 0.035005688663100741 -0.0076202971253276457 0 0.034983295395045293 -0.0076844022663429641 0 0.034797616272232226 -0.0075728749255427417 0 0.034958337325513109 -0.0075325549154449389 0 0.035005688663100741 -0.0076202971253276457 0 0.034797616272232226 -0.0075728749255427417 0 0.034958337325513109 -0.0075325549154449389 0 0.034797616272232226 -0.0075728749255427417 0 0.034843617150758135 -0.0074317975200602912 0 0.034797616272232226 -0.0075728749255427417 0 0.034609235545674251 -0.0074902258658486355 0 0.034843617150758135 -0.0074317975200602912 0 0.034554918594997902 -0.0075708801096817232 0 0.034609235545674251 -0.0074902258658486355 0 0.034293928046032617 -0.0075201697104832462 0 0.034797616272232226 -0.0075728749255427417 0 0.034554918594997902 -0.0075708801096817232 0 0.034609235545674251 -0.0074902258658486355 0 0.034554918594997902 -0.0075708801096817232 0 0.034293928046032617 -0.0075201697104832462 0 0.034372868750279791 -0.0075883395570132857 0 0.03451115736667127 -0.0073722682377096458 0 0.034163505392026845 -0.0073779169037162104 0 0.034293928046032617 -0.0075201697104832462 0 0.034609235545674251 -0.0074902258658486355 0 0.03451115736667127 -0.0073722682377096458 0 0.034293928046032617 -0.0075201697104832462 0 0.034730992507576199 -0.0071409745182684729 0 0.03451115736667127 -0.0073722682377096458 0 0.034843617150758135 -0.0074317975200602912 0 0.034609235545674251 -0.0074902258658486355 0 0.03451115736667127 -0.0073722682377096458 0 0.034843617150758135 -0.0074317975200602912 0 0.033898153812560602 -0.007367259421423483 0 0.033841981452424563 -0.0075905379245494184 0 0.034163505392026845 -0.0073779169037162104 0 0.033841981452424563 -0.0075905379245494184 0 0.034163505392026845 -0.0073779169037162104 0 0.034293928046032617 -0.0075201697104832462 0 0.034293928046032617 -0.0075201697104832462 0 0.034014102166292477 -0.0075488486699151714 0 0.034372868750279791 -0.0075883395570132857 0 0.033841981452424563 -0.0075905379245494184 0 0.034014102166292477 -0.0075488486699151714 0 0.033736016200618904 -0.0075190353770016524 0 0.033841981452424563 -0.0075905379245494184 0 0.034293928046032617 -0.0075201697104832462 0 0.034014102166292477 -0.0075488486699151714 0 0.034014102166292477 -0.0075488486699151714 0 0.034125413558313146 -0.0075407576757100785 0 0.033736016200618904 -0.0075190353770016524 0 0.034014102166292477 -0.0075488486699151714 0 0.034125413558313146 -0.0075407576757100785 0 0.034372868750279791 -0.0075883395570132857 0 0.034125413558313146 -0.0075407576757100785 0 0.034372868750279791 -0.0075883395570132857 0 0.034551966625197404 -0.0076892877382623978 0 0.034313974497240829 -0.0076607297854148285 0 0.034125413558313146 -0.0075407576757100785 0 0.034551966625197404 -0.0076892877382623978 0 0.034313974497240829 -0.0076607297854148285 0 0.034125413558313146 -0.0075407576757100785 0 0.033979671427197072 -0.007404936378410755 0 0.034313974497240829 -0.0076607297854148285 0 0.033979671427197072 -0.007404936378410755 0 0.03409424412221361 -0.0077093035307741267 0 0.033979671427197072 -0.007404936378410755 0 0.033980402776401318 -0.0072484288719100029 0 0.03409424412221361 -0.0077093035307741267 0 0.033979671427197072 -0.007404936378410755 0 0.033980402776401318 -0.0072484288719100029 0 0.033999098020033064 -0.0072413443744270695 0 0.033980402776401318 -0.0072484288719100029 0 0.033999098020033064 -0.0072413443744270695 0 0.034556697907675966 -0.0067670970546479178 0 0.034125413558313146 -0.0075407576757100785 0 0.033979671427197072 -0.007404936378410755 0 0.033736016200618904 -0.0075190353770016524 0 0.033979671427197072 -0.007404936378410755 0 0.033999098020033064 -0.0072413443744270695 0 0.033736016200618904 -0.0075190353770016524 0 0.033841981452424563 -0.0075905379245494184 0 0.033736016200618904 -0.0075190353770016524 0 0.033399833756067525 -0.0078141384576620627 0 0.033736016200618904 -0.0075190353770016524 0 0.033399833756067525 -0.0078141384576620627 0 0.034095733195869761 -0.0075297481412915264 0 0.033999098020033064 -0.0072413443744270695 0 0.033736016200618904 -0.0075190353770016524 0 0.034095733195869761 -0.0075297481412915264 0 0.033399833756067525 -0.0078141384576620627 0 0.03386510547123868 -0.0079414873681619008 0 0.034095733195869761 -0.0075297481412915264 0 0.032816548865682457 -0.0081603424660424313 0 0.033399833756067525 -0.0078141384576620627 0 0.03386510547123868 -0.0079414873681619008 0 0.033589376823570001 -0.00736290566651456 0 0.033841981452424563 -0.0075905379245494184 0 0.033399833756067525 -0.0078141384576620627 0 0.035207073617009657 -0.0080927659243417525 0 0.034672705851381415 -0.0089201986057848102 0 0.034772955648091949 -0.0078727134660971729 0 0.034672705851381415 -0.0089201986057848102 0 0.034772955648091949 -0.0078727134660971729 0 0.03386510547123868 -0.0079414873681619008 0 0.034772955648091949 -0.0078727134660971729 0 0.03386510547123868 -0.0079414873681619008 0 0.034095733195869761 -0.0075297481412915264 0 0.034772955648091949 -0.0078727134660971729 0 0.034938351693358884 -0.0072610976583600169 0 0.03533869323558296 -0.0075593275059452356 0 0.034772955648091949 -0.0078727134660971729 0 0.034095733195869761 -0.0075297481412915264 0 0.034938351693358884 -0.0072610976583600169 0 0.034938351693358884 -0.0072610976583600169 0 0.034556697907675966 -0.0067670970546479178 0 0.035055281065126717 -0.0067812204179001287 0 0.034095733195869761 -0.0075297481412915264 0 0.034938351693358884 -0.0072610976583600169 0 0.034556697907675966 -0.0067670970546479178 0 0.033999098020033064 -0.0072413443744270695 0 0.034095733195869761 -0.0075297481412915264 0 0.034556697907675966 -0.0067670970546479178 0 0.034556697907675966 -0.0067670970546479178 0 0.034997404183385865 -0.0063061386908299056 0 0.034796972168957718 -0.0061217970711502792 0 0.034758553243157728 -0.0061423909052100469 0 0.034556697907675966 -0.0067670970546479178 0 0.034796972168957718 -0.0061217970711502792 0 0.034433267461814063 -0.0067279340733387236 0 0.034602367752432805 -0.0068018643344156943 0 0.034556697907675966 -0.0067670970546479178 0 0.034997404183385865 -0.0063061386908299056 0 0.035055281065126717 -0.0067812204179001287 0 0.034997404183385865 -0.0063061386908299056 0 0.034998936475081614 -0.0058722088256833649 0 0.034796972168957718 -0.0061217970711502792 0 0.034998936475081614 -0.0058722088256833649 0 0.034948897389790373 -0.0059160516012788673 0 0.035053646607486499 -0.0057576977119399688 0 0.034998936475081614 -0.0058722088256833649 0 0.034796972168957718 -0.0061217970711502792 0 0.034948897389790373 -0.0059160516012788673 0 0.034758553243157728 -0.0061423909052100469 0 0.034796972168957718 -0.0061217970711502792 0 0.034909500381107877 -0.0059970742542403786 0 0.034758553243157728 -0.0061423909052100469 0 0.034909500381107877 -0.0059970742542403786 0 0.035055660590271036 -0.0059168857567961936 0 0.034433267461814063 -0.0067279340733387236 0 0.034593155701477141 -0.0068207070960561852 0 0.034909500381107877 -0.0059970742542403786 0 0.035055660590271036 -0.0059168857567961936 0 0.035086205179589429 -0.0059584816933465042 0 0.034796972168957718 -0.0061217970711502792 0 0.034909500381107877 -0.0059970742542403786 0 0.034948897389790373 -0.0059160516012788673 0 0.034909500381107877 -0.0059970742542403786 0 0.035086205179589429 -0.0059584816933465042 0 0.034948897389790373 -0.0059160516012788673 0 0.034948897389790373 -0.0059160516012788673 0 0.035111943302776824 -0.0058203512289394304 0 0.035053646607486499 -0.0057576977119399688 0 0.035111943302776824 -0.0058203512289394304 0 0.0351728677269822 -0.00562989548141468 0 0.035053646607486499 -0.0057576977119399688 0 0.035086205179589429 -0.0059584816933465042 0 0.034948897389790373 -0.0059160516012788673 0 0.035111943302776824 -0.0058203512289394304 0 0.035086205179589429 -0.0059584816933465042 0 0.035111943302776824 -0.0058203512289394304 0 0.035244372511849503 -0.0058950475431807144 0 0.035111943302776824 -0.0058203512289394304 0 0.035244372511849503 -0.0058950475431807144 0 0.035219903863877945 -0.0057003516305762199 0 0.035244372511849503 -0.0058950475431807144 0 0.035219903863877945 -0.0057003516305762199 0 0.035322678243639015 -0.0056651368516538623 0 0.035219903863877945 -0.0057003516305762199 0 0.0351728677269822 -0.00562989548141468 0 0.035286865616793658 -0.0055329375958895685 0 0.035111943302776824 -0.0058203512289394304 0 0.035219903863877945 -0.0057003516305762199 0 0.0351728677269822 -0.00562989548141468 0 0.0351728677269822 -0.00562989548141468 0 0.035209626447820788 -0.0054805699558719964 0 0.03510386595688799 -0.0056083402160816325 0 0.0351728677269822 -0.00562989548141468 0 0.035209626447820788 -0.0054805699558719964 0 0.035265160928794372 -0.0054906891607904738 0 0.035209626447820788 -0.0054805699558719964 0 0.03510386595688799 -0.0056083402160816325 0 0.035115633541987767 -0.0054188109182522351 0 0.034998936475081614 -0.0058722088256833649 0 0.03510386595688799 -0.0056083402160816325 0 0.035053646607486499 -0.0057576977119399688 0 0.034998936475081614 -0.0058722088256833649 0 0.03510386595688799 -0.0056083402160816325 0 0.035105180086555686 -0.0056240587880266547 0 0.0351728677269822 -0.00562989548141468 0 0.03510386595688799 -0.0056083402160816325 0 0.035053646607486499 -0.0057576977119399688 0 0.03532683332452069 -0.0053573474314415667 0 0.035355373952093615 -0.0052734511329025329 0 0.035320784363780638 -0.0054017211156270574 0 0.03532683332452069 -0.0053573474314415667 0 0.035355373952093615 -0.0052734511329025329 0 0.035338955118716354 -0.0051288906521194336 0 0.035355373952093615 -0.0052734511329025329 0 0.035370302458686047 -0.0053469636612415213 0 0.035395793944487816 -0.0052491690187018037 0 0.035370302458686047 -0.0053469636612415213 0 0.035395418107538497 -0.0054203662611459844 0 0.035395793944487816 -0.0052491690187018037 0 0.035370302458686047 -0.0053469636612415213 0 0.035395418107538497 -0.0054203662611459844 0 0.035338456812121277 -0.0054020854466771432 0 0.035355373952093615 -0.0052734511329025329 0 0.035370302458686047 -0.0053469636612415213 0 0.035320784363780638 -0.0054017211156270574 0 0.035370302458686047 -0.0053469636612415213 0 0.035338456812121277 -0.0054020854466771432 0 0.035320784363780638 -0.0054017211156270574 0 0.035338456812121277 -0.0054020854466771432 0 0.035320784363780638 -0.0054017211156270574 0 0.035235464659249732 -0.0053848943289724364 0 0.035209626447820788 -0.0054805699558719964 0 0.035235464659249732 -0.0053848943289724364 0 0.035115633541987767 -0.0054188109182522351 0 0.035209626447820788 -0.0054805699558719964 0 0.035320784363780638 -0.0054017211156270574 0 0.035235464659249732 -0.0053848943289724364 0 0.0351728677269822 -0.00562989548141468 0 0.035265160928794372 -0.0054906891607904738 0 0.035286865616793658 -0.0055329375958895685 0 0.035209626447820788 -0.0054805699558719964 0 0.035320784363780638 -0.0054017211156270574 0 0.035265160928794372 -0.0054906891607904738 0 0.03532683332452069 -0.0053573474314415667 0 0.035320784363780638 -0.0054017211156270574 0 0.035265160928794372 -0.0054906891607904738 0 0.03532683332452069 -0.0053573474314415667 0 0.035265160928794372 -0.0054906891607904738 0 0.035286865616793658 -0.0055329375958895685 0 0.035219903863877945 -0.0057003516305762199 0 0.035286865616793658 -0.0055329375958895685 0 0.035322678243639015 -0.0056651368516538623 0 0.035286865616793658 -0.0055329375958895685 0 0.03536688363985311 -0.0054442423459597697 0 0.035337385957056752 -0.0053966171167732415 0 0.03532683332452069 -0.0053573474314415667 0 0.035286865616793658 -0.0055329375958895685 0 0.035337385957056752 -0.0053966171167732415 0 0.035286865616793658 -0.0055329375958895685 0 0.035322678243639015 -0.0056651368516538623 0 0.03536688363985311 -0.0054442423459597697 0 0.035322678243639015 -0.0056651368516538623 0 0.03536688363985311 -0.0054442423459597697 0 0.035434756387758962 -0.0054925580614106862 0 0.03536688363985311 -0.0054442423459597697 0 0.035437825119245432 -0.0052276252785102284 0 0.035434756387758962 -0.0054925580614106862 0 0.03536688363985311 -0.0054442423459597697 0 0.035373140338685542 -0.0052301168471409138 0 0.035437825119245432 -0.0052276252785102284 0 0.03532683332452069 -0.0053573474314415667 0 0.035337385957056752 -0.0053966171167732415 0 0.035373140338685542 -0.0052301168471409138 0 0.03536688363985311 -0.0054442423459597697 0 0.035337385957056752 -0.0053966171167732415 0 0.035373140338685542 -0.0052301168471409138 0 0.03532683332452069 -0.0053573474314415667 0 0.035373140338685542 -0.0052301168471409138 0 0.035338955118716354 -0.0051288906521194336 0 0.035373140338685542 -0.0052301168471409138 0 0.035383264499972152 -0.0049954676044709082 0 0.035338955118716354 -0.0051288906521194336 0 0.035373140338685542 -0.0052301168471409138 0 0.035383264499972152 -0.0049954676044709082 0 0.035441912809586501 -0.005043416055191193 0 0.035373140338685542 -0.0052301168471409138 0 0.035441912809586501 -0.005043416055191193 0 0.035437825119245432 -0.0052276252785102284 0 0.035441912809586501 -0.005043416055191193 0 0.03544728224628016 -0.0049074312141134755 0 0.035518860665947304 -0.0048432966572636224 0 0.035441912809586501 -0.005043416055191193 0 0.035485461334436023 -0.0049787379000749421 0 0.035518860665947304 -0.0048432966572636224 0 0.035383264499972152 -0.0049954676044709082 0 0.035441912809586501 -0.005043416055191193 0 0.03544728224628016 -0.0049074312141134755 0 0.03544728224628016 -0.0049074312141134755 0 0.035486688848124864 -0.0048316095908920494 0 0.035396340653236109 -0.0047807399110017168 0 0.035383264499972152 -0.0049954676044709082 0 0.03544728224628016 -0.0049074312141134755 0 0.035396340653236109 -0.0047807399110017168 0 0.035437825119245432 -0.0052276252785102284 0 0.035485461334436023 -0.0049787379000749421 0 0.03548987298251751 -0.0051015666809263432 0 0.035441912809586501 -0.005043416055191193 0 0.035437825119245432 -0.0052276252785102284 0 0.035485461334436023 -0.0049787379000749421 0 0.035485461334436023 -0.0049787379000749421 0 0.035507784985473238 -0.004723327210868853 0 0.035518860665947304 -0.0048432966572636224 0 0.035507784985473238 -0.004723327210868853 0 0.035518860665947304 -0.0048432966572636224 0 0.035588976625238744 -0.0044858127351692376 0 0.035485461334436023 -0.0049787379000749421 0 0.035507784985473238 -0.004723327210868853 0 0.03548987298251751 -0.0051015666809263432 0 0.035518860665947304 -0.0048432966572636224 0 0.035548184583497122 -0.0047620811880126268 0 0.035588976625238744 -0.0044858127351692376 0 0.035486688848124864 -0.0048316095908920494 0 0.035518860665947304 -0.0048432966572636224 0 0.035548184583497122 -0.0047620811880126268 0 0.03544728224628016 -0.0049074312141134755 0 0.035486688848124864 -0.0048316095908920494 0 0.035518860665947304 -0.0048432966572636224 0 0.035486688848124864 -0.0048316095908920494 0 0.035548184583497122 -0.0047620811880126268 0 0.035436702548927342 -0.004838576361748767 0 0.035360142685989721 -0.0048655142071668909 0 0.034818311992342116 -0.0050312899415918128 0 0.0361329460876985 -0.0045140444684621632 0 0.034912829049160654 -0.004934116862650541 0 0.034586864772188863 -0.0081251937244734458 0 0.035548184583497122 -0.0047620811880126268 0 0.035521607084482022 -0.0047806204802228972 0 0.035634247156642422 -0.0045926191480175974 0 0.035521607084482022 -0.0047806204802228972 0 0.035360142685989721 -0.0048655142071668909 0 0.035625074344720724 -0.0046989732757180287 0 0.035521607084482022 -0.0047806204802228972 0 0.035360142685989721 -0.0048655142071668909 0 0.035436702548927342 -0.004838576361748767 0 0.035548184583497122 -0.0047620811880126268 0 0.035521607084482022 -0.0047806204802228972 0 0.035436702548927342 -0.004838576361748767 0 0.035360142685989721 -0.0048655142071668909 0 0.034818311992342116 -0.0050312899415918128 0 0.035316011641373657 -0.0048569978094271452 0 0.034818311992342116 -0.0050312899415918128 0 0.035298369734211715 -0.004498305558974864 0 0.03232214986696013 -0.0045919982805175423 0 0.034818311992342116 -0.0050312899415918128 0 0.035316011641373657 -0.0048569978094271452 0 0.035298369734211715 -0.004498305558974864 0 0.035360142685989721 -0.0048655142071668909 0 0.035436702548927342 -0.004838576361748767 0 0.035316011641373657 -0.0048569978094271452 0 0.035436702548927342 -0.004838576361748767 0 0.035316011641373657 -0.0048569978094271452 0 0.035396340653236109 -0.0047807399110017168 0 0.035486688848124864 -0.0048316095908920494 0 0.035436702548927342 -0.004838576361748767 0 0.035396340653236109 -0.0047807399110017168 0 0.035383264499972152 -0.0049954676044709082 0 0.035396340653236109 -0.0047807399110017168 0 0.035318223038408064 -0.0048770309140962189 0 0.035316011641373657 -0.0048569978094271452 0 0.035396340653236109 -0.0047807399110017168 0 0.035298369734211715 -0.004498305558974864 0 0.035396340653236109 -0.0047807399110017168 0 0.035318223038408064 -0.0048770309140962189 0 0.035298369734211715 -0.004498305558974864 0 0.035318223038408064 -0.0048770309140962189 0 0.035298369734211715 -0.004498305558974864 0 0.035356418482669925 -0.0050094343627884175 0 0.035318223038408064 -0.0048770309140962189 0 0.035356418482669925 -0.0050094343627884175 0 0.035338955118716354 -0.0051288906521194336 0 0.035355373952093615 -0.0052734511329025329 0 0.035356418482669925 -0.0050094343627884175 0 0.035338955118716354 -0.0051288906521194336 0 0.035383264499972152 -0.0049954676044709082 0 0.035318223038408064 -0.0048770309140962189 0 0.035338955118716354 -0.0051288906521194336 0 0.035298369734211715 -0.004498305558974864 0 0.03232214986696013 -0.0045919982805175423 0 0.0280879068007743 -0.0023883536388030814 0 0.035019187269474138 -0.0045077587111324981 0 0.031869652776521332 -0.0040360899248471057 0 0.035356418482669925 -0.0050094343627884175 0 0.035395793944487816 -0.0052491690187018037 0 0.035462678986819367 -0.0055414461512754551 0 0.035298369734211715 -0.004498305558974864 0 0.035356418482669925 -0.0050094343627884175 0 0.035462678986819367 -0.0055414461512754551 0 0.035395418107538497 -0.0054203662611459844 0 0.035395793944487816 -0.0052491690187018037 0 0.035462678986819367 -0.0055414461512754551 0 0.035355373952093615 -0.0052734511329025329 0 0.035356418482669925 -0.0050094343627884175 0 0.035395793944487816 -0.0052491690187018037 0 0.030828574653188136 -0.0048807192188785285 0 0.028529231440848585 -0.0045662665692473839 0 0.0280879068007743 -0.0023883536388030814 0 0.03232214986696013 -0.0045919982805175423 0 0.030828574653188136 -0.0048807192188785285 0 0.0280879068007743 -0.0023883536388030814 0 0.031449102394748567 -0.0074255634297397078 0 0.030528490475621738 -0.010780891001177838 0 0.028529231440848585 -0.0045662665692473839 0 0.034818311992342116 -0.0050312899415918128 0 0.032712207091864794 -0.0065838152010674984 0 0.033062976105072431 -0.010826459709273603 0 0.030828574653188136 -0.0048807192188785285 0 0.031449102394748567 -0.0074255634297397078 0 0.028529231440848585 -0.0045662665692473839 0 0.028756791240544439 -0.0082902569258763992 0 0.028459922696292127 -0.0044956072073357688 0 0.032712207091864794 -0.0065838152010674984 0 0.031449102394748567 -0.0074255634297397078 0 0.033062976105072431 -0.010826459709273603 0 0.030828574653188136 -0.0048807192188785285 0 0.032712207091864794 -0.0065838152010674984 0 0.031449102394748567 -0.0074255634297397078 0 0.034818311992342116 -0.0050312899415918128 0 0.03232214986696013 -0.0045919982805175423 0 0.032712207091864794 -0.0065838152010674984 0 0.03232214986696013 -0.0045919982805175423 0 0.030828574653188136 -0.0048807192188785285 0 0.032712207091864794 -0.0065838152010674984 0 0.030528490475621738 -0.010780891001177838 0 0.033062976105072431 -0.010826459709273603 0 0.031907209231669141 -0.015657521977905722 0 0.031449102394748567 -0.0074255634297397078 0 0.030528490475621738 -0.010780891001177838 0 0.033062976105072431 -0.010826459709273603 0 0.035634247156642422 -0.0045926191480175974 0 0.035625074344720724 -0.0046989732757180287 0 0.03580942662602489 -0.0044231628195787335 0 0.035521607084482022 -0.0047806204802228972 0 0.035634247156642422 -0.0045926191480175974 0 0.035625074344720724 -0.0046989732757180287 0 0.0361329460876985 -0.0045140444684621632 0 0.035625074344720724 -0.0046989732757180287 0 0.03580942662602489 -0.0044231628195787335 0 0.035360142685989721 -0.0048655142071668909 0 0.0361329460876985 -0.0045140444684621632 0 0.035625074344720724 -0.0046989732757180287 0 0.0361329460876985 -0.0045140444684621632 0 0.03580942662602489 -0.0044231628195787335 0 0.036056525750843997 -0.0040284466213763876 0 0.035634247156642422 -0.0045926191480175974 0 0.03580942662602489 -0.0044231628195787335 0 0.035722937788272568 -0.0042528797206021129 0 0.03580942662602489 -0.0044231628195787335 0 0.036056525750843997 -0.0040284466213763876 0 0.035722937788272568 -0.0042528797206021129 0 0.036056525750843997 -0.0040284466213763876 0 0.03605950005284788 -0.0035325141850807542 0 0.035761073797458069 -0.0036639895910836572 0 0.036056525750843997 -0.0040284466213763876 0 0.035761073797458069 -0.0036639895910836572 0 0.035722937788272568 -0.0042528797206021129 0 0.036056525750843997 -0.0040284466213763876 0 0.036443263416424392 -0.0037091392804335472 0 0.03605950005284788 -0.0035325141850807542 0 0.028756791240544439 -0.0082902569258763992 0 0.032957255300842016 -0.0067059302401056373 0 0.034586864772188863 -0.0081251937244734458 0 0.032957255300842016 -0.0067059302401056373 0 0.027310551174311085 -0.0047793738986544954 0 0.02713286826426832 -0.0050835308283391344 0 0.026873784267984778 -0.0048398215991729112 0 0.0361329460876985 -0.0045140444684621632 0 0.036056525750843997 -0.0040284466213763876 0 0.036443263416424392 -0.0037091392804335472 0 0.032957255300842016 -0.0067059302401056373 0 0.036050900143548698 -0.0028358560555334597 0 0.03621657660799682 -0.0035642355345674847 0 0.036132312845094938 -0.0031171684412676032 0 0.036368676340891477 -0.002834210668019743 0 0.02713286826426832 -0.0050835308283391344 0 0.02689216191162978 -0.0054242807036662555 0 0.026835799976559598 -0.0052451146193568093 0 0.032957255300842016 -0.0067059302401056373 0 0.031536954992361609 -0.0038238834028540111 0 0.03605950005284788 -0.0035325141850807542 0 0.035877313259338246 -0.0030477117791859569 0 0.035761073797458069 -0.0036639895910836572 0 0.036443263416424392 -0.0037091392804335472 0 0.036327169766887157 -0.0031834794611630027 0 0.03605950005284788 -0.0035325141850807542 0 0.036327169766887157 -0.0031834794611630027 0 0.03605950005284788 -0.0035325141850807542 0 0.035877313259338246 -0.0030477117791859569 0 0.036050900143548698 -0.0028358560555334597 0 0.036184256086085026 -0.0029087495433900057 0 0.036327169766887157 -0.0031834794611630027 0 0.036155922208761133 -0.0027307637320680162 0 0.035877313259338246 -0.0030477117791859569 0 0.036155922208761133 -0.0027307637320680162 0 0.035885231884901996 -0.0026585941592951923 0 0.035877313259338246 -0.0030477117791859569 0 0.036155922208761133 -0.0027307637320680162 0 0.036368676340891477 -0.002834210668019743 0 0.036242341463819924 -0.0026077572345310526 0 0.036132312845094938 -0.0031171684412676032 0 0.036155922208761133 -0.0027307637320680162 0 0.036368676340891477 -0.002834210668019743 0 0.035531187940966942 -0.0031677696247576267 0 0.035369630347365712 -0.0027880350182263019 0 0.035427870479011442 -0.0023932293082988862 0 0.035885231884901996 -0.0026585941592951923 0 0.035877313259338246 -0.0030477117791859569 0 0.035427870479011442 -0.0023932293082988862 0 0.035877313259338246 -0.0030477117791859569 0 0.035531187940966942 -0.0031677696247576267 0 0.035427870479011442 -0.0023932293082988862 0 0.035877313259338246 -0.0030477117791859569 0 0.035531187940966942 -0.0031677696247576267 0 0.035761073797458069 -0.0036639895910836572 0 0.035531187940966942 -0.0031677696247576267 0 0.03556449926778911 -0.0038760034037153852 0 0.03539266291201941 -0.0032474506748023913 0 0.035531187940966942 -0.0031677696247576267 0 0.03556449926778911 -0.0038760034037153852 0 0.035761073797458069 -0.0036639895910836572 0 0.03556449926778911 -0.0038760034037153852 0 0.035761073797458069 -0.0036639895910836572 0 0.035656194289359192 -0.0040813997738125465 0 0.035761073797458069 -0.0036639895910836572 0 0.035656194289359192 -0.0040813997738125465 0 0.035722937788272568 -0.0042528797206021129 0 0.035656194289359192 -0.0040813997738125465 0 0.035722937788272568 -0.0042528797206021129 0 0.035588976625238744 -0.0044858127351692376 0 0.035634247156642422 -0.0045926191480175974 0 0.035722937788272568 -0.0042528797206021129 0 0.035588976625238744 -0.0044858127351692376 0 0.035548184583497122 -0.0047620811880126268 0 0.035634247156642422 -0.0045926191480175974 0 0.035588976625238744 -0.0044858127351692376 0 0.03556449926778911 -0.0038760034037153852 0 0.035656194289359192 -0.0040813997738125465 0 0.035588976625238744 -0.0044858127351692376 0 0.035507784985473238 -0.004723327210868853 0 0.035588976625238744 -0.0044858127351692376 0 0.035483397074679235 -0.0043032578781336105 0 0.03556449926778911 -0.0038760034037153852 0 0.035588976625238744 -0.0044858127351692376 0 0.035483397074679235 -0.0043032578781336105 0 0.035483397074679235 -0.0043032578781336105 0 0.03533333280225319 -0.0042354452360701365 0 0.035436059732771204 -0.0046134717118683525 0 0.035507784985473238 -0.004723327210868853 0 0.035483397074679235 -0.0043032578781336105 0 0.035436059732771204 -0.0046134717118683525 0 0.03533333280225319 -0.0042354452360701365 0 0.035294763518607219 -0.0043422479128213953 0 0.035415676738637679 -0.004592305012375059 0 0.03533333280225319 -0.0042354452360701365 0 0.035415676738637679 -0.004592305012375059 0 0.035436059732771204 -0.0046134717118683525 0 0.03533333280225319 -0.0042354452360701365 0 0.03539266291201941 -0.0032474506748023913 0 0.035294763518607219 -0.0043422479128213953 0 0.035493351822837992 -0.0032346827659131623 0 0.035737054583445858 -0.0032930881176965205 0 0.035483397074679235 -0.0043032578781336105 0 0.03533333280225319 -0.0042354452360701365 0 0.03539266291201941 -0.0032474506748023913 0 0.03556449926778911 -0.0038760034037153852 0 0.035483397074679235 -0.0043032578781336105 0 0.03539266291201941 -0.0032474506748023913 0 0.03539266291201941 -0.0032474506748023913 0 0.035719800853743995 -0.0025771676358006981 0 0.035369630347365712 -0.0027880350182263019 0 0.035531187940966942 -0.0031677696247576267 0 0.03539266291201941 -0.0032474506748023913 0 0.035369630347365712 -0.0027880350182263019 0 0.03539266291201941 -0.0032474506748023913 0 0.035719800853743995 -0.0025771676358006981 0 0.036083963715486979 -0.0022507988362691152 0 0.035719800853743995 -0.0025771676358006981 0 0.035369630347365712 -0.0027880350182263019 0 0.035281423030369297 -0.0025161285745763525 0 0.035719800853743995 -0.0025771676358006981 0 0.035281423030369297 -0.0025161285745763525 0 0.03576595596279112 -0.0024766751871546939 0 0.035369630347365712 -0.0027880350182263019 0 0.035281423030369297 -0.0025161285745763525 0 0.035427870479011442 -0.0023932293082988862 0 0.036498613077661501 -0.0022386118215744076 0 0.036611553612191504 -0.0020147652311643493 0 0.036185525532946176 -0.0023124061671986459 0 0.035719800853743995 -0.0025771676358006981 0 0.036498613077661501 -0.0022386118215744076 0 0.036185525532946176 -0.0023124061671986459 0 0.035719800853743995 -0.0025771676358006981 0 0.036185525532946176 -0.0023124061671986459 0 0.03576595596279112 -0.0024766751871546939 0 0.035719800853743995 -0.0025771676358006981 0 0.036498613077661501 -0.0022386118215744076 0 0.036083963715486979 -0.0022507988362691152 0 0.036498613077661501 -0.0022386118215744076 0 0.036083963715486979 -0.0022507988362691152 0 0.036824016300587195 -0.0023782579691952626 0 0.035737054583445858 -0.0032930881176965205 0 0.036168091287137515 -0.0034246466630762796 0 0.035294763518607219 -0.0043422479128213953 0 0.035415676738637679 -0.004592305012375059 0 0.035636621257862967 -0.0044655772711656924 0 0.035415676738637679 -0.004592305012375059 0 0.035630860775671194 -0.0047519618526058955 0 0.035636621257862967 -0.0044655772711656924 0 0.035630860775671194 -0.0047519618526058955 0 0.035584696426893554 -0.0051235054587075689 0 0.035685907672864697 -0.005506108909324247 0 0.035630860775671194 -0.0047519618526058955 0 0.035685907672864697 -0.005506108909324247 0 0.035715636702060578 -0.0052721847696967387 0 0.035584696426893554 -0.0051235054587075689 0 0.035685907672864697 -0.005506108909324247 0 0.035626619458041027 -0.00566499055457142 0 0.035415676738637679 -0.004592305012375059 0 0.035630860775671194 -0.0047519618526058955 0 0.035584696426893554 -0.0051235054587075689 0 0.035415676738637679 -0.004592305012375059 0 0.035584696426893554 -0.0051235054587075689 0 0.035489428041481995 -0.0049528777492923639 0 0.035415676738637679 -0.004592305012375059 0 0.035489428041481995 -0.0049528777492923639 0 0.035436059732771204 -0.0046134717118683525 0 0.035489428041481995 -0.0049528777492923639 0 0.035436059732771204 -0.0046134717118683525 0 0.03548987298251751 -0.0051015666809263432 0 0.035507784985473238 -0.004723327210868853 0 0.035436059732771204 -0.0046134717118683525 0 0.03548987298251751 -0.0051015666809263432 0 0.035584696426893554 -0.0051235054587075689 0 0.035489428041481995 -0.0049528777492923639 0 0.035545002859765862 -0.005478848129780921 0 0.035489428041481995 -0.0049528777492923639 0 0.03548987298251751 -0.0051015666809263432 0 0.035545002859765862 -0.005478848129780921 0 0.035437825119245432 -0.0052276252785102284 0 0.03548987298251751 -0.0051015666809263432 0 0.035434756387758962 -0.0054925580614106862 0 0.035545002859765862 -0.005478848129780921 0 0.035434756387758962 -0.0054925580614106862 0 0.03542702938605298 -0.0058410190287653168 0 0.03548987298251751 -0.0051015666809263432 0 0.035545002859765862 -0.005478848129780921 0 0.035434756387758962 -0.0054925580614106862 0 0.035322678243639015 -0.0056651368516538623 0 0.035434756387758962 -0.0054925580614106862 0 0.03542702938605298 -0.0058410190287653168 0 0.035545002859765862 -0.005478848129780921 0 0.03542702938605298 -0.0058410190287653168 0 0.035582041953506456 -0.0060384944243778603 0 0.035582041953506456 -0.0060384944243778603 0 0.035643025563575542 -0.0061746108931223648 0 0.035626619458041027 -0.00566499055457142 0 0.035608487619724301 -0.0065528697132748769 0 0.035582041953506456 -0.0060384944243778603 0 0.035643025563575542 -0.0061746108931223648 0 0.035561250709021733 -0.0068303459087224816 0 0.035643025563575542 -0.0061746108931223648 0 0.035622349879815933 -0.0062941903256899523 0 0.035561250709021733 -0.0068303459087224816 0 0.035608487619724301 -0.0065528697132748769 0 0.035643025563575542 -0.0061746108931223648 0 0.035643025563575542 -0.0061746108931223648 0 0.035685907672864697 -0.005506108909324247 0 0.035626619458041027 -0.00566499055457142 0 0.035643025563575542 -0.0061746108931223648 0 0.035685907672864697 -0.005506108909324247 0 0.035622349879815933 -0.0062941903256899523 0 0.035545002859765862 -0.005478848129780921 0 0.035582041953506456 -0.0060384944243778603 0 0.035626619458041027 -0.00566499055457142 0 0.035584696426893554 -0.0051235054587075689 0 0.035545002859765862 -0.005478848129780921 0 0.035626619458041027 -0.00566499055457142 0 0.03537054277955088 -0.0069077909240882933 0 0.035554335314797111 -0.0060073930943920573 0 0.035462198987620985 -0.0068551111418304837 0 0.03537054277955088 -0.0069077909240882933 0 0.035554335314797111 -0.0060073930943920573 0 0.035301650357705133 -0.0065286194224898281 0 0.03537054277955088 -0.0069077909240882933 0 0.035462198987620985 -0.0068551111418304837 0 0.035484611866729819 -0.0072831177284227184 0 0.035554335314797111 -0.0060073930943920573 0 0.035622349879815933 -0.0062941903256899523 0 0.035715636702060578 -0.0052721847696967387 0 0.035685907672864697 -0.005506108909324247 0 0.035622349879815933 -0.0062941903256899523 0 0.035715636702060578 -0.0052721847696967387 0 0.035554335314797111 -0.0060073930943920573 0 0.035622349879815933 -0.0062941903256899523 0 0.035462198987620985 -0.0068551111418304837 0 0.035622349879815933 -0.0062941903256899523 0 0.035500562377640633 -0.007027443369444511 0 0.035462198987620985 -0.0068551111418304837 0 0.035561250709021733 -0.0068303459087224816 0 0.035622349879815933 -0.0062941903256899523 0 0.035500562377640633 -0.007027443369444511 0 0.035500562377640633 -0.007027443369444511 0 0.035462198987620985 -0.0068551111418304837 0 0.035506644832404732 -0.0073947904079007002 0 0.035462198987620985 -0.0068551111418304837 0 0.035506644832404732 -0.0073947904079007002 0 0.035484611866729819 -0.0072831177284227184 0 0.035651290463366861 -0.0077460368849357241 0 0.035484611866729819 -0.0072831177284227184 0 0.035610743296258469 -0.0074674731412598047 0 0.035506644832404732 -0.0073947904079007002 0 0.035651290463366861 -0.0077460368849357241 0 0.035484611866729819 -0.0072831177284227184 0 0.035798680331211329 -0.0082465285250289209 0 0.035651290463366861 -0.0077460368849357241 0 0.035829776811079773 -0.0081878338414112309 0 0.035651290463366861 -0.0077460368849357241 0 0.035756354982533073 -0.0077908256942034199 0 0.035829776811079773 -0.0081878338414112309 0 0.037576330544623796 -0.0073273946215928424 0 0.036917112234713383 -0.0066052135374050393 0 0.038972209963483349 -0.0068856258988492236 0 0.040303467956201412 -0.0064185208069043381 0 0.039480257133281231 -0.0061335665233103326 0 0.035651290463366861 -0.0077460368849357241 0 0.035756354982533073 -0.0077908256942034199 0 0.035610743296258469 -0.0074674731412598047 0 0.035756354982533073 -0.0077908256942034199 0 0.035610743296258469 -0.0074674731412598047 0 0.035528459864459794 -0.0073862052863147634 0 0.035484611866729819 -0.0072831177284227184 0 0.035491226851715699 -0.0072210114294775744 0 0.035610743296258469 -0.0074674731412598047 0 0.03537054277955088 -0.0069077909240882933 0 0.035484611866729819 -0.0072831177284227184 0 0.035491226851715699 -0.0072210114294775744 0 0.035748562887163764 -0.0065864858302613748 0 0.036917112234713383 -0.0066052135374050393 0 0.03537054277955088 -0.0069077909240882933 0 0.035491226851715699 -0.0072210114294775744 0 0.035528459864459794 -0.0073862052863147634 0 0.035491226851715699 -0.0072210114294775744 0 0.035610743296258469 -0.0074674731412598047 0 0.035528459864459794 -0.0073862052863147634 0 0.03537054277955088 -0.0069077909240882933 0 0.035225430037341826 -0.006553911428204765 0 0.035301650357705133 -0.0065286194224898281 0 0.036917112234713383 -0.0066052135374050393 0 0.036642072656455742 -0.0066648824385861279 0 0.036917112234713383 -0.0066052135374050393 0 0.037375216913606547 -0.0051514934212427534 0 0.035299075254412428 -0.0065255255903117221 0 0.035315319273943012 -0.0064929598940967241 0 0.035316932408316959 -0.0064392851246165813 0 0.035203416196051641 -0.0054968002658269963 0 0.037375216913606547 -0.0051514934212427534 0 0.040303467956201412 -0.0064185208069043381 0 0.039480257133281231 -0.0061335665233103326 0 0.039470705429436349 -0.0052181089016736949 0 0.035299075254412428 -0.0065255255903117221 0 0.035301650357705133 -0.0065286194224898281 0 0.035315319273943012 -0.0064929598940967241 0 0.038972209963483349 -0.0068856258988492236 0 0.039480257133281231 -0.0061335665233103326 0 0.038752463860722855 -0.0057400569237838171 0 0.039480257133281231 -0.0061335665233103326 0 0.038752463860722855 -0.0057400569237838171 0 0.039470705429436349 -0.0052181089016736949 0 0.037375216913606547 -0.0051514934212427534 0 0.037124934252099007 -0.00301684139344457 0 0.039253519738001341 -0.0049601202346269144 0 0.038271936905133593 -0.0035151762485145753 0 0.03845006714191334 -0.0044103906347078272 0 0.038752463860722855 -0.0057400569237838171 0 0.039470705429436349 -0.0052181089016736949 0 0.038596248238549062 -0.0045955522491696382 0 0.037375216913606547 -0.0051514934212427534 0 0.038724775037908304 -0.0046526523280399096 0 0.035574159408716395 -0.0046404133626957861 0 0.035720318523612647 -0.0039328415047263131 0 0.035872222056787251 -0.0039229836215104296 0 0.035574159408716395 -0.0046404133626957861 0 0.035872222056787251 -0.0039229836215104296 0 0.035852857905827561 -0.0041890927543918087 0 0.035720318523612647 -0.0039328415047263131 0 0.035872222056787251 -0.0039229836215104296 0 0.036000782931768976 -0.0032414249017739321 0 0.035872222056787251 -0.0039229836215104296 0 0.035852857905827561 -0.0041890927543918087 0 0.036191534487225764 -0.0035138706234607376 0 0.035852857905827561 -0.0041890927543918087 0 0.035803706793175114 -0.0043910324632385842 0 0.036191534487225764 -0.0035138706234607376 0 0.035852857905827561 -0.0041890927543918087 0 0.035688586803373612 -0.0048103810751704036 0 0.035803706793175114 -0.0043910324632385842 0 0.035554335314797111 -0.0060073930943920573 0 0.035301650357705133 -0.0065286194224898281 0 0.035315319273943012 -0.0064929598940967241 0 0.035773872642628837 -0.0060457986386548467 0 0.035203416196051641 -0.0054968002658269963 0 0.035574159408716395 -0.0046404133626957861 0 0.035852857905827561 -0.0041890927543918087 0 0.035688586803373612 -0.0048103810751704036 0 0.035554335314797111 -0.0060073930943920573 0 0.035574159408716395 -0.0046404133626957861 0 0.035688586803373612 -0.0048103810751704036 0 0.035688586803373612 -0.0048103810751704036 0 0.035715636702060578 -0.0052721847696967387 0 0.035803706793175114 -0.0043910324632385842 0 0.035554335314797111 -0.0060073930943920573 0 0.035688586803373612 -0.0048103810751704036 0 0.035715636702060578 -0.0052721847696967387 0 0.035630860775671194 -0.0047519618526058955 0 0.035803706793175114 -0.0043910324632385842 0 0.035636621257862967 -0.0044655772711656924 0 0.035630860775671194 -0.0047519618526058955 0 0.035715636702060578 -0.0052721847696967387 0 0.035803706793175114 -0.0043910324632385842 0 0.035803706793175114 -0.0043910324632385842 0 0.035636621257862967 -0.0044655772711656924 0 0.036191534487225764 -0.0035138706234607376 0 0.036168091287137515 -0.0034246466630762796 0 0.036119918627784749 -0.0035280509602558193 0 0.036824016300587195 -0.0023782579691952626 0 0.036191534487225764 -0.0035138706234607376 0 0.036601523259147686 -0.0023342356850511075 0 0.036824016300587195 -0.0023782579691952626 0 0.036601523259147686 -0.0023342356850511075 0 0.036746185821903123 -0.00215379826167515 0 0.036498613077661501 -0.0022386118215744076 0 0.036824016300587195 -0.0023782579691952626 0 0.036746185821903123 -0.00215379826167515 0 0.036498613077661501 -0.0022386118215744076 0 0.036746185821903123 -0.00215379826167515 0 0.036815029394742085 -0.001902570406202817 0 0.036746185821903123 -0.00215379826167515 0 0.036772585778449392 -0.0018984972149908564 0 0.036815029394742085 -0.001902570406202817 0 0.036601523259147686 -0.0023342356850511075 0 0.036746185821903123 -0.00215379826167515 0 0.036772585778449392 -0.0018984972149908564 0 0.036815029394742085 -0.001902570406202817 0 0.036932072627632928 -0.0014972797324397003 0 0.036950277846246819 -0.0016242568034527582 0 0.036772585778449392 -0.0018984972149908564 0 0.036815029394742085 -0.001902570406202817 0 0.036932072627632928 -0.0014972797324397003 0 0.036498613077661501 -0.0022386118215744076 0 0.036815029394742085 -0.001902570406202817 0 0.036611553612191504 -0.0020147652311643493 0 0.036815029394742085 -0.001902570406202817 0 0.036611553612191504 -0.0020147652311643493 0 0.036950277846246819 -0.0016242568034527582 0 0.036848423858861133 -0.001268226309835257 0 0.036659301910917659 -0.0018183164516038495 0 0.036742880201965686 -0.0012531580354463994 0 0.036772585778449392 -0.0018984972149908564 0 0.036932072627632928 -0.0014972797324397003 0 0.036659301910917659 -0.0018183164516038495 0 0.036848423858861133 -0.001268226309835257 0 0.036932072627632928 -0.0014972797324397003 0 0.036659301910917659 -0.0018183164516038495 0 0.036601523259147686 -0.0023342356850511075 0 0.036772585778449392 -0.0018984972149908564 0 0.036659301910917659 -0.0018183164516038495 0 0.036659301910917659 -0.0018183164516038495 0 0.036267189827376894 -0.0025495080557399446 0 0.036386792264215775 -0.0021011737868923378 0 0.036659301910917659 -0.0018183164516038495 0 0.036386792264215775 -0.0021011737868923378 0 0.036742880201965686 -0.0012531580354463994 0 0.036267189827376894 -0.0025495080557399446 0 0.036182990836334819 -0.0024996645914452157 0 0.036000782931768976 -0.0032414249017739321 0 0.036267189827376894 -0.0025495080557399446 0 0.036182990836334819 -0.0024996645914452157 0 0.036386792264215775 -0.0021011737868923378 0 0.036191534487225764 -0.0035138706234607376 0 0.036601523259147686 -0.0023342356850511075 0 0.036267189827376894 -0.0025495080557399446 0 0.036601523259147686 -0.0023342356850511075 0 0.036659301910917659 -0.0018183164516038495 0 0.036267189827376894 -0.0025495080557399446 0 0.036191534487225764 -0.0035138706234607376 0 0.036267189827376894 -0.0025495080557399446 0 0.036000782931768976 -0.0032414249017739321 0 0.035872222056787251 -0.0039229836215104296 0 0.036191534487225764 -0.0035138706234607376 0 0.036000782931768976 -0.0032414249017739321 0 0.035720318523612647 -0.0039328415047263131 0 0.036000782931768976 -0.0032414249017739321 0 0.035959949969164177 -0.002730038943801008 0 0.036182990836334819 -0.0024996645914452157 0 0.036000782931768976 -0.0032414249017739321 0 0.035959949969164177 -0.002730038943801008 0 0.03761817636781746 -0.0039295984858044291 0 0.038724775037908304 -0.0046526523280399096 0 0.038271936905133593 -0.0035151762485145753 0 0.037583825976687003 -0.0039082303691591437 0 0.03845006714191334 -0.0044103906347078272 0 0.038271936905133593 -0.0035151762485145753 0 0.037583825976687003 -0.0039082303691591437 0 0.036818594072274537 -0.003069302946976583 0 0.037583825976687003 -0.0039082303691591437 0 0.036659331190551731 -0.0040607927949888644 0 0.0373608992130346 -0.0047390529043251552 0 0.037583825976687003 -0.0039082303691591437 0 0.036818594072274537 -0.003069302946976583 0 0.036659331190551731 -0.0040607927949888644 0 0.038271936905133593 -0.0035151762485145753 0 0.036818594072274537 -0.003069302946976583 0 0.036624763701532032 -0.001892405420370202 0 0.036818594072274537 -0.003069302946976583 0 0.036624763701532032 -0.001892405420370202 0 0.035920833141873589 -0.0020965552841070703 0 0.035959949969164177 -0.002730038943801008 0 0.036386792264215775 -0.0021011737868923378 0 0.036624763701532032 -0.001892405420370202 0 0.037124934252099007 -0.00301684139344457 0 0.036671616876888545 -0.0020715202452091285 0 0.036182990836334819 -0.0024996645914452157 0 0.035959949969164177 -0.002730038943801008 0 0.036386792264215775 -0.0021011737868923378 0 0.036386792264215775 -0.0021011737868923378 0 0.036624763701532032 -0.001892405420370202 0 0.036742880201965686 -0.0012531580354463994 0 0.036624763701532032 -0.001892405420370202 0 0.036041159720866661 -0.0010047475184927328 0 0.036505817169052532 -0.00051833079226961754 0 0.036624763701532032 -0.001892405420370202 0 0.036742880201965686 -0.0012531580354463994 0 0.036505817169052532 -0.00051833079226961754 0 0.034999776855652837 -0.00053864282487374937 0 0.036041159720866661 -0.0010047475184927328 0 0.035846441523098883 0.00020260230396382283 0 0.036041159720866661 -0.0010047475184927328 0 0.035846441523098883 0.00020260230396382283 0 0.036505817169052532 -0.00051833079226961754 0 0.036624763701532032 -0.001892405420370202 0 0.036041159720866661 -0.0010047475184927328 0 0.035920833141873589 -0.0020965552841070703 0 0.034999776855652837 -0.00053864282487374937 0 0.036041159720866661 -0.0010047475184927328 0 0.035920833141873589 -0.0020965552841070703 0 0.034999776855652837 -0.00053864282487374937 0 0.035920833141873589 -0.0020965552841070703 0 0.034999691013594507 -0.0026003605241976591 0 0.035920833141873589 -0.0020965552841070703 0 0.034999691013594507 -0.0026003605241976591 0 0.035903607824665576 -0.0034759131500833292 0 0.036818594072274537 -0.003069302946976583 0 0.035920833141873589 -0.0020965552841070703 0 0.035903607824665576 -0.0034759131500833292 0 0.036818594072274537 -0.003069302946976583 0 0.035903607824665576 -0.0034759131500833292 0 0.036659331190551731 -0.0040607927949888644 0 0.035903607824665576 -0.0034759131500833292 0 0.036659331190551731 -0.0040607927949888644 0 0.035980290525118308 -0.0045253115741922039 0 0.035903607824665576 -0.0034759131500833292 0 0.03499977364269511 -0.0046627077200964663 0 0.035980290525118308 -0.0045253115741922039 0 0.034999691013594507 -0.0026003605241976591 0 0.035903607824665576 -0.0034759131500833292 0 0.03499977364269511 -0.0046627077200964663 0 0.03499977364269511 -0.0046627077200964663 0 0.035867188522864919 -0.0055215598109537144 0 0.035980290525118308 -0.0045253115741922039 0 0.035867188522864919 -0.0055215598109537144 0 0.034999858948242632 -0.0067244753004006069 0 0.036129342463958887 -0.0065234229154490647 0 0.03499977364269511 -0.0046627077200964663 0 0.035867188522864919 -0.0055215598109537144 0 0.034999858948242632 -0.0067244753004006069 0 0.035867188522864919 -0.0055215598109537144 0 0.037012328162127441 -0.0056772297237225279 0 0.036129342463958887 -0.0065234229154490647 0 0.035867188522864919 -0.0055215598109537144 0 0.036557307594159233 -0.0048911707652039196 0 0.037012328162127441 -0.0056772297237225279 0 0.035867188522864919 -0.0055215598109537144 0 0.036557307594159233 -0.0048911707652039196 0 0.035980290525118308 -0.0045253115741922039 0 0.036659331190551731 -0.0040607927949888644 0 0.036557307594159233 -0.0048911707652039196 0 0.035980290525118308 -0.0045253115741922039 0 0.036659331190551731 -0.0040607927949888644 0 0.036557307594159233 -0.0048911707652039196 0 0.0373608992130346 -0.0047390529043251552 0 0.0373608992130346 -0.0047390529043251552 0 0.037929778190237261 -0.0053797869199056596 0 0.037012328162127441 -0.0056772297237225279 0 0.036557307594159233 -0.0048911707652039196 0 0.0373608992130346 -0.0047390529043251552 0 0.037012328162127441 -0.0056772297237225279 0 0.0373608992130346 -0.0047390529043251552 0 0.038596248238549062 -0.0045955522491696382 0 0.037929778190237261 -0.0053797869199056596 0 0.037583825976687003 -0.0039082303691591437 0 0.0373608992130346 -0.0047390529043251552 0 0.038596248238549062 -0.0045955522491696382 0 0.038752463860722855 -0.0057400569237838171 0 0.038596248238549062 -0.0045955522491696382 0 0.037929778190237261 -0.0053797869199056596 0 0.038972209963483349 -0.0068856258988492236 0 0.038752463860722855 -0.0057400569237838171 0 0.038023326102206559 -0.0061601017018294343 0 0.038752463860722855 -0.0057400569237838171 0 0.037929778190237261 -0.0053797869199056596 0 0.038023326102206559 -0.0061601017018294343 0 0.038023326102206559 -0.0061601017018294343 0 0.037012328162127441 -0.0056772297237225279 0 0.037332984027979778 -0.0065180131256939097 0 0.037012328162127441 -0.0056772297237225279 0 0.037332984027979778 -0.0065180131256939097 0 0.036129342463958887 -0.0065234229154490647 0 0.037929778190237261 -0.0053797869199056596 0 0.038023326102206559 -0.0061601017018294343 0 0.037012328162127441 -0.0056772297237225279 0 0.038023326102206559 -0.0061601017018294343 0 0.037332984027979778 -0.0065180131256939097 0 0.037620436212874461 -0.0073978134595642673 0 0.037332984027979778 -0.0065180131256939097 0 0.037620436212874461 -0.0073978134595642673 0 0.0366375468614943 -0.0072016499093731099 0 0.038972209963483349 -0.0068856258988492236 0 0.038023326102206559 -0.0061601017018294343 0 0.037620436212874461 -0.0073978134595642673 0 0.037576330544623796 -0.0073273946215928424 0 0.036688776290005401 -0.0078261170230545778 0 0.035853439623192339 -0.0087466326906113657 0 0.035807373205582069 -0.0082621752331291185 0 0.035829776811079773 -0.0081878338414112309 0 0.035756354982533073 -0.0077908256942034199 0 0.035807373205582069 -0.0082621752331291185 0 0.035829776811079773 -0.0081878338414112309 0 0.036688776290005401 -0.0078261170230545778 0 0.035959522788487942 -0.0082623759358186437 0 0.037620436212874461 -0.0073978134595642673 0 0.036359049622715849 -0.0079628221948042765 0 0.0366375468614943 -0.0072016499093731099 0 0.035853439623192339 -0.0087466326906113657 0 0.035807373205582069 -0.0082621752331291185 0 0.035591239577683231 -0.0085837628612305851 0 0.036359049622715849 -0.0079628221948042765 0 0.034999949978936906 -0.0086345045229824675 0 0.035725700631484225 -0.007436853590350118 0 0.035959522788487942 -0.0082623759358186437 0 0.035000137616872241 -0.0086348422097716031 0 0.035496315302790689 -0.0092167253778539272 0 0.035591239577683231 -0.0085837628612305851 0 0.034999588897558782 -0.0086359099614199165 0 0.034999949978936906 -0.0086345045229824675 0 0.034999918693067789 -0.0067251168484242611 0 0.035725700631484225 -0.007436853590350118 0 0.034999918693067789 -0.0067251168484242611 0 0.035725700631484225 -0.007436853590350118 0 0.036214681332135658 -0.0066934649116881569 0 0.035000231450490159 -0.0067248802462860236 0 0.036188520248423416 -0.006610775487083621 0 0.035725700631484225 -0.007436853590350118 0 0.036214681332135658 -0.0066934649116881569 0 0.0366375468614943 -0.0072016499093731099 0 0.037241875752272821 -0.0065350419416448724 0 0.036188520248423416 -0.006610775487083621 0 0.037332984027979778 -0.0065180131256939097 0 0.036214681332135658 -0.0066934649116881569 0 0.0366375468614943 -0.0072016499093731099 0 0.036359049622715849 -0.0079628221948042765 0 0.035725700631484225 -0.007436853590350118 0 0.0366375468614943 -0.0072016499093731099 0 0.011211461217077997 -0.0042743149705260428 0 0.011604461783215768 -0.0041412795310310719 0 0.011376080182670195 -0.0043464131186471367 0 0.011211461217077997 -0.0042743149705260428 0 0.01100507709999069 -0.0040390595792021535 0 0.010932884555284928 -0.0042967261267673031 0 0.011211461217077997 -0.0042743149705260428 0 0.01101757676827481 -0.0042190284303244381 0 0.010932884555284928 -0.0042967261267673031 0 0.011211461217077997 -0.0042743149705260428 0 0.01100507709999069 -0.0040390595792021535 0 0.011604461783215768 -0.0041412795310310719 0 0.011604461783215768 -0.0041412795310310719 0 0.012130721050328291 -0.0042390471211904285 0 0.011376080182670195 -0.0043464131186471367 0 0.012130721050328291 -0.0042390471211904285 0 0.011900646573808528 -0.0044658949446001088 0 0.012851950352047142 -0.0043503927584746718 0 0.012130721050328291 -0.0042390471211904285 0 0.01286643002359023 -0.0040861049581497576 0 0.012851950352047142 -0.0043503927584746718 0 0.010592218152765865 -0.0041373604379143607 0 0.01047943163721287 -0.0041030299820472267 0 0.010504585774906317 -0.004142571765045339 0 0.011330157880224385 -0.0041861089913332325 0 0.011298034223769047 -0.0043699961159582171 0 0.012130721050328291 -0.0042390471211904285 0 0.011900646573808528 -0.0044658949446001088 0 0.011376080182670195 -0.0043464131186471367 0 0.011900646573808528 -0.0044658949446001088 0 0.011376080182670195 -0.0043464131186471367 0 0.01090594100531481 -0.0040479150329168516 0 0.011330157880224385 -0.0041861089913332325 0 0.010997160569556073 -0.0040683643842338423 0 0.010592218152765865 -0.0041373604379143607 0 0.010470372690825965 -0.0039287227111941912 0 0.01090594100531481 -0.0040479150329168516 0 0.010592218152765865 -0.0041373604379143607 0 0.010470372690825965 -0.0039287227111941912 0 0.01047943163721287 -0.0041030299820472267 0 0.010470372690825965 -0.0039287227111941912 0 0.01090594100531481 -0.0040479150329168516 0 0.010495164638312314 -0.0035745727242213381 0 0.01090594100531481 -0.0040479150329168516 0 0.010546847672512955 -0.003368270999345559 0 0.010495164638312314 -0.0035745727242213381 0 0.01090594100531481 -0.0040479150329168516 0 0.010783561764882524 -0.0037681485724698057 0 0.01101757676827481 -0.0042190284303244381 0 0.01090594100531481 -0.0040479150329168516 0 0.010783561764882524 -0.0037681485724698057 0 0.010546847672512955 -0.003368270999345559 0 0.011211461217077997 -0.0042743149705260428 0 0.011376080182670195 -0.0043464131186471367 0 0.01101757676827481 -0.0042190284303244381 0 0.011376080182670195 -0.0043464131186471367 0 0.01090594100531481 -0.0040479150329168516 0 0.01101757676827481 -0.0042190284303244381 0 0.01101757676827481 -0.0042190284303244381 0 0.010907361449838711 -0.0043638678760111209 0 0.010900223744187476 -0.0038017290654411922 0 0.010783561764882524 -0.0037681485724698057 0 0.01101757676827481 -0.0042190284303244381 0 0.010900223744187476 -0.0038017290654411922 0 0.011182466469629922 -0.0038799750422804998 0 0.010907361449838711 -0.0043638678760111209 0 0.010900223744187476 -0.0038017290654411922 0 0.010904518961984808 -0.0043732465754035502 0 0.010797581854137197 -0.0043922389307179347 0 0.011182466469629922 -0.0038799750422804998 0 0.010907361449838711 -0.0043638678760111209 0 0.011583902669525937 -0.0040085121980439229 0 0.011182466469629922 -0.0038799750422804998 0 0.011583902669525937 -0.0040085121980439229 0 0.011457533296822812 -0.0036491396309998934 0 0.010306161345098638 -0.0043412493235332342 0 0.010907361449838711 -0.0043638678760111209 0 0.010104234400977878 -0.0047974079880937926 0 0.01101757676827481 -0.0042190284303244381 0 0.010907361449838711 -0.0043638678760111209 0 0.010932884555284928 -0.0042967261267673031 0 0.010306161345098638 -0.0043412493235332342 0 0.010907361449838711 -0.0043638678760111209 0 0.010932884555284928 -0.0042967261267673031 0 0.0091781284486520381 -0.0046033448441050598 0 0.0093796556526730464 -0.0046031885366679673 0 0.0094635971220124911 -0.0048071723604871334 0 0.0093796556526730464 -0.0046031885366679673 0 0.0094635971220124911 -0.0048071723604871334 0 0.0096590882008431682 -0.0046177053079574162 0 0.010857564103401957 -0.0042956778912102474 0 0.010797581854137197 -0.0043922389307179347 0 0.011884020220022636 -0.0037731100915986047 0 0.011583902669525937 -0.0040085121980439229 0 0.011679763022985883 -0.0037332321654926152 0 0.0094635971220124911 -0.0048071723604871334 0 0.0096590882008431682 -0.0046177053079574162 0 0.010104234400977878 -0.0047974079880937926 0 0.011583902669525937 -0.0040085121980439229 0 0.011679763022985883 -0.0037332321654926152 0 0.011457533296822812 -0.0036491396309998934 0 0.010306161345098638 -0.0043412493235332342 0 0.010104234400977878 -0.0047974079880937926 0 0.009850281654838337 -0.0044664573267156815 0 0.0096590882008431682 -0.0046177053079574162 0 0.010104234400977878 -0.0047974079880937926 0 0.009850281654838337 -0.0044664573267156815 0 0.009850281654838337 -0.0044664573267156815 0 0.0094631453421069218 -0.0044438344763914929 0 0.0098092769426423258 -0.0042375348435977744 0 0.0096590882008431682 -0.0046177053079574162 0 0.009850281654838337 -0.0044664573267156815 0 0.0094631453421069218 -0.0044438344763914929 0 0.0093796556526730464 -0.0046031885366679673 0 0.0096590882008431682 -0.0046177053079574162 0 0.0094631453421069218 -0.0044438344763914929 0 0.0091925810364799649 -0.0045242206445717361 0 0.0093796556526730464 -0.0046031885366679673 0 0.0094631453421069218 -0.0044438344763914929 0 0.0094631453421069218 -0.0044438344763914929 0 0.0093708812045184484 -0.0042616056817011807 0 0.0098092769426423258 -0.0042375348435977744 0 0.010306161345098638 -0.0043412493235332342 0 0.009850281654838337 -0.0044664573267156815 0 0.0098092769426423258 -0.0042375348435977744 0 0.0098092769426423258 -0.0042375348435977744 0 0.010049083688582884 -0.0039966555972809721 0 0.0095888608516403497 -0.0040652811242917492 0 0.0093708812045184484 -0.0042616056817011807 0 0.0098092769426423258 -0.0042375348435977744 0 0.0095888608516403497 -0.0040652811242917492 0 0.0091983626922605838 -0.0041031340975108384 0 0.0093708812045184484 -0.0042616056817011807 0 0.0095888608516403497 -0.0040652811242917492 0 0.010306161345098638 -0.0043412493235332342 0 0.010932884555284928 -0.0042967261267673031 0 0.010552644350685619 -0.0041516179923787892 0 0.01100507709999069 -0.0040390595792021535 0 0.010932884555284928 -0.0042967261267673031 0 0.010552644350685619 -0.0041516179923787892 0 0.010306161345098638 -0.0043412493235332342 0 0.0098092769426423258 -0.0042375348435977744 0 0.010552644350685619 -0.0041516179923787892 0 0.010049083688582884 -0.0039966555972809721 0 0.010552644350685619 -0.0041516179923787892 0 0.010444688932828157 -0.0036175271962719407 0 0.0098092769426423258 -0.0042375348435977744 0 0.010049083688582884 -0.0039966555972809721 0 0.010552644350685619 -0.0041516179923787892 0 0.01100507709999069 -0.0040390595792021535 0 0.010552644350685619 -0.0041516179923787892 0 0.010444688932828157 -0.0036175271962719407 0 0.010604802908460385 -0.0039148902704023297 0 0.011550891655951346 -0.0038885350271959974 0 0.01100507709999069 -0.0040390595792021535 0 0.010444688932828157 -0.0036175271962719407 0 0.011232395294255498 -0.0035877259554416381 0 0.010754724635882975 -0.0042197800624141591 0 0.011064707824207603 -0.0033177339742374626 0 0.010328860783184677 -0.0034550156751209731 0 0.010754724635882975 -0.0042197800624141591 0 0.01005901364449931 -0.0037941942523504295 0 0.010328860783184677 -0.0034550156751209731 0 0.010754724635882975 -0.0042197800624141591 0 0.011064707824207603 -0.0033177339742374626 0 0.011880737641690566 -0.0041758746109404905 0 0.0095888608516403497 -0.0040652811242917492 0 0.0097055817410027934 -0.0039236335864549828 0 0.0093627797826275477 -0.0038494447913794794 0 0.0091983626922605838 -0.0041031340975108384 0 0.0095888608516403497 -0.0040652811242917492 0 0.0093627797826275477 -0.0038494447913794794 0 0.010049083688582884 -0.0039966555972809721 0 0.010444688932828157 -0.0036175271962719407 0 0.0097055817410027934 -0.0039236335864549828 0 0.010604802908460385 -0.0039148902704023297 0 0.0097818628531013765 -0.0039250339666876246 0 0.010049083688582884 -0.0039966555972809721 0 0.0095888608516403497 -0.0040652811242917492 0 0.0097055817410027934 -0.0039236335864549828 0 0.01005901364449931 -0.0037941942523504295 0 0.0095304193344867196 -0.0036122970687801521 0 0.010328860783184677 -0.0034550156751209731 0 0.010754724635882975 -0.0042197800624141591 0 0.0097055817410027934 -0.0039236335864549828 0 0.01005901364449931 -0.0037941942523504295 0 0.0097055817410027934 -0.0039236335864549828 0 0.01005901364449931 -0.0037941942523504295 0 0.0095304193344867196 -0.0036122970687801521 0 0.0090624539200815785 -0.003519651784973868 0 0.0093627797826275477 -0.0038494447913794794 0 0.0095304193344867196 -0.0036122970687801521 0 0.0097055817410027934 -0.0039236335864549828 0 0.0093627797826275477 -0.0038494447913794794 0 0.0095304193344867196 -0.0036122970687801521 0 0.0090624539200815785 -0.003519651784973868 0 0.0095304193344867196 -0.0036122970687801521 0 0.0096906037398174442 -0.0029803331312323504 0 0.0095304193344867196 -0.0036122970687801521 0 0.010160047544541568 -0.002801433853213204 0 0.010328860783184677 -0.0034550156751209731 0 0.0095088165770126718 -0.0036459073741171508 0 0.01011082741209908 -0.0028051654536745082 0 0.0095304193344867196 -0.0036122970687801521 0 0.0098526047086513087 -0.0030692298612256248 0 0.0096906037398174442 -0.0029803331312323504 0 0.0091138408107254987 -0.003476301602066269 0 0.0092185358242568918 -0.0032651035361228836 0 0.0090624539200815785 -0.003519651784973868 0 0.0089862631530648711 -0.0034316090135150927 0 0.0089865897240837909 -0.0034733659770664178 0 0.0089880163919051417 -0.003462286990527167 0 0.0089862631530648711 -0.0034316090135150927 0 0.0089865897240837909 -0.0034733659770664178 0 0.008887861929319148 -0.0034759756545651352 0 0.00897756429610117 -0.0034714551203066314 0 0.0089865897240837909 -0.0034733659770664178 0 0.011064707824207603 -0.0033177339742374626 0 0.010328860783184677 -0.0034550156751209731 0 0.010611222288303664 -0.0030624787742217175 0 0.010160047544541568 -0.002801433853213204 0 0.010328860783184677 -0.0034550156751209731 0 0.010611222288303664 -0.0030624787742217175 0 0.011064707824207603 -0.0033177339742374626 0 0.010611222288303664 -0.0030624787742217175 0 0.010901824217326002 -0.0026864936876174234 0 0.010160047544541568 -0.002801433853213204 0 0.010611222288303664 -0.0030624787742217175 0 0.010901824217326002 -0.0026864936876174234 0 0.011064707824207603 -0.0033177339742374626 0 0.010901824217326002 -0.0026864936876174234 0 0.011844365361813764 -0.0027124435096566638 0 0.011064707824207603 -0.0033177339742374626 0 0.011844365361813764 -0.0027124435096566638 0 0.011952649885215584 -0.0034195586011595111 0 0.012669530535814958 -0.0026802063845007152 0 0.011844365361813764 -0.0027124435096566638 0 0.012581236303036392 -0.0031705915837892929 0 0.011844365361813764 -0.0027124435096566638 0 0.012581236303036392 -0.0031705915837892929 0 0.011952649885215584 -0.0034195586011595111 0 0.012581236303036392 -0.0031705915837892929 0 0.011952649885215584 -0.0034195586011595111 0 0.01257394506765136 -0.0036528477873514448 0 0.011064707824207603 -0.0033177339742374626 0 0.011952649885215584 -0.0034195586011595111 0 0.011880737641690566 -0.0041758746109404905 0 0.011952649885215584 -0.0034195586011595111 0 0.011880737641690566 -0.0041758746109404905 0 0.01257394506765136 -0.0036528477873514448 0 0.011880737641690566 -0.0041758746109404905 0 0.012440015942840102 -0.003909609859164209 0 0.01257394506765136 -0.0036528477873514448 0 0.011550891655951346 -0.0038885350271959974 0 0.012364892206575256 -0.0039022667088031426 0 0.011604461783215768 -0.0041412795310310719 0 0.011232395294255498 -0.0035877259554416381 0 0.012440015942840102 -0.003909609859164209 0 0.01100507709999069 -0.0040390595792021535 0 0.011604461783215768 -0.0041412795310310719 0 0.011232395294255498 -0.0035877259554416381 0 0.012130721050328291 -0.0042390471211904285 0 0.01286643002359023 -0.0040861049581497576 0 0.012440015942840102 -0.003909609859164209 0 0.011604461783215768 -0.0041412795310310719 0 0.012130721050328291 -0.0042390471211904285 0 0.012440015942840102 -0.003909609859164209 0 0.012440015942840102 -0.003909609859164209 0 0.013262452578840012 -0.0038741224335344642 0 0.01257394506765136 -0.0036528477873514448 0 0.01286643002359023 -0.0040861049581497576 0 0.012440015942840102 -0.003909609859164209 0 0.013262452578840012 -0.0038741224335344642 0 0.013262452578840012 -0.0038741224335344642 0 0.013289635112245164 -0.0034999903686434809 0 0.01257394506765136 -0.0036528477873514448 0 0.013262452578840012 -0.0038741224335344642 0 0.013289635112245164 -0.0034999903686434809 0 0.013962006912792294 -0.0036968841794003445 0 0.012581236303036392 -0.0031705915837892929 0 0.013289635112245164 -0.0034999903686434809 0 0.01257394506765136 -0.0036528477873514448 0 0.012581236303036392 -0.0031705915837892929 0 0.013289635112245164 -0.0034999903686434809 0 0.013210467359814909 -0.002976480725778486 0 0.012669530535814958 -0.0026802063845007152 0 0.012581236303036392 -0.0031705915837892929 0 0.013210467359814909 -0.002976480725778486 0 0.013289635112245164 -0.0034999903686434809 0 0.013210467359814909 -0.002976480725778486 0 0.013950218595826191 -0.0028958521888297951 0 0.013289635112245164 -0.0034999903686434809 0 0.013950218595826191 -0.0028958521888297951 0 0.013962006912792294 -0.0036968841794003445 0 0.014911395734060242 -0.0027490175593240683 0 0.013950218595826191 -0.0028958521888297951 0 0.015003117503248366 -0.0037031783887138963 0 0.013950218595826191 -0.0028958521888297951 0 0.013962006912792294 -0.0036968841794003445 0 0.015003117503248366 -0.0037031783887138963 0 0.013262452578840012 -0.0038741224335344642 0 0.013962006912792294 -0.0036968841794003445 0 0.014050418579513732 -0.0038602255935978069 0 0.013962006912792294 -0.0036968841794003445 0 0.014050418579513732 -0.0038602255935978069 0 0.015003117503248366 -0.0037031783887138963 0 0.015041820874374839 -0.0060133133498360795 0 0.016603557128737914 -0.0058874470378929619 0 0.015003117503248366 -0.0037031783887138963 0 0.016603557128737914 -0.0058874470378929619 0 0.015003117503248366 -0.0037031783887138963 0 0.018404889470713177 -0.0036452182410128559 0 0.01453555796825391 -0.0052552544257869023 0 0.014890228617712224 -0.0035989760891371554 0 0.016088068437906167 -0.0024254587920226368 0 0.015003117503248366 -0.0037031783887138963 0 0.018404889470713177 -0.0036452182410128559 0 0.018591629650870245 -0.0029756992158608293 0 0.018750817198235941 -0.0034469289157351805 0 0.019001037585150825 -0.0032531197610138258 0 0.018591629650870245 -0.0029756992158608293 0 0.018404889470713177 -0.0036452182410128559 0 0.018750817198235941 -0.0034469289157351805 0 0.018404889470713177 -0.0036452182410128559 0 0.018750817198235941 -0.0034469289157351805 0 0.019015462871317182 -0.0033835797496544447 0 0.018750817198235941 -0.0034469289157351805 0 0.019015462871317182 -0.0033835797496544447 0 0.018886092574787815 -0.0034608657854564942 0 0.018404889470713177 -0.0036452182410128559 0 0.019015462871317182 -0.0033835797496544447 0 0.019394782521137612 -0.003054394874102479 0 0.019015462871317182 -0.0033835797496544447 0 0.019394782521137612 -0.003054394874102479 0 0.01882373900424817 -0.0026286906472485199 0 0.020519144677825476 -0.0030988360990566546 0 0.018404889470713177 -0.0036452182410128559 0 0.019394782521137612 -0.003054394874102479 0 0.018997716710173321 -0.0044063206149979944 0 0.01841158770140186 -0.0037085565096619789 0 0.020519144677825476 -0.0030988360990566546 0 0.020110177242433018 -0.0025386660795633045 0 0.020808205480946584 -0.0021845799103474292 0 0.020519144677825476 -0.0030988360990566546 0 0.019394782521137612 -0.003054394874102479 0 0.020110177242433018 -0.0025386660795633045 0 0.020110177242433018 -0.0025386660795633045 0 0.020808205480946584 -0.0021845799103474292 0 0.020307135067778738 -0.0019501160824379718 0 0.019394782521137612 -0.003054394874102479 0 0.019536249908361041 -0.0023744928606987611 0 0.01882373900424817 -0.0026286906472485199 0 0.019394782521137612 -0.003054394874102479 0 0.020110177242433018 -0.0025386660795633045 0 0.019536249908361041 -0.0023744928606987611 0 0.020110177242433018 -0.0025386660795633045 0 0.019536249908361041 -0.0023744928606987611 0 0.020307135067778738 -0.0019501160824379718 0 0.019536249908361041 -0.0023744928606987611 0 0.019801219795377911 -0.0014862239963491181 0 0.020307135067778738 -0.0019501160824379718 0 0.019801219795377911 -0.0014862239963491181 0 0.020307135067778738 -0.0019501160824379718 0 0.021029346661790963 -0.0011971278426759942 0 0.020808205480946584 -0.0021845799103474292 0 0.020307135067778738 -0.0019501160824379718 0 0.021029346661790963 -0.0011971278426759942 0 0.020808205480946584 -0.0021845799103474292 0 0.021814128215874314 -0.0019743021568954348 0 0.021029346661790963 -0.0011971278426759942 0 0.015144154622346351 -0.0041452431141191801 0 0.011298034223769047 -0.0043699961159582171 0 0.01286643002359023 -0.0040861049581497576 0 0.013608953742939708 -0.0041018429514687376 0 0.012851950352047142 -0.0043503927584746718 0 0.01286643002359023 -0.0040861049581497576 0 0.013262452578840012 -0.0038741224335344642 0 0.013608953742939708 -0.0041018429514687376 0 0.013262452578840012 -0.0038741224335344642 0 0.014050418579513732 -0.0038602255935978069 0 0.013608953742939708 -0.0041018429514687376 0 0.018997716710173321 -0.0044063206149979944 0 0.015144154622346351 -0.0041452431141191801 0 0.020519144677825476 -0.0030988360990566546 0 0.020808205480946584 -0.0021845799103474292 0 0.021814128215874314 -0.0019743021568954348 0 0.01453555796825391 -0.0052552544257869023 0 0.015144154622346351 -0.0041452431141191801 0 0.015041820874374839 -0.0060133133498360795 0 0.016603557128737914 -0.0058874470378929619 0 0.014987971465222464 -0.0081017457954698033 0 0.034938351693358884 -0.0072610976583600169 0 0.03533869323558296 -0.0075593275059452356 0 0.035400469012677557 -0.0070604153930500001 0 0.035207073617009657 -0.0080927659243417525 0 0.034772955648091949 -0.0078727134660971729 0 0.03533869323558296 -0.0075593275059452356 0 0.036526268263848818 -0.0084033750248138223 0 0.040266457407749909 -0.0080509873946063987 0 0.035207073617009657 -0.0080927659243417525 0 0.03533869323558296 -0.0075593275059452356 0 0.035655932664528968 -0.0077236602543125496 0 0.03533869323558296 -0.0075593275059452356 0 0.035761687771111814 -0.0072459893849600963 0 0.035400469012677557 -0.0070604153930500001 0 0.03533869323558296 -0.0075593275059452356 0 0.035655932664528968 -0.0077236602543125496 0 0.035761687771111814 -0.0072459893849600963 0 0.035761687771111814 -0.0072459893849600963 0 0.036084756113979516 -0.0075238832285451588 0 0.035980795308391419 -0.0068471820374023436 0 0.040266457407749909 -0.0080509873946063987 0 0.031893969818076309 -0.0061710674602963077 0 0.04264549324155132 -0.0092387362138074518 0 0.041607180015734525 -0.0083910787293830485 0 0.043560758286827629 -0.0080734882515251724 0 0.035655932664528968 -0.0077236602543125496 0 0.035761687771111814 -0.0072459893849600963 0 0.036084756113979516 -0.0075238832285451588 0 0.031428836924459899 -0.0063893870352166064 0 0.031893969818076309 -0.0061710674602963077 0 0.043683704414997623 -0.0095094379264550975 0 0.04264549324155132 -0.0092387362138074518 0 0.043560758286827629 -0.0080734882515251724 0 0.019133545826274849 -0.0029207557977220136 0 0.019117340374268679 -0.0035353140109582646 0 0.019001037585150825 -0.0032531197610138258 0 0.018750817198235941 -0.0034469289157351805 0 0.019001037585150825 -0.0032531197610138258 0 0.018886092574787815 -0.0034608657854564942 0 0.019001037585150825 -0.0032531197610138258 0 0.018886092574787815 -0.0034608657854564942 0 0.018968414307258815 -0.003442286956176697 0 0.019015462871317182 -0.0033835797496544447 0 0.018886092574787815 -0.0034608657854564942 0 0.01892624927144777 -0.0035139526499825997 0 0.018886092574787815 -0.0034608657854564942 0 0.018968414307258815 -0.003442286956176697 0 0.01892624927144777 -0.0035139526499825997 0 0.019117340374268679 -0.0035353140109582646 0 0.019001037585150825 -0.0032531197610138258 0 0.018968414307258815 -0.003442286956176697 0 0.019117340374268679 -0.0035353140109582646 0 0.018968414307258815 -0.003442286956176697 0 0.01892624927144777 -0.0035139526499825997 0 0.031893969818076309 -0.0061710674602963077 0 0.026553222327963456 -0.0066492486685726798 0 0.018831436016584865 -0.0035457475701285005 0 0.01892624927144777 -0.0035139526499825997 0 0.01882373900424817 -0.0026286906472485199 0 0.031893969818076309 -0.0061710674602963077 0 0.026760216388349082 -0.0045562783883368787 0 0.019015462871317182 -0.0033835797496544447 0 0.01892624927144777 -0.0035139526499825997 0 0.01882373900424817 -0.0026286906472485199 0 0.035761687771111814 -0.0072459893849600963 0 0.035980795308391419 -0.0068471820374023436 0 0.035400469012677557 -0.0070604153930500001 0 0.035980795308391419 -0.0068471820374023436 0 0.035302641461261851 -0.006534972004069833 0 0.035525466712490503 -0.0062638149627737621 0 0.026760216388349082 -0.0045562783883368787 0 0.027489751313478396 -0.0036967582754782531 0 0.019536249908361041 -0.0023744928606987611 0 0.019801219795377911 -0.0014862239963491181 0 0.01882373900424817 -0.0026286906472485199 0 0.019801219795377911 -0.0014862239963491181 0 0.01882373900424817 -0.0026286906472485199 0 0.018975498547558166 -0.0010281276383302847 0 0.035980795308391419 -0.0068471820374023436 0 0.035525466712490503 -0.0062638149627737621 0 0.035775868186383036 -0.0061375285389254778 0 0.035980795308391419 -0.0068471820374023436 0 0.035400469012677557 -0.0070604153930500001 0 0.035302641461261851 -0.006534972004069833 0 0.034997404183385865 -0.0063061386908299056 0 0.035302641461261851 -0.006534972004069833 0 0.035055281065126717 -0.0067812204179001287 0 0.034938351693358884 -0.0072610976583600169 0 0.035400469012677557 -0.0070604153930500001 0 0.035055281065126717 -0.0067812204179001287 0 0.035400469012677557 -0.0070604153930500001 0 0.035302641461261851 -0.006534972004069833 0 0.035055281065126717 -0.0067812204179001287 0 0.035206849819754166 -0.0059700521397038249 0 0.035211442586498859 -0.0056410829404552896 0 0.035105180086555686 -0.0056240587880266547 0 0.034998936475081614 -0.0058722088256833649 0 0.035206849819754166 -0.0059700521397038249 0 0.035105180086555686 -0.0056240587880266547 0 0.034997404183385865 -0.0063061386908299056 0 0.035302641461261851 -0.006534972004069833 0 0.035206849819754166 -0.0059700521397038249 0 0.034997404183385865 -0.0063061386908299056 0 0.034998936475081614 -0.0058722088256833649 0 0.035206849819754166 -0.0059700521397038249 0 0.035206849819754166 -0.0059700521397038249 0 0.035423021133106393 -0.0059068365680277129 0 0.035525466712490503 -0.0062638149627737621 0 0.035302641461261851 -0.006534972004069833 0 0.035206849819754166 -0.0059700521397038249 0 0.035525466712490503 -0.0062638149627737621 0 0.035206849819754166 -0.0059700521397038249 0 0.035423021133106393 -0.0059068365680277129 0 0.035211442586498859 -0.0056410829404552896 0 0.035423021133106393 -0.0059068365680277129 0 0.035775868186383036 -0.0061375285389254778 0 0.035452063742181093 -0.0055979379393431301 0 0.035423021133106393 -0.0059068365680277129 0 0.035525466712490503 -0.0062638149627737621 0 0.035775868186383036 -0.0061375285389254778 0 0.019801219795377911 -0.0014862239963491181 0 0.018975498547558166 -0.0010281276383302847 0 0.020176804549854141 -0.00057289745356453895 0 0.018975498547558166 -0.0010281276383302847 0 0.019822389745985342 0.00022857165207301768 0 0.020176804549854141 -0.00057289745356453895 0 0.027489751313478396 -0.0036967582754782531 0 0.027163206989671111 -0.0023480487442796532 0 0.018975498547558166 -0.0010281276383302847 0 0.019822389745985342 0.00022857165207301768 0 0.019182768574751579 0.00056745376081222137 0 0.019822389745985342 0.00022857165207301768 0 0.019814179737919997 0.001268760634454674 0 0.019182768574751579 0.00056745376081222137 0 0.019814179737919997 0.001268760634454674 0 0.019182768574751579 0.00056745376081222137 0 0.01932133113006515 0.001726350430397035 0 0.022520951865175151 0.00080026216116866591 0 0.028181731206401692 -0.0024861259024228921 0 0.035084166910472135 -0.005323545940973339 0 0.035452063742181093 -0.0055979379393431301 0 0.035134286545676824 -0.0054578891059548903 0 0.027163206989671111 -0.0023480487442796532 0 0.028181731206401692 -0.0024861259024228921 0 0.035084166910472135 -0.005323545940973339 0 0.035452063742181093 -0.0055979379393431301 0 0.035158484030320548 -0.005107545962983206 0 0.035423021133106393 -0.0059068365680277129 0 0.035452063742181093 -0.0055979379393431301 0 0.035211442586498859 -0.0056410829404552896 0 0.035452063742181093 -0.0055979379393431301 0 0.035211442586498859 -0.0056410829404552896 0 0.035134286545676824 -0.0054578891059548903 0 0.035211442586498859 -0.0056410829404552896 0 0.03507381510106615 -0.0054179126137842504 0 0.035105180086555686 -0.0056240587880266547 0 0.035211442586498859 -0.0056410829404552896 0 0.035134286545676824 -0.0054578891059548903 0 0.03507381510106615 -0.0054179126137842504 0 0.035134286545676824 -0.0054578891059548903 0 0.034930189818234855 -0.0052474624563024572 0 0.03507381510106615 -0.0054179126137842504 0 0.035084166910472135 -0.005323545940973339 0 0.035134286545676824 -0.0054578891059548903 0 0.034930189818234855 -0.0052474624563024572 0 0.035084166910472135 -0.005323545940973339 0 0.034930189818234855 -0.0052474624563024572 0 0.034749823144671191 -0.005129537814459832 0 0.034930189818234855 -0.0052474624563024572 0 0.03507381510106615 -0.0054179126137842504 0 0.035034477397157135 -0.0052727429482127214 0 0.03507381510106615 -0.0054179126137842504 0 0.035115633541987767 -0.0054188109182522351 0 0.035105180086555686 -0.0056240587880266547 0 0.03507381510106615 -0.0054179126137842504 0 0.035115633541987767 -0.0054188109182522351 0 0.035034477397157135 -0.0052727429482127214 0 0.03510386595688799 -0.0056083402160816325 0 0.035115633541987767 -0.0054188109182522351 0 0.035105180086555686 -0.0056240587880266547 0 0.022070305451675182 -0.00041832147770321301 0 0.021893746010966515 8.2590275561487982e-05 0 0.021852301781108086 -0.00037843826637068065 0 0.01047943163721287 -0.0041030299820472267 0 0.010510142058122323 -0.0041459491669708186 0 0.010315671105480874 -0.00397287452018654 0 0.01047943163721287 -0.0041030299820472267 0 0.010504585774906317 -0.004142571765045339 0 0.010510142058122323 -0.0041459491669708186 0 0.016398004534973382 -0.0020301994489017759 0 0.01608891367906291 -0.002246428939000295 0 0.010622966052313519 -0.004061485199596088 0 0.010504585774906317 -0.004142571765045339 0 0.010510142058122323 -0.0041459491669708186 0 0.021814128215874314 -0.0019743021568954348 0 0.022070305451675182 -0.00041832147770321301 0 0.021029346661790963 -0.0011971278426759942 0 0.015144154622346351 -0.0041452431141191801 0 0.016398004534973382 -0.0020301994489017759 0 0.022070305451675182 -0.00041832147770321301 0 0.021029346661790963 -0.0011971278426759942 0 0.021893746010966515 8.2590275561487982e-05 0 0.021029346661790963 -0.0011971278426759942 0 0.020176804549854141 -0.00057289745356453895 0 0.021893746010966515 8.2590275561487982e-05 0 0.019801219795377911 -0.0014862239963491181 0 0.021029346661790963 -0.0011971278426759942 0 0.020176804549854141 -0.00057289745356453895 0 0.019822389745985342 0.00022857165207301768 0 0.020176804549854141 -0.00057289745356453895 0 0.020611107338992216 0.00081552878400240579 0 0.020176804549854141 -0.00057289745356453895 0 0.021893746010966515 8.2590275561487982e-05 0 0.020611107338992216 0.00081552878400240579 0 0.021893746010966515 8.2590275561487982e-05 0 0.023905409173832257 -5.5674514806553265e-05 0 0.022875645117236245 -0.0011320924770126316 0 0.021995969969652716 0.00015462283672518907 0 0.022471148806715288 0.0002001116813193075 0 0.019822389745985342 0.00022857165207301768 0 0.019814179737919997 0.001268760634454674 0 0.020611107338992216 0.00081552878400240579 0 0.026375938925831111 -0.00055278891117613923 0 0.023905409173832257 -5.5674514806553265e-05 0 0.024336125536382053 -0.001160358153598361 0 0.022520951865175151 0.00080026216116866591 0 0.022471148806715288 0.0002001116813193075 0 0.026375938925831111 -0.00055278891117613923 0 0.024336125536382053 -0.001160358153598361 0 0.026680271334004999 -0.0024256622156634345 0 0.023905409173832257 -5.5674514806553265e-05 0 0.024336125536382053 -0.001160358153598361 0 0.022875645117236245 -0.0011320924770126316 0 0.024336125536382053 -0.001160358153598361 0 0.022875645117236245 -0.0011320924770126316 0 0.023840025720240521 -0.0025655990712374652 0 0.022875645117236245 -0.0011320924770126316 0 0.021852301781108086 -0.00037843826637068065 0 0.0220074362947194 -0.0019407426875004295 0 0.021893746010966515 8.2590275561487982e-05 0 0.022875645117236245 -0.0011320924770126316 0 0.021852301781108086 -0.00037843826637068065 0 0.010470372690825965 -0.0039287227111941912 0 0.01047943163721287 -0.0041030299820472267 0 0.010315671105480874 -0.00397287452018654 0 0.010470372690825965 -0.0039287227111941912 0 0.010315671105480874 -0.00397287452018654 0 0.010179983260107984 -0.0034821933032217227 0 0.010470372690825965 -0.0039287227111941912 0 0.010179983260107984 -0.0034821933032217227 0 0.010495164638312314 -0.0035745727242213381 0 0.01608891367906291 -0.002246428939000295 0 0.016107355473742251 -0.0026578589133476899 0 0.010179983260107984 -0.0034821933032217227 0 0.010209121526478437 -0.0030589911565131133 0 0.010370205647765255 -0.0031615724286184988 0 0.016107355473742251 -0.0026578589133476899 0 0.016377472417450172 -0.0032503887083499936 0 0.022981063061674561 -0.0027703593539344664 0 0.022443202831933209 -0.0033374706154114136 0 0.023328145262511091 -0.0035818884330376718 0 0.0220074362947194 -0.0019407426875004295 0 0.022981063061674561 -0.0027703593539344664 0 0.022443202831933209 -0.0033374706154114136 0 0.022875645117236245 -0.0011320924770126316 0 0.0220074362947194 -0.0019407426875004295 0 0.022981063061674561 -0.0027703593539344664 0 0.022875645117236245 -0.0011320924770126316 0 0.022981063061674561 -0.0027703593539344664 0 0.023840025720240521 -0.0025655990712374652 0 0.023840025720240521 -0.0025655990712374652 0 0.026680271334004999 -0.0024256622156634345 0 0.027718291487180458 -0.0050392936391724609 0 0.024336125536382053 -0.001160358153598361 0 0.023840025720240521 -0.0025655990712374652 0 0.026680271334004999 -0.0024256622156634345 0 0.0240197692000007 -0.0027181739753847503 0 0.026471940665757168 -0.0037883876865222109 0 0.023840025720240521 -0.0025655990712374652 0 0.024519270201017934 -0.0030108888045526534 0 0.025109921369670333 -0.0026673757463197222 0 0.023840025720240521 -0.0025655990712374652 0 0.024519270201017934 -0.0030108888045526534 0 0.023981056897552686 -0.0032192792852479717 0 0.022981063061674561 -0.0027703593539344664 0 0.023840025720240521 -0.0025655990712374652 0 0.023981056897552686 -0.0032192792852479717 0 0.022981063061674561 -0.0027703593539344664 0 0.023981056897552686 -0.0032192792852479717 0 0.023328145262511091 -0.0035818884330376718 0 0.023981056897552686 -0.0032192792852479717 0 0.024200186769310343 -0.0039020067140671105 0 0.023328145262511091 -0.0035818884330376718 0 0.023981056897552686 -0.0032192792852479717 0 0.024645408695891373 -0.003452372673476057 0 0.024200186769310343 -0.0039020067140671105 0 0.024519270201017934 -0.0030108888045526534 0 0.024645408695891373 -0.003452372673476057 0 0.025053199692339309 -0.0031784531985603339 0 0.024519270201017934 -0.0030108888045526534 0 0.023981056897552686 -0.0032192792852479717 0 0.024645408695891373 -0.003452372673476057 0 0.024645408695891373 -0.003452372673476057 0 0.024797552990073971 -0.0038495499907471573 0 0.024200186769310343 -0.0039020067140671105 0 0.024200186769310343 -0.0039020067140671105 0 0.024970730092515901 -0.0043338326374857787 0 0.02415421940174416 -0.004472741257118518 0 0.024797552990073971 -0.0038495499907471573 0 0.024200186769310343 -0.0039020067140671105 0 0.024970730092515901 -0.0043338326374857787 0 0.024200186769310343 -0.0039020067140671105 0 0.023456423449633279 -0.0042776039119547665 0 0.02415421940174416 -0.004472741257118518 0 0.024200186769310343 -0.0039020067140671105 0 0.023456423449633279 -0.0042776039119547665 0 0.023328145262511091 -0.0035818884330376718 0 0.0229855990821707 -0.0038814567423310106 0 0.023456423449633279 -0.0042776039119547665 0 0.02271682921251212 -0.0043101993219143543 0 0.0229855990821707 -0.0038814567423310106 0 0.023456423449633279 -0.0042776039119547665 0 0.023328145262511091 -0.0035818884330376718 0 0.010361983756162509 -0.0028944580091095598 0 0.01034210023555408 -0.0029064517111763847 0 0.01032203553674046 -0.0029280287900690753 0 0.010209121526478437 -0.0030589911565131133 0 0.01032203553674046 -0.0029280287900690753 0 0.010370205647765255 -0.0031615724286184988 0 0.016077681135630368 -0.0032994999854577263 0 0.016377472417450172 -0.0032503887083499936 0 0.010361983756162509 -0.0028944580091095598 0 0.010209121526478437 -0.0030589911565131133 0 0.01032203553674046 -0.0029280287900690753 0 0.0229855990821707 -0.0038814567423310106 0 0.02271682921251212 -0.0043101993219143543 0 0.022443202831933209 -0.0033374706154114136 0 0.0229855990821707 -0.0038814567423310106 0 0.022443202831933209 -0.0033374706154114136 0 0.023328145262511091 -0.0035818884330376718 0 0.035253597604240593 -0.0055363147127548895 0 0.034368736922927232 -0.0064735300311200674 0 0.035462678986819367 -0.0055414461512754551 0 0.035395418107538497 -0.0054203662611459844 0 0.035338456812121277 -0.0054020854466771432 0 0.035253597604240593 -0.0055363147127548895 0 0.035395418107538497 -0.0054203662611459844 0 0.035253597604240593 -0.0055363147127548895 0 0.035462678986819367 -0.0055414461512754551 0 0.035253597604240593 -0.0055363147127548895 0 0.035173786074709029 -0.0053605904841444851 0 0.034889339488693619 -0.0054110218968264172 0 0.035338456812121277 -0.0054020854466771432 0 0.035253597604240593 -0.0055363147127548895 0 0.035173786074709029 -0.0053605904841444851 0 0.035338456812121277 -0.0054020854466771432 0 0.035235464659249732 -0.0053848943289724364 0 0.035173786074709029 -0.0053605904841444851 0 0.035235464659249732 -0.0053848943289724364 0 0.035034477397157135 -0.0052727429482127214 0 0.035173786074709029 -0.0053605904841444851 0 0.035235464659249732 -0.0053848943289724364 0 0.035115633541987767 -0.0054188109182522351 0 0.035034477397157135 -0.0052727429482127214 0 0.035034477397157135 -0.0052727429482127214 0 0.035173786074709029 -0.0053605904841444851 0 0.034814712536333191 -0.0051392288219356983 0 0.035173786074709029 -0.0053605904841444851 0 0.034814712536333191 -0.0051392288219356983 0 0.034889339488693619 -0.0054110218968264172 0 0.034930189818234855 -0.0052474624563024572 0 0.035034477397157135 -0.0052727429482127214 0 0.034814712536333191 -0.0051392288219356983 0 0.034930189818234855 -0.0052474624563024572 0 0.034814712536333191 -0.0051392288219356983 0 0.034749823144671191 -0.005129537814459832 0 0.034814712536333191 -0.0051392288219356983 0 0.034201012655256886 -0.0048559003158558586 0 0.034749823144671191 -0.005129537814459832 0 0.034814712536333191 -0.0051392288219356983 0 0.034201012655256886 -0.0048559003158558586 0 0.034889339488693619 -0.0054110218968264172 0 0.035253597604240593 -0.0055363147127548895 0 0.034889339488693619 -0.0054110218968264172 0 0.034368736922927232 -0.0064735300311200674 0 0.034201012655256886 -0.0048559003158558586 0 0.034889339488693619 -0.0054110218968264172 0 0.034368736922927232 -0.0064735300311200674 0 0.034368736922927232 -0.0064735300311200674 0 0.030442262202906328 -0.0042182074235350055 0 0.027718291487180458 -0.0050392936391724609 0 0.026218310188717803 -0.0028342191239765953 0 0.025109921369670333 -0.0026673757463197222 0 0.025547893840795439 -0.0031540679631699197 0 0.030191048928254936 -0.0045666175258119168 0 0.026471940665757168 -0.0037883876865222109 0 0.034201012655256886 -0.0048559003158558586 0 0.034368736922927232 -0.0064735300311200674 0 0.030442262202906328 -0.0042182074235350055 0 0.035240292561521933 -0.0054773362334613173 0 0.028181731206401692 -0.0024861259024228921 0 0.034201012655256886 -0.0048559003158558586 0 0.034749823144671191 -0.005129537814459832 0 0.035158484030320548 -0.005107545962983206 0 0.035084166910472135 -0.005323545940973339 0 0.034749823144671191 -0.005129537814459832 0 0.035158484030320548 -0.005107545962983206 0 0.029577558254673109 -0.0036508906148258885 0 0.028181731206401692 -0.0024861259024228921 0 0.034201012655256886 -0.0048559003158558586 0 0.030442262202906328 -0.0042182074235350055 0 0.030216221469516257 -0.0012315915522665003 0 0.030442262202906328 -0.0042182074235350055 0 0.029661246602797696 -0.002193181701613452 0 0.028589128101469248 -0.0034068366523263872 0 0.030442262202906328 -0.0042182074235350055 0 0.028589128101469248 -0.0034068366523263872 0 0.027718291487180458 -0.0050392936391724609 0 0.029661246602797696 -0.002193181701613452 0 0.028589128101469248 -0.0034068366523263872 0 0.026680271334004999 -0.0024256622156634345 0 0.026375938925831111 -0.00055278891117613923 0 0.029661246602797696 -0.002193181701613452 0 0.026680271334004999 -0.0024256622156634345 0 0.028589128101469248 -0.0034068366523263872 0 0.026680271334004999 -0.0024256622156634345 0 0.027718291487180458 -0.0050392936391724609 0 0.025109921369670333 -0.0026673757463197222 0 0.025053199692339309 -0.0031784531985603339 0 0.025547893840795439 -0.0031540679631699197 0 0.024519270201017934 -0.0030108888045526534 0 0.025109921369670333 -0.0026673757463197222 0 0.025053199692339309 -0.0031784531985603339 0 0.024645408695891373 -0.003452372673476057 0 0.025053199692339309 -0.0031784531985603339 0 0.025310387117417454 -0.0036989990353816964 0 0.025053199692339309 -0.0031784531985603339 0 0.025310387117417454 -0.0036989990353816964 0 0.025547893840795439 -0.0031540679631699197 0 0.024645408695891373 -0.003452372673476057 0 0.024797552990073971 -0.0038495499907471573 0 0.025310387117417454 -0.0036989990353816964 0 0.024797552990073971 -0.0038495499907471573 0 0.025310387117417454 -0.0036989990353816964 0 0.024970730092515901 -0.0043338326374857787 0 0.025310387117417454 -0.0036989990353816964 0 0.024970730092515901 -0.0043338326374857787 0 0.025853027909445006 -0.0043608404426857912 0 0.025853027909445006 -0.0043608404426857912 0 0.026036607211492292 -0.0034977361359533814 0 0.026546503300891124 -0.0040304553611903047 0 0.025310387117417454 -0.0036989990353816964 0 0.025853027909445006 -0.0043608404426857912 0 0.026036607211492292 -0.0034977361359533814 0 0.025310387117417454 -0.0036989990353816964 0 0.026036607211492292 -0.0034977361359533814 0 0.025547893840795439 -0.0031540679631699197 0 0.026218310188717803 -0.0028342191239765953 0 0.026036607211492292 -0.0034977361359533814 0 0.025547893840795439 -0.0031540679631699197 0 0.030191048928254936 -0.0045666175258119168 0 0.031869652776521332 -0.0040360899248471057 0 0.026218310188717803 -0.0028342191239765953 0 0.026877980877598955 -0.003210796433748908 0 0.0280879068007743 -0.0023883536388030814 0 0.026218310188717803 -0.0028342191239765953 0 0.026877980877598955 -0.003210796433748908 0 0.026416339909869326 -0.0033611756550584924 0 0.026218310188717803 -0.0028342191239765953 0 0.026036607211492292 -0.0034977361359533814 0 0.026416339909869326 -0.0033611756550584924 0 0.026877980877598955 -0.003210796433748908 0 0.026416339909869326 -0.0033611756550584924 0 0.026546503300891124 -0.0040304553611903047 0 0.026877980877598955 -0.003210796433748908 0 0.026546503300891124 -0.0040304553611903047 0 0.027214098751113195 -0.0041104548047255218 0 0.026036607211492292 -0.0034977361359533814 0 0.026416339909869326 -0.0033611756550584924 0 0.026546503300891124 -0.0040304553611903047 0 0.025853027909445006 -0.0043608404426857912 0 0.026546503300891124 -0.0040304553611903047 0 0.026566078890304969 -0.0046097602226027436 0 0.026546503300891124 -0.0040304553611903047 0 0.027238933708721529 -0.0046336583272846539 0 0.026566078890304969 -0.0046097602226027436 0 0.026546503300891124 -0.0040304553611903047 0 0.027214098751113195 -0.0041104548047255218 0 0.027238933708721529 -0.0046336583272846539 0 0.027214098751113195 -0.0041104548047255218 0 0.027238933708721529 -0.0046336583272846539 0 0.028529231440848585 -0.0045662665692473839 0 0.027310551174311085 -0.0047793738986544954 0 0.027238933708721529 -0.0046336583272846539 0 0.028529231440848585 -0.0045662665692473839 0 0.027214098751113195 -0.0041104548047255218 0 0.028529231440848585 -0.0045662665692473839 0 0.027565225454037483 -0.0035358613079657158 0 0.028529231440848585 -0.0045662665692473839 0 0.027565225454037483 -0.0035358613079657158 0 0.0280879068007743 -0.0023883536388030814 0 0.026877980877598955 -0.003210796433748908 0 0.027565225454037483 -0.0035358613079657158 0 0.0280879068007743 -0.0023883536388030814 0 0.026877980877598955 -0.003210796433748908 0 0.027214098751113195 -0.0041104548047255218 0 0.027565225454037483 -0.0035358613079657158 0 0.02713286826426832 -0.0050835308283391344 0 0.026516455510935177 -0.0050348027944669381 0 0.026873784267984778 -0.0048398215991729112 0 0.027310551174311085 -0.0047793738986544954 0 0.027238933708721529 -0.0046336583272846539 0 0.026873784267984778 -0.0048398215991729112 0 0.027238933708721529 -0.0046336583272846539 0 0.026873784267984778 -0.0048398215991729112 0 0.026566078890304969 -0.0046097602226027436 0 0.026873784267984778 -0.0048398215991729112 0 0.026191380467389704 -0.0048201487214207771 0 0.026566078890304969 -0.0046097602226027436 0 0.026516455510935177 -0.0050348027944669381 0 0.026873784267984778 -0.0048398215991729112 0 0.026191380467389704 -0.0048201487214207771 0 0.026516455510935177 -0.0050348027944669381 0 0.026191380467389704 -0.0048201487214207771 0 0.026024458158615003 -0.0049258480455407674 0 0.026191380467389704 -0.0048201487214207771 0 0.026024458158615003 -0.0049258480455407674 0 0.02551364038810771 -0.0050147480405678367 0 0.026024458158615003 -0.0049258480455407674 0 0.02551364038810771 -0.0050147480405678367 0 0.025880450995716897 -0.0048441076853297047 0 0.025853027909445006 -0.0043608404426857912 0 0.026191380467389704 -0.0048201487214207771 0 0.026566078890304969 -0.0046097602226027436 0 0.025853027909445006 -0.0043608404426857912 0 0.026191380467389704 -0.0048201487214207771 0 0.02551364038810771 -0.0050147480405678367 0 0.024970730092515901 -0.0043338326374857787 0 0.025853027909445006 -0.0043608404426857912 0 0.02551364038810771 -0.0050147480405678367 0 0.02551364038810771 -0.0050147480405678367 0 0.025939773032680687 -0.0047993888443409504 0 0.025880450995716897 -0.0048441076853297047 0 0.02551364038810771 -0.0050147480405678367 0 0.025939773032680687 -0.0047993888443409504 0 0.02622526054194807 -0.0047495997799725026 0 0.025939773032680687 -0.0047993888443409504 0 0.025880450995716897 -0.0048441076853297047 0 0.02602694271006387 -0.0046123760115609333 0 0.025880450995716897 -0.0048441076853297047 0 0.02602694271006387 -0.0046123760115609333 0 0.025930429905533299 -0.0046268963448842203 0 0.025939773032680687 -0.0047993888443409504 0 0.02602694271006387 -0.0046123760115609333 0 0.026154795661878144 -0.0046759675640342642 0 0.026001913662743438 -0.0043674787672174798 0 0.025862922852643168 -0.0040187878123518223 0 0.026192903489866158 -0.0039248478058004597 0 0.02602694271006387 -0.0046123760115609333 0 0.026187893621698238 -0.0043674336042559617 0 0.026154795661878144 -0.0046759675640342642 0 0.02602694271006387 -0.0046123760115609333 0 0.026187893621698238 -0.0043674336042559617 0 0.026001913662743438 -0.0043674787672174798 0 0.026187893621698238 -0.0043674336042559617 0 0.026001913662743438 -0.0043674787672174798 0 0.026192903489866158 -0.0039248478058004597 0 0.02602694271006387 -0.0046123760115609333 0 0.026001913662743438 -0.0043674787672174798 0 0.025930429905533299 -0.0046268963448842203 0 0.026001913662743438 -0.0043674787672174798 0 0.025872659298335338 -0.0044997192544834388 0 0.025930429905533299 -0.0046268963448842203 0 0.026001913662743438 -0.0043674787672174798 0 0.025872659298335338 -0.0044997192544834388 0 0.025862922852643168 -0.0040187878123518223 0 0.025774471232319091 -0.0042451213928959407 0 0.025872659298335338 -0.0044997192544834388 0 0.025862922852643168 -0.0040187878123518223 0 0.025774471232319091 -0.0042451213928959407 0 0.025872659298335338 -0.0044997192544834388 0 0.025730988943213989 -0.0044247303775221463 0 0.025872659298335338 -0.0044997192544834388 0 0.025933122908080145 -0.0047749873304716211 0 0.025939305704555469 -0.0047787390872996256 0 0.025880450995716897 -0.0048441076853297047 0 0.025933122908080145 -0.0047749873304716211 0 0.025930429905533299 -0.0046268963448842203 0 0.025872659298335338 -0.0044997192544834388 0 0.025933122908080145 -0.0047749873304716211 0 0.025930429905533299 -0.0046268963448842203 0 0.026024458158615003 -0.0049258480455407674 0 0.025933122908080145 -0.0047749873304716211 0 0.025939305704555469 -0.0047787390872996256 0 0.026024458158615003 -0.0049258480455407674 0 0.025880450995716897 -0.0048441076853297047 0 0.025933122908080145 -0.0047749873304716211 0 0.026516455510935177 -0.0050348027944669381 0 0.025939305704555469 -0.0047787390872996256 0 0.025425323789639815 -0.0044527277412484394 0 0.026516455510935177 -0.0050348027944669381 0 0.026024458158615003 -0.0049258480455407674 0 0.025939305704555469 -0.0047787390872996256 0 0.025730988943213989 -0.0044247303775221463 0 0.025425323789639815 -0.0044527277412484394 0 0.025644970170721943 -0.0040124841991899529 0 0.025872659298335338 -0.0044997192544834388 0 0.025939305704555469 -0.0047787390872996256 0 0.025730988943213989 -0.0044247303775221463 0 0.025774471232319091 -0.0042451213928959407 0 0.025730988943213989 -0.0044247303775221463 0 0.025644970170721943 -0.0040124841991899529 0 0.025939305704555469 -0.0047787390872996256 0 0.025730988943213989 -0.0044247303775221463 0 0.025425323789639815 -0.0044527277412484394 0 0.02689216191162978 -0.0054242807036662555 0 0.026781692637922572 -0.0054363088719321974 0 0.026835799976559598 -0.0052451146193568093 0 0.02642577432909967 -0.0049178938473303253 0 0.026196727344795161 -0.0050063621621432124 0 0.02713286826426832 -0.0050835308283391344 0 0.026516455510935177 -0.0050348027944669381 0 0.026835799976559598 -0.0052451146193568093 0 0.026516455510935177 -0.0050348027944669381 0 0.026781692637922572 -0.0054363088719321974 0 0.026835799976559598 -0.0052451146193568093 0 0.023460812090709295 -0.005244422894120972 0 0.023050881923675274 -0.0053361313719537378 0 0.023095966129025335 -0.0048564788547421894 0 0.020415074124928028 -0.0056823496232864777 0 0.023168046972924117 -0.0044708620297467206 0 0.023460812090709295 -0.005244422894120972 0 0.023713125872278706 -0.0055314957352304052 0 0.023415475741256499 -0.0056595905503264172 0 0.023460812090709295 -0.005244422894120972 0 0.023050881923675274 -0.0053361313719537378 0 0.023415475741256499 -0.0056595905503264172 0 0.01051561181513409 -0.0030393591028144884 0 0.010379524762586067 -0.0029466232337554345 0 0.010337809074199579 -0.0029984492717515577 0 0.01051561181513409 -0.0030393591028144884 0 0.010355261375976383 -0.003124541827417982 0 0.010337809074199579 -0.0029984492717515577 0 0.02271682921251212 -0.0043101993219143543 0 0.022769073690950943 -0.0054553688337503877 0 0.023095966129025335 -0.0048564788547421894 0 0.010361983756162509 -0.0028944580091095598 0 0.01051561181513409 -0.0030393591028144884 0 0.010379524762586067 -0.0029466232337554345 0 0.016077681135630368 -0.0032994999854577263 0 0.020415074124928028 -0.0056823496232864777 0 0.010361983756162509 -0.0028944580091095598 0 0.01034210023555408 -0.0029064517111763847 0 0.010379524762586067 -0.0029466232337554345 0 0.023456423449633279 -0.0042776039119547665 0 0.02271682921251212 -0.0043101993219143543 0 0.023095966129025335 -0.0048564788547421894 0 0.023460812090709295 -0.005244422894120972 0 0.023095966129025335 -0.0048564788547421894 0 0.023628603461641879 -0.0047889990213610982 0 0.023456423449633279 -0.0042776039119547665 0 0.023095966129025335 -0.0048564788547421894 0 0.023628603461641879 -0.0047889990213610982 0 0.023456423449633279 -0.0042776039119547665 0 0.02415421940174416 -0.004472741257118518 0 0.023628603461641879 -0.0047889990213610982 0 0.02415421940174416 -0.004472741257118518 0 0.023628603461641879 -0.0047889990213610982 0 0.024030204253251995 -0.0051508718169594823 0 0.02415421940174416 -0.004472741257118518 0 0.024646042049914257 -0.0048079075062068622 0 0.024030204253251995 -0.0051508718169594823 0 0.024970730092515901 -0.0043338326374857787 0 0.02551364038810771 -0.0050147480405678367 0 0.024646042049914257 -0.0048079075062068622 0 0.024970730092515901 -0.0043338326374857787 0 0.02415421940174416 -0.004472741257118518 0 0.024646042049914257 -0.0048079075062068622 0 0.02551364038810771 -0.0050147480405678367 0 0.024646042049914257 -0.0048079075062068622 0 0.02450778978688619 -0.0053214144015564261 0 0.02551364038810771 -0.0050147480405678367 0 0.02450778978688619 -0.0053214144015564261 0 0.024464171530468436 -0.005914948674967546 0 0.025516403900655498 -0.0050324419595716508 0 0.025395735439352252 -0.0052359460247584991 0 0.024646042049914257 -0.0048079075062068622 0 0.02450778978688619 -0.0053214144015564261 0 0.024030204253251995 -0.0051508718169594823 0 0.02450778978688619 -0.0053214144015564261 0 0.024030204253251995 -0.0051508718169594823 0 0.02405860280596658 -0.0057131867064057823 0 0.024030204253251995 -0.0051508718169594823 0 0.023713125872278706 -0.0055314957352304052 0 0.02405860280596658 -0.0057131867064057823 0 0.023460812090709295 -0.005244422894120972 0 0.024030204253251995 -0.0051508718169594823 0 0.023713125872278706 -0.0055314957352304052 0 0.023460812090709295 -0.005244422894120972 0 0.023628603461641879 -0.0047889990213610982 0 0.024030204253251995 -0.0051508718169594823 0 0.023713125872278706 -0.0055314957352304052 0 0.02405860280596658 -0.0057131867064057823 0 0.023687276782102328 -0.0058074369885744402 0 0.02405860280596658 -0.0057131867064057823 0 0.024087914339157055 -0.0058887468708671304 0 0.023838192721947503 -0.0059357227596058791 0 0.024087914339157055 -0.0058887468708671304 0 0.02402299135073142 -0.0059959142252428745 0 0.023838192721947503 -0.0059357227596058791 0 0.02405860280596658 -0.0057131867064057823 0 0.023838192721947503 -0.0059357227596058791 0 0.023687276782102328 -0.0058074369885744402 0 0.023838192721947503 -0.0059357227596058791 0 0.023633402626950347 -0.0060516297557290377 0 0.023687276782102328 -0.0058074369885744402 0 0.02450778978688619 -0.0053214144015564261 0 0.02405860280596658 -0.0057131867064057823 0 0.024464171530468436 -0.005914948674967546 0 0.02405860280596658 -0.0057131867064057823 0 0.024087914339157055 -0.0058887468708671304 0 0.024464171530468436 -0.005914948674967546 0 0.024087914339157055 -0.0058887468708671304 0 0.02402299135073142 -0.0059959142252428745 0 0.024464171530468436 -0.005914948674967546 0 0.025939773032680687 -0.0047993888443409504 0 0.02622526054194807 -0.0047495997799725026 0 0.026154795661878144 -0.0046759675640342642 0 0.026106087390832592 -0.0047426371185031006 0 0.026844231096588438 -0.0042117357683385528 0 0.026154795661878144 -0.0046759675640342642 0 0.026426067512940452 -0.0043185903307692971 0 0.026958839627884791 -0.0041825436124791147 0 0.02622526054194807 -0.0047495997799725026 0 0.026154795661878144 -0.0046759675640342642 0 0.026277954762877059 -0.0045996309887003156 0 0.026187893621698238 -0.0043674336042559617 0 0.026154795661878144 -0.0046759675640342642 0 0.026426067512940452 -0.0043185903307692971 0 0.026426067512940452 -0.0043185903307692971 0 0.026958839627884791 -0.0041825436124791147 0 0.026618684269072296 -0.0040670282202655908 0 0.026187893621698238 -0.0043674336042559617 0 0.026426067512940452 -0.0043185903307692971 0 0.026395517994328786 -0.0040660858283248138 0 0.026187893621698238 -0.0043674336042559617 0 0.026395517994328786 -0.0040660858283248138 0 0.026192903489866158 -0.0039248478058004597 0 0.026426067512940452 -0.0043185903307692971 0 0.026395517994328786 -0.0040660858283248138 0 0.026618684269072296 -0.0040670282202655908 0 0.02622526054194807 -0.0047495997799725026 0 0.026294146977963812 -0.0046143195554687669 0 0.026277954762877059 -0.0045996309887003156 0 0.02402299135073142 -0.0059959142252428745 0 0.024464171530468436 -0.005914948674967546 0 0.023793911512122044 -0.0061963396362419137 0 0.025395735439352252 -0.0052359460247584991 0 0.024790955678995179 -0.005598377240088207 0 0.02380568279745671 -0.0060683746403238535 0 0.023755631064837357 -0.006138140216528646 0 0.023633402626950347 -0.0060516297557290377 0 0.023838192721947503 -0.0059357227596058791 0 0.02380568279745671 -0.0060683746403238535 0 0.023633402626950347 -0.0060516297557290377 0 0.02402299135073142 -0.0059959142252428745 0 0.023838192721947503 -0.0059357227596058791 0 0.02380568279745671 -0.0060683746403238535 0 0.02402299135073142 -0.0059959142252428745 0 0.02380568279745671 -0.0060683746403238535 0 0.023793911512122044 -0.0061963396362419137 0 0.02380568279745671 -0.0060683746403238535 0 0.023793911512122044 -0.0061963396362419137 0 0.023755631064837357 -0.006138140216528646 0 0.023793911512122044 -0.0061963396362419137 0 0.023755631064837357 -0.006138140216528646 0 0.023684907469105444 -0.0061393438036883383 0 0.023793911512122044 -0.0061963396362419137 0 0.023684907469105444 -0.0061393438036883383 0 0.023625773525909048 -0.0061556516763599835 0 0.023684907469105444 -0.0061393438036883383 0 0.023590819411070656 -0.0061211844350434145 0 0.023625773525909048 -0.0061556516763599835 0 0.023684907469105444 -0.0061393438036883383 0 0.023590819411070656 -0.0061211844350434145 0 0.023633402626950347 -0.0060516297557290377 0 0.023755631064837357 -0.006138140216528646 0 0.023684907469105444 -0.0061393438036883383 0 0.023633402626950347 -0.0060516297557290377 0 0.023590819411070656 -0.0061211844350434145 0 0.023487050485265077 -0.0060788274689068398 0 0.023566088784072594 -0.006144034943081707 0 0.023590819411070656 -0.0061211844350434145 0 0.023487050485265077 -0.0060788274689068398 0 0.023633402626950347 -0.0060516297557290377 0 0.023487050485265077 -0.0060788274689068398 0 0.023496290189114769 -0.0059373852404036743 0 0.023305628453993289 -0.0059709918455568556 0 0.023487050485265077 -0.0060788274689068398 0 0.023633402626950347 -0.0060516297557290377 0 0.023496290189114769 -0.0059373852404036743 0 0.023687276782102328 -0.0058074369885744402 0 0.023496290189114769 -0.0059373852404036743 0 0.023415475741256499 -0.0056595905503264172 0 0.023633402626950347 -0.0060516297557290377 0 0.023687276782102328 -0.0058074369885744402 0 0.023496290189114769 -0.0059373852404036743 0 0.023496290189114769 -0.0059373852404036743 0 0.023415475741256499 -0.0056595905503264172 0 0.023305628453993289 -0.0059709918455568556 0 0.023713125872278706 -0.0055314957352304052 0 0.023687276782102328 -0.0058074369885744402 0 0.023415475741256499 -0.0056595905503264172 0 0.020415074124928028 -0.0056823496232864777 0 0.024385072421329566 -0.005722034719289718 0 0.024617642321817828 -0.0087815892031196524 0 0.024812822948545858 -0.0050250175641944599 0 0.026857847073255302 -0.0049448077039226648 0 0.020415074124928028 -0.0056823496232864777 0 0.018215718494612874 -0.0042672135972117147 0 0.01051561181513409 -0.0030393591028144884 0 0.010426398410712367 -0.0032967511224593457 0 0.010355261375976383 -0.003124541827417982 0 0.023050881923675274 -0.0053361313719537378 0 0.023415475741256499 -0.0056595905503264172 0 0.023305628453993289 -0.0059709918455568556 0 0.025995465871108507 -0.0030532876838694051 0 0.026857847073255302 -0.0049448077039226648 0 0.027321723570825757 -0.0011424401125717434 0 0.024385072421329566 -0.005722034719289718 0 0.024042097493976643 -0.0037224920051540096 0 0.024812822948545858 -0.0050250175641944599 0 0.025995465871108507 -0.0030532876838694051 0 0.026857847073255302 -0.0049448077039226648 0 0.023487050485265077 -0.0060788274689068398 0 0.023305628453993289 -0.0059709918455568556 0 0.023584999793410878 -0.0061634975655673928 0 0.024812822948545858 -0.0050250175641944599 0 0.025995465871108507 -0.0030532876838694051 0 0.025012530407261861 -0.0010922499639555558 0 0.010426398410712367 -0.0032967511224593457 0 0.010159922197752792 -0.0034093770479957193 0 0.009992178070466224 -0.0036160514107214359 0 0.018215718494612874 -0.0042672135972117147 0 0.019637243490714371 -0.0021443149109742011 0 0.010426398410712367 -0.0032967511224593457 0 0.010159922197752792 -0.0034093770479957193 0 0.010199770678238363 -0.003238718965055302 0 0.01007754519992175 -0.0033863536034915201 0 0.01005669134451587 -0.0034388719505551728 0 0.01009864397604718 -0.0034822687366931533 0 0.010159922197752792 -0.0034093770479957193 0 0.01007754519992175 -0.0033863536034915201 0 0.01009864397604718 -0.0034822687366931533 0 0.01007754519992175 -0.0033863536034915201 0 0.0099105851447693471 -0.0034000044101469471 0 0.01005669134451587 -0.0034388719505551728 0 0.01007754519992175 -0.0033863536034915201 0 0.01004337421630185 -0.0032840487272199534 0 0.0099105851447693471 -0.0034000044101469471 0 0.01007754519992175 -0.0033863536034915201 0 0.01004337421630185 -0.0032840487272199534 0 0.010199770678238363 -0.003238718965055302 0 0.010159922197752792 -0.0034093770479957193 0 0.01007754519992175 -0.0033863536034915201 0 0.010199770678238363 -0.003238718965055302 0 0.010088826588221919 -0.0031533064901358484 0 0.010199770678238363 -0.003238718965055302 0 0.010236561271893501 -0.0030679847496916531 0 0.01004337421630185 -0.0032840487272199534 0 0.010088826588221919 -0.0031533064901358484 0 0.010199770678238363 -0.003238718965055302 0 0.010355261375976383 -0.003124541827417982 0 0.010199770678238363 -0.003238718965055302 0 0.010236561271893501 -0.0030679847496916531 0 0.010426398410712367 -0.0032967511224593457 0 0.010355261375976383 -0.003124541827417982 0 0.010199770678238363 -0.003238718965055302 0 0.0097459308414462997 -0.0033587621107087303 0 0.0099105851447693471 -0.0034000044101469471 0 0.0096178822185799921 -0.0035097862685516189 0 0.0097459308414462997 -0.0033587621107087303 0 0.00945339586649851 -0.0033739907882496677 0 0.0096178822185799921 -0.0035097862685516189 0 0.0097459308414462997 -0.0033587621107087303 0 0.0099105851447693471 -0.0034000044101469471 0 0.0099075692535975299 -0.0032690814671915459 0 0.01004337421630185 -0.0032840487272199534 0 0.0099105851447693471 -0.0034000044101469471 0 0.0099075692535975299 -0.0032690814671915459 0 0.01004337421630185 -0.0032840487272199534 0 0.010088826588221919 -0.0031533064901358484 0 0.0099075692535975299 -0.0032690814671915459 0 0.010088826588221919 -0.0031533064901358484 0 0.0099527860539420886 -0.0031295708886369335 0 0.0099075692535975299 -0.0032690814671915459 0 0.0099527860539420886 -0.0031295708886369335 0 0.0099075692535975299 -0.0032690814671915459 0 0.0097576287487434448 -0.0032189610929265911 0 0.0097459308414462997 -0.0033587621107087303 0 0.0099075692535975299 -0.0032690814671915459 0 0.0097576287487434448 -0.0032189610929265911 0 0.0097576287487434448 -0.0032189610929265911 0 0.0095801126981334018 -0.003128128619658878 0 0.00945339586649851 -0.0033739907882496677 0 0.0097459308414462997 -0.0033587621107087303 0 0.0097576287487434448 -0.0032189610929265911 0 0.00945339586649851 -0.0033739907882496677 0 0.0095801126981334018 -0.003128128619658878 0 0.0099047711754472311 -0.0030134128123084267 0 0.0096894207627947378 -0.0029025325922340645 0 0.0097576287487434448 -0.0032189610929265911 0 0.0095801126981334018 -0.003128128619658878 0 0.0099047711754472311 -0.0030134128123084267 0 0.0099527860539420886 -0.0031295708886369335 0 0.0097576287487434448 -0.0032189610929265911 0 0.0099047711754472311 -0.0030134128123084267 0 0.0099527860539420886 -0.0031295708886369335 0 0.0099047711754472311 -0.0030134128123084267 0 0.010103111470683896 -0.0030293151593059403 0 0.0099047711754472311 -0.0030134128123084267 0 0.010098791396587585 -0.0029250607840720999 0 0.010103111470683896 -0.0030293151593059403 0 0.010088826588221919 -0.0031533064901358484 0 0.0099527860539420886 -0.0031295708886369335 0 0.010103111470683896 -0.0030293151593059403 0 0.0099047711754472311 -0.0030134128123084267 0 0.010098791396587585 -0.0029250607840720999 0 0.010003936676600446 -0.0028472088214254966 0 0.010098791396587585 -0.0029250607840720999 0 0.010003936676600446 -0.0028472088214254966 0 0.010212167447614747 -0.0028365922028396788 0 0.0099047711754472311 -0.0030134128123084267 0 0.010003936676600446 -0.0028472088214254966 0 0.0096894207627947378 -0.0029025325922340645 0 0.010003936676600446 -0.0028472088214254966 0 0.0096894207627947378 -0.0029025325922340645 0 0.009809750157420279 -0.0027088591469291833 0 0.010337809074199579 -0.0029984492717515577 0 0.010236561271893501 -0.0030679847496916531 0 0.010221004902192509 -0.0029488651474817366 0 0.010355261375976383 -0.003124541827417982 0 0.010337809074199579 -0.0029984492717515577 0 0.010236561271893501 -0.0030679847496916531 0 0.010088826588221919 -0.0031533064901358484 0 0.010236561271893501 -0.0030679847496916531 0 0.010103111470683896 -0.0030293151593059403 0 0.010236561271893501 -0.0030679847496916531 0 0.010103111470683896 -0.0030293151593059403 0 0.010221004902192509 -0.0029488651474817366 0 0.010221004902192509 -0.0029488651474817366 0 0.010303690225846523 -0.0028939865991752332 0 0.010212167447614747 -0.0028365922028396788 0 0.010098791396587585 -0.0029250607840720999 0 0.010221004902192509 -0.0029488651474817366 0 0.010212167447614747 -0.0028365922028396788 0 0.010098791396587585 -0.0029250607840720999 0 0.010103111470683896 -0.0030293151593059403 0 0.010221004902192509 -0.0029488651474817366 0 0.010337809074199579 -0.0029984492717515577 0 0.010221004902192509 -0.0029488651474817366 0 0.010303690225846523 -0.0028939865991752332 0 0.010379524762586067 -0.0029466232337554345 0 0.010337809074199579 -0.0029984492717515577 0 0.010303690225846523 -0.0028939865991752332 0 0.01034210023555408 -0.0029064517111763847 0 0.010379524762586067 -0.0029466232337554345 0 0.010303690225846523 -0.0028939865991752332 0 0.010303690225846523 -0.0028939865991752332 0 0.01032203553674046 -0.0029280287900690753 0 0.010333524326736543 -0.0028974924082909828 0 0.01034210023555408 -0.0029064517111763847 0 0.010303690225846523 -0.0028939865991752332 0 0.01032203553674046 -0.0029280287900690753 0 0.01032203553674046 -0.0029280287900690753 0 0.010333524326736543 -0.0028974924082909828 0 0.010370205647765255 -0.0031615724286184988 0 0.010333524326736543 -0.0028974924082909828 0 0.010293355932453214 -0.0027756304325520318 0 0.010401055735344781 -0.0029976443469134102 0 0.010333524326736543 -0.0028974924082909828 0 0.010370205647765255 -0.0031615724286184988 0 0.010401055735344781 -0.0029976443469134102 0 0.010333524326736543 -0.0028974924082909828 0 0.010212167447614747 -0.0028365922028396788 0 0.010293355932453214 -0.0027756304325520318 0 0.010303690225846523 -0.0028939865991752332 0 0.010333524326736543 -0.0028974924082909828 0 0.010212167447614747 -0.0028365922028396788 0 0.010003936676600446 -0.0028472088214254966 0 0.010212167447614747 -0.0028365922028396788 0 0.010105373520045195 -0.0027378263018471754 0 0.010212167447614747 -0.0028365922028396788 0 0.010105373520045195 -0.0027378263018471754 0 0.010293355932453214 -0.0027756304325520318 0 0.010003936676600446 -0.0028472088214254966 0 0.009809750157420279 -0.0027088591469291833 0 0.010105373520045195 -0.0027378263018471754 0 0.009809750157420279 -0.0027088591469291833 0 0.010105373520045195 -0.0027378263018471754 0 0.010096170894811527 -0.0026157769480491767 0 0.009809750157420279 -0.0027088591469291833 0 0.010096170894811527 -0.0026157769480491767 0 0.0097230469088235693 -0.0025111773295245581 0 0.010105373520045195 -0.0027378263018471754 0 0.010096170894811527 -0.0026157769480491767 0 0.010293355932453214 -0.0027756304325520318 0 0.010096170894811527 -0.0026157769480491767 0 0.010391678066127206 -0.0026161866730972628 0 0.010293355932453214 -0.0027756304325520318 0 0.010096170894811527 -0.0026157769480491767 0 0.010391678066127206 -0.0026161866730972628 0 0.0098796791811578966 -0.0024253052758542522 0 0.010391678066127206 -0.0026161866730972628 0 0.010293355932453214 -0.0027756304325520318 0 0.010405823798937642 -0.0029113574970793246 0 0.010293355932453214 -0.0027756304325520318 0 0.010405823798937642 -0.0029113574970793246 0 0.010401055735344781 -0.0029976443469134102 0 0.010405823798937642 -0.0029113574970793246 0 0.010546847672512955 -0.003368270999345559 0 0.010401055735344781 -0.0029976443469134102 0 0.010405823798937642 -0.0029113574970793246 0 0.010614604584034749 -0.0033307629245442503 0 0.010546847672512955 -0.003368270999345559 0 0.010391678066127206 -0.0026161866730972628 0 0.010614604584034749 -0.0033307629245442503 0 0.010899728396314624 -0.0033400754382417021 0 0.010391678066127206 -0.0026161866730972628 0 0.010405823798937642 -0.0029113574970793246 0 0.010614604584034749 -0.0033307629245442503 0 0.010783561764882524 -0.0037681485724698057 0 0.010614604584034749 -0.0033307629245442503 0 0.010900223744187476 -0.0038017290654411922 0 0.010614604584034749 -0.0033307629245442503 0 0.010900223744187476 -0.0038017290654411922 0 0.010899728396314624 -0.0033400754382417021 0 0.010783561764882524 -0.0037681485724698057 0 0.010614604584034749 -0.0033307629245442503 0 0.010546847672512955 -0.003368270999345559 0 0.010546847672512955 -0.003368270999345559 0 0.010495164638312314 -0.0035745727242213381 0 0.010370205647765255 -0.0031615724286184988 0 0.010179983260107984 -0.0034821933032217227 0 0.010495164638312314 -0.0035745727242213381 0 0.010370205647765255 -0.0031615724286184988 0 0.010546847672512955 -0.003368270999345559 0 0.010370205647765255 -0.0031615724286184988 0 0.010401055735344781 -0.0029976443469134102 0 0.011078886583462443 -0.0031469138092092334 0 0.011712368748626165 -0.0034067615509247168 0 0.011417585884315367 -0.0033369138699459928 0 0.011078886583462443 -0.0031469138092092334 0 0.011417585884315367 -0.0033369138699459928 0 0.010712898585083046 -0.0030148593934353975 0 0.0085341392451735963 -0.0016563878317573642 0 0.0083433335639306189 -0.0021660757636636834 0 0.0082801962364258408 -0.0015932795261327933 0 0.011709651245034374 -0.0034840844851607659 0 0.010508838435948652 -0.0027182524099808713 0 0.0085341392451735963 -0.0016563878317573642 0 0.0086108743927211934 -0.0018610159255853876 0 0.0082801962364258408 -0.0015932795261327933 0 0.0097433544015272603 -0.0024216558577138149 0 0.010221790350889152 -0.0028010257984458068 0 0.0077561107679287944 -0.001299836501630589 0 0.0082416596995870828 -0.0015425246050123015 0 0.0086181664189881029 -0.0022319616503645614 0 0.0083433335639306189 -0.0021660757636636834 0 0.0082801962364258408 -0.0015932795261327933 0 0.012089306692808947 -0.0036318202963147419 0 0.011712368748626165 -0.0034067615509247168 0 0.011417585884315367 -0.0033369138699459928 0 0.012089306692808947 -0.0036318202963147419 0 0.011884020220022636 -0.0037731100915986047 0 0.011748808251515589 -0.0035045544979272654 0 0.012013980053217396 -0.0035938949144046824 0 0.011709651245034374 -0.0034840844851607659 0 0.011748808251515589 -0.0035045544979272654 0 0.011679763022985883 -0.0037332321654926152 0 0.011457533296822812 -0.0036491396309998934 0 0.011884020220022636 -0.0037731100915986047 0 0.011748808251515589 -0.0035045544979272654 0 0.011679763022985883 -0.0037332321654926152 0 0.011457533296822812 -0.0036491396309998934 0 0.011151370176526964 -0.003569609230602159 0 0.011305933835520678 -0.0031815625749148932 0 0.011748808251515589 -0.0035045544979272654 0 0.011457533296822812 -0.0036491396309998934 0 0.011305933835520678 -0.0031815625749148932 0 0.011182466469629922 -0.0038799750422804998 0 0.011457533296822812 -0.0036491396309998934 0 0.011151370176526964 -0.003569609230602159 0 0.011182466469629922 -0.0038799750422804998 0 0.010900223744187476 -0.0038017290654411922 0 0.011151370176526964 -0.003569609230602159 0 0.010900223744187476 -0.0038017290654411922 0 0.011151370176526964 -0.003569609230602159 0 0.010899728396314624 -0.0033400754382417021 0 0.011151370176526964 -0.003569609230602159 0 0.010899728396314624 -0.0033400754382417021 0 0.011305933835520678 -0.0031815625749148932 0 0.010899728396314624 -0.0033400754382417021 0 0.011067974131734363 -0.0030012835357084806 0 0.011305933835520678 -0.0031815625749148932 0 0.010232273713028593 -0.0024775627803996234 0 0.010508838435948652 -0.0027182524099808713 0 0.010349787569535782 -0.002541092061430212 0 0.010232273713028593 -0.0024775627803996234 0 0.010391678066127206 -0.0026161866730972628 0 0.010899728396314624 -0.0033400754382417021 0 0.011067974131734363 -0.0030012835357084806 0 0.0085341392451735963 -0.0016563878317573642 0 0.0089562468864115511 -0.0019399678208700142 0 0.0086108743927211934 -0.0018610159255853876 0 0.0097433544015272603 -0.0024216558577138149 0 0.010508838435948652 -0.0027182524099808713 0 0.0095791063425767868 -0.001827380279517146 0 0.0091143232778665897 -0.0016519961589172233 0 0.0089562468864115511 -0.0019399678208700142 0 0.0085341392451735963 -0.0016563878317573642 0 0.0091143232778665897 -0.0016519961589172233 0 0.0089562468864115511 -0.0019399678208700142 0 0.0089510253461992095 -0.002197882119834212 0 0.0093904348931568016 -0.0022172782521404097 0 0.009394140601460009 -0.0025408964922544988 0 0.0089562468864115511 -0.0019399678208700142 0 0.0089510253461992095 -0.002197882119834212 0 0.0086108743927211934 -0.0018610159255853876 0 0.0089562468864115511 -0.0019399678208700142 0 0.0089510253461992095 -0.002197882119834212 0 0.0093904348931568016 -0.0022172782521404097 0 0.0093904348931568016 -0.0022172782521404097 0 0.0097230469088235693 -0.0025111773295245581 0 0.009394140601460009 -0.0025408964922544988 0 0.010391678066127206 -0.0026161866730972628 0 0.0095791063425767868 -0.001827380279517146 0 0.0098796791811578966 -0.0024253052758542522 0 0.0095791063425767868 -0.001827380279517146 0 0.0089562468864115511 -0.0019399678208700142 0 0.0093904348931568016 -0.0022172782521404097 0 0.0095791063425767868 -0.001827380279517146 0 0.0098796791811578966 -0.0024253052758542522 0 0.0093904348931568016 -0.0022172782521404097 0 0.010096170894811527 -0.0026157769480491767 0 0.0098796791811578966 -0.0024253052758542522 0 0.0097230469088235693 -0.0025111773295245581 0 0.0098796791811578966 -0.0024253052758542522 0 0.0093904348931568016 -0.0022172782521404097 0 0.0097230469088235693 -0.0025111773295245581 0 0.009809750157420279 -0.0027088591469291833 0 0.0097230469088235693 -0.0025111773295245581 0 0.009394140601460009 -0.0025408964922544988 0 0.009394140601460009 -0.0025408964922544988 0 0.0090217045278237224 -0.0025211610039277553 0 0.0094135878370059673 -0.0027579682400051121 0 0.009809750157420279 -0.0027088591469291833 0 0.009394140601460009 -0.0025408964922544988 0 0.0094135878370059673 -0.0027579682400051121 0 0.0089510253461992095 -0.002197882119834212 0 0.0090217045278237224 -0.0025211610039277553 0 0.0084207374002876652 -0.0021713231432313311 0 0.0089510253461992095 -0.002197882119834212 0 0.009394140601460009 -0.0025408964922544988 0 0.0090217045278237224 -0.0025211610039277553 0 0.0090217045278237224 -0.0025211610039277553 0 0.0084207374002876652 -0.0021713231432313311 0 0.008679276801788139 -0.0026156478027622998 0 0.0084207374002876652 -0.0021713231432313311 0 0.0086108743927211934 -0.0018610159255853876 0 0.0082801962364258408 -0.0015932795261327933 0 0.0089510253461992095 -0.002197882119834212 0 0.0084207374002876652 -0.0021713231432313311 0 0.0086108743927211934 -0.0018610159255853876 0 0.0070373043960864495 -0.0012605749617922541 0 0.0082801962364258408 -0.0015932795261327933 0 0.0077446420095126445 -0.0019042496113172453 0 0.0084207374002876652 -0.0021713231432313311 0 0.0082801962364258408 -0.0015932795261327933 0 0.0077446420095126445 -0.0019042496113172453 0 0.0084207374002876652 -0.0021713231432313311 0 0.0077446420095126445 -0.0019042496113172453 0 0.0078013334379004682 -0.0023910565903541721 0 0.0078013334379004682 -0.0023910565903541721 0 0.0082725777038694607 -0.0026591757041785793 0 0.0080430395431906731 -0.0029165954484296173 0 0.0084207374002876652 -0.0021713231432313311 0 0.0078013334379004682 -0.0023910565903541721 0 0.0082725777038694607 -0.0026591757041785793 0 0.0073967105358995642 -0.0027105438678369422 0 0.0078013334379004682 -0.0023910565903541721 0 0.0080430395431906731 -0.0029165954484296173 0 0.0084207374002876652 -0.0021713231432313311 0 0.008679276801788139 -0.0026156478027622998 0 0.0082725777038694607 -0.0026591757041785793 0 0.008679276801788139 -0.0026156478027622998 0 0.0082725777038694607 -0.0026591757041785793 0 0.0085949997053780345 -0.0028989221671110953 0 0.0085949997053780345 -0.0028989221671110953 0 0.0080430395431906731 -0.0029165954484296173 0 0.0085481635619400944 -0.0033069672737858747 0 0.0085949997053780345 -0.0028989221671110953 0 0.0089412329870870444 -0.0030538657964739994 0 0.0085481635619400944 -0.0033069672737858747 0 0.0082725777038694607 -0.0026591757041785793 0 0.0085949997053780345 -0.0028989221671110953 0 0.0080430395431906731 -0.0029165954484296173 0 0.0073967105358995642 -0.0027105438678369422 0 0.0076105862236087833 -0.0030424054732073624 0 0.0080430395431906731 -0.0029165954484296173 0 0.0076105862236087833 -0.0030424054732073624 0 0.0080430395431906731 -0.0029165954484296173 0 0.0078450489551646976 -0.0033334083160342807 0 0.0096894207627947378 -0.0029025325922340645 0 0.009809750157420279 -0.0027088591469291833 0 0.0094135878370059673 -0.0027579682400051121 0 0.0096894207627947378 -0.0029025325922340645 0 0.0094135878370059673 -0.0027579682400051121 0 0.0093485150258061402 -0.0029881409210201705 0 0.0094135878370059673 -0.0027579682400051121 0 0.0090212097724260386 -0.002816587969859158 0 0.0093485150258061402 -0.0029881409210201705 0 0.0090217045278237224 -0.0025211610039277553 0 0.0094135878370059673 -0.0027579682400051121 0 0.0090212097724260386 -0.002816587969859158 0 0.0090217045278237224 -0.0025211610039277553 0 0.008679276801788139 -0.0026156478027622998 0 0.0090212097724260386 -0.002816587969859158 0 0.008679276801788139 -0.0026156478027622998 0 0.0085949997053780345 -0.0028989221671110953 0 0.0090212097724260386 -0.002816587969859158 0 0.0089412329870870444 -0.0030538657964739994 0 0.0093485150258061402 -0.0029881409210201705 0 0.0091465468402654078 -0.00326180943049687 0 0.0085949997053780345 -0.0028989221671110953 0 0.0090212097724260386 -0.002816587969859158 0 0.0089412329870870444 -0.0030538657964739994 0 0.0090212097724260386 -0.002816587969859158 0 0.0089412329870870444 -0.0030538657964739994 0 0.0093485150258061402 -0.0029881409210201705 0 0.0095801126981334018 -0.003128128619658878 0 0.0093485150258061402 -0.0029881409210201705 0 0.0091465468402654078 -0.00326180943049687 0 0.0095801126981334018 -0.003128128619658878 0 0.0096894207627947378 -0.0029025325922340645 0 0.0093485150258061402 -0.0029881409210201705 0 0.0095801126981334018 -0.003128128619658878 0 0.0091465468402654078 -0.00326180943049687 0 0.00945339586649851 -0.0033739907882496677 0 0.0089412329870870444 -0.0030538657964739994 0 0.0091465468402654078 -0.00326180943049687 0 0.0085481635619400944 -0.0033069672737858747 0 0.0091465468402654078 -0.00326180943049687 0 0.0088793375006241525 -0.0034990769435746614 0 0.0085481635619400944 -0.0033069672737858747 0 0.0088793375006241525 -0.0034990769435746614 0 0.0085067187659459819 -0.0036383528415343488 0 0.0087299868223960422 -0.0036903976198543872 0 0.00945339586649851 -0.0033739907882496677 0 0.0092976145578586369 -0.003656597673796752 0 0.0096178822185799921 -0.0035097862685516189 0 0.0091465468402654078 -0.00326180943049687 0 0.0088793375006241525 -0.0034990769435746614 0 0.00945339586649851 -0.0033739907882496677 0 0.0088793375006241525 -0.0034990769435746614 0 0.00945339586649851 -0.0033739907882496677 0 0.0092976145578586369 -0.003656597673796752 0 0.0078450489551646976 -0.0033334083160342807 0 0.0085481635619400944 -0.0033069672737858747 0 0.0081790323272856909 -0.003584862079418479 0 0.0080430395431906731 -0.0029165954484296173 0 0.0078450489551646976 -0.0033334083160342807 0 0.0085481635619400944 -0.0033069672737858747 0 0.0088793375006241525 -0.0034990769435746614 0 0.0085481635619400944 -0.0033069672737858747 0 0.0085067187659459819 -0.0036383528415343488 0 0.0085481635619400944 -0.0033069672737858747 0 0.0085067187659459819 -0.0036383528415343488 0 0.0081790323272856909 -0.003584862079418479 0 0.0085067187659459819 -0.0036383528415343488 0 0.0081790323272856909 -0.003584862079418479 0 0.0081978325130343203 -0.003818346841984995 0 0.0081790323272856909 -0.003584862079418479 0 0.0078266302382412958 -0.003668202005063043 0 0.0081978325130343203 -0.003818346841984995 0 0.0078450489551646976 -0.0033334083160342807 0 0.0081790323272856909 -0.003584862079418479 0 0.0078266302382412958 -0.003668202005063043 0 0.0078266302382412958 -0.003668202005063043 0 0.0081978325130343203 -0.003818346841984995 0 0.0077990899574227422 -0.0038575080608536432 0 0.0081978325130343203 -0.003818346841984995 0 0.0083752630406696456 -0.0038841596685566296 0 0.0081021953407915594 -0.0040016284048931304 0 0.0081978325130343203 -0.003818346841984995 0 0.0081021953407915594 -0.0040016284048931304 0 0.0077990899574227422 -0.0038575080608536432 0 0.0081978325130343203 -0.003818346841984995 0 0.0085101020955563166 -0.0037987276192154307 0 0.0083752630406696456 -0.0038841596685566296 0 0.0085067187659459819 -0.0036383528415343488 0 0.0081978325130343203 -0.003818346841984995 0 0.0085101020955563166 -0.0037987276192154307 0 0.0085067187659459819 -0.0036383528415343488 0 0.0085101020955563166 -0.0037987276192154307 0 0.0087299868223960422 -0.0036903976198543872 0 0.0085101020955563166 -0.0037987276192154307 0 0.0083752630406696456 -0.0038841596685566296 0 0.0085160288643828345 -0.0038039111139532111 0 0.0085160288643828345 -0.0038039111139532111 0 0.0084895524712411859 -0.0038063542697555812 0 0.0084387864713839945 -0.0036973526464376422 0 0.0083752630406696456 -0.0038841596685566296 0 0.0085160288643828345 -0.0038039111139532111 0 0.0084895524712411859 -0.0038063542697555812 0 0.0083752630406696456 -0.0038841596685566296 0 0.0084895524712411859 -0.0038063542697555812 0 0.0085551502041180255 -0.003762805117160678 0 0.0058453572231430273 -0.0014797227551463141 0 0.0064920990991667177 -0.0016764632933764484 0 0.0036888893236209004 0.00090509430432253533 0 0.0037505434776318185 0.00064384666752888774 0 0.0036068304863890745 0.00084687216648425111 0 0.0036888893236209004 0.00090509430432253533 0 0.0037505434776318185 0.00064384666752888774 0 0.0043576474172718864 0.00064743322400172092 0 0.0083752630406696456 -0.0038841596685566296 0 0.0081021953407915594 -0.0040016284048931304 0 0.0085551502041180255 -0.003762805117160678 0 0.0092976145578586369 -0.003656597673796752 0 0.0087197970627474787 -0.0037803901317025089 0 0.0087299868223960422 -0.0036903976198543872 0 0.0088793375006241525 -0.0034990769435746614 0 0.0092976145578586369 -0.003656597673796752 0 0.0087299868223960422 -0.0036903976198543872 0 0.0085101020955563166 -0.0037987276192154307 0 0.0087197970627474787 -0.0037803901317025089 0 0.0087299868223960422 -0.0036903976198543872 0 0.0085160288643828345 -0.0038039111139532111 0 0.0087197970627474787 -0.0037803901317025089 0 0.0084613928800666132 -0.0036313885901307261 0 0.0087197970627474787 -0.0037803901317025089 0 0.0085811618191293931 -0.0037331104376716741 0 0.0084613928800666132 -0.0036313885901307261 0 0.0085101020955563166 -0.0037987276192154307 0 0.0085160288643828345 -0.0038039111139532111 0 0.0087197970627474787 -0.0037803901317025089 0 0.0085160288643828345 -0.0038039111139532111 0 0.0084613928800666132 -0.0036313885901307261 0 0.0084387864713839945 -0.0036973526464376422 0 0.0092788599798255891 -0.0036609746989761764 0 0.0092908038875972043 -0.0034319401641192161 0 0.0092976145578586369 -0.003656597673796752 0 0.0087197970627474787 -0.0037803901317025089 0 0.0085811618191293931 -0.0037331104376716741 0 0.0092976145578586369 -0.003656597673796752 0 0.0098683730966542468 -0.0036018455998715398 0 0.0096210091131345172 -0.0036415002986035167 0 0.0098683730966542468 -0.0036018455998715398 0 0.0097266680982416101 -0.0034903318642947336 0 0.0096210091131345172 -0.0036415002986035167 0 0.0092908038875972043 -0.0034319401641192161 0 0.0095809673681199886 -0.00403230881912554 0 0.0098683730966542468 -0.0036018455998715398 0 0.009951319068658376 -0.0032903259747650558 0 0.01043148728810594 -0.0029860076793305494 0 0.009951319068658376 -0.0032903259747650558 0 0.0097266680982416101 -0.0034903318642947336 0 0.0098035242831180699 -0.0032721555669780896 0 0.009951319068658376 -0.0032903259747650558 0 0.010038219926193368 -0.0030017819402607436 0 0.0098035242831180699 -0.0032721555669780896 0 0.0098683730966542468 -0.0036018455998715398 0 0.009951319068658376 -0.0032903259747650558 0 0.0097266680982416101 -0.0034903318642947336 0 0.0084613928800666132 -0.0036313885901307261 0 0.0081044295213483671 -0.0032827677152151595 0 0.0086775514073472258 -0.0034075020891101778 0 0.0084613928800666132 -0.0036313885901307261 0 0.0081044295213483671 -0.0032827677152151595 0 0.0084387864713839945 -0.0036973526464376422 0 0.0085811618191293931 -0.0037331104376716741 0 0.0084613928800666132 -0.0036313885901307261 0 0.0086775514073472258 -0.0034075020891101778 0 0.0081044295213483671 -0.0032827677152151595 0 0.0086775514073472258 -0.0034075020891101778 0 0.006721179830443914 -0.0041307273901902636 0 0.0086775514073472258 -0.0034075020891101778 0 0.006721179830443914 -0.0041307273901902636 0 0.008063407163080202 -0.0061593194100567124 0 0.01043148728810594 -0.0029860076793305494 0 0.010290791773138519 -0.0025595182101161803 0 0.010821903059028108 -0.001901218829047453 0 0.01043148728810594 -0.0029860076793305494 0 0.010290791773138519 -0.0025595182101161803 0 0.010038219926193368 -0.0030017819402607436 0 0.009951319068658376 -0.0032903259747650558 0 0.01043148728810594 -0.0029860076793305494 0 0.010038219926193368 -0.0030017819402607436 0 0.010290791773138519 -0.0025595182101161803 0 0.010015814887433671 -0.0026832038221002931 0 0.010038219926193368 -0.0030017819402607436 0 0.010015814887433671 -0.0026832038221002931 0 0.0097944801999038465 -0.0029572455467268646 0 0.0097704621233962036 -0.0025876925552830794 0 0.010015814887433671 -0.0026832038221002931 0 0.010038219926193368 -0.0030017819402607436 0 0.0097944801999038465 -0.0029572455467268646 0 0.010038219926193368 -0.0030017819402607436 0 0.0097944801999038465 -0.0029572455467268646 0 0.0098035242831180699 -0.0032721555669780896 0 0.0038275459426033061 0.00072482982535379157 0 0.0037505434776318185 0.00064384666752888774 0 0.0037248296989896034 0.00078098838076973588 0 0.0037505434776318185 0.00064384666752888774 0 0.0043576474172718864 0.00064743322400172092 0 0.0039760652695571188 0.00019881681182807505 0 0.0038275459426033061 0.00072482982535379157 0 0.0037505434776318185 0.00064384666752888774 0 0.0039760652695571188 0.00019881681182807505 0 0.0081044295213483671 -0.0032827677152151595 0 0.0043576474172718864 0.00064743322400172092 0 0.0057866835790529548 -0.0016374487724777104 0 0.0079627420781730376 -0.003094186533343468 0 0.0064920990991667177 -0.0016764632933764484 0 0.0043576474172718864 0.00064743322400172092 0 0.0039760652695571188 0.00019881681182807505 0 0.0057866835790529548 -0.0016374487724777104 0 0.0040939484812440507 3.5105566810409159e-05 0 0.004400248568083848 -0.00097778413341226126 0 0.0081044295213483671 -0.0032827677152151595 0 0.0085551502041180255 -0.003762805117160678 0 0.0084387864713839945 -0.0036973526464376422 0 0.0039760652695571188 0.00019881681182807505 0 0.0035362980657609746 0.0010271699649618004 0 0.0027199235751358317 0.0019041820148036845 0 0.0039760652695571188 0.00019881681182807505 0 0.0057866835790529548 -0.0016374487724777104 0 0.006721179830443914 -0.0041307273901902636 0 0.0084895524712411859 -0.0038063542697555812 0 0.0085551502041180255 -0.003762805117160678 0 0.0084387864713839945 -0.0036973526464376422 0 0.0038275459426033061 0.00072482982535379157 0 0.0039760652695571188 0.00019881681182807505 0 0.0035362980657609746 0.0010271699649618004 0 0.0035362980657609746 0.0010271699649618004 0 0.0027199235751358317 0.0019041820148036845 0 0.005740513498428735 0.002928498409909087 0 0.0081044295213483671 -0.0032827677152151595 0 0.0057866835790529548 -0.0016374487724777104 0 0.006721179830443914 -0.0041307273901902636 0 0.0036955573173698482 0.0011702590930070882 0 0.004647638333609966 0.001501459625738966 0 0.0038275459426033061 0.00072482982535379157 0 0.0035362980657609746 0.0010271699649618004 0 0.0037674946117504963 0.00084750918221505455 0 0.0038275459426033061 0.00072482982535379157 0 0.0037674946117504963 0.00084750918221505455 0 0.0037248296989896034 0.00078098838076973588 0 0.005740513498428735 0.002928498409909087 0 0.0056688698235548875 0.0052598457153093508 0 0.0038807544460767681 0.0042360209269926502 0 0.0056688698235548875 0.0052598457153093508 0 0.0039041509700001023 0.0065561330602344941 0 0.0038807544460767681 0.0042360209269926502 0 0.0056688698235548875 0.0052598457153093508 0 0.0039041509700001023 0.0065561330602344941 0 0.0061512814589624962 0.0075627981471469439 0 0.0039041509700001023 0.0065561330602344941 0 0.0038807544460767681 0.0042360209269926502 0 0.0012154672134325251 0.0044242163117511517 0 0.0027199235751358317 0.0019041820148036845 0 0.0038807544460767681 0.0042360209269926502 0 0.0012154672134325251 0.0044242163117511517 0 0.0027199235751358317 0.0019041820148036845 0 0.005740513498428735 0.002928498409909087 0 0.0038807544460767681 0.0042360209269926502 0 0.0095809673681199886 -0.00403230881912554 0 0.0077999906117717363 6.7236208418948039e-05 0 0.004400248568083848 -0.00097778413341226126 0 0.0077999906117717363 6.7236208418948039e-05 0 0.010821903059028108 -0.001901218829047453 0 0.01021380380170693 -0.002151360105594937 0 0.010352493674879438 -0.0010242600685555036 0 0.01021380380170693 -0.002151360105594937 0 0.010352493674879438 -0.0010242600685555036 0 0.0096354882845349227 -0.002233069284044693 0 0.01021380380170693 -0.002151360105594937 0 0.0096354882845349227 -0.002233069284044693 0 0.0097704621233962036 -0.0025876925552830794 0 0.010015814887433671 -0.0026832038221002931 0 0.01021380380170693 -0.002151360105594937 0 0.0097704621233962036 -0.0025876925552830794 0 0.010290791773138519 -0.0025595182101161803 0 0.010821903059028108 -0.001901218829047453 0 0.01021380380170693 -0.002151360105594937 0 0.010290791773138519 -0.0025595182101161803 0 0.010015814887433671 -0.0026832038221002931 0 0.01021380380170693 -0.002151360105594937 0 0.01934162949767787 0.010264282996817291 0 0.017799744997841083 0.011722264114544721 0 0.015718818951877135 0.008242419743477539 0 0.014244346838472777 0.0068611984999777794 0 0.013172546290854018 0.0018042165024192976 0 0.0077999906117717363 6.7236208418948039e-05 0 0.014244346838472777 0.0068611984999777794 0 0.0077999906117717363 6.7236208418948039e-05 0 0.0063247618999297851 0.007768422313141626 0 0.0039041509700001023 0.0065561330602344941 0 0.0012154672134325251 0.0044242163117511517 0 0.0018777303547391222 0.007290140974896284 0 0.010423628811795073 0.0029756030577860982 0 0.0084255274256773011 0.0063160587730431549 0 0.011369768227093947 0.0073676416656075485 0 0.0063247618999297851 0.007768422313141626 0 0.010319391774336533 0.011423092522002581 0 0.011369768227093947 0.0073676416656075485 0 0.010368206974021615 0.0090185801517220204 0 0.012270706908215903 0.011702014274992978 0 0.0084255274256773011 0.0063160587730431549 0 0.011369768227093947 0.0073676416656075485 0 0.010368206974021615 0.0090185801517220204 0 0.014244346838472777 0.0068611984999777794 0 0.014997215109625586 0.011509617476783114 0 0.018118165095547898 0.011826793425129234 0 0.018088100735113587 0.012829900533508892 0 0.017510964894845792 0.012983450322044815 0 0.01934162949767787 0.010264282996817291 0 0.017799744997841083 0.011722264114544721 0 0.017510964894845792 0.012983450322044815 0 0.018118165095547898 0.011826793425129234 0 0.018685366252801469 0.012590155593908407 0 0.018088100735113587 0.012829900533508892 0 0.014244346838472777 0.0068611984999777794 0 0.018287950066707418 0.013856710301266497 0 0.018088100735113587 0.012829900533508892 0 0.017681556030618755 0.013635618732958914 0 0.017510964894845792 0.012983450322044815 0 0.018088100735113587 0.012829900533508892 0 0.017681556030618755 0.013635618732958914 0 0.018375566691729253 0.013507766549545053 0 0.014997215109625586 0.011509617476783114 0 0.010319391774336533 0.011423092522002581 0 0.018685366252801469 0.012590155593908407 0 0.018375566691729253 0.013507766549545053 0 0.019244571481580049 0.013391247690024971 0 0.018685366252801469 0.012590155593908407 0 0.018088100735113587 0.012829900533508892 0 0.018375566691729253 0.013507766549545053 0 0.018375566691729253 0.013507766549545053 0 0.019244571481580049 0.013391247690024971 0 0.01875644463702978 0.01423954629649736 0 0.0033206342101069698 0.010166198722895516 0 0.0026377620324676229 0.0099504442253325765 0 0.0038469038998598048 0.0097823497190244191 0 0.0028637052877940753 0.010193404252481868 0 0.0026790395333661965 0.009984040079029444 0 0.0034083136579975411 0.011961967385893732 0 0.0033206342101069698 0.010166198722895516 0 0.0028637052877940753 0.010193404252481868 0 0.0037416264245356554 0.010717985535425658 0 0.0033206342101069698 0.010166198722895516 0 0.0028637052877940753 0.010193404252481868 0 0.0026377620324676229 0.0099504442253325765 0 0.0092839650822801149 0.010593787052171736 0 0.010319391774336533 0.011423092522002581 0 0.0038469038998598048 0.0097823497190244191 0 0.0047431258392368171 0.0096893289024874586 0 0.0042017561788164556 0.0086754889775452638 0 0.0026377620324676229 0.0099504442253325765 0 0.0038469038998598048 0.0097823497190244191 0 0.0042017561788164556 0.0086754889775452638 0 0.0033206342101069698 0.010166198722895516 0 0.0038469038998598048 0.0097823497190244191 0 0.0037416264245356554 0.010717985535425658 0 0.0038469038998598048 0.0097823497190244191 0 0.0037416264245356554 0.010717985535425658 0 0.004712738653375053 0.010496563369236817 0 0.004712738653375053 0.010496563369236817 0 0.0060093639871352574 0.0095685885459177791 0 0.0047431258392368171 0.0096893289024874586 0 0.004712738653375053 0.010496563369236817 0 0.0060093639871352574 0.0095685885459177791 0 0.005882050519986551 0.011546189049411588 0 0.0038469038998598048 0.0097823497190244191 0 0.004712738653375053 0.010496563369236817 0 0.0047431258392368171 0.0096893289024874586 0 0.0060093639871352574 0.0095685885459177791 0 0.0047431258392368171 0.0096893289024874586 0 0.0042017561788164556 0.0086754889775452638 0 0.0039041509700001023 0.0065561330602344941 0 0.0061512814589624962 0.0075627981471469439 0 0.0042017561788164556 0.0086754889775452638 0 0.0060093639871352574 0.0095685885459177791 0 0.0061512814589624962 0.0075627981471469439 0 0.0042017561788164556 0.0086754889775452638 0 0.0039041509700001023 0.0065561330602344941 0 0.0018777303547391222 0.007290140974896284 0 0.0042017561788164556 0.0086754889775452638 0 0.0018777303547391222 0.007290140974896284 0 0.0026377620324676229 0.0099504442253325765 0 0.0042017561788164556 0.0086754889775452638 0 0.030885983841424054 0.012777399919013889 0 0.031989299681659762 0.0097948151716036221 0 0.031427457074138042 0.0099544519035767512 0 0.031057251704655432 0.010920436446382031 0 0.031155194211977374 0.011778654721397139 0 0.031427457074138042 0.0099544519035767512 0 0.030885983841424054 0.012777399919013889 0 0.030483840123378333 0.012730128216271298 0 0.031427457074138042 0.0099544519035767512 0 0.031331141752735957 0.011989250521615388 0 0.031233977181155219 0.010230551293771579 0 0.022945016033506811 0.012747304233361527 0 0.024557435992757396 0.010521721169627301 0 0.030962192843745167 0.011297408572410234 0 0.031057251704655432 0.010920436446382031 0 0.031155194211977374 0.011778654721397139 0 0.030962192843745167 0.011297408572410234 0 0.031057251704655432 0.010920436446382031 0 0.030825676208032983 0.011030207159180273 0 0.030962192843745167 0.011297408572410234 0 0.030798459888900391 0.011297147207452821 0 0.030825676208032983 0.011030207159180273 0 0.030561000612133907 0.011316917262487023 0 0.030825676208032983 0.011030207159180273 0 0.030574147411027857 0.010828309074914345 0 0.030798459888900391 0.011297147207452821 0 0.030561000612133907 0.011316917262487023 0 0.030825676208032983 0.011030207159180273 0 0.030561000612133907 0.011316917262487023 0 0.030845150002347513 0.011542805591041304 0 0.030562266738975417 0.011667515932395119 0 0.030798459888900391 0.011297147207452821 0 0.030561000612133907 0.011316917262487023 0 0.030845150002347513 0.011542805591041304 0 0.030962192843745167 0.011297408572410234 0 0.030845150002347513 0.011542805591041304 0 0.031155194211977374 0.011778654721397139 0 0.030962192843745167 0.011297408572410234 0 0.030798459888900391 0.011297147207452821 0 0.030845150002347513 0.011542805591041304 0 0.030912711038970368 0.010538895895912559 0 0.031057251704655432 0.010920436446382031 0 0.030825676208032983 0.011030207159180273 0 0.030912711038970368 0.010538895895912559 0 0.030825676208032983 0.011030207159180273 0 0.030574147411027857 0.010828309074914345 0 0.030912711038970368 0.010538895895912559 0 0.030574147411027857 0.010828309074914345 0 0.030577591303100209 0.010380446302046212 0 0.030574147411027857 0.010828309074914345 0 0.030321859680530229 0.010669170302909542 0 0.030577591303100209 0.010380446302046212 0 0.030321859680530229 0.010669170302909542 0 0.030577591303100209 0.010380446302046212 0 0.030233308288733666 0.010355943083577483 0 0.030321859680530229 0.010669170302909542 0 0.030017580027883364 0.010676180962721485 0 0.030233308288733666 0.010355943083577483 0 0.030017580027883364 0.010676180962721485 0 0.029840688308039195 0.01038935644629471 0 0.030233308288733666 0.010355943083577483 0 0.030321859680530229 0.010669170302909542 0 0.030017580027883364 0.010676180962721485 0 0.030214359175985972 0.011089513600809916 0 0.030017580027883364 0.010676180962721485 0 0.029769845016370922 0.010917654292155469 0 0.030214359175985972 0.011089513600809916 0 0.030574147411027857 0.010828309074914345 0 0.030321859680530229 0.010669170302909542 0 0.030214359175985972 0.011089513600809916 0 0.02958200936908665 0.010567093242880594 0 0.029769845016370922 0.010917654292155469 0 0.029264298951842342 0.010866143293713321 0 0.030017580027883364 0.010676180962721485 0 0.02958200936908665 0.010567093242880594 0 0.029769845016370922 0.010917654292155469 0 0.030017580027883364 0.010676180962721485 0 0.02958200936908665 0.010567093242880594 0 0.029840688308039195 0.01038935644629471 0 0.029769845016370922 0.010917654292155469 0 0.029789431867924186 0.011374494702287997 0 0.029264298951842342 0.010866143293713321 0 0.029769845016370922 0.010917654292155469 0 0.029789431867924186 0.011374494702287997 0 0.030214359175985972 0.011089513600809916 0 0.030561000612133907 0.011316917262487023 0 0.030214359175985972 0.011089513600809916 0 0.030217972074602067 0.011711607990711002 0 0.029789431867924186 0.011374494702287997 0 0.030214359175985972 0.011089513600809916 0 0.030217972074602067 0.011711607990711002 0 0.030561000612133907 0.011316917262487023 0 0.030574147411027857 0.010828309074914345 0 0.030214359175985972 0.011089513600809916 0 0.030561000612133907 0.011316917262487023 0 0.030562266738975417 0.011667515932395119 0 0.030217972074602067 0.011711607990711002 0 0.030562266738975417 0.011667515932395119 0 0.030217972074602067 0.011711607990711002 0 0.030630101758044401 0.011989595432264702 0 0.030217972074602067 0.011711607990711002 0 0.030233036037808539 0.012399525441684831 0 0.030630101758044401 0.011989595432264702 0 0.029789431867924186 0.011374494702287997 0 0.030217972074602067 0.011711607990711002 0 0.029524896271533794 0.011972525255422108 0 0.030217972074602067 0.011711607990711002 0 0.030233036037808539 0.012399525441684831 0 0.029524896271533794 0.011972525255422108 0 0.030233036037808539 0.012399525441684831 0 0.030710809913375704 0.01240071635962858 0 0.030630101758044401 0.011989595432264702 0 0.031331141752735957 0.011989250521615388 0 0.026194279171209065 0.015433575314059953 0 0.030885983841424054 0.012777399919013889 0 0.030483840123378333 0.012730128216271298 0 0.029646830675669766 0.015810861780695292 0 0.030710809913375704 0.01240071635962858 0 0.031155194211977374 0.011778654721397139 0 0.030834915988439959 0.013426306422691405 0 0.030710809913375704 0.01240071635962858 0 0.030630101758044401 0.011989595432264702 0 0.031155194211977374 0.011778654721397139 0 0.030845150002347513 0.011542805591041304 0 0.030630101758044401 0.011989595432264702 0 0.031155194211977374 0.011778654721397139 0 0.030845150002347513 0.011542805591041304 0 0.030562266738975417 0.011667515932395119 0 0.030630101758044401 0.011989595432264702 0 0.015156733326893566 0.012910178208803498 0 0.015401414884745604 0.0134909178546748 0 0.015423049993685595 0.013106282895001528 0 0.015156733326893566 0.012910178208803498 0 0.015473327770175628 0.01277765821515228 0 0.015462193750814101 0.012298514807401427 0 0.015156733326893566 0.012910178208803498 0 0.015473327770175628 0.01277765821515228 0 0.015423049993685595 0.013106282895001528 0 0.015156733326893566 0.012910178208803498 0 0.015401414884745604 0.0134909178546748 0 0.015269779250640209 0.01391811594998872 0 0.015401414884745604 0.0134909178546748 0 0.015560743898571709 0.013944564352873993 0 0.015269779250640209 0.01391811594998872 0 0.015401414884745604 0.0134909178546748 0 0.01566707598908966 0.013629787342099641 0 0.015560743898571709 0.013944564352873993 0 0.015401414884745604 0.0134909178546748 0 0.01566707598908966 0.013629787342099641 0 0.015705129737256466 0.013324118162450016 0 0.015401414884745604 0.0134909178546748 0 0.015705129737256466 0.013324118162450016 0 0.015423049993685595 0.013106282895001528 0 0.015705129737256466 0.013324118162450016 0 0.015999585169765521 0.013756631778080692 0 0.016169096768632884 0.01324530864913988 0 0.01566707598908966 0.013629787342099641 0 0.015705129737256466 0.013324118162450016 0 0.015999585169765521 0.013756631778080692 0 0.01566707598908966 0.013629787342099641 0 0.015999585169765521 0.013756631778080692 0 0.015560743898571709 0.013944564352873993 0 0.015999585169765521 0.013756631778080692 0 0.016465054333855166 0.01357992172029202 0 0.016533249555405399 0.014136460886495452 0 0.016465054333855166 0.01357992172029202 0 0.016169096768632884 0.01324530864913988 0 0.016580846079420366 0.013177906234325474 0 0.015999585169765521 0.013756631778080692 0 0.016465054333855166 0.01357992172029202 0 0.016169096768632884 0.01324530864913988 0 0.016169096768632884 0.01324530864913988 0 0.015916613005583505 0.012936757775437189 0 0.016280630012834411 0.01261266133857889 0 0.016169096768632884 0.01324530864913988 0 0.016580846079420366 0.013177906234325474 0 0.016280630012834411 0.01261266133857889 0 0.015916613005583505 0.012936757775437189 0 0.015721720803299585 0.012609137540350325 0 0.016280630012834411 0.01261266133857889 0 0.015916613005583505 0.012936757775437189 0 0.015599121700726842 0.012949296452616688 0 0.015721720803299585 0.012609137540350325 0 0.015599121700726842 0.012949296452616688 0 0.015473327770175628 0.01277765821515228 0 0.015721720803299585 0.012609137540350325 0 0.015599121700726842 0.012949296452616688 0 0.015473327770175628 0.01277765821515228 0 0.015423049993685595 0.013106282895001528 0 0.015705129737256466 0.013324118162450016 0 0.015599121700726842 0.012949296452616688 0 0.015423049993685595 0.013106282895001528 0 0.015705129737256466 0.013324118162450016 0 0.016169096768632884 0.01324530864913988 0 0.015916613005583505 0.012936757775437189 0 0.015705129737256466 0.013324118162450016 0 0.015916613005583505 0.012936757775437189 0 0.015599121700726842 0.012949296452616688 0 0.017681556030618755 0.013635618732958914 0 0.016992819045033355 0.013548627861662372 0 0.017510964894845792 0.012983450322044815 0 0.016465054333855166 0.01357992172029202 0 0.016992819045033355 0.013548627861662372 0 0.016533249555405399 0.014136460886495452 0 0.016465054333855166 0.01357992172029202 0 0.016992819045033355 0.013548627861662372 0 0.016580846079420366 0.013177906234325474 0 0.016992819045033355 0.013548627861662372 0 0.016580846079420366 0.013177906234325474 0 0.016889482560994158 0.012836506030749508 0 0.016580846079420366 0.013177906234325474 0 0.016889482560994158 0.012836506030749508 0 0.016280630012834411 0.01261266133857889 0 0.016992819045033355 0.013548627861662372 0 0.016889482560994158 0.012836506030749508 0 0.017510964894845792 0.012983450322044815 0 0.017799744997841083 0.011722264114544721 0 0.017510964894845792 0.012983450322044815 0 0.017143992684396325 0.012225340227605035 0 0.016889482560994158 0.012836506030749508 0 0.017510964894845792 0.012983450322044815 0 0.017143992684396325 0.012225340227605035 0 0.016889482560994158 0.012836506030749508 0 0.016715728402970653 0.012152942981170435 0 0.016280630012834411 0.01261266133857889 0 0.016889482560994158 0.012836506030749508 0 0.017143992684396325 0.012225340227605035 0 0.016715728402970653 0.012152942981170435 0 0.017143992684396325 0.012225340227605035 0 0.016715728402970653 0.012152942981170435 0 0.016959950604821323 0.011485453213551027 0 0.016715728402970653 0.012152942981170435 0 0.016528249169849657 0.011623573919619445 0 0.016959950604821323 0.011485453213551027 0 0.016715728402970653 0.012152942981170435 0 0.016528249169849657 0.011623573919619445 0 0.01629302694887394 0.012011267883765005 0 0.016528249169849657 0.011623573919619445 0 0.016959950604821323 0.011485453213551027 0 0.016483968183268544 0.011029073273296379 0 0.017799744997841083 0.011722264114544721 0 0.017143992684396325 0.012225340227605035 0 0.016959950604821323 0.011485453213551027 0 0.015462193750814101 0.012298514807401427 0 0.015721716818427 0.011783262144052427 0 0.015541274437768782 0.010677950071600698 0 0.015156733326893566 0.012910178208803498 0 0.015462193750814101 0.012298514807401427 0 0.015541274437768782 0.010677950071600698 0 0.015919638334055346 0.012191663824326624 0 0.015706193481185411 0.012220740917855039 0 0.015721720803299585 0.012609137540350325 0 0.015919638334055346 0.012191663824326624 0 0.015706193481185411 0.012220740917855039 0 0.015721716818427 0.011783262144052427 0 0.015706193481185411 0.012220740917855039 0 0.015462193750814101 0.012298514807401427 0 0.015721716818427 0.011783262144052427 0 0.015706193481185411 0.012220740917855039 0 0.015462193750814101 0.012298514807401427 0 0.015721720803299585 0.012609137540350325 0 0.015473327770175628 0.01277765821515228 0 0.015462193750814101 0.012298514807401427 0 0.015721720803299585 0.012609137540350325 0 0.015919638334055346 0.012191663824326624 0 0.015721720803299585 0.012609137540350325 0 0.016280630012834411 0.01261266133857889 0 0.016715728402970653 0.012152942981170435 0 0.016280630012834411 0.01261266133857889 0 0.01629302694887394 0.012011267883765005 0 0.015919638334055346 0.012191663824326624 0 0.016280630012834411 0.01261266133857889 0 0.01629302694887394 0.012011267883765005 0 0.015919638334055346 0.012191663824326624 0 0.015997152662793824 0.011773661367475362 0 0.01629302694887394 0.012011267883765005 0 0.015997152662793824 0.011773661367475362 0 0.01629302694887394 0.012011267883765005 0 0.016203089445225336 0.011484099014297087 0 0.016528249169849657 0.011623573919619445 0 0.01629302694887394 0.012011267883765005 0 0.016203089445225336 0.011484099014297087 0 0.016528249169849657 0.011623573919619445 0 0.016203089445225336 0.011484099014297087 0 0.016483968183268544 0.011029073273296379 0 0.015997152662793824 0.011773661367475362 0 0.016203089445225336 0.011484099014297087 0 0.015849406590681115 0.011397028405083288 0 0.015997152662793824 0.011773661367475362 0 0.015721716818427 0.011783262144052427 0 0.015849406590681115 0.011397028405083288 0 0.015919638334055346 0.012191663824326624 0 0.015997152662793824 0.011773661367475362 0 0.015721716818427 0.011783262144052427 0 0.015849406590681115 0.011397028405083288 0 0.016024878528486955 0.010982896312289282 0 0.015541274437768782 0.010677950071600698 0 0.015721716818427 0.011783262144052427 0 0.015849406590681115 0.011397028405083288 0 0.015541274437768782 0.010677950071600698 0 0.016483968183268544 0.011029073273296379 0 0.016024878528486955 0.010982896312289282 0 0.016192355244782325 0.010319981063553559 0 0.016203089445225336 0.011484099014297087 0 0.015849406590681115 0.011397028405083288 0 0.016024878528486955 0.010982896312289282 0 0.016203089445225336 0.011484099014297087 0 0.016483968183268544 0.011029073273296379 0 0.016024878528486955 0.010982896312289282 0 0.016024878528486955 0.010982896312289282 0 0.016192355244782325 0.010319981063553559 0 0.015541274437768782 0.010677950071600698 0 0.01934162949767787 0.010264282996817291 0 0.015718818951877135 0.008242419743477539 0 0.016796899325710438 0.0064591420508166401 0 0.016959950604821323 0.011485453213551027 0 0.016483968183268544 0.011029073273296379 0 0.016903303836575873 0.010224935268859535 0 0.017815067940774532 0.01164617560532811 0 0.015871438035628151 0.009163728292506888 0 0.017799744997841083 0.011722264114544721 0 0.016959950604821323 0.011485453213551027 0 0.016903303836575873 0.010224935268859535 0 0.016483968183268544 0.011029073273296379 0 0.016192355244782325 0.010319981063553559 0 0.016903303836575873 0.010224935268859535 0 0.015718818951877135 0.008242419743477539 0 0.016796899325710438 0.0064591420508166401 0 0.01359715049178439 0.0043952499365142268 0 0.016192355244782325 0.010319981063553559 0 0.016903303836575873 0.010224935268859535 0 0.016046121312025569 0.0084757712396615892 0 0.024557435992757396 0.010521721169627301 0 0.018502097669749015 0.0059118254711254667 0 0.031104979319331916 0.00815384680496406 0 0.031646818169436229 0.008885499488785073 0 0.032854694932069876 0.0070242272762955664 0 0.031989299681659762 0.0097948151716036221 0 0.031646818169436229 0.008885499488785073 0 0.032854694932069876 0.0070242272762955664 0 0.016192355244782325 0.010319981063553559 0 0.015541274437768782 0.010677950071600698 0 0.016046121312025569 0.0084757712396615892 0 0.015871438035628151 0.009163728292506888 0 0.018502097669749015 0.0059118254711254667 0 0.031104979319331916 0.00815384680496406 0 0.030168429294975999 0.0081152720664588677 0 0.029993531706345257 0.0069384961161103841 0 0.031104979319331916 0.00815384680496406 0 0.030320482056538572 0.0090168324335360428 0 0.030168429294975999 0.0081152720664588677 0 0.031104979319331916 0.00815384680496406 0 0.030952731644764534 0.0094203376320252784 0 0.030320482056538572 0.0090168324335360428 0 0.031104979319331916 0.00815384680496406 0 0.031646818169436229 0.008885499488785073 0 0.030952731644764534 0.0094203376320252784 0 0.031646818169436229 0.008885499488785073 0 0.030952731644764534 0.0094203376320252784 0 0.031427457074138042 0.0099544519035767512 0 0.031989299681659762 0.0097948151716036221 0 0.031646818169436229 0.008885499488785073 0 0.031427457074138042 0.0099544519035767512 0 0.030952731644764534 0.0094203376320252784 0 0.030866527457418087 0.010059088753657625 0 0.031427457074138042 0.0099544519035767512 0 0.030952731644764534 0.0094203376320252784 0 0.030419071956928483 0.0098681406049265161 0 0.030320482056538572 0.0090168324335360428 0 0.030952731644764534 0.0094203376320252784 0 0.030866527457418087 0.010059088753657625 0 0.030419071956928483 0.0098681406049265161 0 0.030866527457418087 0.010059088753657625 0 0.030577591303100209 0.010380446302046212 0 0.030419071956928483 0.0098681406049265161 0 0.030912711038970368 0.010538895895912559 0 0.030866527457418087 0.010059088753657625 0 0.030577591303100209 0.010380446302046212 0 0.030912711038970368 0.010538895895912559 0 0.030866527457418087 0.010059088753657625 0 0.031427457074138042 0.0099544519035767512 0 0.030912711038970368 0.010538895895912559 0 0.031057251704655432 0.010920436446382031 0 0.031427457074138042 0.0099544519035767512 0 0.02948529865483443 0.010128825778050339 0 0.029679479463393579 0.0095872815929933849 0 0.029115575496221621 0.0098412108160525671 0 0.02948529865483443 0.010128825778050339 0 0.029985067015031976 0.010061471440859114 0 0.029679479463393579 0.0095872815929933849 0 0.02958200936908665 0.010567093242880594 0 0.02948529865483443 0.010128825778050339 0 0.029840688308039195 0.01038935644629471 0 0.02958200936908665 0.010567093242880594 0 0.02948529865483443 0.010128825778050339 0 0.02917345863958852 0.010284531589751211 0 0.02948529865483443 0.010128825778050339 0 0.029840688308039195 0.01038935644629471 0 0.029985067015031976 0.010061471440859114 0 0.029840688308039195 0.01038935644629471 0 0.030233308288733666 0.010355943083577483 0 0.029985067015031976 0.010061471440859114 0 0.030419071956928483 0.0098681406049265161 0 0.029985067015031976 0.010061471440859114 0 0.029679479463393579 0.0095872815929933849 0 0.030577591303100209 0.010380446302046212 0 0.030233308288733666 0.010355943083577483 0 0.030419071956928483 0.0098681406049265161 0 0.030233308288733666 0.010355943083577483 0 0.030419071956928483 0.0098681406049265161 0 0.029985067015031976 0.010061471440859114 0 0.029679479463393579 0.0095872815929933849 0 0.029711253921852886 0.0088922860637033405 0 0.030320482056538572 0.0090168324335360428 0 0.030419071956928483 0.0098681406049265161 0 0.029679479463393579 0.0095872815929933849 0 0.030320482056538572 0.0090168324335360428 0 0.029679479463393579 0.0095872815929933849 0 0.029711253921852886 0.0088922860637033405 0 0.029007293676975392 0.0091594362691809848 0 0.029679479463393579 0.0095872815929933849 0 0.029115575496221621 0.0098412108160525671 0 0.029007293676975392 0.0091594362691809848 0 0.029711253921852886 0.0088922860637033405 0 0.029418032025442933 0.0079743444633445983 0 0.029007293676975392 0.0091594362691809848 0 0.029711253921852886 0.0088922860637033405 0 0.030320482056538572 0.0090168324335360428 0 0.030168429294975999 0.0081152720664588677 0 0.029711253921852886 0.0088922860637033405 0 0.030168429294975999 0.0081152720664588677 0 0.029418032025442933 0.0079743444633445983 0 0.030168429294975999 0.0081152720664588677 0 0.029418032025442933 0.0079743444633445983 0 0.029993531706345257 0.0069384961161103841 0 0.029122780438305393 0.0070617894851673886 0 0.029993531706345257 0.0069384961161103841 0 0.028736913292102099 0.0057408106373022022 0 0.029418032025442933 0.0079743444633445983 0 0.029122780438305393 0.0070617894851673886 0 0.029993531706345257 0.0069384961161103841 0 0.031257304107542329 0.0062783430856951841 0 0.031503052377801169 0.0035532840072917894 0 0.032854694932069876 0.0070242272762955664 0 0.031104979319331916 0.00815384680496406 0 0.029993531706345257 0.0069384961161103841 0 0.031257304107542329 0.0062783430856951841 0 0.031104979319331916 0.00815384680496406 0 0.031257304107542329 0.0062783430856951841 0 0.032854694932069876 0.0070242272762955664 0 0.029993531706345257 0.0069384961161103841 0 0.031257304107542329 0.0062783430856951841 0 0.030510480226667479 0.0048904532359976827 0 0.031257304107542329 0.0062783430856951841 0 0.030510480226667479 0.0048904532359976827 0 0.031503052377801169 0.0035532840072917894 0 0.029993531706345257 0.0069384961161103841 0 0.030510480226667479 0.0048904532359976827 0 0.029139689601498601 0.0042194515962673462 0 0.030510480226667479 0.0048904532359976827 0 0.031503052377801169 0.0035532840072917894 0 0.030001051187534513 0.0034698015323242461 0 0.030510480226667479 0.0048904532359976827 0 0.030001051187534513 0.0034698015323242461 0 0.029139689601498601 0.0042194515962673462 0 0.029867858179489906 0.0070687827768899075 0 0.027766633297877444 0.0042002581039867039 0 0.029993531706345257 0.0069384961161103841 0 0.029139689601498601 0.0042194515962673462 0 0.02658215839655137 0.004304012488940444 0 0.029139689601498601 0.0042194515962673462 0 0.028085791296173005 0.0029840850805887284 0 0.029085669769361319 0.0028671004912909047 0 0.030001051187534513 0.0034698015323242461 0 0.029139689601498601 0.0042194515962673462 0 0.029085669769361319 0.0028671004912909047 0 0.029139689601498601 0.0042194515962673462 0 0.028085791296173005 0.0029840850805887284 0 0.02658215839655137 0.004304012488940444 0 0.013172546290854018 0.0018042165024192976 0 0.012098815931858756 -0.00082306840188680177 0 0.0096354882845349227 -0.002233069284044693 0 0.009605969159913505 -0.0028447571015284773 0 0.0093085572844045297 -0.0031793045188324943 0 0.016796899325710438 0.0064591420508166401 0 0.01359715049178439 0.0043952499365142268 0 0.013999393445758729 0.0025090647843061015 0 0.0097944801999038465 -0.0029572455467268646 0 0.009605969159913505 -0.0028447571015284773 0 0.0096374207093525253 -0.0032672981493005512 0 0.0096354882845349227 -0.002233069284044693 0 0.0097704621233962036 -0.0025876925552830794 0 0.009605969159913505 -0.0028447571015284773 0 0.0097944801999038465 -0.0029572455467268646 0 0.0097704621233962036 -0.0025876925552830794 0 0.009605969159913505 -0.0028447571015284773 0 0.009605969159913505 -0.0028447571015284773 0 0.0093085572844045297 -0.0031793045188324943 0 0.0096374207093525253 -0.0032672981493005512 0 0.018502097669749015 0.0059118254711254667 0 0.012098815931858756 -0.00082306840188680177 0 0.011174239597541045 -0.0014558420555342243 0 0.013581335012465596 0.00069240353756381569 0 0.01162376296551967 -0.0017905242556748024 0 0.012098815931858756 -0.00082306840188680177 0 0.010688157826057138 -0.0028304226087423282 0 0.021930756009414933 0.00096696438920854046 0 0.018502097669749015 0.0059118254711254667 0 0.011174239597541045 -0.0014558420555342243 0 0.013241198223570172 0.0023838798066323544 0 0.013581335012465596 0.00069240353756381569 0 0.0097368881753494372 -0.0036242072222849335 0 0.0096627354754883748 -0.0037974301648482714 0 0.0099081812409728496 -0.0036689610486494262 0 0.0097368881753494372 -0.0036242072222849335 0 0.0095891185657306106 -0.0035893179687452349 0 0.0096627354754883748 -0.0037974301648482714 0 0.010274077949442595 -0.0038653824630308152 0 0.012098815931858756 -0.00082306840188680177 0 0.0095891185657306106 -0.0035893179687452349 0 0.0093085572844045297 -0.0031793045188324943 0 0.0096374207093525253 -0.0032672981493005512 0 0.0095891185657306106 -0.0035893179687452349 0 0.0096374207093525253 -0.0032672981493005512 0 0.0097266680982416101 -0.0034903318642947336 0 0.0096374207093525253 -0.0032672981493005512 0 0.0097266680982416101 -0.0034903318642947336 0 0.0098035242831180699 -0.0032721555669780896 0 0.0097944801999038465 -0.0029572455467268646 0 0.0096374207093525253 -0.0032672981493005512 0 0.0098035242831180699 -0.0032721555669780896 0 0.0095891185657306106 -0.0035893179687452349 0 0.0097266680982416101 -0.0034903318642947336 0 0.0096210091131345172 -0.0036415002986035167 0 0.0095891185657306106 -0.0035893179687452349 0 0.0096210091131345172 -0.0036415002986035167 0 0.0097264325910760806 -0.0035704787850610268 0 0.0096210091131345172 -0.0036415002986035167 0 0.0097264325910760806 -0.0035704787850610268 0 0.0097834026491163528 -0.0035063786829651867 0 0.0097368881753494372 -0.0036242072222849335 0 0.0095891185657306106 -0.0035893179687452349 0 0.0097264325910760806 -0.0035704787850610268 0 0.0097368881753494372 -0.0036242072222849335 0 0.0097264325910760806 -0.0035704787850610268 0 0.0098499988685073221 -0.0035607994147617379 0 0.0098499988685073221 -0.0035607994147617379 0 0.0099081812409728496 -0.0036689610486494262 0 0.010014070733508393 -0.0034611685015472449 0 0.0097368881753494372 -0.0036242072222849335 0 0.0098499988685073221 -0.0035607994147617379 0 0.0099081812409728496 -0.0036689610486494262 0 0.0098499988685073221 -0.0035607994147617379 0 0.0099307617600365109 -0.0034634491720144617 0 0.010014070733508393 -0.0034611685015472449 0 0.0097264325910760806 -0.0035704787850610268 0 0.0098499988685073221 -0.0035607994147617379 0 0.0099307617600365109 -0.0034634491720144617 0 0.0099105851447693471 -0.0034000044101469471 0 0.0097834026491163528 -0.0035063786829651867 0 0.0096178822185799921 -0.0035097862685516189 0 0.0099307617600365109 -0.0034634491720144617 0 0.0099481370478166492 -0.0034453424008904737 0 0.0097834026491163528 -0.0035063786829651867 0 0.0099307617600365109 -0.0034634491720144617 0 0.0099481370478166492 -0.0034453424008904737 0 0.010101715439979833 -0.0033989896000883053 0 0.0099105851447693471 -0.0034000044101469471 0 0.0099481370478166492 -0.0034453424008904737 0 0.01005669134451587 -0.0034388719505551728 0 0.0099105851447693471 -0.0034000044101469471 0 0.0099481370478166492 -0.0034453424008904737 0 0.0097834026491163528 -0.0035063786829651867 0 0.0097264325910760806 -0.0035704787850610268 0 0.0099307617600365109 -0.0034634491720144617 0 0.0097834026491163528 -0.0035063786829651867 0 0.0092976145578586369 -0.003656597673796752 0 0.0096210091131345172 -0.0036415002986035167 0 0.0096178822185799921 -0.0035097862685516189 0 0.0096210091131345172 -0.0036415002986035167 0 0.0097834026491163528 -0.0035063786829651867 0 0.0096178822185799921 -0.0035097862685516189 0 0.028281817628103161 0.0006079845050063269 0 0.029442207666340682 0.0019025722822211925 0 0.029274298229619831 -0.00083011220203904894 0 0.028281817628103161 0.0006079845050063269 0 0.028334871859758668 0.0018406635312762979 0 0.029442207666340682 0.0019025722822211925 0 0.028281817628103161 0.0006079845050063269 0 0.02694660592913049 0.0016437036340156144 0 0.028334871859758668 0.0018406635312762979 0 0.02694660592913049 0.0016437036340156144 0 0.028085791296173005 0.0029840850805887284 0 0.028334871859758668 0.0018406635312762979 0 0.02694660592913049 0.0016437036340156144 0 0.028085791296173005 0.0029840850805887284 0 0.02658215839655137 0.004304012488940444 0 0.030001051187534513 0.0034698015323242461 0 0.029442207666340682 0.0019025722822211925 0 0.029085669769361319 0.0028671004912909047 0 0.028085791296173005 0.0029840850805887284 0 0.028334871859758668 0.0018406635312762979 0 0.029085669769361319 0.0028671004912909047 0 0.028334871859758668 0.0018406635312762979 0 0.029442207666340682 0.0019025722822211925 0 0.029085669769361319 0.0028671004912909047 0 0.021930756009414933 0.00096696438920854046 0 0.019637243490714371 -0.0021443149109742011 0 0.010688157826057138 -0.0028304226087423282 0 0.010447460678896748 -0.0031172489359669034 0 0.031503052377801169 0.0035532840072917894 0 0.030001051187534513 0.0034698015323242461 0 0.029442207666340682 0.0019025722822211925 0 0.031503052377801169 0.0035532840072917894 0 0.029442207666340682 0.0019025722822211925 0 0.029274298229619831 -0.00083011220203904894 0 0.0099081812409728496 -0.0036689610486494262 0 0.010014070733508393 -0.0034611685015472449 0 0.010364448039127103 -0.0032115834248168918 0 0.011174239597541045 -0.0014558420555342243 0 0.010364448039127103 -0.0032115834248168918 0 0.009992178070466224 -0.0036160514107214359 0 0.011174239597541045 -0.0014558420555342243 0 0.01162376296551967 -0.0017905242556748024 0 0.010364448039127103 -0.0032115834248168918 0 0.010014070733508393 -0.0034611685015472449 0 0.010364448039127103 -0.0032115834248168918 0 0.010085236800653664 -0.0033861062508234157 0 0.0099307617600365109 -0.0034634491720144617 0 0.010014070733508393 -0.0034611685015472449 0 0.010085236800653664 -0.0033861062508234157 0 0.010364448039127103 -0.0032115834248168918 0 0.010101715439979833 -0.0033989896000883053 0 0.010166544878977475 -0.0034626997475609182 0 0.010364448039127103 -0.0032115834248168918 0 0.010166544878977475 -0.0034626997475609182 0 0.009992178070466224 -0.0036160514107214359 0 0.010364448039127103 -0.0032115834248168918 0 0.010085236800653664 -0.0033861062508234157 0 0.010101715439979833 -0.0033989896000883053 0 0.0099307617600365109 -0.0034634491720144617 0 0.010085236800653664 -0.0033861062508234157 0 0.010101715439979833 -0.0033989896000883053 0 0.010101715439979833 -0.0033989896000883053 0 0.01005669134451587 -0.0034388719505551728 0 0.010166544878977475 -0.0034626997475609182 0 0.0099481370478166492 -0.0034453424008904737 0 0.010101715439979833 -0.0033989896000883053 0 0.01005669134451587 -0.0034388719505551728 0 0.010166544878977475 -0.0034626997475609182 0 0.01009864397604718 -0.0034822687366931533 0 0.009992178070466224 -0.0036160514107214359 0 0.010159922197752792 -0.0034093770479957193 0 0.01009864397604718 -0.0034822687366931533 0 0.009992178070466224 -0.0036160514107214359 0 0.01005669134451587 -0.0034388719505551728 0 0.010166544878977475 -0.0034626997475609182 0 0.01009864397604718 -0.0034822687366931533 0 0.026857847073255302 -0.0049448077039226648 0 0.029274298229619831 -0.00083011220203904894 0 0.027321723570825757 -0.0011424401125717434 0 0.028281817628103161 0.0006079845050063269 0 0.029274298229619831 -0.00083011220203904894 0 0.027321723570825757 -0.0011424401125717434 0 0.028281817628103161 0.0006079845050063269 0 0.02694660592913049 0.0016437036340156144 0 0.027321723570825757 -0.0011424401125717434 0 0.02693257339066649 0.0014011148224438326 0 0.027276148852437166 -0.00079950486224937046 0 0.025995465871108507 -0.0030532876838694051 0 0.027321723570825757 -0.0011424401125717434 0 0.025012530407261861 -0.0010922499639555558 0 0.027321723570825757 -0.0011424401125717434 0 0.025012530407261861 -0.0010922499639555558 0 0.026061732011411119 0.00077871993200490347 0 0.023584999793410878 -0.0061634975655673928 0 0.023682627483418917 -0.005973853972493573 0 0.0235777127061477 -0.0061551861093882146 0 0.024042097493976643 -0.0037224920051540096 0 0.026865257592235799 -0.00098996575309483388 0 0.026795428740489461 0.0012773687671212303 0 0.027321723570825757 -0.0011424401125717434 0 0.026061732011411119 0.00077871993200490347 0 0.025012530407261861 -0.0010922499639555558 0 0.026061732011411119 0.00077871993200490347 0 0.02520850610177925 0.0025986364318410864 0 0.026795428740489461 0.0012773687671212303 0 0.02602280801350863 0.0022184813985042635 0 0.026350900884761681 0.0036776319766075706 0 0.026795428740489461 0.0012773687671212303 0 0.026061732011411119 0.00077871993200490347 0 0.02602280801350863 0.0022184813985042635 0 0.026061732011411119 0.00077871993200490347 0 0.02520850610177925 0.0025986364318410864 0 0.02602280801350863 0.0022184813985042635 0 0.02693257339066649 0.0014011148224438326 0 0.027766633297877444 0.0042002581039867039 0 0.023682627483418917 -0.005973853972493573 0 0.023571293995432351 -0.0061223689713145058 0 0.0235777127061477 -0.0061551861093882146 0 0.027958654238673535 -0.0024633601889102186 0 0.029492330017057502 -0.0027856138755589376 0 0.029719438779489307 -0.0011357154553799183 0 0.031207462456994864 -0.0017841078235823374 0 0.029492330017057502 -0.0027856138755589376 0 0.028575356891797167 -0.0038320689306123997 0 0.031207462456994864 -0.0017841078235823374 0 0.029492330017057502 -0.0027856138755589376 0 0.029719438779489307 -0.0011357154553799183 0 0.026865257592235799 -0.00098996575309483388 0 0.026588752090506262 -0.0046849823869804345 0 0.02865067565809758 -0.002757547595692981 0 0.026588752090506262 -0.0046849823869804345 0 0.027958654238673535 -0.0024633601889102186 0 0.029492330017057502 -0.0027856138755589376 0 0.028591679100168962 -0.0034270001229312654 0 0.027958654238673535 -0.0024633601889102186 0 0.028591679100168962 -0.0034270001229312654 0 0.027717135697492502 -0.00308131589652052 0 0.023793911512122044 -0.0061963396362419137 0 0.023571293995432351 -0.0061223689713145058 0 0.023625773525909048 -0.0061556516763599835 0 0.023571293995432351 -0.0061223689713145058 0 0.0235777127061477 -0.0061551861093882146 0 0.023625773525909048 -0.0061556516763599835 0 0.023584999793410878 -0.0061634975655673928 0 0.0235777127061477 -0.0061551861093882146 0 0.023566088784072594 -0.006144034943081707 0 0.023487050485265077 -0.0060788274689068398 0 0.023584999793410878 -0.0061634975655673928 0 0.023566088784072594 -0.006144034943081707 0 0.0235777127061477 -0.0061551861093882146 0 0.023566088784072594 -0.006144034943081707 0 0.023625773525909048 -0.0061556516763599835 0 0.023590819411070656 -0.0061211844350434145 0 0.023566088784072594 -0.006144034943081707 0 0.023625773525909048 -0.0061556516763599835 0 0.026844231096588438 -0.0042117357683385528 0 0.026588752090506262 -0.0046849823869804345 0 0.026294146977963812 -0.0046143195554687669 0 0.026277954762877059 -0.0045996309887003156 0 0.026341417605144055 -0.0045426379552715532 0 0.026958839627884791 -0.0041825436124791147 0 0.028591679100168962 -0.0034270001229312654 0 0.027415083283095824 -0.0035171742483390144 0 0.024790955678995179 -0.005598377240088207 0 0.026588752090506262 -0.0046849823869804345 0 0.026958839627884791 -0.0041825436124791147 0 0.026915128518411057 -0.0037109801396438772 0 0.026795414888908173 -0.0039788389546471644 0 0.026958839627884791 -0.0041825436124791147 0 0.026915128518411057 -0.0037109801396438772 0 0.027415083283095824 -0.0035171742483390144 0 0.026915128518411057 -0.0037109801396438772 0 0.027415083283095824 -0.0035171742483390144 0 0.02694882615213743 -0.0028802825061268488 0 0.026395517994328786 -0.0040660858283248138 0 0.026530754663010539 -0.0037872910563501992 0 0.026192903489866158 -0.0039248478058004597 0 0.026958839627884791 -0.0041825436124791147 0 0.026618684269072296 -0.0040670282202655908 0 0.026795414888908173 -0.0039788389546471644 0 0.026915128518411057 -0.0037109801396438772 0 0.026530754663010539 -0.0037872910563501992 0 0.026795414888908173 -0.0039788389546471644 0 0.026530754663010539 -0.0037872910563501992 0 0.026618684269072296 -0.0040670282202655908 0 0.026795414888908173 -0.0039788389546471644 0 0.026395517994328786 -0.0040660858283248138 0 0.026530754663010539 -0.0037872910563501992 0 0.026618684269072296 -0.0040670282202655908 0 0.026915128518411057 -0.0037109801396438772 0 0.026530754663010539 -0.0037872910563501992 0 0.026552935691673888 -0.0031888230848386477 0 0.026530754663010539 -0.0037872910563501992 0 0.026192903489866158 -0.0039248478058004597 0 0.02617617593768868 -0.0032046180079764635 0 0.026530754663010539 -0.0037872910563501992 0 0.026552935691673888 -0.0031888230848386477 0 0.02617617593768868 -0.0032046180079764635 0 0.026552935691673888 -0.0031888230848386477 0 0.02636901657716563 -0.0024677299654954211 0 0.02617617593768868 -0.0032046180079764635 0 0.026552935691673888 -0.0031888230848386477 0 0.02636901657716563 -0.0024677299654954211 0 0.02694882615213743 -0.0028802825061268488 0 0.027415083283095824 -0.0035171742483390144 0 0.027717135697492502 -0.00308131589652052 0 0.02694882615213743 -0.0028802825061268488 0 0.027958654238673535 -0.0024633601889102186 0 0.027717135697492502 -0.00308131589652052 0 0.02694882615213743 -0.0028802825061268488 0 0.028591679100168962 -0.0034270001229312654 0 0.027415083283095824 -0.0035171742483390144 0 0.027717135697492502 -0.00308131589652052 0 0.026915128518411057 -0.0037109801396438772 0 0.026552935691673888 -0.0031888230848386477 0 0.02694882615213743 -0.0028802825061268488 0 0.02636901657716563 -0.0024677299654954211 0 0.02694882615213743 -0.0028802825061268488 0 0.026723922169912429 -0.0018407641589778187 0 0.027958654238673535 -0.0024633601889102186 0 0.02694882615213743 -0.0028802825061268488 0 0.026723922169912429 -0.0018407641589778187 0 0.026723922169912429 -0.0018407641589778187 0 0.021923880737977859 0.0017049652147419889 0 0.026575645578187049 0.0025562039364383001 0 0.027958654238673535 -0.0024633601889102186 0 0.026723922169912429 -0.0018407641589778187 0 0.028645235671369486 0.00010008399901098022 0 0.026723922169912429 -0.0018407641589778187 0 0.026575645578187049 0.0025562039364383001 0 0.028645235671369486 0.00010008399901098022 0 0.02636901657716563 -0.0024677299654954211 0 0.026723922169912429 -0.0018407641589778187 0 0.02619527838670882 -0.0018994868283786961 0 0.026091412434385425 -0.0022732127098776078 0 0.025903309319013367 0.0018947903192573644 0 0.02636901657716563 -0.0024677299654954211 0 0.02619527838670882 -0.0018994868283786961 0 0.025922751587404185 -0.0024873556417331112 0 0.025903309319013367 0.0018947903192573644 0 0.025646336542967454 0.0090926838169528863 0 0.021923880737977859 0.0017049652147419889 0 0.026575645578187049 0.0025562039364383001 0 0.024572252760099136 0.0062261330539744655 0 0.029012509453118444 0.0029321993640256598 0 0.031536173463306429 0.0015382442906579892 0 0.028645235671369486 0.00010008399901098022 0 0.026575645578187049 0.0025562039364383001 0 0.029012509453118444 0.0029321993640256598 0 0.028184502718470145 0.006185456581720543 0 0.026575645578187049 0.0025562039364383001 0 0.029012509453118444 0.0029321993640256598 0 0.028645235671369486 0.00010008399901098022 0 0.029012509453118444 0.0029321993640256598 0 0.031536173463306429 0.0015382442906579892 0 0.03005913888888383 0.0044587170847619406 0 0.031536173463306429 0.0015382442906579892 0 0.031811165133729218 0.0053610963793825966 0 0.03005913888888383 0.0044587170847619406 0 0.027766633297877444 0.0042002581039867039 0 0.02888016845298497 0.0067406582176490811 0 0.028383314227001889 0.0035950833906625182 0 0.029089076598763468 0.0010578950686000556 0 0.028730380992774945 0.0061263215779632819 0 0.029122780438305393 0.0070617894851673886 0 0.028736913292102099 0.0057408106373022022 0 0.028356503130666899 0.0078124872944861107 0 0.027469976486399896 0.0024098752496949307 0 0.02888016845298497 0.0067406582176490811 0 0.028383314227001889 0.0035950833906625182 0 0.028672971632587415 0.0069405854424467459 0 0.028730380992774945 0.0061263215779632819 0 0.030067483472810731 0.0025053211700750023 0 0.029683628355213619 0.0069576933027514368 0 0.029418032025442933 0.0079743444633445983 0 0.029122780438305393 0.0070617894851673886 0 0.028356503130666899 0.0078124872944861107 0 0.031207462456994864 -0.0017841078235823374 0 0.031536173463306429 0.0015382442906579892 0 0.029719438779489307 -0.0011357154553799183 0 0.028561911301567097 0.003627969529892517 0 0.028266468206664151 0.0033493007636808485 0 0.028049983952277951 0.0065642226427217783 0 0.026865257592235799 -0.00098996575309483388 0 0.030067483472810731 0.0025053211700750023 0 0.028257180732632295 0.00027111767637314339 0 0.028383314227001889 0.0035950833906625182 0 0.029089076598763468 0.0010578950686000556 0 0.02602280801350863 0.0022184813985042635 0 0.026350900884761681 0.0036776319766075706 0 0.025941433790438142 0.0032892135227857475 0 0.027766633297877444 0.0042002581039867039 0 0.027469976486399896 0.0024098752496949307 0 0.026921938342227857 0.0026048650743657666 0 0.027469976486399896 0.0024098752496949307 0 0.02520850610177925 0.0025986364318410864 0 0.02602280801350863 0.0022184813985042635 0 0.025941085923190436 0.0032796771968086726 0 0.026865257592235799 -0.00098996575309483388 0 0.027469976486399896 0.0024098752496949307 0 0.031536173463306429 0.0015382442906579892 0 0.029719438779489307 -0.0011357154553799183 0 0.028645235671369486 0.00010008399901098022 0 0.027958654238673535 -0.0024633601889102186 0 0.029719438779489307 -0.0011357154553799183 0 0.028645235671369486 0.00010008399901098022 0 0.024970193769131462 -0.003116811239014485 0 0.024702241412122232 -0.003200867719768216 0 0.024738380535136852 -0.0024702374491676906 0 0.031367185975185598 -0.0030794076731171056 0 0.029439640413476149 -0.001662497949811976 0 0.025503383703458837 -0.0039656739538436389 0 0.031367185975185598 -0.0030794076731171056 0 0.026781692637922572 -0.0054363088719321974 0 0.026844010788390375 -0.005437907635203138 0 0.026859165748042195 -0.0054423212546533435 0 0.02689216191162978 -0.0054242807036662555 0 0.026781692637922572 -0.0054363088719321974 0 0.026859165748042195 -0.0054423212546533435 0 0.025425323789639815 -0.0044527277412484394 0 0.025080133226971869 -0.0034374206058238408 0 0.025442314105364829 -0.0037142099367875798 0 0.026196727344795161 -0.0050063621621432124 0 0.025503383703458837 -0.0039656739538436389 0 0.025425323789639815 -0.0044527277412484394 0 0.025442314105364829 -0.0037142099367875798 0 0.025644970170721943 -0.0040124841991899529 0 0.025442314105364829 -0.0037142099367875798 0 0.025644970170721943 -0.0040124841991899529 0 0.025686048443807688 -0.0035745512752229551 0 0.025442314105364829 -0.0037142099367875798 0 0.025495586387364721 -0.0032118739644625663 0 0.025686048443807688 -0.0035745512752229551 0 0.025080133226971869 -0.0034374206058238408 0 0.025442314105364829 -0.0037142099367875798 0 0.025495586387364721 -0.0032118739644625663 0 0.025503383703458837 -0.0039656739538436389 0 0.025341783929112155 -0.0033171437481990737 0 0.024827420278367804 -0.0033907242296093158 0 0.025495586387364721 -0.0032118739644625663 0 0.025124644055224271 -0.002844216549662563 0 0.025495586387364721 -0.0032118739644625663 0 0.025686048443807688 -0.0035745512752229551 0 0.025847509989112914 -0.0029104707750062966 0 0.025893333895389805 -0.0034384536807001522 0 0.026480257080635072 -0.0028276066713640723 0 0.025847509989112914 -0.0029104707750062966 0 0.025893333895389805 -0.0034384536807001522 0 0.025686048443807688 -0.0035745512752229551 0 0.025847509989112914 -0.0029104707750062966 0 0.025644970170721943 -0.0040124841991899529 0 0.025686048443807688 -0.0035745512752229551 0 0.025862922852643168 -0.0040187878123518223 0 0.025774471232319091 -0.0042451213928959407 0 0.025644970170721943 -0.0040124841991899529 0 0.025862922852643168 -0.0040187878123518223 0 0.025893333895389805 -0.0034384536807001522 0 0.025686048443807688 -0.0035745512752229551 0 0.025862922852643168 -0.0040187878123518223 0 0.025893333895389805 -0.0034384536807001522 0 0.025862922852643168 -0.0040187878123518223 0 0.026192903489866158 -0.0039248478058004597 0 0.025893333895389805 -0.0034384536807001522 0 0.026192903489866158 -0.0039248478058004597 0 0.02617617593768868 -0.0032046180079764635 0 0.026029881536615441 -0.0031211686761748111 0 0.025993079394167971 -0.0032039528458067948 0 0.02636901657716563 -0.0024677299654954211 0 0.02617617593768868 -0.0032046180079764635 0 0.025922751587404185 -0.0024873556417331112 0 0.025893333895389805 -0.0034384536807001522 0 0.02617617593768868 -0.0032046180079764635 0 0.025922751587404185 -0.0024873556417331112 0 0.026923197846608328 -0.0021054323410772281 0 0.026480257080635072 -0.0028276066713640723 0 0.026201860635651379 -0.0021974612280048918 0 0.025903309319013367 0.0018947903192573644 0 0.025993079394167971 -0.0032039528458067948 0 0.025903309319013367 0.0018947903192573644 0 0.026191738000978078 0.0054200963969145196 0 0.026923197846608328 -0.0021054323410772281 0 0.026201860635651379 -0.0021974612280048918 0 0.026003882873927922 -0.0013323815628958618 0 0.026201860635651379 -0.0021974612280048918 0 0.025579066380809569 -0.0016996266643823732 0 0.026003882873927922 -0.0013323815628958618 0 0.026201860635651379 -0.0021974612280048918 0 0.025723017276384756 -0.0022681017951157252 0 0.025579066380809569 -0.0016996266643823732 0 0.026480257080635072 -0.0028276066713640723 0 0.026201860635651379 -0.0021974612280048918 0 0.025847509989112914 -0.0029104707750062966 0 0.025723017276384756 -0.0022681017951157252 0 0.025847509989112914 -0.0029104707750062966 0 0.025381195305338847 -0.0025803883262152248 0 0.026201860635651379 -0.0021974612280048918 0 0.025723017276384756 -0.0022681017951157252 0 0.025847509989112914 -0.0029104707750062966 0 0.025495586387364721 -0.0032118739644625663 0 0.025847509989112914 -0.0029104707750062966 0 0.025381195305338847 -0.0025803883262152248 0 0.025495586387364721 -0.0032118739644625663 0 0.025124644055224271 -0.002844216549662563 0 0.025381195305338847 -0.0025803883262152248 0 0.025381195305338847 -0.0025803883262152248 0 0.025282839479747684 -0.0020784069267136538 0 0.024873474289572626 -0.0023473807331297922 0 0.025124644055224271 -0.002844216549662563 0 0.025381195305338847 -0.0025803883262152248 0 0.024873474289572626 -0.0023473807331297922 0 0.025723017276384756 -0.0022681017951157252 0 0.025381195305338847 -0.0025803883262152248 0 0.025282839479747684 -0.0020784069267136538 0 0.025723017276384756 -0.0022681017951157252 0 0.025579066380809569 -0.0016996266643823732 0 0.025282839479747684 -0.0020784069267136538 0 0.025579066380809569 -0.0016996266643823732 0 0.025282839479747684 -0.0020784069267136538 0 0.024861913559737048 -0.0015381144701648096 0 0.025282839479747684 -0.0020784069267136538 0 0.024873474289572626 -0.0023473807331297922 0 0.024861913559737048 -0.0015381144701648096 0 0.024738380535136852 -0.0024702374491676906 0 0.024873474289572626 -0.0023473807331297922 0 0.024861913559737048 -0.0015381144701648096 0 0.034130550069589462 -0.00066382929177801722 0 0.034463896361059274 -0.001278186751505612 0 0.034269759796759974 -0.00028051568781022165 0 0.029439640413476149 -0.001662497949811976 0 0.02966002667457026 -0.0014792393890232756 0 0.034130550069589462 -0.00066382929177801722 0 0.034269759796759974 -0.00028051568781022165 0 0.033959278496770585 -0.00030485775482553911 0 0.034130550069589462 -0.00066382929177801722 0 0.034463896361059274 -0.001278186751505612 0 0.034130871278407471 -0.00095555046521120387 0 0.034463896361059274 -0.001278186751505612 0 0.034393803102918022 -0.0014937049332516502 0 0.034130871278407471 -0.00095555046521120387 0 0.034501052248246178 -0.0015655208887920009 0 0.034463896361059274 -0.001278186751505612 0 0.034393803102918022 -0.0014937049332516502 0 0.024827420278367804 -0.0033907242296093158 0 0.025124644055224271 -0.002844216549662563 0 0.024873474289572626 -0.0023473807331297922 0 0.024970193769131462 -0.003116811239014485 0 0.024738380535136852 -0.0024702374491676906 0 0.024873474289572626 -0.0023473807331297922 0 0.025503383703458837 -0.0039656739538436389 0 0.024768114210838625 -0.0021263736900122136 0 0.033950009109034784 0.00044502809065259528 0 0.033616472483188255 0.00060667485772702805 0 0.033794711941011676 0.00013513668687702715 0 0.034269759796759974 -0.00028051568781022165 0 0.033959278496770585 -0.00030485775482553911 0 0.033794711941011676 0.00013513668687702715 0 0.034269759796759974 -0.00028051568781022165 0 0.033950009109034784 0.00044502809065259528 0 0.033794711941011676 0.00013513668687702715 0 0.02966002667457026 -0.0014792393890232756 0 0.027909266447405861 0.0026848481626524285 0 0.025383541236764628 -0.0012620689984734635 0 0.025085306343831403 -0.00052484678152247383 0 0.026003882873927922 -0.0013323815628958618 0 0.024861913559737048 -0.0015381144701648096 0 0.025383541236764628 -0.0012620689984734635 0 0.025085306343831403 -0.00052484678152247383 0 0.025579066380809569 -0.0016996266643823732 0 0.024861913559737048 -0.0015381144701648096 0 0.025383541236764628 -0.0012620689984734635 0 0.027909266447405861 0.0026848481626524285 0 0.026191738000978078 0.0054200963969145196 0 0.02832023930856822 0.0099322197279377109 0 0.027846018480426601 0.010036675103856453 0 0.026794607427943894 0.010719122244322317 0 0.028088569132525922 0.0099267102936139648 0 0.02832023930856822 0.0099322197279377109 0 0.027846018480426601 0.010036675103856453 0 0.028088569132525922 0.0099267102936139648 0 0.028009335284544818 0.0098293145421291511 0 0.027846018480426601 0.010036675103856453 0 0.02832023930856822 0.0099322197279377109 0 0.028009335284544818 0.0098293145421291511 0 0.028141647491500003 0.0097539619318146413 0 0.028088569132525922 0.0099267102936139648 0 0.02832023930856822 0.0099322197279377109 0 0.028009335284544818 0.0098293145421291511 0 0.027663774284148939 0.0098646783591905714 0 0.027846018480426601 0.010036675103856453 0 0.027175019315771029 0.010265684400277643 0 0.028009335284544818 0.0098293145421291511 0 0.027663774284148939 0.0098646783591905714 0 0.027846018480426601 0.010036675103856453 0 0.027663774284148939 0.0098646783591905714 0 0.026360483517125565 0.010388920799361134 0 0.027545111982653865 0.0095113610736496448 0 0.027663774284148939 0.0098646783591905714 0 0.027175019315771029 0.010265684400277643 0 0.026360483517125565 0.010388920799361134 0 0.027846018480426601 0.010036675103856453 0 0.027175019315771029 0.010265684400277643 0 0.026794607427943894 0.010719122244322317 0 0.027175019315771029 0.010265684400277643 0 0.026794607427943894 0.010719122244322317 0 0.026360483517125565 0.010388920799361134 0 0.025579066380809569 -0.0016996266643823732 0 0.025383541236764628 -0.0012620689984734635 0 0.026003882873927922 -0.0013323815628958618 0 0.026517140536217766 0.010394031121308137 0 0.026794607427943894 0.010719122244322317 0 0.026515449034048146 0.010472868284600324 0 0.026794607427943894 0.010719122244322317 0 0.026515449034048146 0.010472868284600324 0 0.026360483517125565 0.010388920799361134 0 0.026360483517125565 0.010388920799361134 0 0.026214224719538794 0.011036711323940563 0 0.026556126769489607 0.010547379604266769 0 0.026515449034048146 0.010472868284600324 0 0.026360483517125565 0.010388920799361134 0 0.026556126769489607 0.010547379604266769 0 0.026214224719538794 0.011036711323940563 0 0.025917861011934627 0.011790392903330045 0 0.025299875659131957 0.011266548233044793 0 0.026360483517125565 0.010388920799361134 0 0.026214224719538794 0.011036711323940563 0 0.025299875659131957 0.011266548233044793 0 0.026214224719538794 0.011036711323940563 0 0.025917861011934627 0.011790392903330045 0 0.026541643878253602 0.011143097434950322 0 0.025917861011934627 0.011790392903330045 0 0.026360714480553167 0.012590770413520632 0 0.02562212322789233 0.012485545139932223 0 0.025439545993918403 0.011966620821384262 0 0.024761540490212997 0.011989457482051118 0 0.025128024144751397 0.012284185012446229 0 0.025917861011934627 0.011790392903330045 0 0.025439545993918403 0.011966620821384262 0 0.02562212322789233 0.012485545139932223 0 0.025917861011934627 0.011790392903330045 0 0.025439545993918403 0.011966620821384262 0 0.025299875659131957 0.011266548233044793 0 0.025439545993918403 0.011966620821384262 0 0.025299875659131957 0.011266548233044793 0 0.024761540490212997 0.011989457482051118 0 0.025439545993918403 0.011966620821384262 0 0.025128024144751397 0.012284185012446229 0 0.02562212322789233 0.012485545139932223 0 0.026350743915136383 0.010409154044513577 0 0.026423872636909766 0.010468060718765167 0 0.027545111982653865 0.0095113610736496448 0 0.028022714097843841 0.0097005334094606467 0 0.028232840619231075 0.0096979473571074427 0 0.028009335284544818 0.0098293145421291511 0 0.027663774284148939 0.0098646783591905714 0 0.028022714097843841 0.0097005334094606467 0 0.027663774284148939 0.0098646783591905714 0 0.027545111982653865 0.0095113610736496448 0 0.028022714097843841 0.0097005334094606467 0 0.028009335284544818 0.0098293145421291511 0 0.028141647491500003 0.0097539619318146413 0 0.028022714097843841 0.0097005334094606467 0 0.02832023930856822 0.0099322197279377109 0 0.028141647491500003 0.0097539619318146413 0 0.028240966377039135 0.0096339032146610225 0 0.028141647491500003 0.0097539619318146413 0 0.028022714097843841 0.0097005334094606467 0 0.028240966377039135 0.0096339032146610225 0 0.028022714097843841 0.0097005334094606467 0 0.028232840619231075 0.0096979473571074427 0 0.028240966377039135 0.0096339032146610225 0 0.026423872636909766 0.010468060718765167 0 0.026480949418364597 0.010900627370461508 0 0.027545111982653865 0.0095113610736496448 0 0.028232840619231075 0.0096979473571074427 0 0.028327764814114396 0.0098454659313682597 0 0.028232840619231075 0.0096979473571074427 0 0.028327764814114396 0.0098454659313682597 0 0.028172850611877593 0.010131846040652809 0 0.028327764814114396 0.0098454659313682597 0 0.028172850611877593 0.010131846040652809 0 0.028256789119303641 0.010836973840834633 0 0.028232840619231075 0.0096979473571074427 0 0.028172850611877593 0.010131846040652809 0 0.028134423301333502 0.0097737184895504425 0 0.028172850611877593 0.010131846040652809 0 0.027774453042464509 0.010545785186072886 0 0.027760413305953826 0.0099593509928415039 0 0.028172850611877593 0.010131846040652809 0 0.028134423301333502 0.0097737184895504425 0 0.027760413305953826 0.0099593509928415039 0 0.028134423301333502 0.0097737184895504425 0 0.02824661140862594 0.0094643956685308631 0 0.027760413305953826 0.0099593509928415039 0 0.028134423301333502 0.0097737184895504425 0 0.028240966377039135 0.0096339032146610225 0 0.02824661140862594 0.0094643956685308631 0 0.028232840619231075 0.0096979473571074427 0 0.028134423301333502 0.0097737184895504425 0 0.028240966377039135 0.0096339032146610225 0 0.027909266447405861 0.0026848481626524285 0 0.031307624117141587 0.0048519767596132638 0 0.02832023930856822 0.0099322197279377109 0 0.028240966377039135 0.0096339032146610225 0 0.02824661140862594 0.0094643956685308631 0 0.02873753573012543 0.0088925957197443593 0 0.028184502718470145 0.006185456581720543 0 0.027278625645742818 0.010555441262534899 0 0.029642956906003569 0.0078912890519266705 0 0.02873753573012543 0.0088925957197443593 0 0.029502549622376365 0.01063477080616148 0 0.029642956906003569 0.0078912890519266705 0 0.02873753573012543 0.0088925957197443593 0 0.028184502718470145 0.006185456581720543 0 0.029642956906003569 0.0078912890519266705 0 0.030987741411500503 0.0078145529192777674 0 0.029929818114133359 0.0063646121895753367 0 0.030214840401019405 0.0096337594120852639 0 0.030148152892445657 0.0091165588501255813 0 0.029502549622376365 0.01063477080616148 0 0.02852337165720524 0.009965029697962903 0 0.029007293676975392 0.0091594362691809848 0 0.028356587488943714 0.0082629505742737291 0 0.029642956906003569 0.0078912890519266705 0 0.030987741411500503 0.0078145529192777674 0 0.029502549622376365 0.01063477080616148 0 0.030214840401019405 0.0096337594120852639 0 0.030148152892445657 0.0091165588501255813 0 0.030503909959802251 0.0079759062659159729 0 0.030377043964063405 0.0083720773833636224 0 0.029768680727826142 0.010382675109713899 0 0.02852337165720524 0.009965029697962903 0 0.02917345863958852 0.010284531589751211 0 0.029264298951842342 0.010866143293713321 0 0.02852337165720524 0.009965029697962903 0 0.02917345863958852 0.010284531589751211 0 0.029115575496221621 0.0098412108160525671 0 0.02948529865483443 0.010128825778050339 0 0.02917345863958852 0.010284531589751211 0 0.029115575496221621 0.0098412108160525671 0 0.02852337165720524 0.009965029697962903 0 0.029115575496221621 0.0098412108160525671 0 0.029007293676975392 0.0091594362691809848 0 0.030377043964063405 0.0083720773833636224 0 0.029683628355213619 0.0069576933027514368 0 0.02933348878639153 0.0099487559984705789 0 0.029683628355213619 0.0069576933027514368 0 0.030987741411500503 0.0078145529192777674 0 0.031811165133729218 0.0053610963793825966 0 0.029929818114133359 0.0063646121895753367 0 0.029007293676975392 0.0091594362691809848 0 0.028356587488943714 0.0082629505742737291 0 0.028356503130666899 0.0078124872944861107 0 0.029418032025442933 0.0079743444633445983 0 0.029007293676975392 0.0091594362691809848 0 0.028356503130666899 0.0078124872944861107 0 0.031811165133729218 0.0053610963793825966 0 0.03005913888888383 0.0044587170847619406 0 0.029929818114133359 0.0063646121895753367 0 0.029683628355213619 0.0069576933027514368 0 0.02888016845298497 0.0067406582176490811 0 0.029012509453118444 0.0029321993640256598 0 0.03005913888888383 0.0044587170847619406 0 0.028184502718470145 0.006185456581720543 0 0.03005913888888383 0.0044587170847619406 0 0.029929818114133359 0.0063646121895753367 0 0.028184502718470145 0.006185456581720543 0 0.029642956906003569 0.0078912890519266705 0 0.029929818114133359 0.0063646121895753367 0 0.028184502718470145 0.006185456581720543 0 0.026575645578187049 0.0025562039364383001 0 0.028184502718470145 0.006185456581720543 0 0.024572252760099136 0.0062261330539744655 0 0.026517140536217766 0.010394031121308137 0 0.026515449034048146 0.010472868284600324 0 0.02671951250636152 0.010381699632731705 0 0.026515449034048146 0.010472868284600324 0 0.02671951250636152 0.010381699632731705 0 0.026556126769489607 0.010547379604266769 0 0.028184502718470145 0.006185456581720543 0 0.024572252760099136 0.0062261330539744655 0 0.027278625645742818 0.010555441262534899 0 0.02671951250636152 0.010381699632731705 0 0.026556126769489607 0.010547379604266769 0 0.027278625645742818 0.010555441262534899 0 0.025646336542967454 0.0090926838169528863 0 0.027115551900782471 0.010180351923674724 0 0.027278625645742818 0.010555441262534899 0 0.027009642747881184 0.011532270370059492 0 0.026541643878253602 0.011143097434950322 0 0.027278625645742818 0.010555441262534899 0 0.027009642747881184 0.011532270370059492 0 0.027776440269099176 0.01188614434530067 0 0.026556126769489607 0.010547379604266769 0 0.027278625645742818 0.010555441262534899 0 0.026541643878253602 0.011143097434950322 0 0.026214224719538794 0.011036711323940563 0 0.026556126769489607 0.010547379604266769 0 0.026541643878253602 0.011143097434950322 0 0.025917861011934627 0.011790392903330045 0 0.026541643878253602 0.011143097434950322 0 0.026360714480553167 0.012590770413520632 0 0.027009642747881184 0.011532270370059492 0 0.026541643878253602 0.011143097434950322 0 0.026360714480553167 0.012590770413520632 0 0.027776440269099176 0.01188614434530067 0 0.02789306834574605 0.013021126304541594 0 0.027092362027337089 0.012667676671732778 0 0.027009642747881184 0.011532270370059492 0 0.026360714480553167 0.012590770413520632 0 0.027092362027337089 0.012667676671732778 0 0.027009642747881184 0.011532270370059492 0 0.027776440269099176 0.01188614434530067 0 0.027092362027337089 0.012667676671732778 0 0.028691136134509708 0.012173900780066397 0 0.027776440269099176 0.01188614434530067 0 0.02789306834574605 0.013021126304541594 0 0.028691136134509708 0.012173900780066397 0 0.027776440269099176 0.01188614434530067 0 0.028531885300040995 0.011455458317879771 0 0.028691136134509708 0.012173900780066397 0 0.028531885300040995 0.011455458317879771 0 0.029150424838156226 0.011614386980505322 0 0.02873753573012543 0.0088925957197443593 0 0.027278625645742818 0.010555441262534899 0 0.029502549622376365 0.01063477080616148 0 0.027278625645742818 0.010555441262534899 0 0.027776440269099176 0.01188614434530067 0 0.028531885300040995 0.011455458317879771 0 0.027278625645742818 0.010555441262534899 0 0.028531885300040995 0.011455458317879771 0 0.029502549622376365 0.01063477080616148 0 0.028531885300040995 0.011455458317879771 0 0.029502549622376365 0.01063477080616148 0 0.029150424838156226 0.011614386980505322 0 0.030214840401019405 0.0096337594120852639 0 0.029502549622376365 0.01063477080616148 0 0.029150424838156226 0.011614386980505322 0 0.02933348878639153 0.0099487559984705789 0 0.02919537393911581 0.011304518464596548 0 0.02852337165720524 0.009965029697962903 0 0.029264298951842342 0.010866143293713321 0 0.029150424838156226 0.011614386980505322 0 0.02958200936908665 0.010567093242880594 0 0.02917345863958852 0.010284531589751211 0 0.029264298951842342 0.010866143293713321 0 0.029264298951842342 0.010866143293713321 0 0.029419582757323409 0.011465977838949227 0 0.029150424838156226 0.011614386980505322 0 0.029789431867924186 0.011374494702287997 0 0.029264298951842342 0.010866143293713321 0 0.029419582757323409 0.011465977838949227 0 0.030233036037808539 0.012399525441684831 0 0.029524896271533794 0.011972525255422108 0 0.02914623702099356 0.012852772190904756 0 0.029789431867924186 0.011374494702287997 0 0.029419582757323409 0.011465977838949227 0 0.029524896271533794 0.011972525255422108 0 0.029419582757323409 0.011465977838949227 0 0.029524896271533794 0.011972525255422108 0 0.029150424838156226 0.011614386980505322 0 0.028691136134509708 0.012173900780066397 0 0.029524896271533794 0.011972525255422108 0 0.029150424838156226 0.011614386980505322 0 0.028691136134509708 0.012173900780066397 0 0.029524896271533794 0.011972525255422108 0 0.02914623702099356 0.012852772190904756 0 0.02914623702099356 0.012852772190904756 0 0.029377055170131221 0.014050933458297781 0 0.03000788573057216 0.013358662870980129 0 0.02914623702099356 0.012852772190904756 0 0.029377055170131221 0.014050933458297781 0 0.028260651053213199 0.014086392364792874 0 0.029377055170131221 0.014050933458297781 0 0.028260651053213199 0.014086392364792874 0 0.028867590260127703 0.014822538490830785 0 0.029377055170131221 0.014050933458297781 0 0.028867590260127703 0.014822538490830785 0 0.029725231174919844 0.015045247935708994 0 0.028260651053213199 0.014086392364792874 0 0.028867590260127703 0.014822538490830785 0 0.027813913020603532 0.015143566816299426 0 0.028691136134509708 0.012173900780066397 0 0.02914623702099356 0.012852772190904756 0 0.02789306834574605 0.013021126304541594 0 0.02914623702099356 0.012852772190904756 0 0.028260651053213199 0.014086392364792874 0 0.02789306834574605 0.013021126304541594 0 0.02789306834574605 0.013021126304541594 0 0.027092362027337089 0.012667676671732778 0 0.026298805733315944 0.014549905938384509 0 0.026360714480553167 0.012590770413520632 0 0.026298805733315944 0.014549905938384509 0 0.02581384301532853 0.013834045593103491 0 0.026360714480553167 0.012590770413520632 0 0.027092362027337089 0.012667676671732778 0 0.026298805733315944 0.014549905938384509 0 0.026298805733315944 0.014549905938384509 0 0.025931870249284138 0.015021183667462235 0 0.025777602320780069 0.014511583305802047 0 0.026298805733315944 0.014549905938384509 0 0.02581384301532853 0.013834045593103491 0 0.025777602320780069 0.014511583305802047 0 0.026283844520727129 0.014638236616631951 0 0.026608045212657416 0.015163743391258266 0 0.028260651053213199 0.014086392364792874 0 0.026298805733315944 0.014549905938384509 0 0.027813913020603532 0.015143566816299426 0 0.028260651053213199 0.014086392364792874 0 0.02789306834574605 0.013021126304541594 0 0.026298805733315944 0.014549905938384509 0 0.025931870249284138 0.015021183667462235 0 0.025711287636324905 0.015279197006999527 0 0.025710923535850833 0.015364979585360192 0 0.026298805733315944 0.014549905938384509 0 0.025931870249284138 0.015021183667462235 0 0.025710923535850833 0.015364979585360192 0 0.025931870249284138 0.015021183667462235 0 0.025777602320780069 0.014511583305802047 0 0.025714511425398854 0.014837296169160078 0 0.025931870249284138 0.015021183667462235 0 0.025714511425398854 0.014837296169160078 0 0.025762012079956809 0.015077463926824233 0 0.025711287636324905 0.015279197006999527 0 0.025762012079956809 0.015077463926824233 0 0.025733560047067283 0.015216744749829982 0 0.025931870249284138 0.015021183667462235 0 0.025711287636324905 0.015279197006999527 0 0.025762012079956809 0.015077463926824233 0 0.025711287636324905 0.015279197006999527 0 0.02529647426638193 0.015470377351915362 0 0.025710923535850833 0.015364979585360192 0 0.02529647426638193 0.015470377351915362 0 0.025000399367292585 0.015686898834315659 0 0.025710923535850833 0.015364979585360192 0 0.025000399367292585 0.015686898834315659 0 0.024772473661024929 0.015568232721741562 0 0.024479642091892236 0.015693452076925043 0 0.02529647426638193 0.015470377351915362 0 0.025000399367292585 0.015686898834315659 0 0.024772473661024929 0.015568232721741562 0 0.029127243316753461 0.015764109897117715 0 0.028867590260127703 0.014822538490830785 0 0.029725231174919844 0.015045247935708994 0 0.027553418082208549 0.015789557608101489 0 0.026608045212657416 0.015163743391258266 0 0.029127243316753461 0.015764109897117715 0 0.028867590260127703 0.014822538490830785 0 0.027813913020603532 0.015143566816299426 0 0.025552556624972533 0.014520142151601106 0 0.025648917950853018 0.014580231243250318 0 0.025497321406700101 0.014582723677977303 0 0.025611049287095566 0.014436523213139332 0 0.025548753032209177 0.014489942475964338 0 0.025576071968032729 0.014498718827621715 0 0.025611049287095566 0.014436523213139332 0 0.025548753032209177 0.014489942475964338 0 0.025552556624972533 0.014520142151601106 0 0.025611049287095566 0.014436523213139332 0 0.025552556624972533 0.014520142151601106 0 0.025648917950853018 0.014580231243250318 0 0.026960187299059604 0.012907287181965389 0 0.027237613822608173 0.012576269115918363 0 0.026249050975058454 0.012355799111818486 0 0.026546981671465679 0.012922058458318432 0 0.026101042814890559 0.013445942382455106 0 0.025138459948705737 0.013265383415044961 0 0.026363467747402929 0.013368449466214374 0 0.024702725002910125 0.013535636256465639 0 0.026363467747402929 0.013368449466214374 0 0.02667304005059247 0.012277201313150403 0 0.028172850611877593 0.010131846040652809 0 0.028256789119303641 0.010836973840834633 0 0.027774453042464509 0.010545785186072886 0 0.02667304005059247 0.012277201313150403 0 0.024702725002910125 0.013535636256465639 0 0.024761540490212997 0.011989457482051118 0 0.024287084758077747 0.012599687241194609 0 0.024695542096732886 0.012683128733805981 0 0.026480949418364597 0.010900627370461508 0 0.02667304005059247 0.012277201313150403 0 0.024761540490212997 0.011989457482051118 0 0.024695542096732886 0.012683128733805981 0 0.025128024144751397 0.012284185012446229 0 0.025497321406700101 0.014582723677977303 0 0.025495092380980165 0.014492446290158919 0 0.025437667860814205 0.014436776150704708 0 0.025552556624972533 0.014520142151601106 0 0.025497321406700101 0.014582723677977303 0 0.025495092380980165 0.014492446290158919 0 0.025548753032209177 0.014489942475964338 0 0.025495092380980165 0.014492446290158919 0 0.025526224628283814 0.014536259918623784 0 0.025548753032209177 0.014489942475964338 0 0.025552556624972533 0.014520142151601106 0 0.025495092380980165 0.014492446290158919 0 0.025495092380980165 0.014492446290158919 0 0.02546694298455042 0.014505027111169232 0 0.025526224628283814 0.014536259918623784 0 0.025495092380980165 0.014492446290158919 0 0.02546694298455042 0.014505027111169232 0 0.025437667860814205 0.014436776150704708 0 0.025497321406700101 0.014582723677977303 0 0.025437667860814205 0.014436776150704708 0 0.025353834258693156 0.014180753955479115 0 0.02543102802215649 0.014422952523364049 0 0.025437667860814205 0.014436776150704708 0 0.025353834258693156 0.014180753955479115 0 0.02546694298455042 0.014505027111169232 0 0.02543102802215649 0.014422952523364049 0 0.025437667860814205 0.014436776150704708 0 0.02546694298455042 0.014505027111169232 0 0.02543102802215649 0.014422952523364049 0 0.025518750978178673 0.014602549488556191 0 0.02543102802215649 0.014422952523364049 0 0.025353834258693156 0.014180753955479115 0 0.025518750978178673 0.014602549488556191 0 0.024702725002910125 0.013535636256465639 0 0.025265516032247953 0.014384839575115604 0 0.02348815115680241 0.013826077589378422 0 0.025047081670085306 0.013441159292428456 0 0.025353834258693156 0.014180753955479115 0 0.024702725002910125 0.013535636256465639 0 0.025229837299262727 0.012926484387364738 0 0.024695542096732886 0.012683128733805981 0 0.025128024144751397 0.012284185012446229 0 0.02562212322789233 0.012485545139932223 0 0.025047081670085306 0.013441159292428456 0 0.02581384301532853 0.013834045593103491 0 0.025353834258693156 0.014180753955479115 0 0.026401730340758465 0.012616861140498325 0 0.025229837299262727 0.012926484387364738 0 0.026360714480553167 0.012590770413520632 0 0.025047081670085306 0.013441159292428456 0 0.02581384301532853 0.013834045593103491 0 0.02581384301532853 0.013834045593103491 0 0.025353834258693156 0.014180753955479115 0 0.025777602320780069 0.014511583305802047 0 0.025353834258693156 0.014180753955479115 0 0.025777602320780069 0.014511583305802047 0 0.025518750978178673 0.014602549488556191 0 0.025777602320780069 0.014511583305802047 0 0.025714511425398854 0.014837296169160078 0 0.025518750978178673 0.014602549488556191 0 0.025714511425398854 0.014837296169160078 0 0.025630176448189157 0.014851544069339057 0 0.025518750978178673 0.014602549488556191 0 0.025714511425398854 0.014837296169160078 0 0.025762012079956809 0.015077463926824233 0 0.025630176448189157 0.014851544069339057 0 0.025762012079956809 0.015077463926824233 0 0.025701765463944096 0.015059949047871647 0 0.025733560047067283 0.015216744749829982 0 0.025762012079956809 0.015077463926824233 0 0.025701765463944096 0.015059949047871647 0 0.025630176448189157 0.014851544069339057 0 0.025701765463944096 0.015059949047871647 0 0.02561413917184938 0.014814874219523865 0 0.025630176448189157 0.014851544069339057 0 0.025701765463944096 0.015059949047871647 0 0.02561413917184938 0.014814874219523865 0 0.025658821944810943 0.014927340831485348 0 0.02561413917184938 0.014814874219523865 0 0.025540048131820554 0.014658416399514486 0 0.025630176448189157 0.014851544069339057 0 0.025540048131820554 0.014658416399514486 0 0.025630176448189157 0.014851544069339057 0 0.025518750978178673 0.014602549488556191 0 0.02546694298455042 0.014505027111169232 0 0.025540048131820554 0.014658416399514486 0 0.025518750978178673 0.014602549488556191 0 0.02546694298455042 0.014505027111169232 0 0.025540048131820554 0.014658416399514486 0 0.025526224628283814 0.014536259918623784 0 0.025540048131820554 0.014658416399514486 0 0.025526224628283814 0.014536259918623784 0 0.02558618159069545 0.01462895828949261 0 0.025526224628283814 0.014536259918623784 0 0.02558618159069545 0.01462895828949261 0 0.025576071968032729 0.014498718827621715 0 0.025548753032209177 0.014489942475964338 0 0.025526224628283814 0.014536259918623784 0 0.025576071968032729 0.014498718827621715 0 0.02561413917184938 0.014814874219523865 0 0.025540048131820554 0.014658416399514486 0 0.02558618159069545 0.01462895828949261 0 0.02561413917184938 0.014814874219523865 0 0.02558618159069545 0.01462895828949261 0 0.02562427700340808 0.014775546836644029 0 0.02561413917184938 0.014814874219523865 0 0.025658821944810943 0.014927340831485348 0 0.02562427700340808 0.014775546836644029 0 0.025658821944810943 0.014927340831485348 0 0.02562427700340808 0.014775546836644029 0 0.025643141227035978 0.014879131870084411 0 0.02558618159069545 0.01462895828949261 0 0.02562427700340808 0.014775546836644029 0 0.025624946341008113 0.014642588564837375 0 0.02562427700340808 0.014775546836644029 0 0.025624946341008113 0.014642588564837375 0 0.025643141227035978 0.014879131870084411 0 0.025624946341008113 0.014642588564837375 0 0.025582436133919917 0.01489009614178324 0 0.025643141227035978 0.014879131870084411 0 0.025624946341008113 0.014642588564837375 0 0.025634285123550003 0.014446034393934758 0 0.025624149958668525 0.014445433964199736 0 0.02558618159069545 0.01462895828949261 0 0.025624946341008113 0.014642588564837375 0 0.025634285123550003 0.014446034393934758 0 0.02558618159069545 0.01462895828949261 0 0.025634285123550003 0.014446034393934758 0 0.025576071968032729 0.014498718827621715 0 0.025611049287095566 0.014436523213139332 0 0.025634285123550003 0.014446034393934758 0 0.025576071968032729 0.014498718827621715 0 0.025618980052159596 0.015309977109552411 0 0.025702502615883145 0.015304107176070107 0 0.025587835895819609 0.015123033166517221 0 0.025702502615883145 0.015304107176070107 0 0.025587835895819609 0.015123033166517221 0 0.025654144721644585 0.015060346524945834 0 0.025587835895819609 0.015123033166517221 0 0.025582436133919917 0.01489009614178324 0 0.025654144721644585 0.015060346524945834 0 0.025582436133919917 0.01489009614178324 0 0.025643141227035978 0.014879131870084411 0 0.025654144721644585 0.015060346524945834 0 0.025654144721644585 0.015060346524945834 0 0.025680125713804958 0.015021632491469507 0 0.025720427605885741 0.015172761694260248 0 0.025658821944810943 0.014927340831485348 0 0.025643141227035978 0.014879131870084411 0 0.025680125713804958 0.015021632491469507 0 0.025643141227035978 0.014879131870084411 0 0.025654144721644585 0.015060346524945834 0 0.025680125713804958 0.015021632491469507 0 0.025658821944810943 0.014927340831485348 0 0.025680125713804958 0.015021632491469507 0 0.025705247957009035 0.015080559215952267 0 0.025680125713804958 0.015021632491469507 0 0.025705247957009035 0.015080559215952267 0 0.025720427605885741 0.015172761694260248 0 0.025702502615883145 0.015304107176070107 0 0.025720427605885741 0.015172761694260248 0 0.025771777338597542 0.015419462109436701 0 0.025720427605885741 0.015172761694260248 0 0.025778527498027441 0.01536254351817995 0 0.025771777338597542 0.015419462109436701 0 0.025702502615883145 0.015304107176070107 0 0.025654144721644585 0.015060346524945834 0 0.025720427605885741 0.015172761694260248 0 0.025720427605885741 0.015172761694260248 0 0.025762184458344557 0.015277126425916387 0 0.025730942762901891 0.015159868860208432 0 0.025720427605885741 0.015172761694260248 0 0.025778527498027441 0.01536254351817995 0 0.025762184458344557 0.015277126425916387 0 0.025778527498027441 0.01536254351817995 0 0.025762184458344557 0.015277126425916387 0 0.025773117377399488 0.015360758191450209 0 0.025762184458344557 0.015277126425916387 0 0.025730942762901891 0.015159868860208432 0 0.025742385261654472 0.015241561569857112 0 0.025705247957009035 0.015080559215952267 0 0.025720427605885741 0.015172761694260248 0 0.025730942762901891 0.015159868860208432 0 0.025701765463944096 0.015059949047871647 0 0.025658821944810943 0.014927340831485348 0 0.025705247957009035 0.015080559215952267 0 0.025701765463944096 0.015059949047871647 0 0.025705247957009035 0.015080559215952267 0 0.025730942762901891 0.015159868860208432 0 0.025701765463944096 0.015059949047871647 0 0.025730942762901891 0.015159868860208432 0 0.025742385261654472 0.015241561569857112 0 0.025701765463944096 0.015059949047871647 0 0.025742385261654472 0.015241561569857112 0 0.025733560047067283 0.015216744749829982 0 0.025742385261654472 0.015241561569857112 0 0.025733560047067283 0.015216744749829982 0 0.025702732106550826 0.015295301345619789 0 0.025742385261654472 0.015241561569857112 0 0.025722538919593217 0.015323361314283237 0 0.025773117377399488 0.015360758191450209 0 0.025762184458344557 0.015277126425916387 0 0.025742385261654472 0.015241561569857112 0 0.025773117377399488 0.015360758191450209 0 0.025742385261654472 0.015241561569857112 0 0.025722538919593217 0.015323361314283237 0 0.025702732106550826 0.015295301345619789 0 0.025722538919593217 0.015323361314283237 0 0.025773117377399488 0.015360758191450209 0 0.025710315839476687 0.015369812651870674 0 0.025773117377399488 0.015360758191450209 0 0.025787834261665147 0.015477306424611587 0 0.025710315839476687 0.015369812651870674 0 0.025787834261665147 0.015477306424611587 0 0.025740488778227013 0.015470867631752124 0 0.025710315839476687 0.015369812651870674 0 0.025740488778227013 0.015470867631752124 0 0.025679930583383484 0.01548047393215086 0 0.025782283040137771 0.015616567152907421 0 0.025740488778227013 0.015470867631752124 0 0.025823291651267823 0.015625917312802728 0 0.025782283040137771 0.015616567152907421 0 0.025787834261665147 0.015477306424611587 0 0.025740488778227013 0.015470867631752124 0 0.025823291651267823 0.015625917312802728 0 0.025787834261665147 0.015477306424611587 0 0.025823291651267823 0.015625917312802728 0 0.02582393258154559 0.015581770177738199 0 0.025823291651267823 0.015625917312802728 0 0.02582393258154559 0.015581770177738199 0 0.025864673974120341 0.0158027788850853 0 0.025787834261665147 0.015477306424611587 0 0.02582393258154559 0.015581770177738199 0 0.025799917666642573 0.015453365957424751 0 0.02582393258154559 0.015581770177738199 0 0.025799917666642573 0.015453365957424751 0 0.025771777338597542 0.015419462109436701 0 0.025778527498027441 0.01536254351817995 0 0.025773117377399488 0.015360758191450209 0 0.025799917666642573 0.015453365957424751 0 0.025773117377399488 0.015360758191450209 0 0.025787834261665147 0.015477306424611587 0 0.025799917666642573 0.015453365957424751 0 0.025778527498027441 0.01536254351817995 0 0.025799917666642573 0.015453365957424751 0 0.025771777338597542 0.015419462109436701 0 0.025702502615883145 0.015304107176070107 0 0.025771777338597542 0.015419462109436701 0 0.025768290453930209 0.015531930974181343 0 0.02582393258154559 0.015581770177738199 0 0.025771777338597542 0.015419462109436701 0 0.025768290453930209 0.015531930974181343 0 0.02582393258154559 0.015581770177738199 0 0.025768290453930209 0.015531930974181343 0 0.025820757021681715 0.015707888462274361 0 0.02582393258154559 0.015581770177738199 0 0.025820757021681715 0.015707888462274361 0 0.025864673974120341 0.0158027788850853 0 0.025820757021681715 0.015707888462274361 0 0.025857765433670812 0.015919289932108532 0 0.025864673974120341 0.0158027788850853 0 0.025820757021681715 0.015707888462274361 0 0.025780129865633321 0.015801049357597522 0 0.025857765433670812 0.015919289932108532 0 0.025768290453930209 0.015531930974181343 0 0.025820757021681715 0.015707888462274361 0 0.025780129865633321 0.015801049357597522 0 0.025780129865633321 0.015801049357597522 0 0.025683240552951906 0.01583712732823277 0 0.025785134953051462 0.016128134058459049 0 0.025780129865633321 0.015801049357597522 0 0.025629787704539993 0.015628469955270428 0 0.025683240552951906 0.01583712732823277 0 0.025768290453930209 0.015531930974181343 0 0.025780129865633321 0.015801049357597522 0 0.025678449198143022 0.015477380846622472 0 0.025780129865633321 0.015801049357597522 0 0.025678449198143022 0.015477380846622472 0 0.025629787704539993 0.015628469955270428 0 0.025678449198143022 0.015477380846622472 0 0.025557334060930723 0.015425813305212208 0 0.025629787704539993 0.015628469955270428 0 0.025618980052159596 0.015309977109552411 0 0.025702502615883145 0.015304107176070107 0 0.025678449198143022 0.015477380846622472 0 0.025702502615883145 0.015304107176070107 0 0.025768290453930209 0.015531930974181343 0 0.025678449198143022 0.015477380846622472 0 0.025618980052159596 0.015309977109552411 0 0.025678449198143022 0.015477380846622472 0 0.025557334060930723 0.015425813305212208 0 0.025001590313733946 0.015454323960100613 0 0.025373224206633203 0.015332474086895483 0 0.024808346635832812 0.015188498250260163 0 0.025001590313733946 0.015454323960100613 0 0.025384231309553147 0.015393161400299563 0 0.025373224206633203 0.015332474086895483 0 0.024554815253051313 0.015394636851386709 0 0.024513069517560073 0.015552171490367795 0 0.025001590313733946 0.015454323960100613 0 0.024554815253051313 0.015394636851386709 0 0.025001590313733946 0.015454323960100613 0 0.024808346635832812 0.015188498250260163 0 0.024554815253051313 0.015394636851386709 0 0.024182951635133829 0.015112136340872094 0 0.023836254460005965 0.015599448253031322 0 0.024554815253051313 0.015394636851386709 0 0.024513069517560073 0.015552171490367795 0 0.023836254460005965 0.015599448253031322 0 0.02529647426638193 0.015470377351915362 0 0.024772473661024929 0.015568232721741562 0 0.025001590313733946 0.015454323960100613 0 0.024513069517560073 0.015552171490367795 0 0.024772473661024929 0.015568232721741562 0 0.025001590313733946 0.015454323960100613 0 0.02529647426638193 0.015470377351915362 0 0.025001590313733946 0.015454323960100613 0 0.025384231309553147 0.015393161400299563 0 0.025711287636324905 0.015279197006999527 0 0.02529647426638193 0.015470377351915362 0 0.025384231309553147 0.015393161400299563 0 0.025384231309553147 0.015393161400299563 0 0.025625191465232997 0.015324762796928562 0 0.025373224206633203 0.015332474086895483 0 0.025711287636324905 0.015279197006999527 0 0.025384231309553147 0.015393161400299563 0 0.025625191465232997 0.015324762796928562 0 0.025711287636324905 0.015279197006999527 0 0.025625191465232997 0.015324762796928562 0 0.025733560047067283 0.015216744749829982 0 0.025625191465232997 0.015324762796928562 0 0.025733560047067283 0.015216744749829982 0 0.025702732106550826 0.015295301345619789 0 0.025625191465232997 0.015324762796928562 0 0.025702732106550826 0.015295301345619789 0 0.025613633203435047 0.015323872128773532 0 0.025722538919593217 0.015323361314283237 0 0.025702732106550826 0.015295301345619789 0 0.025613633203435047 0.015323872128773532 0 0.025625191465232997 0.015324762796928562 0 0.025613633203435047 0.015323872128773532 0 0.025373224206633203 0.015332474086895483 0 0.025613633203435047 0.015323872128773532 0 0.025373224206633203 0.015332474086895483 0 0.025416101823416921 0.015174079367911535 0 0.025613633203435047 0.015323872128773532 0 0.025416101823416921 0.015174079367911535 0 0.0256009078166539 0.015302853493583688 0 0.025416101823416921 0.015174079367911535 0 0.0256009078166539 0.015302853493583688 0 0.025621345305626875 0.01536747739267187 0 0.025722538919593217 0.015323361314283237 0 0.025613633203435047 0.015323872128773532 0 0.025710315839476687 0.015369812651870674 0 0.025613633203435047 0.015323872128773532 0 0.0256009078166539 0.015302853493583688 0 0.025710315839476687 0.015369812651870674 0 0.0256009078166539 0.015302853493583688 0 0.025710315839476687 0.015369812651870674 0 0.025621345305626875 0.01536747739267187 0 0.025740488778227013 0.015470867631752124 0 0.025710315839476687 0.015369812651870674 0 0.025621345305626875 0.01536747739267187 0 0.025621345305626875 0.01536747739267187 0 0.025623938361529212 0.01543622259725339 0 0.025679930583383484 0.01548047393215086 0 0.025621345305626875 0.01536747739267187 0 0.025623938361529212 0.01543622259725339 0 0.025565106111799903 0.015387955056774018 0 0.025740488778227013 0.015470867631752124 0 0.025621345305626875 0.01536747739267187 0 0.025679930583383484 0.01548047393215086 0 0.024781549544893353 0.013980067625957123 0 0.022274073360653294 0.021438934466630841 0 0.025416101823416921 0.015174079367911535 0 0.025621345305626875 0.01536747739267187 0 0.025565106111799903 0.015387955056774018 0 0.025416101823416921 0.015174079367911535 0 0.025565106111799903 0.015387955056774018 0 0.025573330486482363 0.01539469850576676 0 0.025416101823416921 0.015174079367911535 0 0.024743195307021505 0.014922778662785982 0 0.024757034361035296 0.014758516178705588 0 0.024743195307021505 0.014922778662785982 0 0.024757034361035296 0.014758516178705588 0 0.024067540233986408 0.014599837625969779 0 0.025373224206633203 0.015332474086895483 0 0.025416101823416921 0.015174079367911535 0 0.024808346635832812 0.015188498250260163 0 0.025416101823416921 0.015174079367911535 0 0.024743195307021505 0.014922778662785982 0 0.024808346635832812 0.015188498250260163 0 0.024808346635832812 0.015188498250260163 0 0.024182951635133829 0.015112136340872094 0 0.024067540233986408 0.014599837625969779 0 0.024554815253051313 0.015394636851386709 0 0.024808346635832812 0.015188498250260163 0 0.024182951635133829 0.015112136340872094 0 0.024743195307021505 0.014922778662785982 0 0.024808346635832812 0.015188498250260163 0 0.024067540233986408 0.014599837625969779 0 0.017985540044344862 0.024953762946641308 0 0.017850355844142216 0.025157458503494441 0 0.017672152091051486 0.025122980161069831 0 0.017850355844142216 0.025157458503494441 0 0.01743974344062757 0.024805125359139046 0 0.017672152091051486 0.025122980161069831 0 0.022274073360653294 0.021438934466630841 0 0.020728278156495535 0.019650047527142979 0 0.017850355844142216 0.025157458503494441 0 0.016122033698061578 0.024769739508092796 0 0.01743974344062757 0.024805125359139046 0 0.017850355844142216 0.025157458503494441 0 0.016122033698061578 0.024769739508092796 0 0.015462428995002896 0.025827380316172967 0 0.016122033698061578 0.024769739508092796 0 0.01580376851987372 0.023864462621899105 0 0.01743974344062757 0.024805125359139046 0 0.016122033698061578 0.024769739508092796 0 0.015462428995002896 0.025827380316172967 0 0.01468776757514623 0.024894039725137998 0 0.016122033698061578 0.024769739508092796 0 0.01469855672695408 0.024114698577405728 0 0.01580376851987372 0.023864462621899105 0 0.016122033698061578 0.024769739508092796 0 0.01468776757514623 0.024894039725137998 0 0.01469855672695408 0.024114698577405728 0 0.024182951635133829 0.015112136340872094 0 0.021765425074633638 0.014514137137896324 0 0.023836254460005965 0.015599448253031322 0 0.024182951635133829 0.015112136340872094 0 0.024067540233986408 0.014599837625969779 0 0.021765425074633638 0.014514137137896324 0 0.020728278156495535 0.019650047527142979 0 0.018637299350607716 0.02020665216022436 0 0.023836254460005965 0.015599448253031322 0 0.021949568821064868 0.016379370655095635 0 0.023616537072829819 0.017576304164373557 0 0.024513069517560073 0.015552171490367795 0 0.023836254460005965 0.015599448253031322 0 0.024385501402943256 0.015559381870660494 0 0.023948993286530586 0.015657242085980252 0 0.023949874118872692 0.016698488557010033 0 0.021765425074633638 0.014514137137896324 0 0.021949568821064868 0.016379370655095635 0 0.019547018828825369 0.016492622542326901 0 0.021765425074633638 0.014514137137896324 0 0.023836254460005965 0.015599448253031322 0 0.021949568821064868 0.016379370655095635 0 0.018870720027044676 0.017430585231380361 0 0.024534936066084312 0.016601465616095306 0 0.023616537072829819 0.017576304164373557 0 0.02055668998872294 0.018105192227793842 0 0.023292968817017316 0.019511480484665836 0 0.021949568821064868 0.016379370655095635 0 0.023616537072829819 0.017576304164373557 0 0.02055668998872294 0.018105192227793842 0 0.023949874118872692 0.016698488557010033 0 0.024534936066084312 0.016601465616095306 0 0.024772473661024929 0.015568232721741562 0 0.024385501402943256 0.015559381870660494 0 0.024479642091892236 0.015693452076925043 0 0.024513069517560073 0.015552171490367795 0 0.024772473661024929 0.015568232721741562 0 0.024385501402943256 0.015559381870660494 0 0.018319021143079536 0.016689454197864807 0 0.017614511831332148 0.016284536492887542 0 0.017413619146359461 0.017069864992353845 0 0.017614511831332148 0.016284536492887542 0 0.017080695043493188 0.016782200627579145 0 0.017413619146359461 0.017069864992353845 0 0.018319021143079536 0.016689454197864807 0 0.018177531824200965 0.017325304789166104 0 0.017413619146359461 0.017069864992353845 0 0.018870720027044676 0.017430585231380361 0 0.017927548963039219 0.016408052591137288 0 0.021765425074633638 0.014514137137896324 0 0.019547018828825369 0.016492622542326901 0 0.017726655090010514 0.015784447446509132 0 0.02055668998872294 0.018105192227793842 0 0.019547018828825369 0.016492622542326901 0 0.017614511831332148 0.016284536492887542 0 0.021949568821064868 0.016379370655095635 0 0.02055668998872294 0.018105192227793842 0 0.019547018828825369 0.016492622542326901 0 0.019547018828825369 0.016492622542326901 0 0.017726655090010514 0.015784447446509132 0 0.017614511831332148 0.016284536492887542 0 0.012370694884127077 0.026105855377518136 0 0.011852428423805636 0.025425918522581133 0 0.011090528268853277 0.025446215197372186 0 0.012370694884127077 0.026105855377518136 0 0.011852428423805636 0.025425918522581133 0 0.012371331972576618 0.025237704214858436 0 0.011852428423805636 0.025425918522581133 0 0.012371331972576618 0.025237704214858436 0 0.011602770378714489 0.024910013860005773 0 0.012370694884127077 0.026105855377518136 0 0.012371331972576618 0.025237704214858436 0 0.013478587588299683 0.025163918179162116 0 0.012371331972576618 0.025237704214858436 0 0.013478587588299683 0.025163918179162116 0 0.012561664213575848 0.024462536883432109 0 0.012371331972576618 0.025237704214858436 0 0.012561664213575848 0.024462536883432109 0 0.011602770378714489 0.024910013860005773 0 0.015462428995002896 0.025827380316172967 0 0.012370694884127077 0.026105855377518136 0 0.013478587588299683 0.025163918179162116 0 0.018637299350607716 0.02020665216022436 0 0.015003487599663147 0.020954992815120584 0 0.015462428995002896 0.025827380316172967 0 0.013478587588299683 0.025163918179162116 0 0.01468776757514623 0.024894039725137998 0 0.01468776757514623 0.024894039725137998 0 0.01370441247089485 0.024374296637227177 0 0.01469855672695408 0.024114698577405728 0 0.013478587588299683 0.025163918179162116 0 0.01468776757514623 0.024894039725137998 0 0.01370441247089485 0.024374296637227177 0 0.01370441247089485 0.024374296637227177 0 0.013841835714944012 0.023662812090389011 0 0.01469855672695408 0.024114698577405728 0 0.01370441247089485 0.024374296637227177 0 0.013841835714944012 0.023662812090389011 0 0.013061721916391733 0.023835338998568739 0 0.013841835714944012 0.023662812090389011 0 0.013061721916391733 0.023835338998568739 0 0.013262618119402093 0.023358390944611729 0 0.013841835714944012 0.023662812090389011 0 0.01469855672695408 0.024114698577405728 0 0.014314897712233291 0.023157195984048761 0 0.012561664213575848 0.024462536883432109 0 0.011450671837002038 0.023904967700283625 0 0.011602770378714489 0.024910013860005773 0 0.012561664213575848 0.024462536883432109 0 0.012359041759433196 0.023778355125565052 0 0.011450671837002038 0.023904967700283625 0 0.013478587588299683 0.025163918179162116 0 0.01370441247089485 0.024374296637227177 0 0.012561664213575848 0.024462536883432109 0 0.01370441247089485 0.024374296637227177 0 0.012561664213575848 0.024462536883432109 0 0.013061721916391733 0.023835338998568739 0 0.012561664213575848 0.024462536883432109 0 0.013061721916391733 0.023835338998568739 0 0.012359041759433196 0.023778355125565052 0 0.013061721916391733 0.023835338998568739 0 0.012669592662861306 0.023344118105195467 0 0.013262618119402093 0.023358390944611729 0 0.013061721916391733 0.023835338998568739 0 0.012359041759433196 0.023778355125565052 0 0.012669592662861306 0.023344118105195467 0 0.012359041759433196 0.023778355125565052 0 0.012005379890884391 0.023268833252059033 0 0.011450671837002038 0.023904967700283625 0 0.012359041759433196 0.023778355125565052 0 0.012005379890884391 0.023268833252059033 0 0.012669592662861306 0.023344118105195467 0 0.011450671837002038 0.023904967700283625 0 0.010206648154167938 0.023202540137328358 0 0.011359942981979499 0.023014355190478231 0 0.011450671837002038 0.023904967700283625 0 0.010206648154167938 0.023202540137328358 0 0.010187352091128539 0.024664975075658242 0 0.012005379890884391 0.023268833252059033 0 0.011450671837002038 0.023904967700283625 0 0.011359942981979499 0.023014355190478231 0 0.010206648154167938 0.023202540137328358 0 0.010187352091128539 0.024664975075658242 0 0.0088828169782328471 0.023820974519595375 0 0.010206648154167938 0.023202540137328358 0 0.0088828169782328471 0.023820974519595375 0 0.0091675212348344241 0.02236965483544525 0 0.010187352091128539 0.024664975075658242 0 0.0088828169782328471 0.023820974519595375 0 0.0085136067058222166 0.02486295530867802 0 0.010187352091128539 0.024664975075658242 0 0.011602770378714489 0.024910013860005773 0 0.011090528268853277 0.025446215197372186 0 0.011450671837002038 0.023904967700283625 0 0.010187352091128539 0.024664975075658242 0 0.011602770378714489 0.024910013860005773 0 0.011852428423805636 0.025425918522581133 0 0.011602770378714489 0.024910013860005773 0 0.011090528268853277 0.025446215197372186 0 0.007194641786079899 0.023839759749602781 0 0.0078507630986051798 0.022524168572757214 0 0.0069369452198643202 0.023440596087619437 0 0.0075956012487498562 0.022339318062093744 0 0.0065311667359079055 0.022544672105383669 0 0.0088828169782328471 0.023820974519595375 0 0.0080683734358890369 0.022821419721685082 0 0.0091675212348344241 0.02236965483544525 0 0.0088828169782328471 0.023820974519595375 0 0.007527696477028438 0.024209475557450986 0 0.0080683734358890369 0.022821419721685082 0 0.0088828169782328471 0.023820974519595375 0 0.007527696477028438 0.024209475557450986 0 0.0085136067058222166 0.02486295530867802 0 0.007527696477028438 0.024209475557450986 0 0.007480406946978181 0.024656300531870359 0 0.0085136067058222166 0.02486295530867802 0 0.007527696477028438 0.024209475557450986 0 0.007480406946978181 0.024656300531870359 0 0.0065078526084606679 0.024669604770915426 0 0.0069369452198643202 0.023440596087619437 0 0.0063103864284066325 0.02386847132595803 0 0.0065078526084606679 0.024669604770915426 0 0.007194641786079899 0.023839759749602781 0 0.006585113138269331 0.024686830870724707 0 0.007480406946978181 0.024656300531870359 0 0.0070518830398482073 0.024924042005738528 0 0.0065078526084606679 0.024669604770915426 0 0.007480406946978181 0.024656300531870359 0 0.0074716796148463329 0.025304561566371016 0 0.0070518830398482073 0.024924042005738528 0 0.007480406946978181 0.024656300531870359 0 0.0085136067058222166 0.02486295530867802 0 0.0074716796148463329 0.025304561566371016 0 0.0085136067058222166 0.02486295530867802 0 0.0074716796148463329 0.025304561566371016 0 0.0098564461610002232 0.02597117034324074 0 0.0089887331610905442 0.021695516519069692 0 0.013662145767412034 0.021017408644059259 0 0.0074716796148463329 0.025304561566371016 0 0.0076148670781618182 0.025810322321662384 0 0.0098564461610002232 0.02597117034324074 0 0.015013126818050363 0.016792339090350036 0 0.016341451820915232 0.016371116118548128 0 0.015927567920695607 0.017075573952199982 0 0.0074397232755943829 0.025449354216608669 0 0.0067614808519230107 0.025041796398634027 0 0.0059280891093599613 0.025138793057210451 0 0.0074716796148463329 0.025304561566371016 0 0.0067614808519230107 0.025041796398634027 0 0.0070518830398482073 0.024924042005738528 0 0.0074716796148463329 0.025304561566371016 0 0.0074397232755943829 0.025449354216608669 0 0.0067614808519230107 0.025041796398634027 0 0.0087594565549518333 0.024646899992356336 0 0.0089887331610905442 0.021695516519069692 0 0.0067614808519230107 0.025041796398634027 0 0.0070518830398482073 0.024924042005738528 0 0.0065078526084606679 0.024669604770915426 0 0.010187352091128539 0.024664975075658242 0 0.011090528268853277 0.025446215197372186 0 0.0098564461610002232 0.02597117034324074 0 0.012370694884127077 0.026105855377518136 0 0.011090528268853277 0.025446215197372186 0 0.0098564461610002232 0.02597117034324074 0 0.015003487599663147 0.020954992815120584 0 0.013662145767412034 0.021017408644059259 0 0.017726655090010514 0.015784447446509132 0 0.017614511831332148 0.016284536492887542 0 0.016341451820915232 0.016371116118548128 0 0.010187352091128539 0.024664975075658242 0 0.0085136067058222166 0.02486295530867802 0 0.0098564461610002232 0.02597117034324074 0 0.016341451820915232 0.016371116118548128 0 0.016722579523953042 0.016976086687447163 0 0.015927567920695607 0.017075573952199982 0 0.017614511831332148 0.016284536492887542 0 0.016341451820915232 0.016371116118548128 0 0.017080695043493188 0.016782200627579145 0 0.016341451820915232 0.016371116118548128 0 0.017080695043493188 0.016782200627579145 0 0.016722579523953042 0.016976086687447163 0 0.017080695043493188 0.016782200627579145 0 0.017343538238372092 0.017058965297406942 0 0.016722579523953042 0.016976086687447163 0 0.017343538238372092 0.017058965297406942 0 0.016722579523953042 0.016976086687447163 0 0.016349597702103601 0.017853154561033643 0 0.016722579523953042 0.016976086687447163 0 0.015927567920695607 0.017075573952199982 0 0.016349597702103601 0.017853154561033643 0 0.018627392732050174 0.016475811332231766 0 0.019722614635515563 0.015914167430751591 0 0.018747750050530025 0.015250055863770455 0 0.018869756793029376 0.016647570635578906 0 0.0099006325484139925 0.017915175887189834 0 0.016835332052976024 0.017327776262704223 0 0.018869756793029376 0.016647570635578906 0 0.017343538238372092 0.017058965297406942 0 0.018627392732050174 0.016475811332231766 0 0.017890484880223167 0.015684650363276147 0 0.017343538238372092 0.017058965297406942 0 0.017890484880223167 0.015684650363276147 0 0.01694934803909099 0.016386959343045539 0 0.0046366451020588059 0.023594113823393988 0 0.0045880725547108063 0.023675742153446425 0 0.0044957045639298253 0.023602512988998847 0 0.0046366451020588059 0.023594113823393988 0 0.0047395370269948675 0.023608042780089506 0 0.0045880725547108063 0.023675742153446425 0 0.0047364912469854406 0.023446476264188217 0 0.0046366451020588059 0.023594113823393988 0 0.0047395370269948675 0.023608042780089506 0 0.0047364912469854406 0.023446476264188217 0 0.0046366451020588059 0.023594113823393988 0 0.0044957045639298253 0.023602512988998847 0 0.0089887331610905442 0.021695516519069692 0 0.0046107495842825173 0.024674954381835514 0 0.0089887331610905442 0.021695516519069692 0 0.010028401346517841 0.020846518221771825 0 0.015013126818050363 0.016792339090350036 0 0.015927567920695607 0.017075573952199982 0 0.015201994397836699 0.017534164758069702 0 0.015927567920695607 0.017075573952199982 0 0.016349597702103601 0.017853154561033643 0 0.015201994397836699 0.017534164758069702 0 0.016349597702103601 0.017853154561033643 0 0.015201994397836699 0.017534164758069702 0 0.015364449391344357 0.018346697436838404 0 0.010028401346517841 0.020846518221771825 0 0.0099006325484139925 0.017915175887189834 0 0.0047395370269948675 0.023608042780089506 0 0.0047639358922666785 0.023686457846362505 0 0.0045880725547108063 0.023675742153446425 0 0.0099006325484139925 0.017915175887189834 0 0.0039996086029495028 0.018304393762926755 0 0.0047639358922666785 0.023686457846362505 0 0.0045880725547108063 0.023675742153446425 0 0.004638191946144744 0.023776750806236348 0 0.0039472360014643068 0.013698323538372352 0 0.0047743232903474479 0.01225021984204233 0 0.0060556115472188022 0.012300893397726206 0 0.0039472360014643068 0.013698323538372352 0 0.0047743232903474479 0.01225021984204233 0 0.0034083136579975411 0.011961967385893732 0 0.0099006325484139925 0.017915175887189834 0 0.0115071776104263 0.0128356818097164 0 0.019722614635515563 0.015914167430751591 0 0.019496901749140021 0.014651503547568894 0 0.018747750050530025 0.015250055863770455 0 0.0028637052877940753 0.010193404252481868 0 0.0037416264245356554 0.010717985535425658 0 0.0034083136579975411 0.011961967385893732 0 0.010319391774336533 0.011423092522002581 0 0.0115071776104263 0.0128356818097164 0 0.0037416264245356554 0.010717985535425658 0 0.0034083136579975411 0.011961967385893732 0 0.0044278942011394254 0.011447326172223401 0 0.0037416264245356554 0.010717985535425658 0 0.004712738653375053 0.010496563369236817 0 0.0044278942011394254 0.011447326172223401 0 0.0047743232903474479 0.01225021984204233 0 0.0034083136579975411 0.011961967385893732 0 0.0044278942011394254 0.011447326172223401 0 0.0047743232903474479 0.01225021984204233 0 0.005882050519986551 0.011546189049411588 0 0.0060556115472188022 0.012300893397726206 0 0.0047743232903474479 0.01225021984204233 0 0.0044278942011394254 0.011447326172223401 0 0.005882050519986551 0.011546189049411588 0 0.004712738653375053 0.010496563369236817 0 0.0044278942011394254 0.011447326172223401 0 0.005882050519986551 0.011546189049411588 0 0.017890484880223167 0.015684650363276147 0 0.018747750050530025 0.015250055863770455 0 0.017984344085977464 0.014528651562280826 0 0.017890484880223167 0.015684650363276147 0 0.017525375767551286 0.015101737716511271 0 0.016964569732461948 0.015474968576085192 0 0.017890484880223167 0.015684650363276147 0 0.017525375767551286 0.015101737716511271 0 0.017984344085977464 0.014528651562280826 0 0.018627392732050174 0.016475811332231766 0 0.017890484880223167 0.015684650363276147 0 0.018747750050530025 0.015250055863770455 0 0.018375566691729253 0.013507766549545053 0 0.01875644463702978 0.01423954629649736 0 0.017984344085977464 0.014528651562280826 0 0.019244571481580049 0.013391247690024971 0 0.019496901749140021 0.014651503547568894 0 0.01875644463702978 0.01423954629649736 0 0.018747750050530025 0.015250055863770455 0 0.01875644463702978 0.01423954629649736 0 0.017984344085977464 0.014528651562280826 0 0.019496901749140021 0.014651503547568894 0 0.018747750050530025 0.015250055863770455 0 0.01875644463702978 0.01423954629649736 0 0.017681556030618755 0.013635618732958914 0 0.018375566691729253 0.013507766549545053 0 0.017984344085977464 0.014528651562280826 0 0.017525375767551286 0.015101737716511271 0 0.017984344085977464 0.014528651562280826 0 0.01716814539104837 0.014493492032500556 0 0.017681556030618755 0.013635618732958914 0 0.017984344085977464 0.014528651562280826 0 0.01716814539104837 0.014493492032500556 0 0.017681556030618755 0.013635618732958914 0 0.016992819045033355 0.013548627861662372 0 0.01716814539104837 0.014493492032500556 0 0.016992819045033355 0.013548627861662372 0 0.016533249555405399 0.014136460886495452 0 0.01716814539104837 0.014493492032500556 0 0.016533249555405399 0.014136460886495452 0 0.01716814539104837 0.014493492032500556 0 0.016440758660978237 0.01486835383573876 0 0.017890484880223167 0.015684650363276147 0 0.016964569732461948 0.015474968576085192 0 0.01694934803909099 0.016386959343045539 0 0.017525375767551286 0.015101737716511271 0 0.01716814539104837 0.014493492032500556 0 0.016964569732461948 0.015474968576085192 0 0.01716814539104837 0.014493492032500556 0 0.016964569732461948 0.015474968576085192 0 0.016440758660978237 0.01486835383573876 0 0.016964569732461948 0.015474968576085192 0 0.01631712700428577 0.015573307659464668 0 0.016440758660978237 0.01486835383573876 0 0.016964569732461948 0.015474968576085192 0 0.01631712700428577 0.015573307659464668 0 0.01694934803909099 0.016386959343045539 0 0.01631712700428577 0.015573307659464668 0 0.015645548259811588 0.015278347862382099 0 0.016111364844520189 0.01639019669811808 0 0.01631712700428577 0.015573307659464668 0 0.015791306985027072 0.014791448271261044 0 0.016440758660978237 0.01486835383573876 0 0.01631712700428577 0.015573307659464668 0 0.015645548259811588 0.015278347862382099 0 0.015791306985027072 0.014791448271261044 0 0.015645548259811588 0.015278347862382099 0 0.015791306985027072 0.014791448271261044 0 0.015382902428242208 0.014625485958037152 0 0.015791306985027072 0.014791448271261044 0 0.015601784068418329 0.014370154194122818 0 0.015995698540011503 0.014326077290053906 0 0.015791306985027072 0.014791448271261044 0 0.015601784068418329 0.014370154194122818 0 0.015382902428242208 0.014625485958037152 0 0.015791306985027072 0.014791448271261044 0 0.016440758660978237 0.01486835383573876 0 0.015995698540011503 0.014326077290053906 0 0.016533249555405399 0.014136460886495452 0 0.016440758660978237 0.01486835383573876 0 0.015995698540011503 0.014326077290053906 0 0.015999585169765521 0.013756631778080692 0 0.016533249555405399 0.014136460886495452 0 0.015995698540011503 0.014326077290053906 0 0.015999585169765521 0.013756631778080692 0 0.015995698540011503 0.014326077290053906 0 0.015560743898571709 0.013944564352873993 0 0.015601784068418329 0.014370154194122818 0 0.015560743898571709 0.013944564352873993 0 0.015332703121775265 0.014337685347936065 0 0.015601784068418329 0.014370154194122818 0 0.015995698540011503 0.014326077290053906 0 0.015560743898571709 0.013944564352873993 0 0.015560743898571709 0.013944564352873993 0 0.015269779250640209 0.01391811594998872 0 0.015332703121775265 0.014337685347936065 0 0.022945016033506811 0.012747304233361527 0 0.022274264378389429 0.015598231079601543 0 0.030885983841424054 0.012777399919013889 0 0.029646830675669766 0.015810861780695292 0 0.029823378925770548 0.01611586679394688 0 0.015156733326893566 0.012910178208803498 0 0.015269779250640209 0.01391811594998872 0 0.014895108205136317 0.01490632624988599 0 0.030233036037808539 0.012399525441684831 0 0.030710809913375704 0.01240071635962858 0 0.030834915988439959 0.013426306422691405 0 0.026194279171209065 0.015433575314059953 0 0.022274264378389429 0.015598231079601543 0 0.015269779250640209 0.01391811594998872 0 0.015332703121775265 0.014337685347936065 0 0.014895108205136317 0.01490632624988599 0 0.015332703121775265 0.014337685347936065 0 0.014895108205136317 0.01490632624988599 0 0.015382902428242208 0.014625485958037152 0 0.015601784068418329 0.014370154194122818 0 0.015332703121775265 0.014337685347936065 0 0.015382902428242208 0.014625485958037152 0 0.030233036037808539 0.012399525441684831 0 0.030947533599286672 0.013517589728667723 0 0.03000788573057216 0.013358662870980129 0 0.030233036037808539 0.012399525441684831 0 0.02914623702099356 0.012852772190904756 0 0.03000788573057216 0.013358662870980129 0 0.030762429652093134 0.012606647251792016 0 0.026194279171209065 0.015433575314059953 0 0.030947533599286672 0.013517589728667723 0 0.03000788573057216 0.013358662870980129 0 0.030160150532737715 0.014191021993142169 0 0.030947533599286672 0.013517589728667723 0 0.030160150532737715 0.014191021993142169 0 0.030645348081656865 0.015038492068004502 0 0.029377055170131221 0.014050933458297781 0 0.03000788573057216 0.013358662870980129 0 0.030160150532737715 0.014191021993142169 0 0.029377055170131221 0.014050933458297781 0 0.030160150532737715 0.014191021993142169 0 0.029725231174919844 0.015045247935708994 0 0.019019950113976593 0.018786701728784026 0 0.018987572817702782 0.018515218718205342 0 0.019101781872165925 0.018058599403128758 0 0.015645548259811588 0.015278347862382099 0 0.014895108205136317 0.01490632624988599 0 0.016111364844520189 0.01639019669811808 0 0.022274264378389429 0.015598231079601543 0 0.016345424959393357 0.01713364908799599 0 0.026194279171209065 0.015433575314059953 0 0.024776025519832164 0.016743603908495233 0 0.018960091205847202 0.018718907918912512 0 0.018987572817702782 0.018515218718205342 0 0.018259116898646937 0.017973187349698386 0 0.015645548259811588 0.015278347862382099 0 0.014895108205136317 0.01490632624988599 0 0.015382902428242208 0.014625485958037152 0 0.022274264378389429 0.015598231079601543 0 0.020881223330909696 0.018158491930018821 0 0.019019950113976593 0.018786701728784026 0 0.018963262535125116 0.018705937557864594 0 0.018987572817702782 0.018515218718205342 0 0.018987572817702782 0.018515218718205342 0 0.019101781872165925 0.018058599403128758 0 0.018259116898646937 0.017973187349698386 0 0.019101781872165925 0.018058599403128758 0 0.018706115201175211 0.017538946866446969 0 0.018259116898646937 0.017973187349698386 0 0.030645348081656865 0.015038492068004502 0 0.029725231174919844 0.015045247935708994 0 0.030350298067919154 0.016460768609325639 0 0.030160150532737715 0.014191021993142169 0 0.030645348081656865 0.015038492068004502 0 0.029725231174919844 0.015045247935708994 0 0.029127243316753461 0.015764109897117715 0 0.029725231174919844 0.015045247935708994 0 0.030350298067919154 0.016460768609325639 0 0.027553418082208549 0.015789557608101489 0 0.024534936066084312 0.016601465616095306 0 0.024776025519832164 0.016743603908495233 0 0.024534936066084312 0.016601465616095306 0 0.019101781872165925 0.018058599403128758 0 0.019279937562784687 0.017170202965805712 0 0.018706115201175211 0.017538946866446969 0 0.018319021143079536 0.016689454197864807 0 0.019279937562784687 0.017170202965805712 0 0.018706115201175211 0.017538946866446969 0 0.018706115201175211 0.017538946866446969 0 0.018177531824200965 0.017325304789166104 0 0.018259116898646937 0.017973187349698386 0 0.018319021143079536 0.016689454197864807 0 0.018706115201175211 0.017538946866446969 0 0.018177531824200965 0.017325304789166104 0 0.018177531824200965 0.017325304789166104 0 0.017413619146359461 0.017069864992353845 0 0.018259116898646937 0.017973187349698386 0 0.017615594726134262 0.017125920505105818 0 0.016345424959393357 0.01713364908799599 0 0.017343538238372092 0.017058965297406942 0 0.017413619146359461 0.017069864992353845 0 0.01694934803909099 0.016386959343045539 0 0.017080695043493188 0.016782200627579145 0 0.017343538238372092 0.017058965297406942 0 0.017413619146359461 0.017069864992353845 0 0.017413619146359461 0.017069864992353845 0 0.01694934803909099 0.016386959343045539 0 0.016111364844520189 0.01639019669811808 0 0.01631712700428577 0.015573307659464668 0 0.01694934803909099 0.016386959343045539 0 0.016111364844520189 0.01639019669811808 0 0.036141530748235465 0.0066345990080642764 0 0.036120543271536951 0.0080162598675941749 0 0.036918890762141165 0.00793751687448278 0 0.036141530748235465 0.0066345990080642764 0 0.034999772249952321 0.0077105624361355415 0 0.034999682748793982 0.0056480383035093298 0 0.036141530748235465 0.0066345990080642764 0 0.034999772249952321 0.0077105624361355415 0 0.036120543271536951 0.0080162598675941749 0 0.034999772249952321 0.0077105624361355415 0 0.036120543271536951 0.0080162598675941749 0 0.035739401365171043 0.0089516375293107377 0 0.036120543271536951 0.0080162598675941749 0 0.036918890762141165 0.00793751687448278 0 0.036612789925025015 0.0091264571514103384 0 0.038198178709528484 0.0090284404387143136 0 0.036562828397644576 0.0091478143766260105 0 0.036918890762141165 0.00793751687448278 0 0.038932901212404891 0.0085622734327606698 0 0.036612789925025015 0.0091264571514103384 0 0.036918890762141165 0.00793751687448278 0 0.038932901212404891 0.0085622734327606698 0 0.037452948845892002 0.0069526993187042632 0 0.038932901212404891 0.0085622734327606698 0 0.037452948845892002 0.0069526993187042632 0 0.038778024846121258 0.0063975331979435465 0 0.036141530748235465 0.0066345990080642764 0 0.036918890762141165 0.00793751687448278 0 0.037452948845892002 0.0069526993187042632 0 0.036141530748235465 0.0066345990080642764 0 0.037452948845892002 0.0069526993187042632 0 0.037017969024374882 0.0054793258339507038 0 0.037452948845892002 0.0069526993187042632 0 0.037017969024374882 0.0054793258339507038 0 0.038778024846121258 0.0063975331979435465 0 0.038778024846121258 0.0063975331979435465 0 0.03815355665138416 0.0045466770530902898 0 0.039686967804752275 0.0048628595080033293 0 0.037017969024374882 0.0054793258339507038 0 0.038778024846121258 0.0063975331979435465 0 0.03815355665138416 0.0045466770530902898 0 0.03815355665138416 0.0045466770530902898 0 0.038820943138030604 0.0030356016425354569 0 0.039686967804752275 0.0048628595080033293 0 0.037017969024374882 0.0054793258339507038 0 0.03815355665138416 0.0045466770530902898 0 0.036659294751187968 0.0031501571410698101 0 0.037017969024374882 0.0054793258339507038 0 0.035903680784334542 0.004726646914195708 0 0.036659294751187968 0.0031501571410698101 0 0.036141530748235465 0.0066345990080642764 0 0.037017969024374882 0.0054793258339507038 0 0.035903680784334542 0.004726646914195708 0 0.036141530748235465 0.0066345990080642764 0 0.035903680784334542 0.004726646914195708 0 0.034999682748793982 0.0056480383035093298 0 0.035903680784334542 0.004726646914195708 0 0.034999682748793982 0.0056480383035093298 0 0.034999548706004677 0.0035855268065349464 0 0.035903680784334542 0.004726646914195708 0 0.034999548706004677 0.0035855268065349464 0 0.036659294751187968 0.0031501571410698101 0 0.034999548706004677 0.0035855268065349464 0 0.036280412113331731 0.0011091223566822173 0 0.036659294751187968 0.0031501571410698101 0 0.034999548706004677 0.0035855268065349464 0 0.034999711609879497 0.0015230593345793323 0 0.036280412113331731 0.0011091223566822173 0 0.034999711609879497 0.0015230593345793323 0 0.036280412113331731 0.0011091223566822173 0 0.035846441523098883 0.00020260230396382283 0 0.036280412113331731 0.0011091223566822173 0 0.035846441523098883 0.00020260230396382283 0 0.036505817169052532 -0.00051833079226961754 0 0.034999776855652837 -0.00053864282487374937 0 0.034999711609879497 0.0015230593345793323 0 0.035846441523098883 0.00020260230396382283 0 0.036742880201965686 -0.0012531580354463994 0 0.037014726876403448 -0.00012702621559527514 0 0.036505817169052532 -0.00051833079226961754 0 0.036742880201965686 -0.0012531580354463994 0 0.037014726876403448 -0.00012702621559527514 0 0.036931491680060533 -0.00070983635458650202 0 0.036280412113331731 0.0011091223566822173 0 0.037014726876403448 -0.00012702621559527514 0 0.036505817169052532 -0.00051833079226961754 0 0.036280412113331731 0.0011091223566822173 0 0.037014726876403448 -0.00012702621559527514 0 0.037347884454074748 0.00071762961937569885 0 0.037014726876403448 -0.00012702621559527514 0 0.037347884454074748 0.00071762961937569885 0 0.036970519236474611 -7.7504468991736023e-06 0 0.037425756222124136 0.00080288519622323561 0 0.037870913294802196 0.0016040060966064828 0 0.037347884454074748 0.00071762961937569885 0 0.036969249552969471 0.00015230582043129003 0 0.036970519236474611 -7.7504468991736023e-06 0 0.036280412113331731 0.0011091223566822173 0 0.037347884454074748 0.00071762961937569885 0 0.036659294751187968 0.0031501571410698101 0 0.03815355665138416 0.0045466770530902898 0 0.036659294751187968 0.0031501571410698101 0 0.038820943138030604 0.0030356016425354569 0 0.037347884454074748 0.00071762961937569885 0 0.036659294751187968 0.0031501571410698101 0 0.038820943138030604 0.0030356016425354569 0 0.036969249552969471 0.00015230582043129003 0 0.036985279378820582 0.00017874265758271494 0 0.036885440178289056 0.00045745619198599445 0 0.036969249552969471 0.00015230582043129003 0 0.036985279378820582 0.00017874265758271494 0 0.036970519236474611 -7.7504468991736023e-06 0 0.036985279378820582 0.00017874265758271494 0 0.037085529205417293 1.427435983067393e-05 0 0.037114647069703278 0.00041112780423008824 0 0.037085529205417293 1.427435983067393e-05 0 0.036970519236474611 -7.7504468991736023e-06 0 0.037252043592870057 -0.00038024887539500163 0 0.036985279378820582 0.00017874265758271494 0 0.037085529205417293 1.427435983067393e-05 0 0.036970519236474611 -7.7504468991736023e-06 0 0.037014726876403448 -0.00012702621559527514 0 0.036970519236474611 -7.7504468991736023e-06 0 0.036931491680060533 -0.00070983635458650202 0 0.036970519236474611 -7.7504468991736023e-06 0 0.036993774624944992 -0.00075148491280052556 0 0.036931491680060533 -0.00070983635458650202 0 0.036970519236474611 -7.7504468991736023e-06 0 0.036993774624944992 -0.00075148491280052556 0 0.037252043592870057 -0.00038024887539500163 0 0.036932072627632928 -0.0014972797324397003 0 0.036993774624944992 -0.00075148491280052556 0 0.037138288060151112 -0.0011639801352966714 0 0.036848423858861133 -0.001268226309835257 0 0.036932072627632928 -0.0014972797324397003 0 0.036993774624944992 -0.00075148491280052556 0 0.036848423858861133 -0.001268226309835257 0 0.036993774624944992 -0.00075148491280052556 0 0.036931491680060533 -0.00070983635458650202 0 0.036848423858861133 -0.001268226309835257 0 0.036742880201965686 -0.0012531580354463994 0 0.036931491680060533 -0.00070983635458650202 0 0.036611553612191504 -0.0020147652311643493 0 0.036950277846246819 -0.0016242568034527582 0 0.03672358406436458 -0.0022314094369671762 0 0.036932072627632928 -0.0014972797324397003 0 0.036950277846246819 -0.0016242568034527582 0 0.037138288060151112 -0.0011639801352966714 0 0.036993774624944992 -0.00075148491280052556 0 0.037138288060151112 -0.0011639801352966714 0 0.037252043592870057 -0.00038024887539500163 0 0.037120606196108401 -0.0012449102108253183 0 0.037130300587166008 -0.0014382378101074299 0 0.036950277846246819 -0.0016242568034527582 0 0.037138288060151112 -0.0011639801352966714 0 0.03672358406436458 -0.0022314094369671762 0 0.037138288060151112 -0.0011639801352966714 0 0.037764560535473994 -0.00062556585869338259 0 0.037252043592870057 -0.00038024887539500163 0 0.037764560535473994 -0.00062556585869338259 0 0.037579264415280568 -1.9057308620733506e-05 0 0.037902157082294198 -0.00019565965542293076 0 0.037764560535473994 -0.00062556585869338259 0 0.037252043592870057 -0.00038024887539500163 0 0.037579264415280568 -1.9057308620733506e-05 0 0.037085529205417293 1.427435983067393e-05 0 0.037252043592870057 -0.00038024887539500163 0 0.037254492364769243 0.0001729673664548478 0 0.037252043592870057 -0.00038024887539500163 0 0.037254492364769243 0.0001729673664548478 0 0.037579264415280568 -1.9057308620733506e-05 0 0.037085529205417293 1.427435983067393e-05 0 0.037254492364769243 0.0001729673664548478 0 0.037114647069703278 0.00041112780423008824 0 0.037254492364769243 0.0001729673664548478 0 0.037579264415280568 -1.9057308620733506e-05 0 0.037369361581652979 0.00047184074458525414 0 0.037579264415280568 -1.9057308620733506e-05 0 0.037930150165213561 0.000142867185204514 0 0.037902157082294198 -0.00019565965542293076 0 0.037579264415280568 -1.9057308620733506e-05 0 0.037724714615076219 0.00036092720427261774 0 0.037369361581652979 0.00047184074458525414 0 0.037579264415280568 -1.9057308620733506e-05 0 0.037724714615076219 0.00036092720427261774 0 0.037930150165213561 0.000142867185204514 0 0.037252976828529738 0.00045429436987730814 0 0.037514467822015896 0.00081797702391044036 0 0.037180300765754903 0.00065613892512183137 0 0.037369361581652979 0.00047184074458525414 0 0.036895099694975619 0.00075186095946192606 0 0.037724714615076219 0.00036092720427261774 0 0.037369361581652979 0.00047184074458525414 0 0.037822905165293408 0.0007169033089689616 0 0.037180300765754903 0.00065613892512183137 0 0.037236496555279427 0.00061129176866463501 0 0.037369361581652979 0.00047184074458525414 0 0.037180300765754903 0.00065613892512183137 0 0.037236496555279427 0.00061129176866463501 0 0.037184069496723586 0.00077277498479897246 0 0.037180300765754903 0.00065613892512183137 0 0.036626993429040154 0.00043062396425793493 0 0.036895099694975619 0.00075186095946192606 0 0.037121527906871468 0.00066943801455905357 0 0.037236496555279427 0.00061129176866463501 0 0.037184069496723586 0.00077277498479897246 0 0.037254492364769243 0.0001729673664548478 0 0.037369361581652979 0.00047184074458525414 0 0.037114647069703278 0.00041112780423008824 0 0.037121527906871468 0.00066943801455905357 0 0.037236496555279427 0.00061129176866463501 0 0.037114647069703278 0.00041112780423008824 0 0.037236496555279427 0.00061129176866463501 0 0.037369361581652979 0.00047184074458525414 0 0.037114647069703278 0.00041112780423008824 0 0.036985279378820582 0.00017874265758271494 0 0.037114647069703278 0.00041112780423008824 0 0.036885440178289056 0.00045745619198599445 0 0.037114647069703278 0.00041112780423008824 0 0.036885440178289056 0.00045745619198599445 0 0.037020099768679218 0.00058001357527856783 0 0.037870913294802196 0.0016040060966064828 0 0.03829200515820752 0.0027230805904236706 0 0.03829200515820752 0.0027230805904236706 0 0.038846475107902713 0.0032946338524753268 0 0.038778024846121258 0.0063975331979435465 0 0.039686967804752275 0.0048628595080033293 0 0.040384659428238073 0.0065297042109311301 0 0.037121527906871468 0.00066943801455905357 0 0.037114647069703278 0.00041112780423008824 0 0.037020099768679218 0.00058001357527856783 0 0.036885440178289056 0.00045745619198599445 0 0.037020099768679218 0.00058001357527856783 0 0.036953621769353268 0.00078453947978927873 0 0.037121527906871468 0.00066943801455905357 0 0.037020099768679218 0.00058001357527856783 0 0.036953621769353268 0.00078453947978927873 0 0.037121527906871468 0.00066943801455905357 0 0.036953621769353268 0.00078453947978927873 0 0.037098010973950483 0.00083582852925101025 0 0.036953621769353268 0.00078453947978927873 0 0.037017908683196911 0.0010101772624734945 0 0.037098010973950483 0.00083582852925101025 0 0.040384659428238073 0.0065297042109311301 0 0.039817145530723436 0.0074973024552176144 0 0.041039976463369238 0.0081181478283235547 0 0.038846475107902713 0.0032946338524753268 0 0.036041448425797019 0.0072440044886051685 0 0.038778024846121258 0.0063975331979435465 0 0.040384659428238073 0.0065297042109311301 0 0.039817145530723436 0.0074973024552176144 0 0.038932901212404891 0.0085622734327606698 0 0.038778024846121258 0.0063975331979435465 0 0.039817145530723436 0.0074973024552176144 0 0.038932901212404891 0.0085622734327606698 0 0.039817145530723436 0.0074973024552176144 0 0.040695733109879187 0.0081833076575332595 0 0.037099404562119895 0.0094810298715103849 0 0.037639912604449141 0.0093797543184375616 0 0.037522317481294941 0.0097095723143793555 0 0.038198178709528484 0.0090284404387143136 0 0.038084973803452014 0.0083559480145683276 0 0.039817145530723436 0.0074973024552176144 0 0.041039976463369238 0.0081181478283235547 0 0.040695733109879187 0.0081833076575332595 0 0.036041448425797019 0.0072440044886051685 0 0.038084973803452014 0.0083559480145683276 0 0.036074983928789099 0.0085979888873347569 0 0.035868984563072352 0.008635256846155721 0 0.036287877178519758 0.0091140717376736406 0 0.036041448425797019 0.0072440044886051685 0 0.035081012116691762 0.010210593874762357 0 0.037639912604449141 0.0093797543184375616 0 0.037919555768847334 0.0096177543381897896 0 0.037522317481294941 0.0097095723143793555 0 0.038084973803452014 0.0083559480145683276 0 0.035081012116691762 0.010210593874762357 0 0.03298266864291579 0.010537112956879586 0 0.032358203051613681 0.010253362642354534 0 0.03281033226691539 0.010204683015154875 0 0.03298266864291579 0.010537112956879586 0 0.032295377531731097 0.010664520608380879 0 0.032358203051613681 0.010253362642354534 0 0.036041448425797019 0.0072440044886051685 0 0.03477464630743949 0.0056569901224281178 0 0.037017908683196911 0.0010101772624734945 0 0.03717441878138416 0.00093835925801006171 0 0.037098010973950483 0.00083582852925101025 0 0.032295377531731097 0.010664520608380879 0 0.031630114132725103 0.010777299573237257 0 0.031896406267010013 0.010219542423719193 0 0.032295377531731097 0.010664520608380879 0 0.031896406267010013 0.010219542423719193 0 0.032358203051613681 0.010253362642354534 0 0.03477464630743949 0.0056569901224281178 0 0.033450499912493117 0.0064128630509578625 0 0.037180300765754903 0.00065613892512183137 0 0.037184069496723586 0.00077277498479897246 0 0.037304773577999481 0.00091692879712535781 0 0.03717441878138416 0.00093835925801006171 0 0.037184069496723586 0.00077277498479897246 0 0.037304773577999481 0.00091692879712535781 0 0.03717441878138416 0.00093835925801006171 0 0.037184069496723586 0.00077277498479897246 0 0.037098010973950483 0.00083582852925101025 0 0.037121527906871468 0.00066943801455905357 0 0.037184069496723586 0.00077277498479897246 0 0.037098010973950483 0.00083582852925101025 0 0.033450499912493117 0.0064128630509578625 0 0.030645537766575307 0.0051885097442025113 0 0.035875293741941053 -0.00015294794175180551 0 0.034718902998169578 -0.00033675541585501833 0 0.035639377421884409 0.00024744538727757405 0 0.029266780025754714 0.013931287634530201 0 0.027709994342875841 0.013241333731577177 0 0.026847922056113367 0.0144072839437187 0 0.035875293741941053 -0.00015294794175180551 0 0.03637770325548257 -0.00057610382800242239 0 0.034718902998169578 -0.00033675541585501833 0 0.03330887376936232 -2.782076471599905e-06 0 0.033316517711665224 0.00012938611549753569 0 0.033147783403610818 -1.9895954200322223e-05 0 0.030645537766575307 0.0051885097442025113 0 0.035899009615285984 0.00015890648301400436 0 0.035863561743343819 0.00018052047546694903 0 0.035950610167065349 4.5524475314506118e-05 0 0.035639377421884409 0.00024744538727757405 0 0.035950610167065349 4.5524475314506118e-05 0 0.035875293741941053 -0.00015294794175180551 0 0.035639377421884409 0.00024744538727757405 0 0.035875293741941053 -0.00015294794175180551 0 0.036401008818460909 0.00012046110961928961 0 0.03637770325548257 -0.00057610382800242239 0 0.037817141039558043 -0.0016720641880322805 0 0.033450499912493117 0.0064128630509578625 0 0.035863561743343819 0.00018052047546694903 0 0.035950610167065349 4.5524475314506118e-05 0 0.036207652291268343 0.00028606357982337115 0 0.037180300765754903 0.00065613892512183137 0 0.036401008818460909 0.00012046110961928961 0 0.03637770325548257 -0.00057610382800242239 0 0.035950610167065349 4.5524475314506118e-05 0 0.035875293741941053 -0.00015294794175180551 0 0.036401008818460909 0.00012046110961928961 0 0.035950610167065349 4.5524475314506118e-05 0 0.036401008818460909 0.00012046110961928961 0 0.036207652291268343 0.00028606357982337115 0 0.029266780025754714 0.013931287634530201 0 0.027709994342875841 0.013241333731577177 0 0.028229086028705913 0.012179679485272489 0 0.031630114132725103 0.010777299573237257 0 0.031290506761296417 0.010200622851577417 0 0.031896406267010013 0.010219542423719193 0 0.033450499912493117 0.0064128630509578625 0 0.029942314644222975 0.011948036810965634 0 0.027709994342875841 0.013241333731577177 0 0.026343026524011937 0.012849213661480376 0 0.026847922056113367 0.0144072839437187 0 0.027709994342875841 0.013241333731577177 0 0.026343026524011937 0.012849213661480376 0 0.026840911253265643 0.011969905845225991 0 0.026343026524011937 0.012849213661480376 0 0.024640334963061512 0.012755106739821827 0 0.025376965943302552 0.012316050789189761 0 0.026343026524011937 0.012849213661480376 0 0.024640334963061512 0.012755106739821827 0 0.026847922056113367 0.0144072839437187 0 0.026609034523845963 0.010644204567640815 0 0.030645537766575307 0.0051885097442025113 0 0.029053589718424127 0.0072877201262732064 0 0.029077579810448825 0.0066279076257992047 0 0.029674960985365376 0.0071198968353818675 0 0.029053589718424127 0.0072877201262732064 0 0.029077579810448825 0.0066279076257992047 0 0.028425101829539702 0.0067483888469266748 0 0.033634979509180069 4.6459689129787018e-05 0 0.033419687037655688 -6.3346401460432919e-06 0 0.033530073045826787 -8.0661950292116325e-05 0 0.031301619983723702 0.0033455443016574236 0 0.030645537766575307 0.0051885097442025113 0 0.033634979509180069 4.6459689129787018e-05 0 0.033316517711665224 0.00012938611549753569 0 0.033419687037655688 -6.3346401460432919e-06 0 0.03330887376936232 -2.782076471599905e-06 0 0.033316517711665224 0.00012938611549753569 0 0.033419687037655688 -6.3346401460432919e-06 0 0.03330887376936232 -2.782076471599905e-06 0 0.033419687037655688 -6.3346401460432919e-06 0 0.033352362928476445 -0.00011236862463368988 0 0.033352362928476445 -0.00011236862463368988 0 0.033530073045826787 -8.0661950292116325e-05 0 0.033564685932586616 -0.00027382792351508041 0 0.033419687037655688 -6.3346401460432919e-06 0 0.033352362928476445 -0.00011236862463368988 0 0.033530073045826787 -8.0661950292116325e-05 0 0.033352362928476445 -0.00011236862463368988 0 0.033564685932586616 -0.00027382792351508041 0 0.033488109554183382 -0.0003147767344293606 0 0.033530073045826787 -8.0661950292116325e-05 0 0.033564685932586616 -0.00027382792351508041 0 0.033743180861731559 -0.00010652725720874361 0 0.033634979509180069 4.6459689129787018e-05 0 0.033530073045826787 -8.0661950292116325e-05 0 0.033743180861731559 -0.00010652725720874361 0 0.033564685932586616 -0.00027382792351508041 0 0.033484835151130057 -0.00034931160002992228 0 0.033446372136588923 -0.00027746717992946238 0 0.033533559945449161 -0.00026414772059194603 0 0.033661947006788526 -0.00012428672034525419 0 0.033564685932586616 -0.00027382792351508041 0 0.033621750685334392 -0.00042476580541217398 0 0.033484835151130057 -0.00034931160002992228 0 0.033564685932586616 -0.00027382792351508041 0 0.033621750685334392 -0.00042476580541217398 0 0.033488109554183382 -0.0003147767344293606 0 0.033488109554183382 -0.0003147767344293606 0 0.033220846188323695 -0.00038209057662793927 0 0.033773193624578444 -0.00057901117272960573 0 0.033352362928476445 -0.00011236862463368988 0 0.033488109554183382 -0.0003147767344293606 0 0.033220846188323695 -0.00038209057662793927 0 0.033621750685334392 -0.00042476580541217398 0 0.033488109554183382 -0.0003147767344293606 0 0.033773193624578444 -0.00057901117272960573 0 0.038409190232336708 0.00041265927961907893 0 0.038157253873015627 0.00029784035480373084 0 0.038154757504181007 0.00065567743106127111 0 0.035810484950184344 0.00014485989793615263 0 0.035899009615285984 0.00015890648301400436 0 0.033352362928476445 -0.00011236862463368988 0 0.033220846188323695 -0.00038209057662793927 0 0.033147783403610818 -1.9895954200322223e-05 0 0.038409190232336708 0.00041265927961907893 0 0.038154757504181007 0.00065567743106127111 0 0.03819040949775869 0.00098838019393601641 0 0.03330887376936232 -2.782076471599905e-06 0 0.033352362928476445 -0.00011236862463368988 0 0.033147783403610818 -1.9895954200322223e-05 0 0.035899009615285984 0.00015890648301400436 0 0.037514467822015896 0.00081797702391044036 0 0.035639377421884409 0.00024744538727757405 0 0.036207652291268343 0.00028606357982337115 0 0.036895099694975619 0.00075186095946192606 0 0.03819040949775869 0.00098838019393601641 0 0.038019274533397387 0.00068650422024132702 0 0.037822905165293408 0.0007169033089689616 0 0.036626993429040154 0.00043062396425793493 0 0.036207652291268343 0.00028606357982337115 0 0.036895099694975619 0.00075186095946192606 0 0.037180300765754903 0.00065613892512183137 0 0.036401008818460909 0.00012046110961928961 0 0.036626993429040154 0.00043062396425793493 0 0.036401008818460909 0.00012046110961928961 0 0.036626993429040154 0.00043062396425793493 0 0.036207652291268343 0.00028606357982337115 0 0.035863561743343819 0.00018052047546694903 0 0.035639377421884409 0.00024744538727757405 0 0.036207652291268343 0.00028606357982337115 0 0.038154757504181007 0.00065567743106127111 0 0.03819040949775869 0.00098838019393601641 0 0.038019274533397387 0.00068650422024132702 0 0.037724714615076219 0.00036092720427261774 0 0.037822905165293408 0.0007169033089689616 0 0.037964633321256026 0.00045958614714776619 0 0.038019274533397387 0.00068650422024132702 0 0.037822905165293408 0.0007169033089689616 0 0.037964633321256026 0.00045958614714776619 0 0.038154757504181007 0.00065567743106127111 0 0.038019274533397387 0.00068650422024132702 0 0.037964633321256026 0.00045958614714776619 0 0.038157253873015627 0.00029784035480373084 0 0.037964633321256026 0.00045958614714776619 0 0.037930150165213561 0.000142867185204514 0 0.038157253873015627 0.00029784035480373084 0 0.038154757504181007 0.00065567743106127111 0 0.037964633321256026 0.00045958614714776619 0 0.037724714615076219 0.00036092720427261774 0 0.037964633321256026 0.00045958614714776619 0 0.037930150165213561 0.000142867185204514 0 0.037930150165213561 0.000142867185204514 0 0.03826954296970056 2.8271516626341632e-05 0 0.037902157082294198 -0.00019565965542293076 0 0.038157253873015627 0.00029784035480373084 0 0.037930150165213561 0.000142867185204514 0 0.03826954296970056 2.8271516626341632e-05 0 0.038409190232336708 0.00041265927961907893 0 0.038157253873015627 0.00029784035480373084 0 0.03826954296970056 2.8271516626341632e-05 0 0.038409190232336708 0.00041265927961907893 0 0.03826954296970056 2.8271516626341632e-05 0 0.038596729473562713 -0.00018347890760800516 0 0.03618895544347045 -0.0027753038746535946 0 0.035973910063792823 -0.0025305040155768257 0 0.03575477630489575 -0.0029790786865200496 0 0.037449820899429907 -0.0015305623778924784 0 0.035631597606501884 -0.0012385680322590036 0 0.03826954296970056 2.8271516626341632e-05 0 0.038162955026210678 -0.00036280607667612749 0 0.038596729473562713 -0.00018347890760800516 0 0.037764560535473994 -0.00062556585869338259 0 0.037902157082294198 -0.00019565965542293076 0 0.038162955026210678 -0.00036280607667612749 0 0.03826954296970056 2.8271516626341632e-05 0 0.037902157082294198 -0.00019565965542293076 0 0.038162955026210678 -0.00036280607667612749 0 0.03672358406436458 -0.0022314094369671762 0 0.03618895544347045 -0.0027753038746535946 0 0.036356060873491004 -0.0023413534863288656 0 0.037130300587166008 -0.0014382378101074299 0 0.037449820899429907 -0.0015305623778924784 0 0.036611553612191504 -0.0020147652311643493 0 0.03672358406436458 -0.0022314094369671762 0 0.036356060873491004 -0.0023413534863288656 0 0.03618895544347045 -0.0027753038746535946 0 0.036356060873491004 -0.0023413534863288656 0 0.035973910063792823 -0.0025305040155768257 0 0.036356060873491004 -0.0023413534863288656 0 0.035973910063792823 -0.0025305040155768257 0 0.036185525532946176 -0.0023124061671986459 0 0.035973910063792823 -0.0025305040155768257 0 0.036185525532946176 -0.0023124061671986459 0 0.03576595596279112 -0.0024766751871546939 0 0.036611553612191504 -0.0020147652311643493 0 0.036356060873491004 -0.0023413534863288656 0 0.036185525532946176 -0.0023124061671986459 0 0.035281423030369297 -0.0025161285745763525 0 0.035109235958850654 -0.0022019298924638693 0 0.035427870479011442 -0.0023932293082988862 0 0.035281423030369297 -0.0025161285745763525 0 0.034635896177926874 -0.0020563890577069699 0 0.035109235958850654 -0.0022019298924638693 0 0.035281423030369297 -0.0025161285745763525 0 0.03576595596279112 -0.0024766751871546939 0 0.035605552726932867 -0.0026935874203749188 0 0.035973910063792823 -0.0025305040155768257 0 0.03576595596279112 -0.0024766751871546939 0 0.035605552726932867 -0.0026935874203749188 0 0.035215161888948084 -0.0024043659120385084 0 0.035136445873388433 -0.0025132706131742759 0 0.035973910063792823 -0.0025305040155768257 0 0.035605552726932867 -0.0026935874203749188 0 0.03575477630489575 -0.0029790786865200496 0 0.035109235958850654 -0.0022019298924638693 0 0.034745128577696474 -0.0017853281697941484 0 0.035202300214851566 -0.0019621214772563337 0 0.034635896177926874 -0.0020563890577069699 0 0.035109235958850654 -0.0022019298924638693 0 0.034745128577696474 -0.0017853281697941484 0 0.034745128577696474 -0.0017853281697941484 0 0.035040997515826254 -0.0016992859026922873 0 0.035202300214851566 -0.0019621214772563337 0 0.034745128577696474 -0.0017853281697941484 0 0.034334761977987314 -0.0015812824911272804 0 0.034496506662784421 -0.001337573176324046 0 0.034745128577696474 -0.0017853281697941484 0 0.034496506662784421 -0.001337573176324046 0 0.035040997515826254 -0.0016992859026922873 0 0.034635896177926874 -0.0020563890577069699 0 0.034745128577696474 -0.0017853281697941484 0 0.034334761977987314 -0.0015812824911272804 0 0.035136445873388433 -0.0025132706131742759 0 0.035631597606501884 -0.0012385680322590036 0 0.035631597606501884 -0.0012385680322590036 0 0.033868591607946953 -0.0015303747888546638 0 0.035810484950184344 0.00014485989793615263 0 0.035631597606501884 -0.0012385680322590036 0 0.033220846188323695 -0.00038209057662793927 0 0.033395548203229042 -0.0014592266685109344 0 0.033773193624578444 -0.00057901117272960573 0 0.033395548203229042 -0.0014592266685109344 0 0.033773193624578444 -0.00057901117272960573 0 0.034496506662784421 -0.001337573176324046 0 0.033621750685334392 -0.00042476580541217398 0 0.033773193624578444 -0.00057901117272960573 0 0.033365705363306013 -0.00035958195078149876 0 0.033773193624578444 -0.00057901117272960573 0 0.034496506662784421 -0.001337573176324046 0 0.03529568500865006 -0.001428484986179612 0 0.033784293035177382 -0.00059902913487179228 0 0.034286760659281199 -0.00090869205292934397 0 0.033365705363306013 -0.00035958195078149876 0 0.033378247450783785 -0.00043030448667078728 0 0.033364410372990906 -0.00031561007515117242 0 0.033365705363306013 -0.00035958195078149876 0 0.033378247450783785 -0.00043030448667078728 0 0.033386522772516296 -0.00078556882852787667 0 0.034286760659281199 -0.00090869205292934397 0 0.034318455544755294 -0.0013212165773698094 0 0.03527423694262851 -0.0017622094285575033 0 0.035294166418608608 -0.0018518593366689737 0 0.035195465042365079 -0.0019008985527153997 0 0.03529568500865006 -0.001428484986179612 0 0.03527423694262851 -0.0017622094285575033 0 0.035195465042365079 -0.0019008985527153997 0 0.034496506662784421 -0.001337573176324046 0 0.03529568500865006 -0.001428484986179612 0 0.035040997515826254 -0.0016992859026922873 0 0.03529568500865006 -0.001428484986179612 0 0.035040997515826254 -0.0016992859026922873 0 0.03527423694262851 -0.0017622094285575033 0 0.035040997515826254 -0.0016992859026922873 0 0.03527423694262851 -0.0017622094285575033 0 0.035202300214851566 -0.0019621214772563337 0 0.035202300214851566 -0.0019621214772563337 0 0.035294166418608608 -0.0018518593366689737 0 0.035427870479011442 -0.0023932293082988862 0 0.03527423694262851 -0.0017622094285575033 0 0.035202300214851566 -0.0019621214772563337 0 0.035294166418608608 -0.0018518593366689737 0 0.035109235958850654 -0.0022019298924638693 0 0.035202300214851566 -0.0019621214772563337 0 0.035427870479011442 -0.0023932293082988862 0 0.035294166418608608 -0.0018518593366689737 0 0.035427870479011442 -0.0023932293082988862 0 0.03512393220699004 -0.0016716186213555472 0 0.03496939186084367 -0.0024715116601445484 0 0.036501179736249514 -0.0018320497041066897 0 0.035885231884901996 -0.0026585941592951923 0 0.035427870479011442 -0.0023932293082988862 0 0.036034904998321217 -0.0024657026649951932 0 0.036368676340891477 -0.002834210668019743 0 0.036402384518226846 -0.0024008418312390831 0 0.036242341463819924 -0.0026077572345310526 0 0.036402384518226846 -0.0024008418312390831 0 0.036242341463819924 -0.0026077572345310526 0 0.036034904998321217 -0.0024657026649951932 0 0.031536954992361609 -0.0038238834028540111 0 0.031367185975185598 -0.0030794076731171056 0 0.031367185975185598 -0.0030794076731171056 0 0.036501179736249514 -0.0018320497041066897 0 0.036155922208761133 -0.0027307637320680162 0 0.036242341463819924 -0.0026077572345310526 0 0.036034904998321217 -0.0024657026649951932 0 0.036155922208761133 -0.0027307637320680162 0 0.035885231884901996 -0.0026585941592951923 0 0.036034904998321217 -0.0024657026649951932 0 0.035294166418608608 -0.0018518593366689737 0 0.035116050046986008 -0.0017370330029253314 0 0.035195465042365079 -0.0019008985527153997 0 0.035116050046986008 -0.0017370330029253314 0 0.034808694232600565 -0.0016268536585840329 0 0.035195465042365079 -0.0019008985527153997 0 0.03512393220699004 -0.0016716186213555472 0 0.035116050046986008 -0.0017370330029253314 0 0.034808694232600565 -0.0016268536585840329 0 0.035294166418608608 -0.0018518593366689737 0 0.03512393220699004 -0.0016716186213555472 0 0.035116050046986008 -0.0017370330029253314 0 0.034501052248246178 -0.0015655208887920009 0 0.03512393220699004 -0.0016716186213555472 0 0.034808694232600565 -0.0016268536585840329 0 0.034501052248246178 -0.0015655208887920009 0 0.034808694232600565 -0.0016268536585840329 0 0.034393803102918022 -0.0014937049332516502 0 0.034415649471083561 -0.0014884040287155469 0 0.034318455544755294 -0.0013212165773698094 0 0.034393803102918022 -0.0014937049332516502 0 0.033386522772516296 -0.00078556882852787667 0 0.033730336560909166 -0.00069629766915373949 0 0.034808694232600565 -0.0016268536585840329 0 0.034393803102918022 -0.0014937049332516502 0 0.035195465042365079 -0.0019008985527153997 0 0.034393803102918022 -0.0014937049332516502 0 0.034130871278407471 -0.00095555046521120387 0 0.033730336560909166 -0.00069629766915373949 0 0.033378247450783785 -0.00043030448667078728 0 0.033623872412837937 -0.00040123733933139841 0 0.033730336560909166 -0.00069629766915373949 0 0.033378247450783785 -0.00043030448667078728 0 0.033386522772516296 -0.00078556882852787667 0 0.033730336560909166 -0.00069629766915373949 0 0.034130550069589462 -0.00066382929177801722 0 0.034130871278407471 -0.00095555046521120387 0 0.033877788879490146 -0.00055159446398727859 0 0.034130871278407471 -0.00095555046521120387 0 0.033730336560909166 -0.00069629766915373949 0 0.033877788879490146 -0.00055159446398727859 0 0.033623872412837937 -0.00040123733933139841 0 0.033730336560909166 -0.00069629766915373949 0 0.033877788879490146 -0.00055159446398727859 0 0.034130550069589462 -0.00066382929177801722 0 0.033877788879490146 -0.00055159446398727859 0 0.033959278496770585 -0.00030485775482553911 0 0.033713449278281619 -0.00018807101096205391 0 0.033794711941011676 0.00013513668687702715 0 0.0335293755753064 8.5653381845339976e-05 0 0.033877788879490146 -0.00055159446398727859 0 0.033959278496770585 -0.00030485775482553911 0 0.033713449278281619 -0.00018807101096205391 0 0.033623872412837937 -0.00040123733933139841 0 0.033877788879490146 -0.00055159446398727859 0 0.033713449278281619 -0.00018807101096205391 0 0.033959278496770585 -0.00030485775482553911 0 0.033713449278281619 -0.00018807101096205391 0 0.033794711941011676 0.00013513668687702715 0 0.033794711941011676 0.00013513668687702715 0 0.033607532984228049 0.00032061489320842171 0 0.0335293755753064 8.5653381845339976e-05 0 0.033616472483188255 0.00060667485772702805 0 0.033794711941011676 0.00013513668687702715 0 0.033607532984228049 0.00032061489320842171 0 0.033607532984228049 0.00032061489320842171 0 0.0335293755753064 8.5653381845339976e-05 0 0.033484561950105636 0.00040089689640935444 0 0.033329219268317174 0.00011598167553888265 0 0.0335293755753064 8.5653381845339976e-05 0 0.033484561950105636 0.00040089689640935444 0 0.0335293755753064 8.5653381845339976e-05 0 0.033390385055992927 -6.7412360123056278e-05 0 0.033478546924830127 -0.00019099041236711299 0 0.033329219268317174 0.00011598167553888265 0 0.0335293755753064 8.5653381845339976e-05 0 0.033390385055992927 -6.7412360123056278e-05 0 0.033390385055992927 -6.7412360123056278e-05 0 0.033478546924830127 -0.00019099041236711299 0 0.033358662675488801 -0.00021916208142752137 0 0.033713449278281619 -0.00018807101096205391 0 0.0335293755753064 8.5653381845339976e-05 0 0.033478546924830127 -0.00019099041236711299 0 0.033623872412837937 -0.00040123733933139841 0 0.033713449278281619 -0.00018807101096205391 0 0.033478546924830127 -0.00019099041236711299 0 0.033378247450783785 -0.00043030448667078728 0 0.033623872412837937 -0.00040123733933139841 0 0.033478546924830127 -0.00019099041236711299 0 0.033378247450783785 -0.00043030448667078728 0 0.033478546924830127 -0.00019099041236711299 0 0.033358662675488801 -0.00021916208142752137 0 0.033378247450783785 -0.00043030448667078728 0 0.033364410372990906 -0.00031561007515117242 0 0.033358662675488801 -0.00021916208142752137 0 0.033364410372990906 -0.00031561007515117242 0 0.033358662675488801 -0.00021916208142752137 0 0.033390090877058971 -0.00024375473180612205 0 0.033365705363306013 -0.00035958195078149876 0 0.033364410372990906 -0.00031561007515117242 0 0.033484835151130057 -0.00034931160002992228 0 0.033621750685334392 -0.00042476580541217398 0 0.033365705363306013 -0.00035958195078149876 0 0.033484835151130057 -0.00034931160002992228 0 0.033364410372990906 -0.00031561007515117242 0 0.033484835151130057 -0.00034931160002992228 0 0.033390090877058971 -0.00024375473180612205 0 0.033484835151130057 -0.00034931160002992228 0 0.033390090877058971 -0.00024375473180612205 0 0.033446372136588923 -0.00027746717992946238 0 0.033390090877058971 -0.00024375473180612205 0 0.033446372136588923 -0.00027746717992946238 0 0.03335825047624686 -0.00015848823032227542 0 0.033661947006788526 -0.00012428672034525419 0 0.032328966068207836 0.0014665671462660485 0 0.033329219268317174 0.00011598167553888265 0 0.033345124552696802 -0.0001161289553817243 0 0.03335825047624686 -0.00015848823032227542 0 0.033646215688304767 1.3033397722290063e-06 0 0.032328966068207836 0.0014665671462660485 0 0.033390385055992927 -6.7412360123056278e-05 0 0.033358662675488801 -0.00021916208142752137 0 0.033345124552696802 -0.0001161289553817243 0 0.033329219268317174 0.00011598167553888265 0 0.033390385055992927 -6.7412360123056278e-05 0 0.033345124552696802 -0.0001161289553817243 0 0.033358662675488801 -0.00021916208142752137 0 0.033390090877058971 -0.00024375473180612205 0 0.033345124552696802 -0.0001161289553817243 0 0.033390090877058971 -0.00024375473180612205 0 0.033345124552696802 -0.0001161289553817243 0 0.03335825047624686 -0.00015848823032227542 0 0.029766092279082647 0.006488000294445545 0 0.029674960985365376 0.0071198968353818675 0 0.030264671071017657 0.0067445023735331891 0 0.033329219268317174 0.00011598167553888265 0 0.032773774211597453 0.00023032961200888005 0 0.033287387642087329 0.00046408984421688178 0 0.032328966068207836 0.0014665671462660485 0 0.03184694856754236 0.0035989530668596604 0 0.033634979509180069 4.6459689129787018e-05 0 0.033743180861731559 -0.00010652725720874361 0 0.033902710238093492 -4.684051661177005e-06 0 0.029077579810448825 0.0066279076257992047 0 0.029766092279082647 0.006488000294445545 0 0.029674960985365376 0.0071198968353818675 0 0.031301619983723702 0.0033455443016574236 0 0.032328966068207836 0.0014665671462660485 0 0.029053589718424127 0.0072877201262732064 0 0.029674960985365376 0.0071198968353818675 0 0.029717995817824725 0.0078531804503003087 0 0.029674960985365376 0.0071198968353818675 0 0.03024887958663184 0.0074270891510754581 0 0.030264671071017657 0.0067445023735331891 0 0.027706768074721336 0.009456836926462998 0 0.029999394125810413 0.0070758850337044174 0 0.025251434452215681 0.011435623927651493 0 0.026420334620012035 0.01091456408823469 0 0.026999181391897199 0.0094945423313483133 0 0.03024887958663184 0.0074270891510754581 0 0.03077275986459577 0.0070030414564994509 0 0.030264671071017657 0.0067445023735331891 0 0.026420334620012035 0.01091456408823469 0 0.027289217753767071 0.010492215611999142 0 0.026999181391897199 0.0094945423313483133 0 0.027289217753767071 0.010492215611999142 0 0.027774453042464509 0.010545785186072886 0 0.027760413305953826 0.0099593509928415039 0 0.028305440336004708 0.0083252944000070661 0 0.029999394125810413 0.0070758850337044174 0 0.027289217753767071 0.010492215611999142 0 0.027760413305953826 0.0099593509928415039 0 0.026999181391897199 0.0094945423313483133 0 0.033616472483188255 0.00060667485772702805 0 0.033472485312764734 0.00066216581200748462 0 0.033484561950105636 0.00040089689640935444 0 0.033616472483188255 0.00060667485772702805 0 0.033607532984228049 0.00032061489320842171 0 0.033484561950105636 0.00040089689640935444 0 0.02824661140862594 0.0094643956685308631 0 0.027760413305953826 0.0099593509928415039 0 0.027549533122650044 0.0097779541465409861 0 0.031307624117141587 0.0048519767596132638 0 0.029999394125810413 0.0070758850337044174 0 0.029999394125810413 0.0070758850337044174 0 0.03184694856754236 0.0035989530668596604 0 0.033472485312764734 0.00066216581200748462 0 0.033484561950105636 0.00040089689640935444 0 0.033287387642087329 0.00046408984421688178 0 0.033329219268317174 0.00011598167553888265 0 0.033484561950105636 0.00040089689640935444 0 0.033287387642087329 0.00046408984421688178 0 0.025735141530121051 0.013363782888764065 0 0.025578886456210662 0.013010134593803405 0 0.025331156427361411 0.013347413774012879 0 0.025735141530121051 0.013363782888764065 0 0.025578886456210662 0.013010134593803405 0 0.025912452894702672 0.012855767527025216 0 0.025578886456210662 0.013010134593803405 0 0.025331156427361411 0.013347413774012879 0 0.025315851278021557 0.012882239761627549 0 0.025331156427361411 0.013347413774012879 0 0.025315851278021557 0.012882239761627549 0 0.025115466749150807 0.013141180819511669 0 0.025315851278021557 0.012882239761627549 0 0.025135613824848396 0.012890822541776809 0 0.025115466749150807 0.013141180819511669 0 0.025331156427361411 0.013347413774012879 0 0.025059053578159407 0.013376046383159472 0 0.025115466749150807 0.013141180819511669 0 0.025331156427361411 0.013347413774012879 0 0.025107502248390992 0.013754269575517493 0 0.025427230877131616 0.013926534326469215 0 0.025331156427361411 0.013347413774012879 0 0.025059053578159407 0.013376046383159472 0 0.025107502248390992 0.013754269575517493 0 0.025735141530121051 0.013363782888764065 0 0.025427230877131616 0.013926534326469215 0 0.025815220095433852 0.014169075747812053 0 0.025735141530121051 0.013363782888764065 0 0.025331156427361411 0.013347413774012879 0 0.025427230877131616 0.013926534326469215 0 0.025735141530121051 0.013363782888764065 0 0.026377769930741684 0.013063189063679446 0 0.025815220095433852 0.014169075747812053 0 0.026363467747402929 0.013368449466214374 0 0.025868476048772689 0.014255453498088174 0 0.027250345593829692 0.01288728707868868 0 0.026377769930741684 0.013063189063679446 0 0.025815220095433852 0.014169075747812053 0 0.025611049287095566 0.014436523213139332 0 0.025648917950853018 0.014580231243250318 0 0.025815220095433852 0.014169075747812053 0 0.026363467747402929 0.013368449466214374 0 0.026681042882171838 0.013096116664004497 0 0.025735141530121051 0.013363782888764065 0 0.026377769930741684 0.013063189063679446 0 0.025912452894702672 0.012855767527025216 0 0.02667304005059247 0.012277201313150403 0 0.026808695479456069 0.011762240131298939 0 0.028256789119303641 0.010836973840834633 0 0.027774453042464509 0.010545785186072886 0 0.027212226219684603 0.011208925917882676 0 0.026377769930741684 0.013063189063679446 0 0.026249050975058454 0.012355799111818486 0 0.025912452894702672 0.012855767527025216 0 0.026960187299059604 0.012907287181965389 0 0.026377769930741684 0.013063189063679446 0 0.026249050975058454 0.012355799111818486 0 0.027289217753767071 0.010492215611999142 0 0.027774453042464509 0.010545785186072886 0 0.027212226219684603 0.011208925917882676 0 0.026420334620012035 0.01091456408823469 0 0.027289217753767071 0.010492215611999142 0 0.027212226219684603 0.011208925917882676 0 0.026808695479456069 0.011762240131298939 0 0.02527092405699807 0.011667202139342943 0 0.026420334620012035 0.01091456408823469 0 0.027212226219684603 0.011208925917882676 0 0.025271985549860886 0.011725770048923403 0 0.026249050975058454 0.012355799111818486 0 0.025619117166481391 0.012554280862262139 0 0.025271985549860886 0.011725770048923403 0 0.026249050975058454 0.012355799111818486 0 0.025619117166481391 0.012554280862262139 0 0.025912452894702672 0.012855767527025216 0 0.025578886456210662 0.013010134593803405 0 0.025619117166481391 0.012554280862262139 0 0.025912452894702672 0.012855767527025216 0 0.025187474214295121 0.012688222021761765 0 0.025315851278021557 0.012882239761627549 0 0.025308122600771428 0.012466592937622169 0 0.025187474214295121 0.012688222021761765 0 0.025315851278021557 0.012882239761627549 0 0.025135613824848396 0.012890822541776809 0 0.025578886456210662 0.013010134593803405 0 0.025619117166481391 0.012554280862262139 0 0.025315851278021557 0.012882239761627549 0 0.025619117166481391 0.012554280862262139 0 0.025315851278021557 0.012882239761627549 0 0.025308122600771428 0.012466592937622169 0 0.025187474214295121 0.012688222021761765 0 0.025308122600771428 0.012466592937622169 0 0.025079826314132202 0.012476240254369868 0 0.025308122600771428 0.012466592937622169 0 0.025271985549860886 0.011725770048923403 0 0.025079826314132202 0.012476240254369868 0 0.025251434452215681 0.011435623927651493 0 0.026420334620012035 0.01091456408823469 0 0.025271985549860886 0.011725770048923403 0 0.025619117166481391 0.012554280862262139 0 0.025308122600771428 0.012466592937622169 0 0.025271985549860886 0.011725770048923403 0 0.029674960985365376 0.0071198968353818675 0 0.03024887958663184 0.0074270891510754581 0 0.029717995817824725 0.0078531804503003087 0 0.027706768074721336 0.009456836926462998 0 0.02666659387692958 0.011528089586636522 0 0.025251434452215681 0.011435623927651493 0 0.025271985549860886 0.011725770048923403 0 0.024454015902683278 0.013007878536146707 0 0.025271985549860886 0.011725770048923403 0 0.024454015902683278 0.013007878536146707 0 0.025079826314132202 0.012476240254369868 0 0.024454015902683278 0.013007878536146707 0 0.024817389044261704 0.012874039889279404 0 0.025079826314132202 0.012476240254369868 0 0.024454015902683278 0.013007878536146707 0 0.024817389044261704 0.012874039889279404 0 0.024798015844514541 0.013049425853422685 0 0.024817389044261704 0.012874039889279404 0 0.025058376199080135 0.012765206298683116 0 0.024973312793006731 0.012987709154610512 0 0.024817389044261704 0.012874039889279404 0 0.024973312793006731 0.012987709154610512 0 0.024798015844514541 0.013049425853422685 0 0.025135613824848396 0.012890822541776809 0 0.025058376199080135 0.012765206298683116 0 0.024973312793006731 0.012987709154610512 0 0.024817389044261704 0.012874039889279404 0 0.025058376199080135 0.012765206298683116 0 0.025079826314132202 0.012476240254369868 0 0.025187474214295121 0.012688222021761765 0 0.025135613824848396 0.012890822541776809 0 0.025058376199080135 0.012765206298683116 0 0.025187474214295121 0.012688222021761765 0 0.025058376199080135 0.012765206298683116 0 0.025079826314132202 0.012476240254369868 0 0.026609034523845963 0.010644204567640815 0 0.02666659387692958 0.011528089586636522 0 0.024640334963061512 0.012755106739821827 0 0.024968878114725677 0.012831854398174086 0 0.024612532059505483 0.012664417170270548 0 0.024968878114725677 0.012831854398174086 0 0.024369686895432452 0.013589878707613521 0 0.024612532059505483 0.012664417170270548 0 0.024454015902683278 0.013007878536146707 0 0.024569324564777627 0.013298373018432369 0 0.024369686895432452 0.013589878707613521 0 0.02666659387692958 0.011528089586636522 0 0.023580207198889709 0.014103133327641966 0 0.024569324564777627 0.013298373018432369 0 0.024671801409619772 0.013653206532243507 0 0.024369686895432452 0.013589878707613521 0 0.024918237529692539 0.013205730466401935 0 0.025059053578159407 0.013376046383159472 0 0.024850646104614637 0.013418906749836824 0 0.024918237529692539 0.013205730466401935 0 0.024746286809961399 0.013234075027639097 0 0.024850646104614637 0.013418906749836824 0 0.024918237529692539 0.013205730466401935 0 0.025059053578159407 0.013376046383159472 0 0.025115466749150807 0.013141180819511669 0 0.024918237529692539 0.013205730466401935 0 0.025115466749150807 0.013141180819511669 0 0.024973312793006731 0.012987709154610512 0 0.025135613824848396 0.012890822541776809 0 0.025115466749150807 0.013141180819511669 0 0.024973312793006731 0.012987709154610512 0 0.024918237529692539 0.013205730466401935 0 0.024973312793006731 0.012987709154610512 0 0.024798015844514541 0.013049425853422685 0 0.024918237529692539 0.013205730466401935 0 0.024798015844514541 0.013049425853422685 0 0.024746286809961399 0.013234075027639097 0 0.024454015902683278 0.013007878536146707 0 0.024798015844514541 0.013049425853422685 0 0.02464732521838927 0.013149255533936264 0 0.024798015844514541 0.013049425853422685 0 0.02464732521838927 0.013149255533936264 0 0.024746286809961399 0.013234075027639097 0 0.024454015902683278 0.013007878536146707 0 0.02464732521838927 0.013149255533936264 0 0.024569324564777627 0.013298373018432369 0 0.02464732521838927 0.013149255533936264 0 0.024569324564777627 0.013298373018432369 0 0.024746286809961399 0.013234075027639097 0 0.024569324564777627 0.013298373018432369 0 0.024746286809961399 0.013234075027639097 0 0.024850646104614637 0.013418906749836824 0 0.024569324564777627 0.013298373018432369 0 0.024671801409619772 0.013653206532243507 0 0.024850646104614637 0.013418906749836824 0 0.024671801409619772 0.013653206532243507 0 0.024850646104614637 0.013418906749836824 0 0.025107502248390992 0.013754269575517493 0 0.025059053578159407 0.013376046383159472 0 0.024850646104614637 0.013418906749836824 0 0.025107502248390992 0.013754269575517493 0 0.025107502248390992 0.013754269575517493 0 0.024875086284156221 0.013995788328314787 0 0.025171192065868001 0.014164463822851149 0 0.024671801409619772 0.013653206532243507 0 0.025107502248390992 0.013754269575517493 0 0.024875086284156221 0.013995788328314787 0 0.024671801409619772 0.013653206532243507 0 0.024875086284156221 0.013995788328314787 0 0.024619864623494095 0.013964451419895494 0 0.024875086284156221 0.013995788328314787 0 0.024619864623494095 0.013964451419895494 0 0.024858412182570278 0.014373949805448637 0 0.024875086284156221 0.013995788328314787 0 0.024858412182570278 0.014373949805448637 0 0.025171192065868001 0.014164463822851149 0 0.024671801409619772 0.013653206532243507 0 0.024619864623494095 0.013964451419895494 0 0.024369686895432452 0.013589878707613521 0 0.024619864623494095 0.013964451419895494 0 0.024392721648177063 0.014428719116177045 0 0.024369686895432452 0.013589878707613521 0 0.024619864623494095 0.013964451419895494 0 0.024392721648177063 0.014428719116177045 0 0.024858412182570278 0.014373949805448637 0 0.024392721648177063 0.014428719116177045 0 0.024858412182570278 0.014373949805448637 0 0.024662485259979539 0.014704037437050371 0 0.024858412182570278 0.014373949805448637 0 0.025222902267790552 0.014549323777497701 0 0.024987439004308061 0.014813187887434506 0 0.024858412182570278 0.014373949805448637 0 0.024987439004308061 0.014813187887434506 0 0.024662485259979539 0.014704037437050371 0 0.024858412182570278 0.014373949805448637 0 0.025222902267790552 0.014549323777497701 0 0.025171192065868001 0.014164463822851149 0 0.025222902267790552 0.014549323777497701 0 0.025479675109463789 0.014678527177079514 0 0.025242723233836778 0.014882743984833345 0 0.025222902267790552 0.014549323777497701 0 0.025451845465423763 0.014352314042559778 0 0.025479675109463789 0.014678527177079514 0 0.025222902267790552 0.014549323777497701 0 0.025171192065868001 0.014164463822851149 0 0.025451845465423763 0.014352314042559778 0 0.025171192065868001 0.014164463822851149 0 0.025451845465423763 0.014352314042559778 0 0.025427230877131616 0.013926534326469215 0 0.025451845465423763 0.014352314042559778 0 0.025427230877131616 0.013926534326469215 0 0.025815220095433852 0.014169075747812053 0 0.025107502248390992 0.013754269575517493 0 0.025171192065868001 0.014164463822851149 0 0.025427230877131616 0.013926534326469215 0 0.025611049287095566 0.014436523213139332 0 0.025634285123550003 0.014446034393934758 0 0.025815220095433852 0.014169075747812053 0 0.025451845465423763 0.014352314042559778 0 0.025815220095433852 0.014169075747812053 0 0.025624149958668525 0.014445433964199736 0 0.025634285123550003 0.014446034393934758 0 0.025815220095433852 0.014169075747812053 0 0.025624149958668525 0.014445433964199736 0 0.025624946341008113 0.014642588564837375 0 0.025582436133919917 0.01489009614178324 0 0.025479675109463789 0.014678527177079514 0 0.025624946341008113 0.014642588564837375 0 0.025624149958668525 0.014445433964199736 0 0.025479675109463789 0.014678527177079514 0 0.025451845465423763 0.014352314042559778 0 0.025624149958668525 0.014445433964199736 0 0.025479675109463789 0.014678527177079514 0 0.025479675109463789 0.014678527177079514 0 0.025451771580539476 0.01499372128409544 0 0.025242723233836778 0.014882743984833345 0 0.025582436133919917 0.01489009614178324 0 0.025479675109463789 0.014678527177079514 0 0.025451771580539476 0.01499372128409544 0 0.025587835895819609 0.015123033166517221 0 0.025582436133919917 0.01489009614178324 0 0.025451771580539476 0.01499372128409544 0 0.025222902267790552 0.014549323777497701 0 0.025242723233836778 0.014882743984833345 0 0.024987439004308061 0.014813187887434506 0 0.025451771580539476 0.01499372128409544 0 0.025242723233836778 0.014882743984833345 0 0.025258718975033068 0.015147697198180507 0 0.025242723233836778 0.014882743984833345 0 0.024984925276273287 0.015079592318169403 0 0.024987439004308061 0.014813187887434506 0 0.025258718975033068 0.015147697198180507 0 0.025374611070415623 0.015396124143791368 0 0.025047382387584766 0.0153799929942825 0 0.025242723233836778 0.014882743984833345 0 0.025258718975033068 0.015147697198180507 0 0.024984925276273287 0.015079592318169403 0 0.025258718975033068 0.015147697198180507 0 0.025047382387584766 0.0153799929942825 0 0.024984925276273287 0.015079592318169403 0 0.025587835895819609 0.015123033166517221 0 0.025451771580539476 0.01499372128409544 0 0.025493762425696051 0.015227681961880263 0 0.025451771580539476 0.01499372128409544 0 0.025258718975033068 0.015147697198180507 0 0.025493762425696051 0.015227681961880263 0 0.025258718975033068 0.015147697198180507 0 0.025493762425696051 0.015227681961880263 0 0.025374611070415623 0.015396124143791368 0 0.025618980052159596 0.015309977109552411 0 0.025587835895819609 0.015123033166517221 0 0.025493762425696051 0.015227681961880263 0 0.025618980052159596 0.015309977109552411 0 0.025493762425696051 0.015227681961880263 0 0.025557334060930723 0.015425813305212208 0 0.025557334060930723 0.015425813305212208 0 0.025629787704539993 0.015628469955270428 0 0.025485417875403607 0.015565458229514934 0 0.025629787704539993 0.015628469955270428 0 0.025485417875403607 0.015565458229514934 0 0.025529475167620875 0.015757441903089368 0 0.025485417875403607 0.015565458229514934 0 0.025374611070415623 0.015396124143791368 0 0.025290633098747461 0.015651154387289333 0 0.025557334060930723 0.015425813305212208 0 0.025485417875403607 0.015565458229514934 0 0.025374611070415623 0.015396124143791368 0 0.025493762425696051 0.015227681961880263 0 0.025557334060930723 0.015425813305212208 0 0.025374611070415623 0.015396124143791368 0 0.025047382387584766 0.0153799929942825 0 0.025290633098747461 0.015651154387289333 0 0.02491825345784594 0.015724825253073192 0 0.025374611070415623 0.015396124143791368 0 0.025047382387584766 0.0153799929942825 0 0.025290633098747461 0.015651154387289333 0 0.025290633098747461 0.015651154387289333 0 0.02542214650543189 0.01593461551541852 0 0.025529475167620875 0.015757441903089368 0 0.025290633098747461 0.015651154387289333 0 0.025152391270475673 0.015911635732985277 0 0.02542214650543189 0.01593461551541852 0 0.025290633098747461 0.015651154387289333 0 0.025152391270475673 0.015911635732985277 0 0.02491825345784594 0.015724825253073192 0 0.025152391270475673 0.015911635732985277 0 0.02542214650543189 0.01593461551541852 0 0.025279847251142951 0.016206531611421437 0 0.02542214650543189 0.01593461551541852 0 0.02561347588014759 0.015969037121645688 0 0.025579262387440682 0.016196553667132157 0 0.02542214650543189 0.01593461551541852 0 0.02561347588014759 0.015969037121645688 0 0.025529475167620875 0.015757441903089368 0 0.02561347588014759 0.015969037121645688 0 0.025683240552951906 0.01583712732823277 0 0.025785134953051462 0.016128134058459049 0 0.02561347588014759 0.015969037121645688 0 0.025683240552951906 0.01583712732823277 0 0.025529475167620875 0.015757441903089368 0 0.025629787704539993 0.015628469955270428 0 0.025683240552951906 0.01583712732823277 0 0.025529475167620875 0.015757441903089368 0 0.025485417875403607 0.015565458229514934 0 0.025290633098747461 0.015651154387289333 0 0.025529475167620875 0.015757441903089368 0 0.024351294170345258 0.015815356183257846 0 0.02491825345784594 0.015724825253073192 0 0.024647764822341781 0.015498410017616218 0 0.024351294170345258 0.015815356183257846 0 0.02491825345784594 0.015724825253073192 0 0.024782500623694477 0.016105030258096092 0 0.025152391270475673 0.015911635732985277 0 0.02491825345784594 0.015724825253073192 0 0.024782500623694477 0.016105030258096092 0 0.025047382387584766 0.0153799929942825 0 0.02491825345784594 0.015724825253073192 0 0.024647764822341781 0.015498410017616218 0 0.025047382387584766 0.0153799929942825 0 0.024647764822341781 0.015498410017616218 0 0.024770602961909863 0.01524931804769741 0 0.024647764822341781 0.015498410017616218 0 0.024480645738483919 0.015308769802531005 0 0.024770602961909863 0.01524931804769741 0 0.024351294170345258 0.015815356183257846 0 0.024647764822341781 0.015498410017616218 0 0.024333131559575279 0.015555610560033437 0 0.024647764822341781 0.015498410017616218 0 0.024333131559575279 0.015555610560033437 0 0.024480645738483919 0.015308769802531005 0 0.024480645738483919 0.015308769802531005 0 0.024648145324799101 0.015040640194085931 0 0.024296056010069286 0.015106088869128715 0 0.024480645738483919 0.015308769802531005 0 0.024648145324799101 0.015040640194085931 0 0.024770602961909863 0.01524931804769741 0 0.025047382387584766 0.0153799929942825 0 0.024770602961909863 0.01524931804769741 0 0.024984925276273287 0.015079592318169403 0 0.024648145324799101 0.015040640194085931 0 0.024770602961909863 0.01524931804769741 0 0.024984925276273287 0.015079592318169403 0 0.024648145324799101 0.015040640194085931 0 0.024984925276273287 0.015079592318169403 0 0.024987439004308061 0.014813187887434506 0 0.024648145324799101 0.015040640194085931 0 0.024987439004308061 0.014813187887434506 0 0.024662485259979539 0.014704037437050371 0 0.024648145324799101 0.015040640194085931 0 0.024429542247363097 0.014826693570109448 0 0.024296056010069286 0.015106088869128715 0 0.024392721648177063 0.014428719116177045 0 0.024662485259979539 0.014704037437050371 0 0.024429542247363097 0.014826693570109448 0 0.024648145324799101 0.015040640194085931 0 0.024662485259979539 0.014704037437050371 0 0.024429542247363097 0.014826693570109448 0 0.024392721648177063 0.014428719116177045 0 0.024429542247363097 0.014826693570109448 0 0.024149218303360205 0.014874267671628839 0 0.024429542247363097 0.014826693570109448 0 0.024149218303360205 0.014874267671628839 0 0.024296056010069286 0.015106088869128715 0 0.023966670834675474 0.014903274712473475 0 0.023865206225758901 0.014787833880368209 0 0.023998451331339619 0.014623304268207236 0 0.024149218303360205 0.014874267671628839 0 0.023966670834675474 0.014903274712473475 0 0.023998451331339619 0.014623304268207236 0 0.024149218303360205 0.014874267671628839 0 0.023966670834675474 0.014903274712473475 0 0.024044657728240621 0.015143622677843875 0 0.024044657728240621 0.015143622677843875 0 0.023926609245014576 0.01544965127107677 0 0.023834597799581112 0.015040870458940881 0 0.023966670834675474 0.014903274712473475 0 0.024044657728240621 0.015143622677843875 0 0.023834597799581112 0.015040870458940881 0 0.024480645738483919 0.015308769802531005 0 0.024296056010069286 0.015106088869128715 0 0.024179086278634476 0.015392391760371802 0 0.024149218303360205 0.014874267671628839 0 0.024044657728240621 0.015143622677843875 0 0.024296056010069286 0.015106088869128715 0 0.024044657728240621 0.015143622677843875 0 0.024296056010069286 0.015106088869128715 0 0.024179086278634476 0.015392391760371802 0 0.024333131559575279 0.015555610560033437 0 0.024480645738483919 0.015308769802531005 0 0.024179086278634476 0.015392391760371802 0 0.024333131559575279 0.015555610560033437 0 0.024179086278634476 0.015392391760371802 0 0.024084966583387268 0.015727085041279096 0 0.024179086278634476 0.015392391760371802 0 0.023926609245014576 0.01544965127107677 0 0.024084966583387268 0.015727085041279096 0 0.024044657728240621 0.015143622677843875 0 0.024179086278634476 0.015392391760371802 0 0.023926609245014576 0.01544965127107677 0 0.023926609245014576 0.01544965127107677 0 0.024084966583387268 0.015727085041279096 0 0.023816232017810565 0.015854067258289629 0 0.024084966583387268 0.015727085041279096 0 0.023816232017810565 0.015854067258289629 0 0.024009763173573551 0.01598521817782847 0 0.024351294170345258 0.015815356183257846 0 0.024084966583387268 0.015727085041279096 0 0.02408289562584167 0.016000909423133543 0 0.024351294170345258 0.015815356183257846 0 0.024333131559575279 0.015555610560033437 0 0.024084966583387268 0.015727085041279096 0 0.024084966583387268 0.015727085041279096 0 0.02408289562584167 0.016000909423133543 0 0.024009763173573551 0.01598521817782847 0 0.039218308213962841 0.017322177738989468 0 0.040684594510121089 0.017809897214358137 0 0.040041751563078293 0.015970987063167498 0 0.032738246116570183 0.016908264051528767 0 0.031854495669761521 0.015621215721503927 0 0.023926609245014576 0.01544965127107677 0 0.023816232017810565 0.015854067258289629 0 0.023695143036710224 0.015347894905544316 0 0.039218308213962841 0.017322177738989468 0 0.040041751563078293 0.015970987063167498 0 0.038817037264896964 0.01600740467140465 0 0.023695143036710224 0.015347894905544316 0 0.023834597799581112 0.015040870458940881 0 0.0237298814560967 0.014917707868092715 0 0.040041751563078293 0.015970987063167498 0 0.039348593986313671 0.014107072527355661 0 0.038817037264896964 0.01600740467140465 0 0.031854495669761521 0.015621215721503927 0 0.031132189589299426 0.014613330622239499 0 0.023926609245014576 0.01544965127107677 0 0.023695143036710224 0.015347894905544316 0 0.023834597799581112 0.015040870458940881 0 0.023966670834675474 0.014903274712473475 0 0.023834597799581112 0.015040870458940881 0 0.023865206225758901 0.014787833880368209 0 0.023834597799581112 0.015040870458940881 0 0.023865206225758901 0.014787833880368209 0 0.023805047249412806 0.014846792919182122 0 0.0237298814560967 0.014917707868092715 0 0.023805047249412806 0.014846792919182122 0 0.023817627995236307 0.014817947973848772 0 0.023834597799581112 0.015040870458940881 0 0.0237298814560967 0.014917707868092715 0 0.023805047249412806 0.014846792919182122 0 0.023817627995236307 0.014817947973848772 0 0.023825704176361491 0.014807166141897424 0 0.02385654169515487 0.014791881746787833 0 0.023805047249412806 0.014846792919182122 0 0.023817627995236307 0.014817947973848772 0 0.023825704176361491 0.014807166141897424 0 0.023736213216222126 0.014578797000650878 0 0.023623353899871594 0.014400526768459371 0 0.023808402419122951 0.014409685180839044 0 0.023598371932311405 0.014511228339515958 0 0.027899092433056549 0.012686609715290583 0 0.023623353899871594 0.014400526768459371 0 0.023808402419122951 0.014409685180839044 0 0.023900451155087994 0.014216567377636352 0 0.023736213216222126 0.014578797000650878 0 0.023808402419122951 0.014409685180839044 0 0.023976468690143197 0.014446005863087483 0 0.023777171955578838 0.014413882915062973 0 0.026385983542473422 0.011555669284920526 0 0.023808402419122951 0.014409685180839044 0 0.023976468690143197 0.014446005863087483 0 0.023900451155087994 0.014216567377636352 0 0.023865206225758901 0.014787833880368209 0 0.023736213216222126 0.014578797000650878 0 0.023976468690143197 0.014446005863087483 0 0.023922586440087674 0.014845709487166091 0 0.023598371932311405 0.014511228339515958 0 0.023865206225758901 0.014787833880368209 0 0.023805047249412806 0.014846792919182122 0 0.023825704176361491 0.014807166141897424 0 0.023865206225758901 0.014787833880368209 0 0.023998451331339619 0.014623304268207236 0 0.023976468690143197 0.014446005863087483 0 0.023953139323692883 0.014524129925147058 0 0.023777171955578838 0.014413882915062973 0 0.023998451331339619 0.014623304268207236 0 0.02407245286735028 0.014090823518291466 0 0.023615250268207655 0.014018005870858089 0 0.024392721648177063 0.014428719116177045 0 0.024149218303360205 0.014874267671628839 0 0.023998451331339619 0.014623304268207236 0 0.024392721648177063 0.014428719116177045 0 0.023998451331339619 0.014623304268207236 0 0.02407245286735028 0.014090823518291466 0 0.024392721648177063 0.014428719116177045 0 0.02407245286735028 0.014090823518291466 0 0.024369686895432452 0.013589878707613521 0 0.02407245286735028 0.014090823518291466 0 0.023889034781613139 0.013617625862393963 0 0.024369686895432452 0.013589878707613521 0 0.023615250268207655 0.014018005870858089 0 0.023889034781613139 0.013617625862393963 0 0.023334535446226538 0.013412168025401764 0 0.02407245286735028 0.014090823518291466 0 0.023615250268207655 0.014018005870858089 0 0.023889034781613139 0.013617625862393963 0 0.024682193074661778 0.012328515397460955 0 0.026385983542473422 0.011555669284920526 0 0.023889034781613139 0.013617625862393963 0 0.023882129176539913 0.013069210784590463 0 0.023334535446226538 0.013412168025401764 0 0.023889034781613139 0.013617625862393963 0 0.024369686895432452 0.013589878707613521 0 0.023882129176539913 0.013069210784590463 0 0.0246985793662385 0.012508254040432615 0 0.024682193074661778 0.012328515397460955 0 0.025376965943302552 0.012316050789189761 0 0.024612532059505483 0.012664417170270548 0 0.025772370001971568 0.011322169502003616 0 0.024369686895432452 0.013589878707613521 0 0.024612532059505483 0.012664417170270548 0 0.023882129176539913 0.013069210784590463 0 0.024640334963061512 0.012755106739821827 0 0.025376965943302552 0.012316050789189761 0 0.024612532059505483 0.012664417170270548 0 0.025376965943302552 0.012316050789189761 0 0.025772370001971568 0.011322169502003616 0 0.026840911253265643 0.011969905845225991 0 0.025772370001971568 0.011322169502003616 0 0.026840911253265643 0.011969905845225991 0 0.027265160151896454 0.010379911671914235 0 0.026343026524011937 0.012849213661480376 0 0.025376965943302552 0.012316050789189761 0 0.026840911253265643 0.011969905845225991 0 0.031290506761296417 0.010200622851577417 0 0.031597447189158065 0.0097633035770057029 0 0.030939808170449737 0.0096097012353646063 0 0.027709994342875841 0.013241333731577177 0 0.026840911253265643 0.011969905845225991 0 0.028229086028705913 0.012179679485272489 0 0.029942314644222975 0.011948036810965634 0 0.026385983542473422 0.011555669284920526 0 0.026840911253265643 0.011969905845225991 0 0.028229086028705913 0.012179679485272489 0 0.027265160151896454 0.010379911671914235 0 0.031290506761296417 0.010200622851577417 0 0.031597447189158065 0.0097633035770057029 0 0.031896406267010013 0.010219542423719193 0 0.031657312650310868 0.009173786745414695 0 0.031597447189158065 0.0097633035770057029 0 0.030939808170449737 0.0096097012353646063 0 0.027899092433056549 0.012686609715290583 0 0.026385983542473422 0.011555669284920526 0 0.033299332110590184 0.01148380199412778 0 0.033196680868009719 0.011544455859627913 0 0.033475337532075648 0.011737574416555522 0 0.027899092433056549 0.012686609715290583 0 0.033000527222583641 0.010474930452342497 0 0.031657312650310868 0.009173786745414695 0 0.031597447189158065 0.0097633035770057029 0 0.032232439106796205 0.0096893922029360757 0 0.032888148679693495 0.011304208955333319 0 0.033196680868009719 0.011544455859627913 0 0.033130363977946047 0.011370229438937741 0 0.033299332110590184 0.01148380199412778 0 0.033196680868009719 0.011544455859627913 0 0.033130363977946047 0.011370229438937741 0 0.032232439106796205 0.0096893922029360757 0 0.031896406267010013 0.010219542423719193 0 0.032358203051613681 0.010253362642354534 0 0.031597447189158065 0.0097633035770057029 0 0.032232439106796205 0.0096893922029360757 0 0.031896406267010013 0.010219542423719193 0 0.032232439106796205 0.0096893922029360757 0 0.032358203051613681 0.010253362642354534 0 0.03281033226691539 0.010204683015154875 0 0.033000527222583641 0.010474930452342497 0 0.035081012116691762 0.010210593874762357 0 0.038398956337493746 0.01032845795923755 0 0.037919555768847334 0.0096177543381897896 0 0.03764953225978826 0.010177451136561867 0 0.036128029950291983 0.010857860513703979 0 0.035081012116691762 0.010210593874762357 0 0.037919555768847334 0.0096177543381897896 0 0.037522317481294941 0.0097095723143793555 0 0.03764953225978826 0.010177451136561867 0 0.037522317481294941 0.0097095723143793555 0 0.037290283958050882 0.0099863880166205544 0 0.03764953225978826 0.010177451136561867 0 0.037099404562119895 0.0094810298715103849 0 0.037522317481294941 0.0097095723143793555 0 0.037290283958050882 0.0099863880166205544 0 0.037290283958050882 0.0099863880166205544 0 0.037189725545359806 0.010625421383071185 0 0.036921436749807954 0.010116039063187152 0 0.037290283958050882 0.0099863880166205544 0 0.03764953225978826 0.010177451136561867 0 0.037189725545359806 0.010625421383071185 0 0.038398956337493746 0.01032845795923755 0 0.03764953225978826 0.010177451136561867 0 0.037479200270766649 0.011274155654442055 0 0.03764953225978826 0.010177451136561867 0 0.037479200270766649 0.011274155654442055 0 0.037189725545359806 0.010625421383071185 0 0.037189725545359806 0.010625421383071185 0 0.037051741024961664 0.011053141515439723 0 0.036936060909457405 0.01067241541006083 0 0.037479200270766649 0.011274155654442055 0 0.037189725545359806 0.010625421383071185 0 0.037051741024961664 0.011053141515439723 0 0.037516821904746693 0.011291607292995739 0 0.035828907649572757 0.011577806266389438 0 0.037479200270766649 0.011274155654442055 0 0.034995959138165771 0.012312931348105656 0 0.037199800003601388 0.013276220855995804 0 0.037479200270766649 0.011274155654442055 0 0.039264827765751978 0.011672204164762256 0 0.037199800003601388 0.013276220855995804 0 0.03861046443363484 0.012521152653967138 0 0.038258597077807627 0.013744238063635355 0 0.037199800003601388 0.013276220855995804 0 0.034299996053188425 0.0127852903699911 0 0.039139944823092215 0.012689704083497372 0 0.036128029950291983 0.010857860513703979 0 0.034299996053188425 0.0127852903699911 0 0.038398956337493746 0.01032845795923755 0 0.037479200270766649 0.011274155654442055 0 0.039264827765751978 0.011672204164762256 0 0.033299332110590184 0.01148380199412778 0 0.033130363977946047 0.011370229438937741 0 0.033131674048299316 0.011170179281501158 0 0.023817627995236307 0.014817947973848772 0 0.02385654169515487 0.014791881746787833 0 0.023871642993031614 0.014785771204648265 0 0.032888148679693495 0.011304208955333319 0 0.033130363977946047 0.011370229438937741 0 0.033131674048299316 0.011170179281501158 0 0.027899092433056549 0.012686609715290583 0 0.034299996053188425 0.0127852903699911 0 0.031132189589299426 0.014613330622239499 0 0.034299996053188425 0.0127852903699911 0 0.0237298814560967 0.014917707868092715 0 0.023817627995236307 0.014817947973848772 0 0.023871642993031614 0.014785771204648265 0 0.039348593986313671 0.014107072527355661 0 0.03861046443363484 0.012521152653967138 0 0.038258597077807627 0.013744238063635355 0 0.039348593986313671 0.014107072527355661 0 0.038258597077807627 0.013744238063635355 0 0.037854380593121663 0.01525676880390256 0 0.038258597077807627 0.013744238063635355 0 0.037854380593121663 0.01525676880390256 0 0.037199800003601388 0.013276220855995804 0 0.039348593986313671 0.014107072527355661 0 0.037854380593121663 0.01525676880390256 0 0.038817037264896964 0.01600740467140465 0 0.037854380593121663 0.01525676880390256 0 0.038817037264896964 0.01600740467140465 0 0.038104437889857699 0.017004515636900884 0 0.039218308213962841 0.017322177738989468 0 0.038817037264896964 0.01600740467140465 0 0.038104437889857699 0.017004515636900884 0 0.037854380593121663 0.01525676880390256 0 0.038104437889857699 0.017004515636900884 0 0.036722518831381133 0.01723971528977743 0 0.038104437889857699 0.017004515636900884 0 0.036722518831381133 0.01723971528977743 0 0.038133635096975906 0.018374304771248712 0 0.039218308213962841 0.017322177738989468 0 0.038104437889857699 0.017004515636900884 0 0.038133635096975906 0.018374304771248712 0 0.036722518831381133 0.01723971528977743 0 0.035848337652569985 0.016521521892178374 0 0.035552982294349993 0.017974609018405537 0 0.035848337652569985 0.016521521892178374 0 0.035363913518683163 0.016422865836125931 0 0.035552982294349993 0.017974609018405537 0 0.037854380593121663 0.01525676880390256 0 0.036722518831381133 0.01723971528977743 0 0.036491144949070006 0.015336051910132627 0 0.036722518831381133 0.01723971528977743 0 0.035848337652569985 0.016521521892178374 0 0.036491144949070006 0.015336051910132627 0 0.035848337652569985 0.016521521892178374 0 0.036491144949070006 0.015336051910132627 0 0.034364139245342047 0.014898064743181588 0 0.036491144949070006 0.015336051910132627 0 0.035681833751588003 0.014083097662433802 0 0.034364139245342047 0.014898064743181588 0 0.035880314520902339 0.016427239350278487 0 0.034758762257449935 0.01532325359291993 0 0.037854380593121663 0.01525676880390256 0 0.036491144949070006 0.015336051910132627 0 0.037199800003601388 0.013276220855995804 0 0.036491144949070006 0.015336051910132627 0 0.037199800003601388 0.013276220855995804 0 0.035681833751588003 0.014083097662433802 0 0.034995959138165771 0.012312931348105656 0 0.037199800003601388 0.013276220855995804 0 0.035681833751588003 0.014083097662433802 0 0.035681833751588003 0.014083097662433802 0 0.034185937838159992 0.013535727822096878 0 0.034364139245342047 0.014898064743181588 0 0.034995959138165771 0.012312931348105656 0 0.035681833751588003 0.014083097662433802 0 0.034185937838159992 0.013535727822096878 0 0.034185937838159992 0.013535727822096878 0 0.034364139245342047 0.014898064743181588 0 0.032928813117993984 0.013214060477582501 0 0.034758762257449935 0.01532325359291993 0 0.035819753498418531 0.013280721495794734 0 0.035405956571128751 0.015179573780626347 0 0.035661078343687327 0.015644888945383136 0 0.035408583262107246 0.014828143440631339 0 0.035720001834867052 0.015240866018306314 0 0.035819753498418531 0.013280721495794734 0 0.035377338131884317 0.015029753675241359 0 0.035405956571128751 0.015179573780626347 0 0.035316513225881134 0.015004508500233398 0 0.035377338131884317 0.015029753675241359 0 0.035405956571128751 0.015179573780626347 0 0.035397338647610598 0.014982272146932887 0 0.035377338131884317 0.015029753675241359 0 0.035316513225881134 0.015004508500233398 0 0.035397338647610598 0.014982272146932887 0 0.035405956571128751 0.015179573780626347 0 0.035259484491770236 0.015304606834677909 0 0.035316513225881134 0.015004508500233398 0 0.035405956571128751 0.015179573780626347 0 0.035373407883531688 0.015746191566810935 0 0.035661078343687327 0.015644888945383136 0 0.035373407883531688 0.015746191566810935 0 0.035175508498585556 0.016240645243319276 0 0.035259484491770236 0.015304606834677909 0 0.035405956571128751 0.015179573780626347 0 0.035373407883531688 0.015746191566810935 0 0.035259484491770236 0.015304606834677909 0 0.035373407883531688 0.015746191566810935 0 0.035661078343687327 0.015644888945383136 0 0.035363913518683163 0.016422865836125931 0 0.035848337652569985 0.016521521892178374 0 0.035661078343687327 0.015644888945383136 0 0.035363913518683163 0.016422865836125931 0 0.035373407883531688 0.015746191566810935 0 0.035363913518683163 0.016422865836125931 0 0.035175508498585556 0.016240645243319276 0 0.035363913518683163 0.016422865836125931 0 0.035175508498585556 0.016240645243319276 0 0.034922226500832571 0.017492040443888301 0 0.035175508498585556 0.016240645243319276 0 0.034922226500832571 0.017492040443888301 0 0.034936637501177363 0.016791362734283569 0 0.035363913518683163 0.016422865836125931 0 0.034922226500832571 0.017492040443888301 0 0.035552982294349993 0.017974609018405537 0 0.034998915257051795 0.01695449610158779 0 0.034936637501177363 0.016791362734283569 0 0.034642418942275419 0.01746597810950011 0 0.034998915257051795 0.01695449610158779 0 0.034936637501177363 0.016791362734283569 0 0.035052022381390477 0.016249279231642037 0 0.034922226500832571 0.017492040443888301 0 0.034936637501177363 0.016791362734283569 0 0.034642418942275419 0.01746597810950011 0 0.035175508498585556 0.016240645243319276 0 0.034936637501177363 0.016791362734283569 0 0.035150734763818386 0.015762546910831152 0 0.034936637501177363 0.016791362734283569 0 0.035150734763818386 0.015762546910831152 0 0.035052022381390477 0.016249279231642037 0 0.034998915257051795 0.01695449610158779 0 0.034999497602802451 0.015426719847945788 0 0.035052022381390477 0.016249279231642037 0 0.035150734763818386 0.015762546910831152 0 0.034999497602802451 0.015426719847945788 0 0.035052022381390477 0.016249279231642037 0 0.035150734763818386 0.015762546910831152 0 0.034999497602802451 0.015426719847945788 0 0.035191663903535397 0.014959310286719728 0 0.034999497602802451 0.015426719847945788 0 0.035191663903535397 0.014959310286719728 0 0.034999547888426234 0.013899555284157705 0 0.035175508498585556 0.016240645243319276 0 0.035150734763818386 0.015762546910831152 0 0.035259484491770236 0.015304606834677909 0 0.035150734763818386 0.015762546910831152 0 0.035191663903535397 0.014959310286719728 0 0.035259484491770236 0.015304606834677909 0 0.035207611965150695 0.014791963352845603 0 0.035316513225881134 0.015004508500233398 0 0.035397338647610598 0.014982272146932887 0 0.035708821163990476 0.01410050302131354 0 0.035819753498418531 0.013280721495794734 0 0.035259484491770236 0.015304606834677909 0 0.035207611965150695 0.014791963352845603 0 0.035316513225881134 0.015004508500233398 0 0.035191663903535397 0.014959310286719728 0 0.035259484491770236 0.015304606834677909 0 0.035207611965150695 0.014791963352845603 0 0.036195365476720837 0.013454774397885989 0 0.034999978964519986 0.013897048961148439 0 0.035705177184746521 0.012694769900916069 0 0.035708821163990476 0.01410050302131354 0 0.034999989600634822 0.013897361789161466 0 0.035191663903535397 0.014959310286719728 0 0.035207611965150695 0.014791963352845603 0 0.034999547888426234 0.013899555284157705 0 0.035705177184746521 0.012694769900916069 0 0.03499996320510175 0.011834896394506401 0 0.03623582605887854 0.011643411878326689 0 0.034999978964519986 0.013897048961148439 0 0.035705177184746521 0.012694769900916069 0 0.03499996320510175 0.011834896394506401 0 0.03499996320510175 0.011834896394506401 0 0.03623582605887854 0.011643411878326689 0 0.035976060543502025 0.010672647825537064 0 0.037080446518814321 0.011332294938330921 0 0.03623582605887854 0.011643411878326689 0 0.035976060543502025 0.010672647825537064 0 0.036195365476720837 0.013454774397885989 0 0.036350637467203933 0.012700978110062076 0 0.037466232756500746 0.013113321855550098 0 0.036800769692123918 0.011779404257822973 0 0.035819753498418531 0.013280721495794734 0 0.03623582605887854 0.011643411878326689 0 0.036350637467203933 0.012700978110062076 0 0.037466232756500746 0.013113321855550098 0 0.037080446518814321 0.011332294938330921 0 0.03623582605887854 0.011643411878326689 0 0.03740437651301317 0.013035265871520433 0 0.035705177184746521 0.012694769900916069 0 0.03623582605887854 0.011643411878326689 0 0.036350637467203933 0.012700978110062076 0 0.036195365476720837 0.013454774397885989 0 0.035705177184746521 0.012694769900916069 0 0.036350637467203933 0.012700978110062076 0 0.036284499934607847 0.010637884494614523 0 0.036423343431077636 0.011324958352652709 0 0.036678548798579999 0.01084892325381283 0 0.036791889926133192 0.010767709160615788 0 0.035819753498418531 0.013280721495794734 0 0.037051741024961664 0.011053141515439723 0 0.036423343431077636 0.011324958352652709 0 0.036678548798579999 0.01084892325381283 0 0.034995959138165771 0.012312931348105656 0 0.034185937838159992 0.013535727822096878 0 0.032928813117993984 0.013214060477582501 0 0.035828907649572757 0.011577806266389438 0 0.035819753498418531 0.013280721495794734 0 0.037051741024961664 0.011053141515439723 0 0.036936060909457405 0.01067241541006083 0 0.036678548798579999 0.01084892325381283 0 0.036936060909457405 0.01067241541006083 0 0.036678548798579999 0.01084892325381283 0 0.036682757896508392 0.010500463299287702 0 0.036284499934607847 0.010637884494614523 0 0.036678548798579999 0.01084892325381283 0 0.036682757896508392 0.010500463299287702 0 0.036539769856676015 0.010181967322198497 0 0.03675437789862275 0.0096971251518701597 0 0.036171466206616654 0.0098217419851978991 0 0.036284499934607847 0.010637884494614523 0 0.036539769856676015 0.010181967322198497 0 0.036171466206616654 0.0098217419851978991 0 0.036284499934607847 0.010637884494614523 0 0.036682757896508392 0.010500463299287702 0 0.036539769856676015 0.010181967322198497 0 0.036682757896508392 0.010500463299287702 0 0.036539769856676015 0.010181967322198497 0 0.036921436749807954 0.010116039063187152 0 0.036539769856676015 0.010181967322198497 0 0.036921436749807954 0.010116039063187152 0 0.03675437789862275 0.0096971251518701597 0 0.037189725545359806 0.010625421383071185 0 0.036936060909457405 0.01067241541006083 0 0.036921436749807954 0.010116039063187152 0 0.036936060909457405 0.01067241541006083 0 0.036682757896508392 0.010500463299287702 0 0.036921436749807954 0.010116039063187152 0 0.037099404562119895 0.0094810298715103849 0 0.037290283958050882 0.0099863880166205544 0 0.036921436749807954 0.010116039063187152 0 0.037099404562119895 0.0094810298715103849 0 0.036921436749807954 0.010116039063187152 0 0.03675437789862275 0.0096971251518701597 0 0.03675437789862275 0.0096971251518701597 0 0.036612789925025015 0.0091264571514103384 0 0.036171466206616654 0.0098217419851978991 0 0.037099404562119895 0.0094810298715103849 0 0.03675437789862275 0.0096971251518701597 0 0.036612789925025015 0.0091264571514103384 0 0.036143017774221298 0.008146496125446788 0 0.036429631377990941 0.0097495820012638013 0 0.036120543271536951 0.0080162598675941749 0 0.036612789925025015 0.0091264571514103384 0 0.036171466206616654 0.0098217419851978991 0 0.036120543271536951 0.0080162598675941749 0 0.036704377687465914 0.0096295631990015104 0 0.035739401365171043 0.0089516375293107377 0 0.036704377687465914 0.0096295631990015104 0 0.035739401365171043 0.0089516375293107377 0 0.035848342357506648 0.0097581248251611373 0 0.034999772249952321 0.0077105624361355415 0 0.035739401365171043 0.0089516375293107377 0 0.034999915543024521 0.0097726125136489549 0 0.035739401365171043 0.0089516375293107377 0 0.034999915543024521 0.0097726125136489549 0 0.035848342357506648 0.0097581248251611373 0 0.03499996320510175 0.011834896394506401 0 0.034999915543024521 0.0097726125136489549 0 0.035976060543502025 0.010672647825537064 0 0.034999915543024521 0.0097726125136489549 0 0.035848342357506648 0.0097581248251611373 0 0.035976060543502025 0.010672647825537064 0 0.037080446518814321 0.011332294938330921 0 0.036704377687465914 0.0096295631990015104 0 0.035976060543502025 0.010672647825537064 0 0.036791889926133192 0.010767709160615788 0 0.036429631377990941 0.0097495820012638013 0 0.036704377687465914 0.0096295631990015104 0 0.035848342357506648 0.0097581248251611373 0 0.035976060543502025 0.010672647825537064 0 0.035306620118070016 0.025940759748505276 0 0.035767212880543249 0.026213707335159882 0 0.035657843633020825 0.025059750056150343 0 0.035306620118070016 0.025940759748505276 0 0.035435794706258281 0.026901090645797803 0 0.035767212880543249 0.026213707335159882 0 0.035306620118070016 0.025940759748505276 0 0.034408457279489511 0.026196122314007617 0 0.035017050967746169 0.025013494139800165 0 0.035306620118070016 0.025940759748505276 0 0.035017050967746169 0.025013494139800165 0 0.035279948522035871 0.024751588514464441 0 0.034999925404225446 0.02413435216114309 0 0.035297191630985159 0.024855242648185148 0 0.035000189936364494 0.026137230552166952 0 0.035306620118070016 0.025940759748505276 0 0.034408457279489511 0.026196122314007617 0 0.034952110224711098 0.026672120619463707 0 0.034952110224711098 0.026672120619463707 0 0.035435794706258281 0.026901090645797803 0 0.034787147263216883 0.027467213759651828 0 0.03488941322299545 0.025485868152044937 0 0.035060957709715443 0.027240294854929188 0 0.034408457279489511 0.026196122314007617 0 0.034952110224711098 0.026672120619463707 0 0.034787147263216883 0.027467213759651828 0 0.035297191630985159 0.024855242648185148 0 0.035000189936364494 0.026137230552166952 0 0.035357443540610579 0.026996646717041019 0 0.035306620118070016 0.025940759748505276 0 0.034952110224711098 0.026672120619463707 0 0.035435794706258281 0.026901090645797803 0 0.035775960282111052 0.026915744634537036 0 0.035643977139679157 0.027203731317195716 0 0.035767212880543249 0.026213707335159882 0 0.035435794706258281 0.026901090645797803 0 0.035775960282111052 0.026915744634537036 0 0.035767212880543249 0.026213707335159882 0 0.035775960282111052 0.026915744634537036 0 0.035643977139679157 0.027203731317195716 0 0.035927999154700754 0.027253211559884982 0 0.035435794706258281 0.026901090645797803 0 0.035775960282111052 0.026915744634537036 0 0.035927999154700754 0.027253211559884982 0 0.035636265459912962 0.027268324140247106 0 0.03510221775806284 0.028362058400536929 0 0.035643977139679157 0.027203731317195716 0 0.035767212880543249 0.026213707335159882 0 0.035956884633635645 0.025955021959275803 0 0.035767212880543249 0.026213707335159882 0 0.035819269205091306 0.025485224144242761 0 0.035657843633020825 0.025059750056150343 0 0.035819269205091306 0.025485224144242761 0 0.035956884633635645 0.025955021959275803 0 0.03578379781062186 0.024376915010145422 0 0.035767212880543249 0.026213707335159882 0 0.035819269205091306 0.025485224144242761 0 0.035956884633635645 0.025955021959275803 0 0.035625079766716555 0.023699363617976518 0 0.035833836528525037 0.02316960193927602 0 0.035681128452802309 0.021605782165512833 0 0.035928913137129204 0.022000192070882649 0 0.036078440432624106 0.02205213786853516 0 0.035437045032415876 0.022200156591894157 0 0.035928913137129204 0.022000192070882649 0 0.035779205447295799 0.022156286516093013 0 0.035681128452802309 0.021605782165512833 0 0.035437045032415876 0.022200156591894157 0 0.034955261298094634 0.021766364963123626 0 0.035681128452802309 0.021605782165512833 0 0.035437045032415876 0.022200156591894157 0 0.035928913137129204 0.022000192070882649 0 0.035928913137129204 0.022000192070882649 0 0.036078440432624106 0.02205213786853516 0 0.036302349138973691 0.021267639999797142 0 0.035819269205091306 0.025485224144242761 0 0.03578379781062186 0.024376915010145422 0 0.035657843633020825 0.025059750056150343 0 0.03578379781062186 0.024376915010145422 0 0.035657843633020825 0.025059750056150343 0 0.035365072349387648 0.023870691424940492 0 0.035657843633020825 0.025059750056150343 0 0.035279948522035871 0.024751588514464441 0 0.035365072349387648 0.023870691424940492 0 0.035306620118070016 0.025940759748505276 0 0.035657843633020825 0.025059750056150343 0 0.035279948522035871 0.024751588514464441 0 0.034999925404225446 0.02413435216114309 0 0.035297191630985159 0.024855242648185148 0 0.035024827991827129 0.022997397988073039 0 0.034408457279489511 0.026196122314007617 0 0.035017050967746169 0.025013494139800165 0 0.035024827991827129 0.022997397988073039 0 0.035017050967746169 0.025013494139800165 0 0.035279948522035871 0.024751588514464441 0 0.035024827991827129 0.022997397988073039 0 0.03488941322299545 0.025485868152044937 0 0.034984664190763452 0.023172597164716396 0 0.034999925404225446 0.02413435216114309 0 0.035024827991827129 0.022997397988073039 0 0.034998866437379816 0.022134066781948781 0 0.035279948522035871 0.024751588514464441 0 0.035365072349387648 0.023870691424940492 0 0.035024827991827129 0.022997397988073039 0 0.035365072349387648 0.023870691424940492 0 0.035024827991827129 0.022997397988073039 0 0.034998866437379816 0.022134066781948781 0 0.035833836528525037 0.02316960193927602 0 0.034999754666396495 0.022131701915929693 0 0.03578379781062186 0.024376915010145422 0 0.035365072349387648 0.023870691424940492 0 0.034998866437379816 0.022134066781948781 0 0.036078440432624106 0.02205213786853516 0 0.035000100945119905 0.022130636604543747 0 0.035658311015748123 0.021626457746719761 0 0.035000100945119905 0.022130636604543747 0 0.035658311015748123 0.021626457746719761 0 0.034999841169746498 0.020723681649933049 0 0.035658311015748123 0.021626457746719761 0 0.036302349138973691 0.021267639999797142 0 0.034999841169746498 0.020723681649933049 0 0.036078440432624106 0.02205213786853516 0 0.035658311015748123 0.021626457746719761 0 0.036302349138973691 0.021267639999797142 0 0.035581383218219569 0.022017429140666563 0 0.035711442127165711 0.021209232571671295 0 0.03503024828832018 0.02055009865755042 0 0.035912672094695668 0.021578142044877686 0 0.035473348576151885 0.020078238259214638 0 0.036302349138973691 0.021267639999797142 0 0.034999841169746498 0.020723681649933049 0 0.035823699019100735 0.019575440571542802 0 0.034999841169746498 0.020723681649933049 0 0.035823699019100735 0.019575440571542802 0 0.034999882300046525 0.019315195706545267 0 0.035823699019100735 0.019575440571542802 0 0.034999882300046525 0.019315195706545267 0 0.035000072553965499 0.017906917995635072 0 0.035473348576151885 0.020078238259214638 0 0.03500006696239643 0.017907585249953509 0 0.035711442127165711 0.021209232571671295 0 0.03503024828832018 0.02055009865755042 0 0.035774146070779063 0.018924290460658796 0 0.03499987309225118 0.016955902716771758 0 0.035171544191990804 0.018217287508138672 0 0.035001077603297077 0.016954950803270547 0 0.035774146070779063 0.018924290460658796 0 0.03499793857745457 0.017909071293276402 0 0.03503024828832018 0.02055009865755042 0 0.035774146070779063 0.018924290460658796 0 0.03499793857745457 0.017909071293276402 0 0.034922226500832571 0.017492040443888301 0 0.034522432186149671 0.018905249858780181 0 0.035087482368357285 0.019296024303717907 0 0.034922226500832571 0.017492040443888301 0 0.035087482368357285 0.019296024303717907 0 0.035552982294349993 0.017974609018405537 0 0.034922226500832571 0.017492040443888301 0 0.034642418942275419 0.01746597810950011 0 0.034522432186149671 0.018905249858780181 0 0.035171544191990804 0.018217287508138672 0 0.035311225457455124 0.019950583881555135 0 0.035711442127165711 0.021209232571671295 0 0.035774146070779063 0.018924290460658796 0 0.036126947396045515 0.020998771405039262 0 0.034522432186149671 0.018905249858780181 0 0.034756199002134607 0.020934849383221245 0 0.035087482368357285 0.019296024303717907 0 0.036126947396045515 0.020998771405039262 0 0.035779205447295799 0.022156286516093013 0 0.035582260838662137 0.022407962456817292 0 0.035311225457455124 0.019950583881555135 0 0.035181984107079158 0.021676906008849011 0 0.035581383218219569 0.022017429140666563 0 0.035711442127165711 0.021209232571671295 0 0.035779205447295799 0.022156286516093013 0 0.035711442127165711 0.021209232571671295 0 0.036126947396045515 0.020998771405039262 0 0.035779205447295799 0.022156286516093013 0 0.035928913137129204 0.022000192070882649 0 0.035581383218219569 0.022017429140666563 0 0.035779205447295799 0.022156286516093013 0 0.035929529340179053 0.021937530135121158 0 0.035912672094695668 0.021578142044877686 0 0.035437045032415876 0.022200156591894157 0 0.035779205447295799 0.022156286516093013 0 0.035458066428466918 0.022377508880592315 0 0.035779205447295799 0.022156286516093013 0 0.035458066428466918 0.022377508880592315 0 0.035582260838662137 0.022407962456817292 0 0.034836270879405572 0.022606461256222368 0 0.033894082893652561 0.023170725277997652 0 0.035582260838662137 0.022407962456817292 0 0.035458066428466918 0.022377508880592315 0 0.034836270879405572 0.022606461256222368 0 0.035582260838662137 0.022407962456817292 0 0.034586790818825507 0.023219270384970545 0 0.035181984107079158 0.021676906008849011 0 0.035437045032415876 0.022200156591894157 0 0.035458066428466918 0.022377508880592315 0 0.034836270879405572 0.022606461256222368 0 0.034836270879405572 0.022606461256222368 0 0.033894082893652561 0.023170725277997652 0 0.034153043753271051 0.022690053138654982 0 0.035524067367976843 0.023302382675146296 0 0.035230109133296578 0.02353769582014208 0 0.035669518405063015 0.021966304768511795 0 0.035669518405063015 0.021966304768511795 0 0.036166407140376361 0.0197514087139995 0 0.036570734237444447 0.021565536013319411 0 0.035524067367976843 0.023302382675146296 0 0.035412005360247717 0.021474379394536176 0 0.035669518405063015 0.021966304768511795 0 0.035412005360247717 0.021474379394536176 0 0.035669518405063015 0.021966304768511795 0 0.036166407140376361 0.0197514087139995 0 0.035412005360247717 0.021474379394536176 0 0.034756199002134607 0.020934849383221245 0 0.035087482368357285 0.019296024303717907 0 0.035524067367976843 0.023302382675146296 0 0.035412005360247717 0.021474379394536176 0 0.034756199002134607 0.020934849383221245 0 0.035412005360247717 0.021474379394536176 0 0.035087482368357285 0.019296024303717907 0 0.036166407140376361 0.0197514087139995 0 0.036722518831381133 0.01723971528977743 0 0.036166407140376361 0.0197514087139995 0 0.035552982294349993 0.017974609018405537 0 0.035087482368357285 0.019296024303717907 0 0.036166407140376361 0.0197514087139995 0 0.035552982294349993 0.017974609018405537 0 0.039218308213962841 0.017322177738989468 0 0.038133635096975906 0.018374304771248712 0 0.039494365596890416 0.018737951520720986 0 0.038133635096975906 0.018374304771248712 0 0.038362431508725904 0.019891670343497168 0 0.039494365596890416 0.018737951520720986 0 0.036722518831381133 0.01723971528977743 0 0.036166407140376361 0.0197514087139995 0 0.038133635096975906 0.018374304771248712 0 0.036166407140376361 0.0197514087139995 0 0.037527743699364187 0.021004570533063628 0 0.036570734237444447 0.021565536013319411 0 0.035840816505743216 0.019828600654102219 0 0.038723442068641992 0.020274025015916217 0 0.036166407140376361 0.0197514087139995 0 0.038133635096975906 0.018374304771248712 0 0.038362431508725904 0.019891670343497168 0 0.037527743699364187 0.021004570533063628 0 0.037756937718545228 0.021872210529277271 0 0.038408115708868942 0.021499108450570972 0 0.037527743699364187 0.021004570533063628 0 0.037756937718545228 0.021872210529277271 0 0.036570734237444447 0.021565536013319411 0 0.035230109133296578 0.02353769582014208 0 0.037756937718545228 0.021872210529277271 0 0.036570734237444447 0.021565536013319411 0 0.035230109133296578 0.02353769582014208 0 0.035669518405063015 0.021966304768511795 0 0.036570734237444447 0.021565536013319411 0 0.035230109133296578 0.02353769582014208 0 0.03082073771704753 0.026665678379655684 0 0.032226219783194107 0.024227329347331475 0 0.035230109133296578 0.02353769582014208 0 0.032226219783194107 0.024227329347331475 0 0.031523578962982586 0.023088084169970186 0 0.035524067367976843 0.023302382675146296 0 0.035230109133296578 0.02353769582014208 0 0.031523578962982586 0.023088084169970186 0 0.035334542492898129 0.023538217875564607 0 0.033706278552641473 0.024593307489176458 0 0.03082073771704753 0.026665678379655684 0 0.030154954614554214 0.025137572478084062 0 0.028838046411423433 0.026069676669112252 0 0.03082073771704753 0.026665678379655684 0 0.032226219783194107 0.024227329347331475 0 0.030154954614554214 0.025137572478084062 0 0.032226219783194107 0.024227329347331475 0 0.030154954614554214 0.025137572478084062 0 0.030545101988381385 0.024041437824725499 0 0.030154954614554214 0.025137572478084062 0 0.030545101988381385 0.024041437824725499 0 0.028974478941552907 0.024756142392222132 0 0.030545101988381385 0.024041437824725499 0 0.029652584910798183 0.023490910057795644 0 0.028974478941552907 0.024756142392222132 0 0.032226219783194107 0.024227329347331475 0 0.030545101988381385 0.024041437824725499 0 0.031523578962982586 0.023088084169970186 0 0.030545101988381385 0.024041437824725499 0 0.029652584910798183 0.023490910057795644 0 0.031523578962982586 0.023088084169970186 0 0.029652584910798183 0.023490910057795644 0 0.030491856609058243 0.022599150171468376 0 0.031523578962982586 0.023088084169970186 0 0.029652584910798183 0.023490910057795644 0 0.030491856609058243 0.022599150171468376 0 0.029227859371158158 0.022848452971175111 0 0.030491856609058243 0.022599150171468376 0 0.029227859371158158 0.022848452971175111 0 0.029483265913433962 0.022208278099110395 0 0.030491856609058243 0.022599150171468376 0 0.032357738075837805 0.022443451522305796 0 0.030479543994420068 0.021768682016115277 0 0.032357738075837805 0.022443451522305796 0 0.033628659051189703 0.021733394665106518 0 0.031671228669491264 0.019847142499539092 0 0.032019179201191586 0.021377744562495214 0 0.031459241364556287 0.023449506456426159 0 0.030491856609058243 0.022599150171468376 0 0.032357738075837805 0.022443451522305796 0 0.031523578962982586 0.023088084169970186 0 0.034586790818825507 0.023219270384970545 0 0.031900189600968513 0.022970599976412636 0 0.032357738075837805 0.022443451522305796 0 0.031523578962982586 0.023088084169970186 0 0.033374259640227333 0.022637436329425567 0 0.033894082893652561 0.023170725277997652 0 0.031523578962982586 0.023088084169970186 0 0.033374259640227333 0.022637436329425567 0 0.033894082893652561 0.023170725277997652 0 0.034153043753271051 0.022690053138654982 0 0.033374259640227333 0.022637436329425567 0 0.034153043753271051 0.022690053138654982 0 0.033374259640227333 0.022637436329425567 0 0.034402150178742805 0.022200299112163542 0 0.033374259640227333 0.022637436329425567 0 0.034402150178742805 0.022200299112163542 0 0.033628659051189703 0.021733394665106518 0 0.032357738075837805 0.022443451522305796 0 0.033374259640227333 0.022637436329425567 0 0.033628659051189703 0.021733394665106518 0 0.035437045032415876 0.022200156591894157 0 0.034402150178742805 0.022200299112163542 0 0.034955261298094634 0.021766364963123626 0 0.035437045032415876 0.022200156591894157 0 0.034836270879405572 0.022606461256222368 0 0.034402150178742805 0.022200299112163542 0 0.034836270879405572 0.022606461256222368 0 0.034153043753271051 0.022690053138654982 0 0.034402150178742805 0.022200299112163542 0 0.035681128452802309 0.021605782165512833 0 0.034955261298094634 0.021766364963123626 0 0.034144152376970507 0.020809257812784827 0 0.034402150178742805 0.022200299112163542 0 0.034955261298094634 0.021766364963123626 0 0.034144152376970507 0.020809257812784827 0 0.035625079766716555 0.023699363617976518 0 0.035848342265353619 0.023936438309267134 0 0.034402150178742805 0.022200299112163542 0 0.033628659051189703 0.021733394665106518 0 0.034144152376970507 0.020809257812784827 0 0.036299406570693728 0.026847209222782217 0 0.036541592191589124 0.027991322368824872 0 0.037240138768959853 0.027525186571005621 0 0.035848342265353619 0.023936438309267134 0 0.031459241364556287 0.023449506456426159 0 0.033628659051189703 0.021733394665106518 0 0.034144152376970507 0.020809257812784827 0 0.031671228669491264 0.019847142499539092 0 0.035643977139679157 0.027203731317195716 0 0.036299406570693728 0.026847209222782217 0 0.03604484760462507 0.02794243114334731 0 0.035643977139679157 0.027203731317195716 0 0.035956884633635645 0.025955021959275803 0 0.036299406570693728 0.026847209222782217 0 0.035643977139679157 0.027203731317195716 0 0.03604484760462507 0.02794243114334731 0 0.03543591407542903 0.029124090832575267 0 0.03604484760462507 0.02794243114334731 0 0.036541592191589124 0.027991322368824872 0 0.03607516773324692 0.029111824612362558 0 0.036299406570693728 0.026847209222782217 0 0.03604484760462507 0.02794243114334731 0 0.036541592191589124 0.027991322368824872 0 0.036986278762741326 0.028254552669747079 0 0.03749067269193268 0.028474389835790381 0 0.037240138768959853 0.027525186571005621 0 0.036986278762741326 0.028254552669747079 0 0.037029816174070293 0.028923235147090182 0 0.03664866465452938 0.028756294979622541 0 0.036541592191589124 0.027991322368824872 0 0.036986278762741326 0.028254552669747079 0 0.03664866465452938 0.028756294979622541 0 0.036541592191589124 0.027991322368824872 0 0.036986278762741326 0.028254552669747079 0 0.037240138768959853 0.027525186571005621 0 0.030878554468430897 0.025637852500990661 0 0.031459241364556287 0.023449506456426159 0 0.036986278762741326 0.028254552669747079 0 0.03749067269193268 0.028474389835790381 0 0.037029816174070293 0.028923235147090182 0 0.02447807568126115 0.02328211695523219 0 0.024947814722038539 0.022844734735699569 0 0.024360813191681593 0.022681705510277452 0 0.02447807568126115 0.02328211695523219 0 0.024947814722038539 0.022844734735699569 0 0.024833246273930017 0.023516634823189209 0 0.026024160899262582 0.02217298522876765 0 0.031459241364556287 0.023449506456426159 0 0.028565319049181997 0.021867167721304707 0 0.029483265913433962 0.022208278099110395 0 0.030479543994420068 0.021768682016115277 0 0.030491856609058243 0.022599150171468376 0 0.029483265913433962 0.022208278099110395 0 0.030479543994420068 0.021768682016115277 0 0.025911161484605379 0.023347804228861603 0 0.02740393837591738 0.022977218077539371 0 0.026338238475692909 0.023611267392535121 0 0.025911161484605379 0.023347804228861603 0 0.02740393837591738 0.022977218077539371 0 0.026025529540449489 0.022930301185543352 0 0.028565319049181997 0.021867167721304707 0 0.029483265913433962 0.022208278099110395 0 0.02740393837591738 0.022977218077539371 0 0.029227859371158158 0.022848452971175111 0 0.029483265913433962 0.022208278099110395 0 0.02740393837591738 0.022977218077539371 0 0.026024160899262582 0.02217298522876765 0 0.026576784418947418 0.022897771106522136 0 0.028565319049181997 0.021867167721304707 0 0.02740393837591738 0.022977218077539371 0 0.026025529540449489 0.022930301185543352 0 0.024947814722038539 0.022844734735699569 0 0.026025529540449489 0.022930301185543352 0 0.025162439820225133 0.023515038352575353 0 0.024947814722038539 0.022844734735699569 0 0.025162439820225133 0.023515038352575353 0 0.024833246273930017 0.023516634823189209 0 0.026025529540449489 0.022930301185543352 0 0.025334253025165759 0.023632328135290908 0 0.025455559587173385 0.02368733827496327 0 0.025911161484605379 0.023347804228861603 0 0.026025529540449489 0.022930301185543352 0 0.025334253025165759 0.023632328135290908 0 0.025911161484605379 0.023347804228861603 0 0.025334253025165759 0.023632328135290908 0 0.025232438571781667 0.023710176582938801 0 0.025334253025165759 0.023632328135290908 0 0.025232438571781667 0.023710176582938801 0 0.024860948652420143 0.023965246605267831 0 0.024759802280574963 0.023988421785599578 0 0.024352924028016421 0.024219919009475222 0 0.024452136453838817 0.024201428734760499 0 0.024759802280574963 0.023988421785599578 0 0.024860948652420143 0.023965246605267831 0 0.024452136453838817 0.024201428734760499 0 0.025232438571781667 0.023710176582938801 0 0.024759802280574963 0.023988421785599578 0 0.024860948652420143 0.023965246605267831 0 0.025232438571781667 0.023710176582938801 0 0.024759802280574963 0.023988421785599578 0 0.024816739237745668 0.024013704207473389 0 0.024759802280574963 0.023988421785599578 0 0.024816739237745668 0.024013704207473389 0 0.024352924028016421 0.024219919009475222 0 0.025232438571781667 0.023710176582938801 0 0.024816739237745668 0.024013704207473389 0 0.025451849206827758 0.023844042783341117 0 0.024816739237745668 0.024013704207473389 0 0.025451849206827758 0.023844042783341117 0 0.024974271539239663 0.024144422133324996 0 0.024816739237745668 0.024013704207473389 0 0.024974271539239663 0.024144422133324996 0 0.024298464833068412 0.024308325402834511 0 0.025911161484605379 0.023347804228861603 0 0.025232438571781667 0.023710176582938801 0 0.025451849206827758 0.023844042783341117 0 0.025911161484605379 0.023347804228861603 0 0.025451849206827758 0.023844042783341117 0 0.026338238475692909 0.023611267392535121 0 0.025451849206827758 0.023844042783341117 0 0.025968477731362693 0.02417673936802222 0 0.025412113450083599 0.024227297358706292 0 0.025451849206827758 0.023844042783341117 0 0.025968477731362693 0.02417673936802222 0 0.026338238475692909 0.023611267392535121 0 0.024974271539239663 0.024144422133324996 0 0.024921438323310282 0.024406956795421323 0 0.024298464833068412 0.024308325402834511 0 0.025451849206827758 0.023844042783341117 0 0.024974271539239663 0.024144422133324996 0 0.025412113450083599 0.024227297358706292 0 0.024974271539239663 0.024144422133324996 0 0.025412113450083599 0.024227297358706292 0 0.024921438323310282 0.024406956795421323 0 0.024921438323310282 0.024406956795421323 0 0.025857160611037624 0.024714843982158421 0 0.025323690738867932 0.025299163208633815 0 0.025412113450083599 0.024227297358706292 0 0.024921438323310282 0.024406956795421323 0 0.025857160611037624 0.024714843982158421 0 0.022804178200284363 0.022730267576142112 0 0.021939745232678255 0.020086166734125083 0 0.023795272251121186 0.020472858988287924 0 0.023870011374028763 0.02349009656239277 0 0.023645858865328932 0.022994416705170991 0 0.025968477731362693 0.02417673936802222 0 0.025857160611037624 0.024714843982158421 0 0.026752661582385418 0.024465221375475993 0 0.025968477731362693 0.02417673936802222 0 0.025412113450083599 0.024227297358706292 0 0.025857160611037624 0.024714843982158421 0 0.025857160611037624 0.024714843982158421 0 0.026752661582385418 0.024465221375475993 0 0.027125540758589611 0.025294374640583012 0 0.025968477731362693 0.02417673936802222 0 0.026752661582385418 0.024465221375475993 0 0.027173942187704855 0.023823077941825532 0 0.026752661582385418 0.024465221375475993 0 0.027916928017932816 0.024252139073892034 0 0.027125540758589611 0.025294374640583012 0 0.026752661582385418 0.024465221375475993 0 0.027173942187704855 0.023823077941825532 0 0.027916928017932816 0.024252139073892034 0 0.025968477731362693 0.02417673936802222 0 0.027173942187704855 0.023823077941825532 0 0.026338238475692909 0.023611267392535121 0 0.02740393837591738 0.022977218077539371 0 0.027173942187704855 0.023823077941825532 0 0.026338238475692909 0.023611267392535121 0 0.02740393837591738 0.022977218077539371 0 0.027173942187704855 0.023823077941825532 0 0.02837760431982363 0.023452943940828263 0 0.029227859371158158 0.022848452971175111 0 0.02740393837591738 0.022977218077539371 0 0.02837760431982363 0.023452943940828263 0 0.029652584910798183 0.023490910057795644 0 0.029227859371158158 0.022848452971175111 0 0.02837760431982363 0.023452943940828263 0 0.029652584910798183 0.023490910057795644 0 0.02837760431982363 0.023452943940828263 0 0.027916928017932816 0.024252139073892034 0 0.029652584910798183 0.023490910057795644 0 0.027916928017932816 0.024252139073892034 0 0.028974478941552907 0.024756142392222132 0 0.027173942187704855 0.023823077941825532 0 0.02837760431982363 0.023452943940828263 0 0.027916928017932816 0.024252139073892034 0 0.028974478941552907 0.024756142392222132 0 0.027125540758589611 0.025294374640583012 0 0.028838046411423433 0.026069676669112252 0 0.027916928017932816 0.024252139073892034 0 0.028974478941552907 0.024756142392222132 0 0.027125540758589611 0.025294374640583012 0 0.030154954614554214 0.025137572478084062 0 0.028974478941552907 0.024756142392222132 0 0.028838046411423433 0.026069676669112252 0 0.027125540758589611 0.025294374640583012 0 0.027184308023687986 0.026260263235429824 0 0.028838046411423433 0.026069676669112252 0 0.027125540758589611 0.025294374640583012 0 0.027184308023687986 0.026260263235429824 0 0.026185877733425702 0.025699657062149182 0 0.027184308023687986 0.026260263235429824 0 0.028152155728107656 0.027439973599032788 0 0.028838046411423433 0.026069676669112252 0 0.027184308023687986 0.026260263235429824 0 0.028152155728107656 0.027439973599032788 0 0.02585434789177354 0.026837115998181501 0 0.035451387033317273 0.022334182532290432 0 0.024433852343826858 0.020989145795136336 0 0.03082073771704753 0.026665678379655684 0 0.028152155728107656 0.027439973599032788 0 0.028838046411423433 0.026069676669112252 0 0.033706278552641473 0.024593307489176458 0 0.035451387033317273 0.022334182532290432 0 0.038723442068641992 0.020274025015916217 0 0.035451387033317273 0.022334182532290432 0 0.040084551045274676 0.020068359757154638 0 0.040385566473823062 0.019035084261060615 0 0.039494365596890416 0.018737951520720986 0 0.038362431508725904 0.019891670343497168 0 0.040084551045274676 0.020068359757154638 0 0.039494365596890416 0.018737951520720986 0 0.03381143309833274 0.020467819975191148 0 0.028502205779124466 0.022655517861422926 0 0.026910016149844358 0.01913469026750526 0 0.040084551045274676 0.020068359757154638 0 0.040385566473823062 0.019035084261060615 0 0.041269102676893842 0.019501273092916539 0 0.035451387033317273 0.022334182532290432 0 0.029196699122014429 0.017992321565108261 0 0.040684594510121089 0.017809897214358137 0 0.040385566473823062 0.019035084261060615 0 0.041269102676893842 0.019501273092916539 0 0.040684594510121089 0.017809897214358137 0 0.040385566473823062 0.019035084261060615 0 0.039494365596890416 0.018737951520720986 0 0.032738246116570183 0.016908264051528767 0 0.029196699122014429 0.017992321565108261 0 0.039218308213962841 0.017322177738989468 0 0.040684594510121089 0.017809897214358137 0 0.039494365596890416 0.018737951520720986 0 0.022348885758065703 0.016753500492574555 0 0.024202550840305665 0.01604582081152757 0 0.02408289562584167 0.016000909423133543 0 0.024066991094782511 0.016087998695164814 0 0.024025580252712911 0.016177599206770536 0 0.02408289562584167 0.016000909423133543 0 0.024009763173573551 0.01598521817782847 0 0.024066991094782511 0.016087998695164814 0 0.023816232017810565 0.015854067258289629 0 0.024009763173573551 0.01598521817782847 0 0.02396679219724538 0.016178193228610461 0 0.02109467037016944 0.017135632077146856 0 0.0219032735473534 0.017469044110544139 0 0.022396282871857163 0.016585093847245408 0 0.029196699122014429 0.017992321565108261 0 0.022348885758065703 0.016753500492574555 0 0.024009763173573551 0.01598521817782847 0 0.02396679219724538 0.016178193228610461 0 0.024066991094782511 0.016087998695164814 0 0.029196699122014429 0.017992321565108261 0 0.024433852343826858 0.020989145795136336 0 0.02109467037016944 0.017135632077146856 0 0.0219032735473534 0.017469044110544139 0 0.021526581349126626 0.018205015558612432 0 0.022396282871857163 0.016585093847245408 0 0.023154928152653079 0.017693847316794444 0 0.022404659655005491 0.017803839434093433 0 0.022396282871857163 0.016585093847245408 0 0.023420558761114763 0.016872601768934625 0 0.024025580252712911 0.016177599206770536 0 0.0219032735473534 0.017469044110544139 0 0.022396282871857163 0.016585093847245408 0 0.022404659655005491 0.017803839434093433 0 0.022396282871857163 0.016585093847245408 0 0.023420558761114763 0.016872601768934625 0 0.023154928152653079 0.017693847316794444 0 0.022510067078799857 0.018520425655147412 0 0.021884759975243973 0.018283488479281018 0 0.021939745232678255 0.020086166734125083 0 0.023154928152653079 0.017693847316794444 0 0.022404659655005491 0.017803839434093433 0 0.022510067078799857 0.018520425655147412 0 0.0219032735473534 0.017469044110544139 0 0.022404659655005491 0.017803839434093433 0 0.021884759975243973 0.018283488479281018 0 0.022404659655005491 0.017803839434093433 0 0.022510067078799857 0.018520425655147412 0 0.021884759975243973 0.018283488479281018 0 0.023154928152653079 0.017693847316794444 0 0.022510067078799857 0.018520425655147412 0 0.023098645287931357 0.018903832023040239 0 0.021452976344738195 0.018192486295000847 0 0.021884759975243973 0.018283488479281018 0 0.021939745232678255 0.020086166734125083 0 0.027184308023687986 0.026260263235429824 0 0.02585434789177354 0.026837115998181501 0 0.026185877733425702 0.025699657062149182 0 0.0219032735473534 0.017469044110544139 0 0.021526581349126626 0.018205015558612432 0 0.021884759975243973 0.018283488479281018 0 0.024433852343826858 0.020989145795136336 0 0.022533026089711135 0.020093303932807113 0 0.025857160611037624 0.024714843982158421 0 0.026185877733425702 0.025699657062149182 0 0.025323690738867932 0.025299163208633815 0 0.024433852343826858 0.020989145795136336 0 0.023645858865328932 0.022994416705170991 0 0.02585434789177354 0.026837115998181501 0 0.026185877733425702 0.025699657062149182 0 0.025323690738867932 0.025299163208633815 0 0.025857160611037624 0.024714843982158421 0 0.027125540758589611 0.025294374640583012 0 0.026185877733425702 0.025699657062149182 0 0.023098645287931357 0.018903832023040239 0 0.021939745232678255 0.020086166734125083 0 0.023795272251121186 0.020472858988287924 0 0.022510067078799857 0.018520425655147412 0 0.023098645287931357 0.018903832023040239 0 0.021939745232678255 0.020086166734125083 0 0.023795272251121186 0.020472858988287924 0 0.02392441762077218 0.019085207356997647 0 0.024758780159008419 0.018935783321992864 0 0.023098645287931357 0.018903832023040239 0 0.023795272251121186 0.020472858988287924 0 0.02392441762077218 0.019085207356997647 0 0.024758780159008419 0.018935783321992864 0 0.025582741040080209 0.018731752198085615 0 0.025528235758044193 0.020721728981610017 0 0.023795272251121186 0.020472858988287924 0 0.024758780159008419 0.018935783321992864 0 0.025528235758044193 0.020721728981610017 0 0.024758780159008419 0.018935783321992864 0 0.025212138751994968 0.018007606773363813 0 0.025582741040080209 0.018731752198085615 0 0.024758780159008419 0.018935783321992864 0 0.024717694188640893 0.018053863981533778 0 0.025212138751994968 0.018007606773363813 0 0.024758780159008419 0.018935783321992864 0 0.024717694188640893 0.018053863981533778 0 0.024143208274321776 0.018094915172160497 0 0.024717694188640893 0.018053863981533778 0 0.025212138751994968 0.018007606773363813 0 0.024733803688453047 0.017252447871704851 0 0.024717694188640893 0.018053863981533778 0 0.024143208274321776 0.018094915172160497 0 0.024733803688453047 0.017252447871704851 0 0.025212138751994968 0.018007606773363813 0 0.024733803688453047 0.017252447871704851 0 0.025369701826337548 0.017336524173208443 0 0.023098645287931357 0.018903832023040239 0 0.02392441762077218 0.019085207356997647 0 0.024143208274321776 0.018094915172160497 0 0.02392441762077218 0.019085207356997647 0 0.024758780159008419 0.018935783321992864 0 0.024143208274321776 0.018094915172160497 0 0.023154928152653079 0.017693847316794444 0 0.023098645287931357 0.018903832023040239 0 0.024143208274321776 0.018094915172160497 0 0.023420558761114763 0.016872601768934625 0 0.023154928152653079 0.017693847316794444 0 0.024013272357966249 0.017081713148073191 0 0.023154928152653079 0.017693847316794444 0 0.024143208274321776 0.018094915172160497 0 0.024013272357966249 0.017081713148073191 0 0.023420558761114763 0.016872601768934625 0 0.024013272357966249 0.017081713148073191 0 0.024025580252712911 0.016177599206770536 0 0.024013272357966249 0.017081713148073191 0 0.024562858682368745 0.016612393652563336 0 0.024025580252712911 0.016177599206770536 0 0.024013272357966249 0.017081713148073191 0 0.024733803688453047 0.017252447871704851 0 0.024562858682368745 0.016612393652563336 0 0.024143208274321776 0.018094915172160497 0 0.024013272357966249 0.017081713148073191 0 0.024733803688453047 0.017252447871704851 0 0.024733803688453047 0.017252447871704851 0 0.025135874144522112 0.016656779042213733 0 0.025369701826337548 0.017336524173208443 0 0.024733803688453047 0.017252447871704851 0 0.025135874144522112 0.016656779042213733 0 0.024562858682368745 0.016612393652563336 0 0.025135874144522112 0.016656779042213733 0 0.024562858682368745 0.016612393652563336 0 0.024782500623694477 0.016105030258096092 0 0.025135874144522112 0.016656779042213733 0 0.024782500623694477 0.016105030258096092 0 0.025279847251142951 0.016206531611421437 0 0.025152391270475673 0.015911635732985277 0 0.024782500623694477 0.016105030258096092 0 0.025279847251142951 0.016206531611421437 0 0.024351294170345258 0.015815356183257846 0 0.024782500623694477 0.016105030258096092 0 0.024025580252712911 0.016177599206770536 0 0.024562858682368745 0.016612393652563336 0 0.024782500623694477 0.016105030258096092 0 0.024025580252712911 0.016177599206770536 0 0.024351294170345258 0.015815356183257846 0 0.02408289562584167 0.016000909423133543 0 0.024025580252712911 0.016177599206770536 0 0.025727398157569571 0.01649782916327255 0 0.025785134953051462 0.016128134058459049 0 0.025579262387440682 0.016196553667132157 0 0.025727398157569571 0.01649782916327255 0 0.025785134953051462 0.016128134058459049 0 0.025889576833489841 0.016455885743958874 0 0.02561347588014759 0.015969037121645688 0 0.025785134953051462 0.016128134058459049 0 0.025579262387440682 0.016196553667132157 0 0.02542214650543189 0.01593461551541852 0 0.025579262387440682 0.016196553667132157 0 0.025279847251142951 0.016206531611421437 0 0.025135874144522112 0.016656779042213733 0 0.025279847251142951 0.016206531611421437 0 0.025484752067294253 0.016480107392022141 0 0.025579262387440682 0.016196553667132157 0 0.025279847251142951 0.016206531611421437 0 0.025484752067294253 0.016480107392022141 0 0.025727398157569571 0.01649782916327255 0 0.025579262387440682 0.016196553667132157 0 0.025484752067294253 0.016480107392022141 0 0.025727398157569571 0.01649782916327255 0 0.025484752067294253 0.016480107392022141 0 0.025608573652512474 0.01691553354395875 0 0.025135874144522112 0.016656779042213733 0 0.025484752067294253 0.016480107392022141 0 0.025608573652512474 0.01691553354395875 0 0.025135874144522112 0.016656779042213733 0 0.025608573652512474 0.01691553354395875 0 0.025369701826337548 0.017336524173208443 0 0.025608573652512474 0.01691553354395875 0 0.025369701826337548 0.017336524173208443 0 0.025651082796968372 0.017467729051621559 0 0.025608573652512474 0.01691553354395875 0 0.025651082796968372 0.017467729051621559 0 0.025830000069202164 0.017297454813234029 0 0.025608573652512474 0.01691553354395875 0 0.025856117675070501 0.016830732213309389 0 0.025830000069202164 0.017297454813234029 0 0.025930646715714809 0.017141874785337657 0 0.025856117675070501 0.016830732213309389 0 0.025996939415922869 0.016725323938827905 0 0.025930646715714809 0.017141874785337657 0 0.025856117675070501 0.016830732213309389 0 0.025830000069202164 0.017297454813234029 0 0.025727398157569571 0.01649782916327255 0 0.025608573652512474 0.01691553354395875 0 0.025856117675070501 0.016830732213309389 0 0.025727398157569571 0.01649782916327255 0 0.025856117675070501 0.016830732213309389 0 0.025889576833489841 0.016455885743958874 0 0.025856117675070501 0.016830732213309389 0 0.025889576833489841 0.016455885743958874 0 0.025996939415922869 0.016725323938827905 0 0.025996939415922869 0.016725323938827905 0 0.026024501239903894 0.017749404467191105 0 0.026178898939628499 0.01843848859654755 0 0.025996939415922869 0.016725323938827905 0 0.025992926001693058 0.016752902356118225 0 0.025952926834561789 0.016666744161646211 0 0.026549997176833342 0.016018468734488065 0 0.025144174367938366 0.020089616795216446 0 0.025144174367938366 0.020089616795216446 0 0.024961308142047622 0.021240132503229595 0 0.024265174882226702 0.025221711020202708 0 0.024174093448420333 0.025283620335632098 0 0.024115545662255652 0.025585449342706137 0 0.024096264592812711 0.025263251862877697 0 0.024174093448420333 0.025283620335632098 0 0.024115545662255652 0.025585449342706137 0 0.025930646715714809 0.017141874785337657 0 0.026024501239903894 0.017749404467191105 0 0.025830000069202164 0.017297454813234029 0 0.025930646715714809 0.017141874785337657 0 0.025996939415922869 0.016725323938827905 0 0.026024501239903894 0.017749404467191105 0 0.025369701826337548 0.017336524173208443 0 0.025651082796968372 0.017467729051621559 0 0.025638771951007201 0.017888311958712075 0 0.025212138751994968 0.018007606773363813 0 0.025369701826337548 0.017336524173208443 0 0.025638771951007201 0.017888311958712075 0 0.025638771951007201 0.017888311958712075 0 0.025830914243355152 0.017702169608596132 0 0.02590894869366735 0.018044129041066399 0 0.025651082796968372 0.017467729051621559 0 0.025638771951007201 0.017888311958712075 0 0.025830914243355152 0.017702169608596132 0 0.025651082796968372 0.017467729051621559 0 0.025830914243355152 0.017702169608596132 0 0.025830000069202164 0.017297454813234029 0 0.026024501239903894 0.017749404467191105 0 0.025830914243355152 0.017702169608596132 0 0.02590894869366735 0.018044129041066399 0 0.026024501239903894 0.017749404467191105 0 0.025830914243355152 0.017702169608596132 0 0.025830000069202164 0.017297454813234029 0 0.026024501239903894 0.017749404467191105 0 0.02590894869366735 0.018044129041066399 0 0.026178898939628499 0.01843848859654755 0 0.02590894869366735 0.018044129041066399 0 0.025757367373866538 0.018266909910492131 0 0.026178898939628499 0.01843848859654755 0 0.025212138751994968 0.018007606773363813 0 0.025551252465801672 0.018220026573313754 0 0.025582741040080209 0.018731752198085615 0 0.025757367373866538 0.018266909910492131 0 0.025582741040080209 0.018731752198085615 0 0.026178898939628499 0.01843848859654755 0 0.025212138751994968 0.018007606773363813 0 0.025638771951007201 0.017888311958712075 0 0.025551252465801672 0.018220026573313754 0 0.025638771951007201 0.017888311958712075 0 0.025757367373866538 0.018266909910492131 0 0.025551252465801672 0.018220026573313754 0 0.025638771951007201 0.017888311958712075 0 0.02590894869366735 0.018044129041066399 0 0.025757367373866538 0.018266909910492131 0 0.025757367373866538 0.018266909910492131 0 0.025551252465801672 0.018220026573313754 0 0.025582741040080209 0.018731752198085615 0 0.024265174882226702 0.025221711020202708 0 0.024226288275249273 0.025000791065717676 0 0.024352902655892149 0.024715145107506314 0 0.025144174367938366 0.020089616795216446 0 0.024740381432662641 0.023090560831124551 0 0.025582741040080209 0.018731752198085615 0 0.026178898939628499 0.01843848859654755 0 0.025528235758044193 0.020721728981610017 0 0.024265174882226702 0.025221711020202708 0 0.024226288275249273 0.025000791065717676 0 0.024228141343034578 0.025199711502966644 0 0.024096264592812711 0.025263251862877697 0 0.024174093448420333 0.025283620335632098 0 0.024160883800396948 0.025128646237173119 0 0.024174093448420333 0.025283620335632098 0 0.024228141343034578 0.025199711502966644 0 0.024160883800396948 0.025128646237173119 0 0.024265174882226702 0.025221711020202708 0 0.024174093448420333 0.025283620335632098 0 0.024228141343034578 0.025199711502966644 0 0.024160883800396948 0.025128646237173119 0 0.024084537525773039 0.025027464289315161 0 0.024156028993075732 0.024978138720513035 0 0.024226288275249273 0.025000791065717676 0 0.024228141343034578 0.025199711502966644 0 0.024160883800396948 0.025128646237173119 0 0.024226288275249273 0.025000791065717676 0 0.024160883800396948 0.025128646237173119 0 0.024156028993075732 0.024978138720513035 0 0.024096264592812711 0.025263251862877697 0 0.024160883800396948 0.025128646237173119 0 0.024084537525773039 0.025027464289315161 0 0.024084537525773039 0.025027464289315161 0 0.024156028993075732 0.024978138720513035 0 0.024107188882840993 0.024835759912797285 0 0.024084537525773039 0.025027464289315161 0 0.024107188882840993 0.024835759912797285 0 0.024003236487541078 0.02490009954062428 0 0.024107188882840993 0.024835759912797285 0 0.024045914614113796 0.024723432462366132 0 0.024003236487541078 0.02490009954062428 0 0.024107188882840993 0.024835759912797285 0 0.024045914614113796 0.024723432462366132 0 0.024142729491083984 0.024622471654999159 0 0.024169990196652006 0.024490468620205662 0 0.024142729491083984 0.024622471654999159 0 0.024247270538609828 0.024381954178363217 0 0.024169990196652006 0.024490468620205662 0 0.024142729491083984 0.024622471654999159 0 0.024076129674166988 0.024608626212053238 0 0.024045914614113796 0.024723432462366132 0 0.024142729491083984 0.024622471654999159 0 0.024076129674166988 0.024608626212053238 0 0.024142729491083984 0.024622471654999159 0 0.024197983019116357 0.024759839172297727 0 0.024247270538609828 0.024381954178363217 0 0.024226288275249273 0.025000791065717676 0 0.024197983019116357 0.024759839172297727 0 0.024352902655892149 0.024715145107506314 0 0.024107188882840993 0.024835759912797285 0 0.024142729491083984 0.024622471654999159 0 0.024197983019116357 0.024759839172297727 0 0.024156028993075732 0.024978138720513035 0 0.024107188882840993 0.024835759912797285 0 0.024197983019116357 0.024759839172297727 0 0.024226288275249273 0.025000791065717676 0 0.024156028993075732 0.024978138720513035 0 0.024197983019116357 0.024759839172297727 0 0.024197983019116357 0.024759839172297727 0 0.024352902655892149 0.024715145107506314 0 0.024247270538609828 0.024381954178363217 0 0.024352902655892149 0.024715145107506314 0 0.024143366485128891 0.023622482831277582 0 0.024247270538609828 0.024381954178363217 0 0.024740381432662641 0.023090560831124551 0 0.024191795841985456 0.02352443166745747 0 0.025528235758044193 0.020721728981610017 0 0.023894691191249477 0.022012694879975456 0 0.024143366485128891 0.023622482831277582 0 0.022804178200284363 0.022730267576142112 0 0.023795272251121186 0.020472858988287924 0 0.023894691191249477 0.022012694879975456 0 0.023795272251121186 0.020472858988287924 0 0.025528235758044193 0.020721728981610017 0 0.023894691191249477 0.022012694879975456 0 0.023870011374028763 0.02349009656239277 0 0.024219499362910062 0.024200543802366595 0 0.022804178200284363 0.022730267576142112 0 0.024143366485128891 0.023622482831277582 0 0.024298464833068412 0.024308325402834511 0 0.022804178200284363 0.022730267576142112 0 0.023894691191249477 0.022012694879975456 0 0.024143366485128891 0.023622482831277582 0 0.024143366485128891 0.023622482831277582 0 0.024254278273296879 0.024317141214207125 0 0.024298464833068412 0.024308325402834511 0 0.024143366485128891 0.023622482831277582 0 0.024247270538609828 0.024381954178363217 0 0.024254278273296879 0.024317141214207125 0 0.024169990196652006 0.024490468620205662 0 0.024247270538609828 0.024381954178363217 0 0.024254278273296879 0.024317141214207125 0 0.024169990196652006 0.024490468620205662 0 0.024254278273296879 0.024317141214207125 0 0.024107695594332765 0.024503265193752191 0 0.024254278273296879 0.024317141214207125 0 0.024185634195674165 0.024391227276266757 0 0.024107695594332765 0.024503265193752191 0 0.024254278273296879 0.024317141214207125 0 0.024185634195674165 0.024391227276266757 0 0.024298464833068412 0.024308325402834511 0 0.024185634195674165 0.024391227276266757 0 0.024298464833068412 0.024308325402834511 0 0.024352924028016421 0.024219919009475222 0 0.024816739237745668 0.024013704207473389 0 0.024298464833068412 0.024308325402834511 0 0.024352924028016421 0.024219919009475222 0 0.024185634195674165 0.024391227276266757 0 0.024352924028016421 0.024219919009475222 0 0.024101128968232265 0.024454041904662157 0 0.024352924028016421 0.024219919009475222 0 0.02419594139468147 0.024375935110127266 0 0.024101128968232265 0.024454041904662157 0 0.02419594139468147 0.024375935110127266 0 0.024101128968232265 0.024454041904662157 0 0.02398256101086526 0.024576219171686876 0 0.024352924028016421 0.024219919009475222 0 0.02419594139468147 0.024375935110127266 0 0.024452136453838817 0.024201428734760499 0 0.024107695594332765 0.024503265193752191 0 0.024101128968232265 0.024454041904662157 0 0.023950728790766571 0.02463142326455325 0 0.024185634195674165 0.024391227276266757 0 0.024107695594332765 0.024503265193752191 0 0.024101128968232265 0.024454041904662157 0 0.024101128968232265 0.024454041904662157 0 0.023950728790766571 0.02463142326455325 0 0.02398256101086526 0.024576219171686876 0 0.024107695594332765 0.024503265193752191 0 0.023950728790766571 0.02463142326455325 0 0.024004987825238827 0.02463974486476847 0 0.023950728790766571 0.02463142326455325 0 0.024004987825238827 0.02463974486476847 0 0.023921035532326301 0.02474057313357636 0 0.024004987825238827 0.02463974486476847 0 0.023921035532326301 0.02474057313357636 0 0.023978582410599344 0.024734367119904566 0 0.023978582410599344 0.024734367119904566 0 0.023900884550857718 0.024878298212108386 0 0.023942016115476687 0.02486772110888737 0 0.023921035532326301 0.02474057313357636 0 0.023978582410599344 0.024734367119904566 0 0.023900884550857718 0.024878298212108386 0 0.024045914614113796 0.024723432462366132 0 0.023978582410599344 0.024734367119904566 0 0.02395508732178445 0.024834374895273612 0 0.024045914614113796 0.024723432462366132 0 0.023978582410599344 0.024734367119904566 0 0.024076129674166988 0.024608626212053238 0 0.024169990196652006 0.024490468620205662 0 0.024107695594332765 0.024503265193752191 0 0.024076129674166988 0.024608626212053238 0 0.024107695594332765 0.024503265193752191 0 0.024004987825238827 0.02463974486476847 0 0.024076129674166988 0.024608626212053238 0 0.024004987825238827 0.02463974486476847 0 0.023978582410599344 0.024734367119904566 0 0.024076129674166988 0.024608626212053238 0 0.023507490002286625 0.02523191521758485 0 0.023658561143812099 0.025359487516499187 0 0.02379892951155382 0.02489341928224386 0 0.023507490002286625 0.02523191521758485 0 0.02379892951155382 0.02489341928224386 0 0.02376279127103564 0.0248346027229659 0 0.023658561143812099 0.025359487516499187 0 0.023848411523089284 0.025125591080404137 0 0.023874880046952651 0.025604702015391625 0 0.023658561143812099 0.025359487516499187 0 0.023848411523089284 0.025125591080404137 0 0.02379892951155382 0.02489341928224386 0 0.023848411523089284 0.025125591080404137 0 0.023900884550857718 0.024878298212108386 0 0.02379892951155382 0.02489341928224386 0 0.023921035532326301 0.02474057313357636 0 0.023900884550857718 0.024878298212108386 0 0.02379892951155382 0.02489341928224386 0 0.023950728790766571 0.02463142326455325 0 0.02379892951155382 0.02489341928224386 0 0.02376279127103564 0.0248346027229659 0 0.023950728790766571 0.02463142326455325 0 0.023921035532326301 0.02474057313357636 0 0.02379892951155382 0.02489341928224386 0 0.023950728790766571 0.02463142326455325 0 0.02398256101086526 0.024576219171686876 0 0.02376279127103564 0.0248346027229659 0 0.02398256101086526 0.024576219171686876 0 0.02376279127103564 0.0248346027229659 0 0.023864344498005775 0.024716390631692904 0 0.024127780460931985 0.0244719262864171 0 0.024350564686497562 0.024363619192683809 0 0.024452136453838817 0.024201428734760499 0 0.02419594139468147 0.024375935110127266 0 0.024127780460931985 0.0244719262864171 0 0.024452136453838817 0.024201428734760499 0 0.02419594139468147 0.024375935110127266 0 0.02398256101086526 0.024576219171686876 0 0.024127780460931985 0.0244719262864171 0 0.024127780460931985 0.0244719262864171 0 0.024026389152764092 0.024602451208384252 0 0.023864344498005775 0.024716390631692904 0 0.02398256101086526 0.024576219171686876 0 0.024127780460931985 0.0244719262864171 0 0.023864344498005775 0.024716390631692904 0 0.024127780460931985 0.0244719262864171 0 0.024026389152764092 0.024602451208384252 0 0.024350564686497562 0.024363619192683809 0 0.024026389152764092 0.024602451208384252 0 0.023864344498005775 0.024716390631692904 0 0.023795291523899788 0.02482573509295458 0 0.023864344498005775 0.024716390631692904 0 0.023795291523899788 0.02482573509295458 0 0.023561360898321611 0.025051815269122767 0 0.023795291523899788 0.02482573509295458 0 0.023561360898321611 0.025051815269122767 0 0.023569693616899468 0.025067611398919987 0 0.024026389152764092 0.024602451208384252 0 0.023795291523899788 0.02482573509295458 0 0.024033771857517785 0.024658650016116005 0 0.023795291523899788 0.02482573509295458 0 0.023794966669097362 0.024878675770909908 0 0.024033771857517785 0.024658650016116005 0 0.02376279127103564 0.0248346027229659 0 0.023864344498005775 0.024716390631692904 0 0.023561360898321611 0.025051815269122767 0 0.023507490002286625 0.02523191521758485 0 0.02376279127103564 0.0248346027229659 0 0.023561360898321611 0.025051815269122767 0 0.023507490002286625 0.02523191521758485 0 0.023561360898321611 0.025051815269122767 0 0.023325658112586529 0.02537853655213446 0 0.023507490002286625 0.02523191521758485 0 0.023325658112586529 0.02537853655213446 0 0.023200985984425007 0.02569139419390714 0 0.023561360898321611 0.025051815269122767 0 0.023325658112586529 0.02537853655213446 0 0.023270412716763552 0.025396613748058648 0 0.023325658112586529 0.02537853655213446 0 0.023270412716763552 0.025396613748058648 0 0.022938395143888513 0.025891681837711841 0 0.023325658112586529 0.02537853655213446 0 0.022938395143888513 0.025891681837711841 0 0.023200985984425007 0.02569139419390714 0 0.023795291523899788 0.02482573509295458 0 0.023794966669097362 0.024878675770909908 0 0.023569693616899468 0.025067611398919987 0 0.023794966669097362 0.024878675770909908 0 0.023569693616899468 0.025067611398919987 0 0.023469725613972044 0.025188100396228121 0 0.023561360898321611 0.025051815269122767 0 0.023270412716763552 0.025396613748058648 0 0.023569693616899468 0.025067611398919987 0 0.023270412716763552 0.025396613748058648 0 0.023569693616899468 0.025067611398919987 0 0.023469725613972044 0.025188100396228121 0 0.023270412716763552 0.025396613748058648 0 0.023469725613972044 0.025188100396228121 0 0.023063647396997598 0.025642134315086267 0 0.023469725613972044 0.025188100396228121 0 0.023134164384326868 0.025554707685021355 0 0.023450523649713277 0.025232233182461872 0 0.023469725613972044 0.025188100396228121 0 0.023063647396997598 0.025642134315086267 0 0.023134164384326868 0.025554707685021355 0 0.023134164384326868 0.025554707685021355 0 0.022596435085399477 0.026313962854609317 0 0.022981672031601046 0.025707354747055391 0 0.023063647396997598 0.025642134315086267 0 0.023134164384326868 0.025554707685021355 0 0.022596435085399477 0.026313962854609317 0 0.023134164384326868 0.025554707685021355 0 0.022981672031601046 0.025707354747055391 0 0.023450523649713277 0.025232233182461872 0 0.023270412716763552 0.025396613748058648 0 0.023063647396997598 0.025642134315086267 0 0.022938395143888513 0.025891681837711841 0 0.023063647396997598 0.025642134315086267 0 0.022938395143888513 0.025891681837711841 0 0.022596435085399477 0.026313962854609317 0 0.022938395143888513 0.025891681837711841 0 0.022510582149893911 0.026780220355892333 0 0.022596435085399477 0.026313962854609317 0 0.023011390293341739 0.026305406131470057 0 0.02338233571325608 0.025744292313504766 0 0.023571922646450923 0.026433081542084565 0 0.023011390293341739 0.026305406131470057 0 0.022510582149893911 0.026780220355892333 0 0.022758687595711893 0.027117502727702563 0 0.022938395143888513 0.025891681837711841 0 0.023011390293341739 0.026305406131470057 0 0.022510582149893911 0.026780220355892333 0 0.023011390293341739 0.026305406131470057 0 0.023332248895586698 0.027191470096460942 0 0.022758687595711893 0.027117502727702563 0 0.022938395143888513 0.025891681837711841 0 0.023011390293341739 0.026305406131470057 0 0.023200985984425007 0.02569139419390714 0 0.023011390293341739 0.026305406131470057 0 0.023200985984425007 0.02569139419390714 0 0.02338233571325608 0.025744292313504766 0 0.023507490002286625 0.02523191521758485 0 0.023658561143812099 0.025359487516499187 0 0.02338233571325608 0.025744292313504766 0 0.023507490002286625 0.02523191521758485 0 0.023200985984425007 0.02569139419390714 0 0.02338233571325608 0.025744292313504766 0 0.023658561143812099 0.025359487516499187 0 0.023661221758278221 0.025831178579707154 0 0.023874880046952651 0.025604702015391625 0 0.023658561143812099 0.025359487516499187 0 0.02338233571325608 0.025744292313504766 0 0.023661221758278221 0.025831178579707154 0 0.02338233571325608 0.025744292313504766 0 0.023661221758278221 0.025831178579707154 0 0.023571922646450923 0.026433081542084565 0 0.023011390293341739 0.026305406131470057 0 0.023571922646450923 0.026433081542084565 0 0.023332248895586698 0.027191470096460942 0 0.023661221758278221 0.025831178579707154 0 0.023571922646450923 0.026433081542084565 0 0.024021811732923629 0.026255584979563203 0 0.023571922646450923 0.026433081542084565 0 0.023332248895586698 0.027191470096460942 0 0.023940393245719876 0.027120957458525153 0 0.023332248895586698 0.027191470096460942 0 0.023762921906018319 0.028178633403319421 0 0.023940393245719876 0.027120957458525153 0 0.023332248895586698 0.027191470096460942 0 0.022957611371223818 0.028376119020759229 0 0.022758687595711893 0.027117502727702563 0 0.023332248895586698 0.027191470096460942 0 0.022957611371223818 0.028376119020759229 0 0.023762921906018319 0.028178633403319421 0 0.022510582149893911 0.026780220355892333 0 0.022758687595711893 0.027117502727702563 0 0.022261892265161912 0.028030221705260577 0 0.022957611371223818 0.028376119020759229 0 0.022758687595711893 0.027117502727702563 0 0.022261892265161912 0.028030221705260577 0 0.022510582149893911 0.026780220355892333 0 0.022261892265161912 0.028030221705260577 0 0.021930484830955718 0.027421233290754826 0 0.022261892265161912 0.028030221705260577 0 0.021766640852770736 0.031595288727017869 0 0.021930484830955718 0.027421233290754826 0 0.021766640852770736 0.031595288727017869 0 0.020554205707684077 0.033361122948342412 0 0.020124863704420931 0.034333661096280776 0 0.022042719719882368 0.031746623778914469 0 0.021310088081569069 0.030963188001875367 0 0.022957611371223818 0.028376119020759229 0 0.022261892265161912 0.028030221705260577 0 0.021766640852770736 0.031595288727017869 0 0.022957611371223818 0.028376119020759229 0 0.023762921906018319 0.028178633403319421 0 0.023447216406806928 0.0297843709624406 0 0.023762921906018319 0.028178633403319421 0 0.023447216406806928 0.0297843709624406 0 0.02430235391304577 0.029074416497271282 0 0.022957611371223818 0.028376119020759229 0 0.021766640852770736 0.031595288727017869 0 0.023447216406806928 0.0297843709624406 0 0.021766640852770736 0.031595288727017869 0 0.023447216406806928 0.0297843709624406 0 0.023873821603520386 0.031372318664443698 0 0.023447216406806928 0.0297843709624406 0 0.023873821603520386 0.031372318664443698 0 0.02430235391304577 0.029074416497271282 0 0.021766640852770736 0.031595288727017869 0 0.023873821603520386 0.031372318664443698 0 0.020200411195962501 0.034662310918616261 0 0.01822752850277029 0.03545612336979112 0 0.020200411195962501 0.034662310918616261 0 0.019223459833509482 0.035092611517265775 0 0.01822752850277029 0.03545612336979112 0 0.018285285268486672 0.035999527306137404 0 0.020200411195962501 0.034662310918616261 0 0.021308561701428117 0.033604439592877011 0 0.019883898263922759 0.034515258981945851 0 0.021766640852770736 0.031595288727017869 0 0.020554205707684077 0.033361122948342412 0 0.020200411195962501 0.034662310918616261 0 0.020200411195962501 0.034662310918616261 0 0.019793478987785579 0.035014268469726439 0 0.020374692847451338 0.034676709489984053 0 0.020554205707684077 0.033361122948342412 0 0.020200411195962501 0.034662310918616261 0 0.020278347130167428 0.034027282456762092 0 0.020200411195962501 0.034662310918616261 0 0.019223459833509482 0.035092611517265775 0 0.019793478987785579 0.035014268469726439 0 0.019223459833509482 0.035092611517265775 0 0.019793478987785579 0.035014268469726439 0 0.018608406103851036 0.034998972009248917 0 0.019793478987785579 0.035014268469726439 0 0.018608406103851036 0.034998972009248917 0 0.020374859507274537 0.034999525554291887 0 0.01822752850277029 0.03545612336979112 0 0.018608406103851036 0.034998972009248917 0 0.016840070278922217 0.034999578644519087 0 0.01822752850277029 0.03545612336979112 0 0.019223459833509482 0.035092611517265775 0 0.018608406103851036 0.034998972009248917 0 0.02129097547057247 0.034752672644211141 0 0.020374859507274537 0.034999525554291887 0 0.022139929425189733 0.034997535310863415 0 0.02129097547057247 0.034752672644211141 0 0.020374859507274537 0.034999525554291887 0 0.020374692847451338 0.034676709489984053 0 0.019793478987785579 0.035014268469726439 0 0.020374859507274537 0.034999525554291887 0 0.020374692847451338 0.034676709489984053 0 0.020374692847451338 0.034676709489984053 0 0.020278347130167428 0.034027282456762092 0 0.020454812056660804 0.034444030180881928 0 0.020200411195962501 0.034662310918616261 0 0.020374692847451338 0.034676709489984053 0 0.020278347130167428 0.034027282456762092 0 0.020374692847451338 0.034676709489984053 0 0.021359609558223948 0.034465926298872504 0 0.020454812056660804 0.034444030180881928 0 0.02129097547057247 0.034752672644211141 0 0.020374692847451338 0.034676709489984053 0 0.021359609558223948 0.034465926298872504 0 0.02129097547057247 0.034752672644211141 0 0.021359609558223948 0.034465926298872504 0 0.022096928126669722 0.034543647211687262 0 0.020526599346333132 0.03462066755798409 0 0.021650846385247537 0.035853576980380129 0 0.021856682488639648 0.034918198031280497 0 0.020454812056660804 0.034444030180881928 0 0.022061858157650459 0.037117991900898761 0 0.021359609558223948 0.034465926298872504 0 0.021856682488639648 0.034918198031280497 0 0.020454812056660804 0.034444030180881928 0 0.020554205707684077 0.033361122948342412 0 0.020278347130167428 0.034027282456762092 0 0.020124863704420931 0.034333661096280776 0 0.020278347130167428 0.034027282456762092 0 0.020454812056660804 0.034444030180881928 0 0.020124863704420931 0.034333661096280776 0 0.021310088081569069 0.030963188001875367 0 0.021888460553203599 0.030300894347341387 0 0.020454812056660804 0.034444030180881928 0 0.020124863704420931 0.034333661096280776 0 0.02075116180058291 0.034763752386025068 0 0.021930484830955718 0.027421233290754826 0 0.022596435085399477 0.026313962854609317 0 0.022981672031601046 0.025707354747055391 0 0.022510582149893911 0.026780220355892333 0 0.021930484830955718 0.027421233290754826 0 0.022596435085399477 0.026313962854609317 0 0.020454812056660804 0.034444030180881928 0 0.02075116180058291 0.034763752386025068 0 0.021013376514572805 0.03454334784143967 0 0.02075116180058291 0.034763752386025068 0 0.02119187781421886 0.034854763330921926 0 0.021013376514572805 0.03454334784143967 0 0.021650846385247537 0.035853576980380129 0 0.024050403060957445 0.037670535845220621 0 0.021013376514572805 0.03454334784143967 0 0.02217196952849176 0.035076112653421122 0 0.0215109913269706 0.034948194145901078 0 0.02119187781421886 0.034854763330921926 0 0.021013376514572805 0.03454334784143967 0 0.0215109913269706 0.034948194145901078 0 0.024765292194187407 0.03787997201500598 0 0.022061858157650459 0.037117991900898761 0 0.026003634951130894 0.040522049436880508 0 0.024765292194187407 0.03787997201500598 0 0.022061858157650459 0.037117991900898761 0 0.024012441651472632 0.035788240553650291 0 0.027774534811190587 0.039009248648714988 0 0.026369493435239592 0.038557456320888264 0 0.02690883236843845 0.036889285401122282 0 0.027774534811190587 0.039009248648714988 0 0.02690883236843845 0.036889285401122282 0 0.029615192756014697 0.03765480608124059 0 0.024765292194187407 0.03787997201500598 0 0.026369493435239592 0.038557456320888264 0 0.02690883236843845 0.036889285401122282 0 0.024765292194187407 0.03787997201500598 0 0.026369493435239592 0.038557456320888264 0 0.026003634951130894 0.040522049436880508 0 0.024765292194187407 0.03787997201500598 0 0.02690883236843845 0.036889285401122282 0 0.024012441651472632 0.035788240553650291 0 0.026389095168807036 0.03463122327348802 0 0.022689460602102314 0.034096794964130754 0 0.02895232794572496 0.031573025107335256 0 0.02690883236843845 0.036889285401122282 0 0.026389095168807036 0.03463122327348802 0 0.029931712401627928 0.034650094564915933 0 0.02690883236843845 0.036889285401122282 0 0.026389095168807036 0.03463122327348802 0 0.024012441651472632 0.035788240553650291 0 0.026389095168807036 0.03463122327348802 0 0.02895232794572496 0.031573025107335256 0 0.029931712401627928 0.034650094564915933 0 0.021856682488639648 0.034918198031280497 0 0.022061858157650459 0.037117991900898761 0 0.024012441651472632 0.035788240553650291 0 0.026389095168807036 0.03463122327348802 0 0.024012441651472632 0.035788240553650291 0 0.022689460602102314 0.034096794964130754 0 0.021359609558223948 0.034465926298872504 0 0.021856682488639648 0.034918198031280497 0 0.022689460602102314 0.034096794964130754 0 0.021856682488639648 0.034918198031280497 0 0.024012441651472632 0.035788240553650291 0 0.022689460602102314 0.034096794964130754 0 0.021359609558223948 0.034465926298872504 0 0.022689460602102314 0.034096794964130754 0 0.022096928126669722 0.034543647211687262 0 0.022689460602102314 0.034096794964130754 0 0.022394549809991973 0.034479616905911059 0 0.022096928126669722 0.034543647211687262 0 0.023062662529005504 0.033906183363384051 0 0.025825543891269887 0.03330854324058876 0 0.022689460602102314 0.034096794964130754 0 0.022394549809991973 0.034479616905911059 0 0.022587707241375956 0.034805466072934332 0 0.022573932555598888 0.034438163191750727 0 0.022394549809991973 0.034479616905911059 0 0.022426392136986495 0.034180897566319625 0 0.022573932555598888 0.034438163191750727 0 0.022394549809991973 0.034479616905911059 0 0.022587707241375956 0.034805466072934332 0 0.023341324572190063 0.034918174176103843 0 0.02214159456571255 0.034999876965465422 0 0.023849623104025691 0.035580231522875282 0 0.023846975059805799 0.03499997614840946 0 0.022141469513377067 0.0350000080663102 0 0.022394549809991973 0.034479616905911059 0 0.022426392136986495 0.034180897566319625 0 0.022096928126669722 0.034543647211687262 0 0.022426392136986495 0.034180897566319625 0 0.022139929425189733 0.034997535310863415 0 0.022096928126669722 0.034543647211687262 0 0.02129097547057247 0.034752672644211141 0 0.022139929425189733 0.034997535310863415 0 0.022096928126669722 0.034543647211687262 0 0.025971152155235936 0.035563927459020254 0 0.025561337704989442 0.036146859449267557 0 0.026718166586053721 0.035843906273932795 0 0.025971152155235936 0.035563927459020254 0 0.024912329653039585 0.035493386785157267 0 0.025561337704989442 0.036146859449267557 0 0.025971152155235936 0.035563927459020254 0 0.025552424559990419 0.03500003720270764 0 0.024912329653039585 0.035493386785157267 0 0.023341324572190063 0.034918174176103843 0 0.024128326529377377 0.035221170403285429 0 0.022426392136986495 0.034180897566319625 0 0.023123907966054662 0.034435380047620326 0 0.024109903633998692 0.034051647798719817 0 0.023846975059805799 0.03499997614840946 0 0.025552424559990419 0.03500003720270764 0 0.024912329653039585 0.035493386785157267 0 0.023849623104025691 0.035580231522875282 0 0.024912329653039585 0.035493386785157267 0 0.025561337704989442 0.036146859449267557 0 0.023849623104025691 0.035580231522875282 0 0.023846975059805799 0.03499997614840946 0 0.024912329653039585 0.035493386785157267 0 0.023123907966054662 0.034435380047620326 0 0.022587707241375956 0.034805466072934332 0 0.024325688921799617 0.035095355385367746 0 0.025825543891269887 0.03330854324058876 0 0.029580726678503949 0.033140486447224241 0 0.02895232794572496 0.031573025107335256 0 0.034805094595351846 0.031271507365676021 0 0.033255343978771827 0.032848160020872132 0 0.022573932555598888 0.034438163191750727 0 0.022426392136986495 0.034180897566319625 0 0.023123907966054662 0.034435380047620326 0 0.022573932555598888 0.034438163191750727 0 0.023123907966054662 0.034435380047620326 0 0.022587707241375956 0.034805466072934332 0 0.024325688921799617 0.035095355385367746 0 0.024109903633998692 0.034051647798719817 0 0.027054593943526838 0.034810559723476665 0 0.023123907966054662 0.034435380047620326 0 0.024325688921799617 0.035095355385367746 0 0.024109903633998692 0.034051647798719817 0 0.034805094595351846 0.031271507365676021 0 0.035098378059008839 0.032409818849764259 0 0.035560520329654399 0.032120615886522319 0 0.033422675880083318 0.03289655152917189 0 0.03402686461503248 0.035055109497120963 0 0.034805094595351846 0.031271507365676021 0 0.035098378059008839 0.032409818849764259 0 0.033255343978771827 0.032848160020872132 0 0.035098378059008839 0.032409818849764259 0 0.033255343978771827 0.032848160020872132 0 0.035395203567233142 0.0326942265316785 0 0.035098378059008839 0.032409818849764259 0 0.035395203567233142 0.0326942265316785 0 0.035674464341908935 0.032459735161696091 0 0.033255343978771827 0.032848160020872132 0 0.029931712401627928 0.034650094564915933 0 0.032782046805887144 0.038207644485068658 0 0.02895232794572496 0.031573025107335256 0 0.033255343978771827 0.032848160020872132 0 0.029931712401627928 0.034650094564915933 0 0.02690883236843845 0.036889285401122282 0 0.029931712401627928 0.034650094564915933 0 0.029615192756014697 0.03765480608124059 0 0.029931712401627928 0.034650094564915933 0 0.029615192756014697 0.03765480608124059 0 0.032782046805887144 0.038207644485068658 0 0.029615192756014697 0.03765480608124059 0 0.032782046805887144 0.038207644485068658 0 0.029773431465508073 0.039711402847494442 0 0.027774534811190587 0.039009248648714988 0 0.029615192756014697 0.03765480608124059 0 0.029773431465508073 0.039711402847494442 0 0.035395203567233142 0.0326942265316785 0 0.035571773361366785 0.032640085547058058 0 0.035990284091007269 0.03235987751873666 0 0.035395203567233142 0.0326942265316785 0 0.035990284091007269 0.03235987751873666 0 0.035877980114562863 0.032455779245122864 0 0.033255343978771827 0.032848160020872132 0 0.035395203567233142 0.0326942265316785 0 0.035571773361366785 0.032640085547058058 0 0.03402686461503248 0.035055109497120963 0 0.03466090946682529 0.037695509919713439 0 0.032782046805887144 0.038207644485068658 0 0.032504469685217183 0.041899464601708826 0 0.030899677952073816 0.04128334745651583 0 0.035571773361366785 0.032640085547058058 0 0.035990284091007269 0.03235987751873666 0 0.036207490590676246 0.032227117994391034 0 0.035990284091007269 0.03235987751873666 0 0.036405429606452329 0.032121539317738444 0 0.0363665435605251 0.031973813293679904 0 0.035990284091007269 0.03235987751873666 0 0.036207490590676246 0.032227117994391034 0 0.036405429606452329 0.032121539317738444 0 0.036451461181261573 0.031793851376545258 0 0.036958541908863371 0.032401440651591645 0 0.032504469685217183 0.041899464601708826 0 0.031407778015767718 0.042619086524322003 0 0.032732024459676566 0.044513365438423769 0 0.036405429606452329 0.032121539317738444 0 0.036326104515528583 0.032582782171174933 0 0.036531184955759501 0.03290656427073655 0 0.036207490590676246 0.032227117994391034 0 0.036326104515528583 0.032582782171174933 0 0.036195026708540599 0.033068189807104138 0 0.03466090946682529 0.037695509919713439 0 0.030160438991795505 0.03591811637710586 0 0.036207490590676246 0.032227117994391034 0 0.036405429606452329 0.032121539317738444 0 0.036326104515528583 0.032582782171174933 0 0.036326104515528583 0.032582782171174933 0 0.036195026708540599 0.033068189807104138 0 0.036531184955759501 0.03290656427073655 0 0.023531615651612384 0.036384478823185878 0 0.023711896804070605 0.036071602516966512 0 0.025310657501604376 0.037114865606939142 0 0.023936182200203535 0.030416950428711984 0 0.026887736199500179 0.029621258126300089 0 0.02698031188285558 0.040085991327283459 0 0.030160438991795505 0.03591811637710586 0 0.031407778015767718 0.042619086524322003 0 0.030137320713622046 0.042914915786590076 0 0.032732024459676566 0.044513365438423769 0 0.024837313390962824 0.024278851838837764 0 0.025015702861674819 0.02418077370069684 0 0.024873553095257555 0.024271889160241585 0 0.024837313390962824 0.024278851838837764 0 0.024700796538686603 0.024361516809621914 0 0.024873553095257555 0.024271889160241585 0 0.031407778015767718 0.042619086524322003 0 0.030652202289414381 0.042256225411401747 0 0.030899677952073816 0.04128334745651583 0 0.031407778015767718 0.042619086524322003 0 0.030652202289414381 0.042256225411401747 0 0.030137320713622046 0.042914915786590076 0 0.030652202289414381 0.042256225411401747 0 0.030137320713622046 0.042914915786590076 0 0.030129464482338997 0.0420545339227332 0 0.030137320713622046 0.042914915786590076 0 0.029254913687443415 0.041563885582873397 0 0.030129464482338997 0.0420545339227332 0 0.029254913687443415 0.041563885582873397 0 0.030129464482338997 0.0420545339227332 0 0.030899677952073816 0.04128334745651583 0 0.029254913687443415 0.041563885582873397 0 0.030899677952073816 0.04128334745651583 0 0.029773431465508073 0.039711402847494442 0 0.032782046805887144 0.038207644485068658 0 0.030899677952073816 0.04128334745651583 0 0.029773431465508073 0.039711402847494442 0 0.032504469685217183 0.041899464601708826 0 0.031407778015767718 0.042619086524322003 0 0.030899677952073816 0.04128334745651583 0 0.030652202289414381 0.042256225411401747 0 0.030129464482338997 0.0420545339227332 0 0.030899677952073816 0.04128334745651583 0 0.029254913687443415 0.041563885582873397 0 0.029773431465508073 0.039711402847494442 0 0.028211313440682811 0.040208310871612384 0 0.027774534811190587 0.039009248648714988 0 0.028211313440682811 0.040208310871612384 0 0.026003634951130894 0.040522049436880508 0 0.027774534811190587 0.039009248648714988 0 0.029773431465508073 0.039711402847494442 0 0.028211313440682811 0.040208310871612384 0 0.029254913687443415 0.041563885582873397 0 0.028211313440682811 0.040208310871612384 0 0.026003634951130894 0.040522049436880508 0 0.02698031188285558 0.040085991327283459 0 0.024050403060957445 0.037670535845220621 0 0.030137320713622046 0.042914915786590076 0 0.029254913687443415 0.041563885582873397 0 0.026003634951130894 0.040522049436880508 0 0.023711896804070605 0.036071602516966512 0 0.02217196952849176 0.035076112653421122 0 0.021819379803727914 0.035468583473422688 0 0.027774534811190587 0.039009248648714988 0 0.026369493435239592 0.038557456320888264 0 0.026003634951130894 0.040522049436880508 0 0.021888460553203599 0.030300894347341387 0 0.022982964151476798 0.030159488045556064 0 0.022981672031601046 0.025707354747055391 0 0.02395260464223244 0.024749188237651428 0 0.023450523649713277 0.025232233182461872 0 0.02075116180058291 0.034763752386025068 0 0.02119187781421886 0.034854763330921926 0 0.021819379803727914 0.035468583473422688 0 0.02119187781421886 0.034854763330921926 0 0.0215109913269706 0.034948194145901078 0 0.021819379803727914 0.035468583473422688 0 0.02217196952849176 0.035076112653421122 0 0.0215109913269706 0.034948194145901078 0 0.021819379803727914 0.035468583473422688 0 0.02395260464223244 0.024749188237651428 0 0.023450523649713277 0.025232233182461872 0 0.023740849156251943 0.024957601528398644 0 0.023469725613972044 0.025188100396228121 0 0.023450523649713277 0.025232233182461872 0 0.023740849156251943 0.024957601528398644 0 0.023469725613972044 0.025188100396228121 0 0.023740849156251943 0.024957601528398644 0 0.023872619441652032 0.024852137883034871 0 0.023794966669097362 0.024878675770909908 0 0.023469725613972044 0.025188100396228121 0 0.023872619441652032 0.024852137883034871 0 0.02395260464223244 0.024749188237651428 0 0.023740849156251943 0.024957601528398644 0 0.024040171713561514 0.02474359818274291 0 0.023740849156251943 0.024957601528398644 0 0.023872619441652032 0.024852137883034871 0 0.024040171713561514 0.02474359818274291 0 0.023872619441652032 0.024852137883034871 0 0.024040171713561514 0.02474359818274291 0 0.024115426158203269 0.024684783176195664 0 0.023872619441652032 0.024852137883034871 0 0.024115426158203269 0.024684783176195664 0 0.024079331151287214 0.024679014967243465 0 0.024040171713561514 0.02474359818274291 0 0.024115426158203269 0.024684783176195664 0 0.02430208179617899 0.024575760035655262 0 0.024115426158203269 0.024684783176195664 0 0.02430208179617899 0.024575760035655262 0 0.024330793998260186 0.024532874475222264 0 0.024115426158203269 0.024684783176195664 0 0.024079331151287214 0.024679014967243465 0 0.024330793998260186 0.024532874475222264 0 0.023794966669097362 0.024878675770909908 0 0.023872619441652032 0.024852137883034871 0 0.024079331151287214 0.024679014967243465 0 0.024837313390962824 0.024278851838837764 0 0.02395260464223244 0.024749188237651428 0 0.02432930960184243 0.024563291426132679 0 0.023936182200203535 0.030416950428711984 0 0.022982964151476798 0.030159488045556064 0 0.023531615651612384 0.036384478823185878 0 0.023711896804070605 0.036071602516966512 0 0.021819379803727914 0.035468583473422688 0 0.024040171713561514 0.02474359818274291 0 0.02432930960184243 0.024563291426132679 0 0.02430208179617899 0.024575760035655262 0 0.02395260464223244 0.024749188237651428 0 0.024040171713561514 0.02474359818274291 0 0.02432930960184243 0.024563291426132679 0 0.02432930960184243 0.024563291426132679 0 0.02430208179617899 0.024575760035655262 0 0.02452544738944067 0.024453836955394589 0 0.02430208179617899 0.024575760035655262 0 0.024535368254630908 0.024434349989407047 0 0.024330793998260186 0.024532874475222264 0 0.02430208179617899 0.024575760035655262 0 0.02452544738944067 0.024453836955394589 0 0.024535368254630908 0.024434349989407047 0 0.024837313390962824 0.024278851838837764 0 0.02452544738944067 0.024453836955394589 0 0.024700796538686603 0.024361516809621914 0 0.02452544738944067 0.024453836955394589 0 0.024700796538686603 0.024361516809621914 0 0.024535368254630908 0.024434349989407047 0 0.024837313390962824 0.024278851838837764 0 0.02432930960184243 0.024563291426132679 0 0.02452544738944067 0.024453836955394589 0 0.024769733870809295 0.024303236187456074 0 0.024535368254630908 0.024434349989407047 0 0.024603031001723952 0.024347520381598282 0 0.024700796538686603 0.024361516809621914 0 0.024769733870809295 0.024303236187456074 0 0.024873553095257555 0.024271889160241585 0 0.024700796538686603 0.024361516809621914 0 0.024769733870809295 0.024303236187456074 0 0.024535368254630908 0.024434349989407047 0 0.024535368254630908 0.024434349989407047 0 0.024603031001723952 0.024347520381598282 0 0.024330793998260186 0.024532874475222264 0 0.024603031001723952 0.024347520381598282 0 0.024902546604475273 0.02416121773597946 0 0.02468890755257425 0.02420547648154648 0 0.024603031001723952 0.024347520381598282 0 0.024351446434090797 0.024452987111724184 0 0.02468890755257425 0.02420547648154648 0 0.024769733870809295 0.024303236187456074 0 0.024603031001723952 0.024347520381598282 0 0.024902546604475273 0.02416121773597946 0 0.024769733870809295 0.024303236187456074 0 0.024902546604475273 0.02416121773597946 0 0.025007909470828666 0.024162540437328309 0 0.024079331151287214 0.024679014967243465 0 0.024033771857517785 0.024658650016116005 0 0.024351446434090797 0.024452987111724184 0 0.023794966669097362 0.024878675770909908 0 0.024079331151287214 0.024679014967243465 0 0.024033771857517785 0.024658650016116005 0 0.024079331151287214 0.024679014967243465 0 0.024330793998260186 0.024532874475222264 0 0.024351446434090797 0.024452987111724184 0 0.024603031001723952 0.024347520381598282 0 0.024330793998260186 0.024532874475222264 0 0.024351446434090797 0.024452987111724184 0 0.024351446434090797 0.024452987111724184 0 0.024350564686497562 0.024363619192683809 0 0.02468890755257425 0.02420547648154648 0 0.024026389152764092 0.024602451208384252 0 0.024033771857517785 0.024658650016116005 0 0.024350564686497562 0.024363619192683809 0 0.024033771857517785 0.024658650016116005 0 0.024351446434090797 0.024452987111724184 0 0.024350564686497562 0.024363619192683809 0 0.024350564686497562 0.024363619192683809 0 0.024860948652420143 0.023965246605267831 0 0.02468890755257425 0.02420547648154648 0 0.024350564686497562 0.024363619192683809 0 0.024860948652420143 0.023965246605267831 0 0.024452136453838817 0.024201428734760499 0 0.024902546604475273 0.02416121773597946 0 0.025106087328612737 0.023923437610218146 0 0.025161654831671914 0.02400450458736263 0 0.024902546604475273 0.02416121773597946 0 0.025106087328612737 0.023923437610218146 0 0.02468890755257425 0.02420547648154648 0 0.024860948652420143 0.023965246605267831 0 0.025106087328612737 0.023923437610218146 0 0.02468890755257425 0.02420547648154648 0 0.025334253025165759 0.023632328135290908 0 0.024860948652420143 0.023965246605267831 0 0.025106087328612737 0.023923437610218146 0 0.025334253025165759 0.023632328135290908 0 0.025106087328612737 0.023923437610218146 0 0.025455559587173385 0.02368733827496327 0 0.025106087328612737 0.023923437610218146 0 0.025455559587173385 0.02368733827496327 0 0.025161654831671914 0.02400450458736263 0 0.025455559587173385 0.02368733827496327 0 0.025161654831671914 0.02400450458736263 0 0.025200584998450574 0.024014091884091447 0 0.025455559587173385 0.02368733827496327 0 0.025404086473562924 0.023707641505488732 0 0.025200584998450574 0.024014091884091447 0 0.026025529540449489 0.022930301185543352 0 0.025455559587173385 0.02368733827496327 0 0.025404086473562924 0.023707641505488732 0 0.026025529540449489 0.022930301185543352 0 0.025404086473562924 0.023707641505488732 0 0.025162439820225133 0.023515038352575353 0 0.025404086473562924 0.023707641505488732 0 0.025162439820225133 0.023515038352575353 0 0.025148280888008905 0.023937739841016645 0 0.025162439820225133 0.023515038352575353 0 0.024909861783630582 0.023840111102542579 0 0.024833246273930017 0.023516634823189209 0 0.025162439820225133 0.023515038352575353 0 0.025148280888008905 0.023937739841016645 0 0.024909861783630582 0.023840111102542579 0 0.025404086473562924 0.023707641505488732 0 0.025148280888008905 0.023937739841016645 0 0.025200584998450574 0.024014091884091447 0 0.025118763906575144 0.024117549570183503 0 0.025015702861674819 0.02418077370069684 0 0.025200584998450574 0.024014091884091447 0 0.025148280888008905 0.023937739841016645 0 0.025118763906575144 0.024117549570183503 0 0.025200584998450574 0.024014091884091447 0 0.023531615651612384 0.036384478823185878 0 0.025345236436808759 0.037296575167455784 0 0.025310657501604376 0.037114865606939142 0 0.025276387122034893 0.022948411918114624 0 0.026887736199500179 0.029621258126300089 0 0.025148280888008905 0.023937739841016645 0 0.025251011249988381 0.024487230549267172 0 0.024794212478642799 0.024140997267485493 0 0.026887736199500179 0.029621258126300089 0 0.031734108083072282 0.029949601127556909 0 0.029302501057807614 0.030958780998331194 0 0.029263237826241982 0.030715194637001043 0 0.030559837408712376 0.031675172873886798 0 0.030160438991795505 0.03591811637710586 0 0.031734108083072282 0.029949601127556909 0 0.036195026708540599 0.033068189807104138 0 0.036486616731042455 0.033194246569615497 0 0.036531184955759501 0.03290656427073655 0 0.026887736199500179 0.029621258126300089 0 0.030160438991795505 0.03591811637710586 0 0.024837313390962824 0.024278851838837764 0 0.025118763906575144 0.024117549570183503 0 0.025015702861674819 0.02418077370069684 0 0.024769733870809295 0.024303236187456074 0 0.024873553095257555 0.024271889160241585 0 0.025007909470828666 0.024162540437328309 0 0.025015702861674819 0.02418077370069684 0 0.024873553095257555 0.024271889160241585 0 0.025007909470828666 0.024162540437328309 0 0.024902546604475273 0.02416121773597946 0 0.025161654831671914 0.02400450458736263 0 0.025007909470828666 0.024162540437328309 0 0.025161654831671914 0.02400450458736263 0 0.025007909470828666 0.024162540437328309 0 0.025200584998450574 0.024014091884091447 0 0.025015702861674819 0.02418077370069684 0 0.025007909470828666 0.024162540437328309 0 0.025200584998450574 0.024014091884091447 0 0.036677581472602687 0.029918021324627533 0 0.036109414946659715 0.030009236132117197 0 0.036234674962544365 0.030506560149963228 0 0.036677581472602687 0.029918021324627533 0 0.036883726386799306 0.030417074342257419 0 0.036967583940473503 0.029955048492938202 0 0.036677581472602687 0.029918021324627533 0 0.036967583940473503 0.029955048492938202 0 0.036943048437804681 0.029601777844649024 0 0.036677581472602687 0.029918021324627533 0 0.036520884766934859 0.030571320284864586 0 0.036234674962544365 0.030506560149963228 0 0.036520884766934859 0.030571320284864586 0 0.036883726386799306 0.030417074342257419 0 0.036538720820783827 0.031025925094481939 0 0.036677581472602687 0.029918021324627533 0 0.036520884766934859 0.030571320284864586 0 0.036883726386799306 0.030417074342257419 0 0.036883726386799306 0.030417074342257419 0 0.036538720820783827 0.031025925094481939 0 0.037093033543431131 0.030887850235269364 0 0.034032268284320467 0.028972678424149637 0 0.036958541908863371 0.032401440651591645 0 0.036883726386799306 0.030417074342257419 0 0.037278473789481459 0.02977575402858585 0 0.037093033543431131 0.030887850235269364 0 0.036514489058883229 0.033216921511545816 0 0.03653360503397142 0.033251091596837992 0 0.036531184955759501 0.03290656427073655 0 0.036514489058883229 0.033216921511545816 0 0.036486616731042455 0.033194246569615497 0 0.036531184955759501 0.03290656427073655 0 0.031734108083072282 0.029949601127556909 0 0.034032268284320467 0.028972678424149637 0 0.036514489058883229 0.033216921511545816 0 0.036482370037742122 0.033185481672298671 0 0.03653360503397142 0.033251091596837992 0 0.032853171399588203 0.03068804927499711 0 0.031734108083072282 0.029949601127556909 0 0.036883726386799306 0.030417074342257419 0 0.036967583940473503 0.029955048492938202 0 0.037278473789481459 0.02977575402858585 0 0.034032268284320467 0.028972678424149637 0 0.037731780850621587 0.029711573261613257 0 0.030878554468430897 0.025637852500990661 0 0.034032268284320467 0.028972678424149637 0 0.037278473789481459 0.02977575402858585 0 0.037029816174070293 0.028923235147090182 0 0.036943048437804681 0.029601777844649024 0 0.03749067269193268 0.028474389835790381 0 0.037766220897731295 0.029557397669626419 0 0.037029816174070293 0.028923235147090182 0 0.02447807568126115 0.02328211695523219 0 0.024657382954287418 0.024010166716251734 0 0.024833246273930017 0.023516634823189209 0 0.036967583940473503 0.029955048492938202 0 0.037278473789481459 0.02977575402858585 0 0.036943048437804681 0.029601777844649024 0 0.024657382954287418 0.024010166716251734 0 0.024909861783630582 0.023840111102542579 0 0.024833246273930017 0.023516634823189209 0 0.025148280888008905 0.023937739841016645 0 0.024794212478642799 0.024140997267485493 0 0.024909861783630582 0.023840111102542579 0 0.024794212478642799 0.024140997267485493 0 0.024657382954287418 0.024010166716251734 0 0.024909861783630582 0.023840111102542579 0 0.036677581472602687 0.029918021324627533 0 0.036943048437804681 0.029601777844649024 0 0.036754751697648129 0.029350906970359004 0 0.037029816174070293 0.028923235147090182 0 0.036943048437804681 0.029601777844649024 0 0.036754751697648129 0.029350906970359004 0 0.036677581472602687 0.029918021324627533 0 0.036754751697648129 0.029350906970359004 0 0.036455954874248991 0.029396389799066995 0 0.037029816174070293 0.028923235147090182 0 0.036754751697648129 0.029350906970359004 0 0.03664866465452938 0.028756294979622541 0 0.036754751697648129 0.029350906970359004 0 0.03664866465452938 0.028756294979622541 0 0.036455954874248991 0.029396389799066995 0 0.03664866465452938 0.028756294979622541 0 0.03607516773324692 0.029111824612362558 0 0.036455954874248991 0.029396389799066995 0 0.036541592191589124 0.027991322368824872 0 0.03664866465452938 0.028756294979622541 0 0.03607516773324692 0.029111824612362558 0 0.03607516773324692 0.029111824612362558 0 0.036455954874248991 0.029396389799066995 0 0.036109414946659715 0.030009236132117197 0 0.03607516773324692 0.029111824612362558 0 0.035409129174343384 0.030313876073237905 0 0.03543591407542903 0.029124090832575267 0 0.03604484760462507 0.02794243114334731 0 0.03607516773324692 0.029111824612362558 0 0.03543591407542903 0.029124090832575267 0 0.035409129174343384 0.030313876073237905 0 0.036109414946659715 0.030009236132117197 0 0.035788361532873646 0.030744397787440359 0 0.03607516773324692 0.029111824612362558 0 0.035409129174343384 0.030313876073237905 0 0.036109414946659715 0.030009236132117197 0 0.036677581472602687 0.029918021324627533 0 0.036455954874248991 0.029396389799066995 0 0.036109414946659715 0.030009236132117197 0 0.036109414946659715 0.030009236132117197 0 0.036234674962544365 0.030506560149963228 0 0.035788361532873646 0.030744397787440359 0 0.036234674962544365 0.030506560149963228 0 0.035788361532873646 0.030744397787440359 0 0.036058316990275868 0.031204901818904635 0 0.035788361532873646 0.030744397787440359 0 0.036058316990275868 0.031204901818904635 0 0.0357343780627239 0.031488990514896342 0 0.035409129174343384 0.030313876073237905 0 0.035788361532873646 0.030744397787440359 0 0.035372673475621369 0.031101492306110503 0 0.035788361532873646 0.030744397787440359 0 0.035372673475621369 0.031101492306110503 0 0.0357343780627239 0.031488990514896342 0 0.035372673475621369 0.031101492306110503 0 0.035393120074709232 0.031860830448937005 0 0.034967540552553432 0.031446754585787447 0 0.035372673475621369 0.031101492306110503 0 0.0357343780627239 0.031488990514896342 0 0.035393120074709232 0.031860830448937005 0 0.036058316990275868 0.031204901818904635 0 0.0357343780627239 0.031488990514896342 0 0.036009262602822598 0.031834386977105063 0 0.0357343780627239 0.031488990514896342 0 0.035795814931294426 0.031963008998257603 0 0.035393120074709232 0.031860830448937005 0 0.0357343780627239 0.031488990514896342 0 0.036009262602822598 0.031834386977105063 0 0.035795814931294426 0.031963008998257603 0 0.036009262602822598 0.031834386977105063 0 0.036155992552839009 0.031978874384096231 0 0.036052333446615188 0.032167949090416433 0 0.036155992552839009 0.031978874384096231 0 0.036263195175848681 0.031518863647120678 0 0.036304643927960185 0.03185393785518436 0 0.036009262602822598 0.031834386977105063 0 0.036155992552839009 0.031978874384096231 0 0.036263195175848681 0.031518863647120678 0 0.036058316990275868 0.031204901818904635 0 0.036009262602822598 0.031834386977105063 0 0.036263195175848681 0.031518863647120678 0 0.036058316990275868 0.031204901818904635 0 0.036263195175848681 0.031518863647120678 0 0.036317067092957213 0.030965693170544682 0 0.036263195175848681 0.031518863647120678 0 0.036538720820783827 0.031025925094481939 0 0.036317067092957213 0.030965693170544682 0 0.036520884766934859 0.030571320284864586 0 0.036538720820783827 0.031025925094481939 0 0.036317067092957213 0.030965693170544682 0 0.036234674962544365 0.030506560149963228 0 0.036058316990275868 0.031204901818904635 0 0.036317067092957213 0.030965693170544682 0 0.036520884766934859 0.030571320284864586 0 0.036234674962544365 0.030506560149963228 0 0.036317067092957213 0.030965693170544682 0 0.036405429606452329 0.032121539317738444 0 0.037093033543431131 0.030887850235269364 0 0.036564810898331586 0.031551226156613273 0 0.036538720820783827 0.031025925094481939 0 0.037093033543431131 0.030887850235269364 0 0.036564810898331586 0.031551226156613273 0 0.036263195175848681 0.031518863647120678 0 0.036538720820783827 0.031025925094481939 0 0.036564810898331586 0.031551226156613273 0 0.036263195175848681 0.031518863647120678 0 0.036564810898331586 0.031551226156613273 0 0.036304643927960185 0.03185393785518436 0 0.036405429606452329 0.032121539317738444 0 0.036564810898331586 0.031551226156613273 0 0.0363665435605251 0.031973813293679904 0 0.036564810898331586 0.031551226156613273 0 0.0363665435605251 0.031973813293679904 0 0.036304643927960185 0.03185393785518436 0 0.0363665435605251 0.031973813293679904 0 0.036304643927960185 0.03185393785518436 0 0.036183390976046004 0.032120199561571812 0 0.036155992552839009 0.031978874384096231 0 0.036304643927960185 0.03185393785518436 0 0.036183390976046004 0.032120199561571812 0 0.036155992552839009 0.031978874384096231 0 0.036183390976046004 0.032120199561571812 0 0.036053899313544878 0.032256759890602636 0 0.035990284091007269 0.03235987751873666 0 0.036183390976046004 0.032120199561571812 0 0.035877980114562863 0.032455779245122864 0 0.035990284091007269 0.03235987751873666 0 0.0363665435605251 0.031973813293679904 0 0.036183390976046004 0.032120199561571812 0 0.036053899313544878 0.032256759890602636 0 0.035967197626834889 0.032404796354848671 0 0.036052333446615188 0.032167949090416433 0 0.036183390976046004 0.032120199561571812 0 0.035877980114562863 0.032455779245122864 0 0.036053899313544878 0.032256759890602636 0 0.035877980114562863 0.032455779245122864 0 0.036053899313544878 0.032256759890602636 0 0.035967197626834889 0.032404796354848671 0 0.035877980114562863 0.032455779245122864 0 0.035967197626834889 0.032404796354848671 0 0.035674464341908935 0.032459735161696091 0 0.035395203567233142 0.0326942265316785 0 0.035877980114562863 0.032455779245122864 0 0.035674464341908935 0.032459735161696091 0 0.036009262602822598 0.031834386977105063 0 0.036052333446615188 0.032167949090416433 0 0.035986033620350411 0.032260677249362484 0 0.036155992552839009 0.031978874384096231 0 0.036053899313544878 0.032256759890602636 0 0.036052333446615188 0.032167949090416433 0 0.035967197626834889 0.032404796354848671 0 0.035986033620350411 0.032260677249362484 0 0.036009950266761771 0.032379203969808437 0 0.035967197626834889 0.032404796354848671 0 0.036052333446615188 0.032167949090416433 0 0.035986033620350411 0.032260677249362484 0 0.035986033620350411 0.032260677249362484 0 0.036009950266761771 0.032379203969808437 0 0.0359600585674692 0.032480785477782097 0 0.03602000111646126 0.032402631700195465 0 0.035906426501163262 0.032303267939891557 0 0.03600239573635871 0.032109454607610693 0 0.036009950266761771 0.032379203969808437 0 0.03602000111646126 0.032402631700195465 0 0.0359600585674692 0.032480785477782097 0 0.036009950266761771 0.032379203969808437 0 0.03602000111646126 0.032402631700195465 0 0.035906426501163262 0.032303267939891557 0 0.03602000111646126 0.032402631700195465 0 0.0359600585674692 0.032480785477782097 0 0.036026719095247892 0.032510980519282313 0 0.035967197626834889 0.032404796354848671 0 0.036009950266761771 0.032379203969808437 0 0.035906426501163262 0.032303267939891557 0 0.035967197626834889 0.032404796354848671 0 0.035674464341908935 0.032459735161696091 0 0.035906426501163262 0.032303267939891557 0 0.035674464341908935 0.032459735161696091 0 0.035906426501163262 0.032303267939891557 0 0.035560520329654399 0.032120615886522319 0 0.035098378059008839 0.032409818849764259 0 0.035674464341908935 0.032459735161696091 0 0.035560520329654399 0.032120615886522319 0 0.029580726678503949 0.033140486447224241 0 0.030977147552319406 0.034019434235020116 0 0.034805094595351846 0.031271507365676021 0 0.035560520329654399 0.032120615886522319 0 0.03600239573635871 0.032109454607610693 0 0.027309864072065843 0.036703094741136887 0 0.028074415457323244 0.035778798136418252 0 0.026718166586053721 0.035843906273932795 0 0.024128326529377377 0.035221170403285429 0 0.030977147552319406 0.034019434235020116 0 0.025561337704989442 0.036146859449267557 0 0.027309864072065843 0.036703094741136887 0 0.026718166586053721 0.035843906273932795 0 0.035906426501163262 0.032303267939891557 0 0.035560520329654399 0.032120615886522319 0 0.03600239573635871 0.032109454607610693 0 0.027309864072065843 0.036703094741136887 0 0.028074415457323244 0.035778798136418252 0 0.028782663055419894 0.036512635614694554 0 0.03602000111646126 0.032402631700195465 0 0.03600239573635871 0.032109454607610693 0 0.036026719095247892 0.032510980519282313 0 0.030977147552319406 0.034019434235020116 0 0.035732551187835436 0.033826624692082509 0 0.036142151428440197 0.03244011462210479 0 0.036026719095247892 0.032510980519282313 0 0.035878368350498985 0.03288298291443606 0 0.030977147552319406 0.034019434235020116 0 0.032419330208212312 0.034718921528990018 0 0.0359600585674692 0.032480785477782097 0 0.036026719095247892 0.032510980519282313 0 0.035878368350498985 0.03288298291443606 0 0.028074415457323244 0.035778798136418252 0 0.027258163064085739 0.034999740006330299 0 0.028963053612947227 0.035000646136743384 0 0.028074415457323244 0.035778798136418252 0 0.026718166586053721 0.035843906273932795 0 0.027258163064085739 0.034999740006330299 0 0.025971152155235936 0.035563927459020254 0 0.026718166586053721 0.035843906273932795 0 0.027258163064085739 0.034999740006330299 0 0.025971152155235936 0.035563927459020254 0 0.025552424559990419 0.03500003720270764 0 0.027258163064085739 0.034999740006330299 0 0.029466513300952291 0.035697959738774314 0 0.030416211624293751 0.036018104511408432 0 0.030671892197623639 0.034996607205611562 0 0.028963053612947227 0.035000646136743384 0 0.029466513300952291 0.035697959738774314 0 0.030671892197623639 0.034996607205611562 0 0.028074415457323244 0.035778798136418252 0 0.028963053612947227 0.035000646136743384 0 0.029466513300952291 0.035697959738774314 0 0.029466513300952291 0.035697959738774314 0 0.028782663055419894 0.036512635614694554 0 0.030416211624293751 0.036018104511408432 0 0.032419330208212312 0.034718921528990018 0 0.032748347340222916 0.034773887807725147 0 0.035878368350498985 0.03288298291443606 0 0.035324391103890032 0.033611203234175789 0 0.035693716445695522 0.032738676015124597 0 0.028074415457323244 0.035778798136418252 0 0.029466513300952291 0.035697959738774314 0 0.028782663055419894 0.036512635614694554 0 0.035324391103890032 0.033611203234175789 0 0.03525191116627583 0.032528750871173087 0 0.034499447560233369 0.032963441453964695 0 0.035324391103890032 0.033611203234175789 0 0.03525191116627583 0.032528750871173087 0 0.035693716445695522 0.032738676015124597 0 0.0359600585674692 0.032480785477782097 0 0.035878368350498985 0.03288298291443606 0 0.035693716445695522 0.032738676015124597 0 0.0359600585674692 0.032480785477782097 0 0.035693716445695522 0.032738676015124597 0 0.035736204601554793 0.032316477154609557 0 0.03525191116627583 0.032528750871173087 0 0.035693716445695522 0.032738676015124597 0 0.035736204601554793 0.032316477154609557 0 0.035986033620350411 0.032260677249362484 0 0.0359600585674692 0.032480785477782097 0 0.035736204601554793 0.032316477154609557 0 0.036009262602822598 0.031834386977105063 0 0.035986033620350411 0.032260677249362484 0 0.035795814931294426 0.031963008998257603 0 0.035986033620350411 0.032260677249362484 0 0.035736204601554793 0.032316477154609557 0 0.035795814931294426 0.031963008998257603 0 0.035736204601554793 0.032316477154609557 0 0.035795814931294426 0.031963008998257603 0 0.035393120074709232 0.031860830448937005 0 0.03525191116627583 0.032528750871173087 0 0.035736204601554793 0.032316477154609557 0 0.035393120074709232 0.031860830448937005 0 0.03525191116627583 0.032528750871173087 0 0.035393120074709232 0.031860830448937005 0 0.03472991553931911 0.032157735267534078 0 0.03472991553931911 0.032157735267534078 0 0.034598119548391246 0.03154965175956944 0 0.034967540552553432 0.031446754585787447 0 0.035393120074709232 0.031860830448937005 0 0.03472991553931911 0.032157735267534078 0 0.034967540552553432 0.031446754585787447 0 0.03472991553931911 0.032157735267534078 0 0.034323266597965585 0.032059308496353044 0 0.034598119548391246 0.03154965175956944 0 0.034323266597965585 0.032059308496353044 0 0.034438487705483349 0.031346245573399448 0 0.034598119548391246 0.03154965175956944 0 0.034323266597965585 0.032059308496353044 0 0.033987135929158301 0.03279702655001146 0 0.034347918721673212 0.032159964878989103 0 0.03472991553931911 0.032157735267534078 0 0.034323266597965585 0.032059308496353044 0 0.033987135929158301 0.03279702655001146 0 0.03472991553931911 0.032157735267534078 0 0.033987135929158301 0.03279702655001146 0 0.034499447560233369 0.032963441453964695 0 0.03525191116627583 0.032528750871173087 0 0.03472991553931911 0.032157735267534078 0 0.034499447560233369 0.032963441453964695 0 0.033987135929158301 0.03279702655001146 0 0.034499447560233369 0.032963441453964695 0 0.033800444819603405 0.033472260989264438 0 0.035324391103890032 0.033611203234175789 0 0.034499447560233369 0.032963441453964695 0 0.033223495224988131 0.03458527470035682 0 0.032748347340222916 0.034773887807725147 0 0.033081641093222161 0.034657129514894323 0 0.032467675407841776 0.035155215780463163 0 0.030672441130759939 0.034998808547579044 0 0.03499927100532383 0.034998524731758233 0 0.033223495224988131 0.03458527470035682 0 0.033800444819603405 0.033472260989264438 0 0.033696246722462284 0.033591325175186489 0 0.034499447560233369 0.032963441453964695 0 0.033223495224988131 0.03458527470035682 0 0.033800444819603405 0.033472260989264438 0 0.033987135929158301 0.03279702655001146 0 0.033800444819603405 0.033472260989264438 0 0.033696246722462284 0.033591325175186489 0 0.033696246722462284 0.033591325175186489 0 0.033487336306153428 0.034269350572808631 0 0.033902233338247684 0.032775722709497884 0 0.033987135929158301 0.03279702655001146 0 0.033696246722462284 0.033591325175186489 0 0.033902233338247684 0.032775722709497884 0 0.032972358800147823 0.034719640663191081 0 0.034021079489276684 0.033510126637377312 0 0.033223495224988131 0.03458527470035682 0 0.033696246722462284 0.033591325175186489 0 0.033487336306153428 0.034269350572808631 0 0.032972358800147823 0.034719640663191081 0 0.030669932986761166 0.034999848296914694 0 0.030416211624293751 0.036018104511408432 0 0.033223495224988131 0.03458527470035682 0 0.030671892197623639 0.034996607205611562 0 0.033223495224988131 0.03458527470035682 0 0.033487336306153428 0.034269350572808631 0 0.030671892197623639 0.034996607205611562 0 0.03499927100532383 0.034998524731758233 0 0.034190904427920076 0.03434538463531054 0 0.034998114743129138 0.032221703324690522 0 0.032467675407841776 0.035155215780463163 0 0.03499927100532383 0.034998524731758233 0 0.034190904427920076 0.03434538463531054 0 0.034850514449462411 0.032255756962027891 0 0.034998114743129138 0.032221703324690522 0 0.034735456447966204 0.031411382831632299 0 0.034190904427920076 0.03434538463531054 0 0.034850514449462411 0.032255756962027891 0 0.034998114743129138 0.032221703324690522 0 0.033987135929158301 0.03279702655001146 0 0.033902233338247684 0.032775722709497884 0 0.034347918721673212 0.032159964878989103 0 0.034021079489276684 0.033510126637377312 0 0.034598990188141297 0.032499435917071426 0 0.033902233338247684 0.032775722709497884 0 0.034850514449462411 0.032255756962027891 0 0.034347918721673212 0.032159964878989103 0 0.034323266597965585 0.032059308496353044 0 0.034347918721673212 0.032159964878989103 0 0.034438487705483349 0.031346245573399448 0 0.034347918721673212 0.032159964878989103 0 0.034735456447966204 0.031411382831632299 0 0.034438487705483349 0.031346245573399448 0 0.034998114743129138 0.032221703324690522 0 0.034735456447966204 0.031411382831632299 0 0.034998568356926149 0.03014655494300264 0 0.034850514449462411 0.032255756962027891 0 0.034347918721673212 0.032159964878989103 0 0.034735456447966204 0.031411382831632299 0 0.034998568356926149 0.03014655494300264 0 0.034161329619912605 0.030758574033018432 0 0.034513236045412655 0.030790544237818032 0 0.034735456447966204 0.031411382831632299 0 0.034998568356926149 0.03014655494300264 0 0.034513236045412655 0.030790544237818032 0 0.034999896008890266 0.030143120683098514 0 0.034903287480560853 0.029619389254424512 0 0.035000048147568678 0.030142515047845368 0 0.035193850556766375 0.029067230940263648 0 0.034999557334338315 0.028140537410011636 0 0.035000048147568678 0.030142515047845368 0 0.035193850556766375 0.029067230940263648 0 0.035679464372497603 0.028526048630177391 0 0.034161329619912605 0.030758574033018432 0 0.03437331946372435 0.030901643076586535 0 0.034513236045412655 0.030790544237818032 0 0.034161329619912605 0.030758574033018432 0 0.03437331946372435 0.030901643076586535 0 0.034580508336952968 0.030836227669304581 0 0.03437331946372435 0.030901643076586535 0 0.034513236045412655 0.030790544237818032 0 0.034438487705483349 0.031346245573399448 0 0.034735456447966204 0.031411382831632299 0 0.034513236045412655 0.030790544237818032 0 0.034438487705483349 0.031346245573399448 0 0.03437331946372435 0.030901643076586535 0 0.034438487705483349 0.031346245573399448 0 0.034580508336952968 0.030836227669304581 0 0.034438487705483349 0.031346245573399448 0 0.034598119548391246 0.03154965175956944 0 0.034580508336952968 0.030836227669304581 0 0.034598119548391246 0.03154965175956944 0 0.034967540552553432 0.031446754585787447 0 0.034580508336952968 0.030836227669304581 0 0.035372673475621369 0.031101492306110503 0 0.034967540552553432 0.031446754585787447 0 0.034580508336952968 0.030836227669304581 0 0.035409129174343384 0.030313876073237905 0 0.035372673475621369 0.031101492306110503 0 0.034580508336952968 0.030836227669304581 0 0.034161329619912605 0.030758574033018432 0 0.034580508336952968 0.030836227669304581 0 0.034203594437104495 0.029468623593160749 0 0.034580508336952968 0.030836227669304581 0 0.034891487835628794 0.029987181372226456 0 0.034203594437104495 0.029468623593160749 0 0.035409129174343384 0.030313876073237905 0 0.034580508336952968 0.030836227669304581 0 0.034891487835628794 0.029987181372226456 0 0.035409129174343384 0.030313876073237905 0 0.034891487835628794 0.029987181372226456 0 0.03543591407542903 0.029124090832575267 0 0.035643977139679157 0.027203731317195716 0 0.03543591407542903 0.029124090832575267 0 0.034203594437104495 0.029468623593160749 0 0.034891487835628794 0.029987181372226456 0 0.03543591407542903 0.029124090832575267 0 0.034203594437104495 0.029468623593160749 0 0.035435794706258281 0.026901090645797803 0 0.035927999154700754 0.027253211559884982 0 0.03548225664490437 0.027506427201268856 0 0.035435794706258281 0.026901090645797803 0 0.03548225664490437 0.027506427201268856 0 0.034787147263216883 0.027467213759651828 0 0.035000189936364494 0.026137230552166952 0 0.035357443540610579 0.026996646717041019 0 0.034999557334338315 0.028140537410011636 0 0.035193850556766375 0.029067230940263648 0 0.035679464372497603 0.028526048630177391 0 0.034787147263216883 0.027467213759651828 0 0.035679464372497603 0.028526048630177391 0 0.03548225664490437 0.027506427201268856 0 0.034787147263216883 0.027467213759651828 0 0.035183512206710378 0.028954931188557648 0 0.035060957709715443 0.027240294854929188 0 0.035193850556766375 0.029067230940263648 0 0.035357443540610579 0.026996646717041019 0 0.034999557334338315 0.028140537410011636 0 0.034903287480560853 0.029619389254424512 0 0.03510221775806284 0.028362058400536929 0 0.035679464372497603 0.028526048630177391 0 0.035927999154700754 0.027253211559884982 0 0.03548225664490437 0.027506427201268856 0 0.012712845110582375 0.027376553932886422 0 0.013707536883412594 0.027080244852431788 0 0.015552246483816709 0.024568273132947179 0 0.016744225799977325 0.024954462165757554 0 0.01686045065873211 0.023857726746417653 0 0.0099048466859689398 0.030222837641102528 0 0.0098940767403343979 0.030254512904035868 0 0.0098818940421394122 0.030136698987245275 0 0.012712845110582375 0.027376553932886422 0 0.011830485516010908 0.027564023129340143 0 0.015552246483816709 0.024568273132947179 0 0.015450237479727949 0.025686502762060963 0 0.013752454465870362 0.025347967745616557 0 0.015552246483816709 0.024568273132947179 0 0.015450237479727949 0.025686502762060963 0 0.016744225799977325 0.024954462165757554 0 0.015450237479727949 0.025686502762060963 0 0.016744225799977325 0.024954462165757554 0 0.016826150237927367 0.025924181340963977 0 0.016744225799977325 0.024954462165757554 0 0.017783622476090374 0.025492357252447622 0 0.016826150237927367 0.025924181340963977 0 0.017783622476090374 0.025492357252447622 0 0.020022564679998727 0.027042159251465508 0 0.019620433079216359 0.025516981977969446 0 0.017843033998021032 0.025523663713062233 0 0.019101338887689601 0.026383825076846369 0 0.017783622476090374 0.025492357252447622 0 0.018478017815591913 0.024290808123127811 0 0.019620433079216359 0.025516981977969446 0 0.016744225799977325 0.024954462165757554 0 0.018478017815591913 0.024290808123127811 0 0.01686045065873211 0.023857726746417653 0 0.016744225799977325 0.024954462165757554 0 0.017783622476090374 0.025492357252447622 0 0.018478017815591913 0.024290808123127811 0 0.013707536883412594 0.027080244852431788 0 0.014488724159492348 0.026601160485707487 0 0.018478017815591913 0.024290808123127811 0 0.01686045065873211 0.023857726746417653 0 0.018085220755006341 0.023133118142622765 0 0.018478017815591913 0.024290808123127811 0 0.018085220755006341 0.023133118142622765 0 0.019559467394714595 0.02329379459923344 0 0.014488724159492348 0.026601160485707487 0 0.016729958726204166 0.026404538727499254 0 0.011268245874965822 0.030055761869563286 0 0.011846203051975326 0.02962244275186279 0 0.011357466358019075 0.029705151681719812 0 0.011268245874965822 0.030055761869563286 0 0.010786698064188931 0.029901486886397433 0 0.011357466358019075 0.029705151681719812 0 0.01048814677844267 0.030358977534548443 0 0.011268245874965822 0.030055761869563286 0 0.010786698064188931 0.029901486886397433 0 0.010786698064188931 0.029901486886397433 0 0.010130359860879741 0.030216492377336042 0 0.010311467593822206 0.02992459715045339 0 0.01048814677844267 0.030358977534548443 0 0.010786698064188931 0.029901486886397433 0 0.010130359860879741 0.030216492377336042 0 0.0099048466859689398 0.030222837641102528 0 0.01048814677844267 0.030358977534548443 0 0.010130359860879741 0.030216492377336042 0 0.0099048466859689398 0.030222837641102528 0 0.010130359860879741 0.030216492377336042 0 0.0098940767403343979 0.030254512904035868 0 0.010130359860879741 0.030216492377336042 0 0.0099892103196236592 0.030148272522020781 0 0.0098940767403343979 0.030254512904035868 0 0.010130359860879741 0.030216492377336042 0 0.0099892103196236592 0.030148272522020781 0 0.010311467593822206 0.02992459715045339 0 0.0099892103196236592 0.030148272522020781 0 0.0097692895279700102 0.030322179788581857 0 0.0098940767403343979 0.030254512904035868 0 0.0099892103196236592 0.030148272522020781 0 0.0097692895279700102 0.030322179788581857 0 0.0098071816515332873 0.03011504030659392 0 0.0097692895279700102 0.030322179788581857 0 0.0096716505793013399 0.030391929612472907 0 0.0095163199572754504 0.0304940185844884 0 0.0097692895279700102 0.030322179788581857 0 0.0095163199572754504 0.0304940185844884 0 0.0098071816515332873 0.03011504030659392 0 0.0097692895279700102 0.030322179788581857 0 0.0096716505793013399 0.030391929612472907 0 0.0098118500608101906 0.030245252391203414 0 0.0097692895279700102 0.030322179788581857 0 0.0098118500608101906 0.030245252391203414 0 0.0098818940421394122 0.030136698987245275 0 0.0097692895279700102 0.030322179788581857 0 0.0098940767403343979 0.030254512904035868 0 0.0098818940421394122 0.030136698987245275 0 0.009292656492545074 0.030764421636204548 0 0.0096448360068560075 0.030444604791409275 0 0.009616386512931124 0.030717931116143956 0 0.009292656492545074 0.030764421636204548 0 0.0095806530035331891 0.030473659228909634 0 0.0096448360068560075 0.030444604791409275 0 0.009292656492545074 0.030764421636204548 0 0.0095806530035331891 0.030473659228909634 0 0.0095163199572754504 0.0304940185844884 0 0.0096716505793013399 0.030391929612472907 0 0.0095806530035331891 0.030473659228909634 0 0.0095163199572754504 0.0304940185844884 0 0.0098118500608101906 0.030245252391203414 0 0.0097984643408918631 0.030257747914535404 0 0.0095806530035331891 0.030473659228909634 0 0.0096716505793013399 0.030391929612472907 0 0.0098118500608101906 0.030245252391203414 0 0.0095806530035331891 0.030473659228909634 0 0.0097984643408918631 0.030257747914535404 0 0.0095806530035331891 0.030473659228909634 0 0.0096448360068560075 0.030444604791409275 0 0.0097984643408918631 0.030257747914535404 0 0.0096448360068560075 0.030444604791409275 0 0.0098888966134610019 0.030203243685455589 0 0.0098888966134610019 0.030203243685455589 0 0.010028574881924466 0.029961371574258763 0 0.0099711272804791657 0.030111191632284387 0 0.0098888966134610019 0.030203243685455589 0 0.0099787663738595041 0.030015719648377976 0 0.010028574881924466 0.029961371574258763 0 0.0097984643408918631 0.030257747914535404 0 0.0098888966134610019 0.030203243685455589 0 0.0099787663738595041 0.030015719648377976 0 0.0098118500608101906 0.030245252391203414 0 0.0097984643408918631 0.030257747914535404 0 0.010079026801017981 0.029889466439399257 0 0.0097984643408918631 0.030257747914535404 0 0.0099787663738595041 0.030015719648377976 0 0.010079026801017981 0.029889466439399257 0 0.0099787663738595041 0.030015719648377976 0 0.010079026801017981 0.029889466439399257 0 0.010104876984478647 0.02980353395299187 0 0.010079026801017981 0.029889466439399257 0 0.010215379845302745 0.029516961077537231 0 0.010475492109035712 0.029322017660639986 0 0.010215379845302745 0.029516961077537231 0 0.010475492109035712 0.029322017660639986 0 0.010330755548587797 0.029197721500635657 0 0.010215379845302745 0.029516961077537231 0 0.010185737766459329 0.029530450262388805 0 0.010229649260390793 0.029297942609786007 0 0.010215379845302745 0.029516961077537231 0 0.010104876984478647 0.02980353395299187 0 0.010124866418880994 0.029725725156473187 0 0.010079026801017981 0.029889466439399257 0 0.010215379845302745 0.029516961077537231 0 0.010104876984478647 0.02980353395299187 0 0.0099787663738595041 0.030015719648377976 0 0.010104876984478647 0.02980353395299187 0 0.010124866418880994 0.029725725156473187 0 0.0099787663738595041 0.030015719648377976 0 0.010124866418880994 0.029725725156473187 0 0.010028574881924466 0.029961371574258763 0 0.010215379845302745 0.029516961077537231 0 0.010124866418880994 0.029725725156473187 0 0.010185737766459329 0.029530450262388805 0 0.010124866418880994 0.029725725156473187 0 0.010093941522222852 0.029791449234553791 0 0.010171736434057721 0.029576517360001438 0 0.010124866418880994 0.029725725156473187 0 0.010185737766459329 0.029530450262388805 0 0.010171736434057721 0.029576517360001438 0 0.010093941522222852 0.029791449234553791 0 0.010094980530687732 0.029726908617091138 0 0.010022561831903138 0.02998851385756629 0 0.010093941522222852 0.029791449234553791 0 0.010094980530687732 0.029726908617091138 0 0.010171736434057721 0.029576517360001438 0 0.010093941522222852 0.029791449234553791 0 0.010028574881924466 0.029961371574258763 0 0.010022561831903138 0.02998851385756629 0 0.010124866418880994 0.029725725156473187 0 0.010093941522222852 0.029791449234553791 0 0.010028574881924466 0.029961371574258763 0 0.0099048466859689398 0.030222837641102528 0 0.0098818940421394122 0.030136698987245275 0 0.0097958084212696282 0.029631029129690581 0 0.0098118500608101906 0.030245252391203414 0 0.010079026801017981 0.029889466439399257 0 0.010078916155768352 0.029855678487208111 0 0.0098118500608101906 0.030245252391203414 0 0.0098818940421394122 0.030136698987245275 0 0.010078916155768352 0.029855678487208111 0 0.010078916155768352 0.029855678487208111 0 0.010475492109035712 0.029322017660639986 0 0.0097958084212696282 0.029631029129690581 0 0.010079026801017981 0.029889466439399257 0 0.010078916155768352 0.029855678487208111 0 0.010475492109035712 0.029322017660639986 0 0.0098818940421394122 0.030136698987245275 0 0.010078916155768352 0.029855678487208111 0 0.0097958084212696282 0.029631029129690581 0 0.013133874026815269 0.027099224658661332 0 0.011201180525774183 0.02834195578423384 0 0.013224035093885048 0.02759273863705938 0 0.013752454465870362 0.025347967745616557 0 0.013133874026815269 0.027099224658661332 0 0.011201180525774183 0.02834195578423384 0 0.013752454465870362 0.025347967745616557 0 0.013133874026815269 0.027099224658661332 0 0.014282171068591658 0.026668726209383459 0 0.011830485516010908 0.027564023129340143 0 0.011238367911220465 0.028212241097884703 0 0.013133874026815269 0.027099224658661332 0 0.013224035093885048 0.02759273863705938 0 0.014282171068591658 0.026668726209383459 0 0.013224035093885048 0.02759273863705938 0 0.014317661672090209 0.027306706446935641 0 0.014282171068591658 0.026668726209383459 0 0.012829594409632558 0.028240502799400945 0 0.010209552989640261 0.028952203973962955 0 0.010296889058757535 0.029020628213198781 0 0.011201180525774183 0.02834195578423384 0 0.012608346632443796 0.02820331345755504 0 0.010209552989640261 0.028952203973962955 0 0.010475492109035712 0.029322017660639986 0 0.0097958084212696282 0.029631029129690581 0 0.011201180525774183 0.02834195578423384 0 0.010475492109035712 0.029322017660639986 0 0.011201180525774183 0.02834195578423384 0 0.010537003580929705 0.028937561505124682 0 0.011201180525774183 0.02834195578423384 0 0.010537003580929705 0.028937561505124682 0 0.010209552989640261 0.028952203973962955 0 0.01269587755276482 0.028256554328828027 0 0.010418983729231442 0.028739100320656061 0 0.011429983978681038 0.024302936273623107 0 0.0095101523919594779 0.023827923263039324 0 0.012617783215937825 0.028477351723051821 0 0.012829594409632558 0.028240502799400945 0 0.010296889058757535 0.029020628213198781 0 0.0091434405574834128 0.020171129548004492 0 0.010383907011647722 0.020095305591494448 0 0.0084672603836930885 0.019405585225217882 0 0.0091434405574834128 0.020171129548004492 0 0.008506217271769978 0.020901366176166298 0 0.0096536825644457664 0.020630365034894727 0 0.0091434405574834128 0.020171129548004492 0 0.010383907011647722 0.020095305591494448 0 0.0096536825644457664 0.020630365034894727 0 0.010383907011647722 0.020095305591494448 0 0.010296134122959901 0.020905050134183492 0 0.0096536825644457664 0.020630365034894727 0 0.011429983978681038 0.024302936273623107 0 0.013739956089580849 0.024390528640113377 0 0.011201180525774183 0.02834195578423384 0 0.013224035093885048 0.02759273863705938 0 0.012608346632443796 0.02820331345755504 0 0.012617783215937825 0.028477351723051821 0 0.012829594409632558 0.028240502799400945 0 0.015097774423239318 0.027966963035386674 0 0.013224035093885048 0.02759273863705938 0 0.014251863111365641 0.027634598906572511 0 0.014317661672090209 0.027306706446935641 0 0.013224035093885048 0.02759273863705938 0 0.012608346632443796 0.02820331345755504 0 0.014251863111365641 0.027634598906572511 0 0.010165614338371454 0.029624066713866217 0 0.010207211360531002 0.029398950904266828 0 0.010296889058757535 0.029020628213198781 0 0.0072829948511589585 0.027111338419349283 0 0.0095101523919594779 0.023827923263039324 0 0.0068771230363467847 0.018762728911876223 0 0.0074141918419760085 0.019565185915449982 0 0.0084672603836930885 0.019405585225217882 0 0.0069242545264521426 0.019306395573824863 0 0.0068771230363467847 0.018762728911876223 0 0.0074141918419760085 0.019565185915449982 0 0.0069242545264521426 0.019306395573824863 0 0.0074141918419760085 0.019565185915449982 0 0.006797872966479674 0.019816610048616103 0 0.0069242545264521426 0.019306395573824863 0 0.006797872966479674 0.019816610048616103 0 0.0064460219040336306 0.0194280283707348 0 0.0069242545264521426 0.019306395573824863 0 0.0068771230363467847 0.018762728911876223 0 0.0066815858130899585 0.01911932289468548 0 0.0072829948511589585 0.027111338419349283 0 0.0090230505180206207 0.027592510485745229 0 0.010165614338371454 0.029624066713866217 0 0.010171736434057721 0.029576517360001438 0 0.010207211360531002 0.029398950904266828 0 0.010185737766459329 0.029530450262388805 0 0.010171736434057721 0.029576517360001438 0 0.010207211360531002 0.029398950904266828 0 0.010185737766459329 0.029530450262388805 0 0.010207211360531002 0.029398950904266828 0 0.010229649260390793 0.029297942609786007 0 0.010229649260390793 0.029297942609786007 0 0.010264319423912685 0.029103233204390302 0 0.010296889058757535 0.029020628213198781 0 0.010215379845302745 0.029516961077537231 0 0.010229649260390793 0.029297942609786007 0 0.010330755548587797 0.029197721500635657 0 0.010207211360531002 0.029398950904266828 0 0.010229649260390793 0.029297942609786007 0 0.010296889058757535 0.029020628213198781 0 0.010229649260390793 0.029297942609786007 0 0.010264319423912685 0.029103233204390302 0 0.010330755548587797 0.029197721500635657 0 0.010475492109035712 0.029322017660639986 0 0.010330755548587797 0.029197721500635657 0 0.010537003580929705 0.028937561505124682 0 0.010264319423912685 0.029103233204390302 0 0.010330755548587797 0.029197721500635657 0 0.010209552989640261 0.028952203973962955 0 0.010330755548587797 0.029197721500635657 0 0.010537003580929705 0.028937561505124682 0 0.010209552989640261 0.028952203973962955 0 0.010264319423912685 0.029103233204390302 0 0.010209552989640261 0.028952203973962955 0 0.010296889058757535 0.029020628213198781 0 0.0091434405574834128 0.020171129548004492 0 0.0084672603836930885 0.019405585225217882 0 0.0085232398340620141 0.020151328076154874 0 0.0091434405574834128 0.020171129548004492 0 0.0085232398340620141 0.020151328076154874 0 0.008506217271769978 0.020901366176166298 0 0.0085232398340620141 0.020151328076154874 0 0.0079757363164404335 0.020149765447918438 0 0.008506217271769978 0.020901366176166298 0 0.0084672603836930885 0.019405585225217882 0 0.0085232398340620141 0.020151328076154874 0 0.0079757363164404335 0.020149765447918438 0 0.0074141918419760085 0.019565185915449982 0 0.0084672603836930885 0.019405585225217882 0 0.0079757363164404335 0.020149765447918438 0 0.0074141918419760085 0.019565185915449982 0 0.0079757363164404335 0.020149765447918438 0 0.0072003603631323283 0.020276849449062714 0 0.0079757363164404335 0.020149765447918438 0 0.0072003603631323283 0.020276849449062714 0 0.0074851442918004154 0.021085669864331743 0 0.0072003603631323283 0.020276849449062714 0 0.0066938197150710546 0.020917418413191374 0 0.0066175958548202133 0.020337649680110984 0 0.0072003603631323283 0.020276849449062714 0 0.006797872966479674 0.019816610048616103 0 0.0066175958548202133 0.020337649680110984 0 0.0074141918419760085 0.019565185915449982 0 0.0072003603631323283 0.020276849449062714 0 0.006797872966479674 0.019816610048616103 0 0.0066938197150710546 0.020917418413191374 0 0.0074851442918004154 0.021085669864331743 0 0.0069335281083910622 0.021709362750288008 0 0.0072003603631323283 0.020276849449062714 0 0.0066938197150710546 0.020917418413191374 0 0.0074851442918004154 0.021085669864331743 0 0.0074851442918004154 0.021085669864331743 0 0.008506217271769978 0.020901366176166298 0 0.0075956012487498562 0.022339318062093744 0 0.0079757363164404335 0.020149765447918438 0 0.0074851442918004154 0.021085669864331743 0 0.008506217271769978 0.020901366176166298 0 0.0084667633541228113 0.0209670928604863 0 0.0078507630986051798 0.022524168572757214 0 0.008506217271769978 0.020901366176166298 0 0.0080683734358890369 0.022821419721685082 0 0.0091675212348344241 0.02236965483544525 0 0.0074851442918004154 0.021085669864331743 0 0.0075956012487498562 0.022339318062093744 0 0.0069335281083910622 0.021709362750288008 0 0.0075956012487498562 0.022339318062093744 0 0.0069335281083910622 0.021709362750288008 0 0.0065311667359079055 0.022544672105383669 0 0.010383907011647722 0.020095305591494448 0 0.011154494178395553 0.02106875679794136 0 0.012518242947851336 0.020926207899337187 0 0.010492259766590122 0.021535224757576618 0 0.011266802358993867 0.021764734962366309 0 0.011154494178395553 0.02106875679794136 0 0.011266802358993867 0.021764734962366309 0 0.011154494178395553 0.02106875679794136 0 0.011855971008699584 0.021415140205438946 0 0.010383907011647722 0.020095305591494448 0 0.011154494178395553 0.02106875679794136 0 0.010296134122959901 0.020905050134183492 0 0.010492259766590122 0.021535224757576618 0 0.011154494178395553 0.02106875679794136 0 0.010296134122959901 0.020905050134183492 0 0.008506217271769978 0.020901366176166298 0 0.0096996245474656722 0.021344187930355561 0 0.0091675212348344241 0.02236965483544525 0 0.010296134122959901 0.020905050134183492 0 0.0096536825644457664 0.020630365034894727 0 0.0096996245474656722 0.021344187930355561 0 0.008506217271769978 0.020901366176166298 0 0.0096536825644457664 0.020630365034894727 0 0.0096996245474656722 0.021344187930355561 0 0.010492259766590122 0.021535224757576618 0 0.010296134122959901 0.020905050134183492 0 0.0096996245474656722 0.021344187930355561 0 0.010492259766590122 0.021535224757576618 0 0.0096996245474656722 0.021344187930355561 0 0.0099662431272339504 0.022045482395623608 0 0.0096996245474656722 0.021344187930355561 0 0.0099662431272339504 0.022045482395623608 0 0.0091675212348344241 0.02236965483544525 0 0.010206648154167938 0.023202540137328358 0 0.0099662431272339504 0.022045482395623608 0 0.0091675212348344241 0.02236965483544525 0 0.010206648154167938 0.023202540137328358 0 0.0099662431272339504 0.022045482395623608 0 0.010732394206246299 0.022336358925133713 0 0.010206648154167938 0.023202540137328358 0 0.010732394206246299 0.022336358925133713 0 0.011359942981979499 0.023014355190478231 0 0.010492259766590122 0.021535224757576618 0 0.011266802358993867 0.021764734962366309 0 0.010732394206246299 0.022336358925133713 0 0.010492259766590122 0.021535224757576618 0 0.0099662431272339504 0.022045482395623608 0 0.010732394206246299 0.022336358925133713 0 0.011266802358993867 0.021764734962366309 0 0.011352169702691425 0.022371645905414635 0 0.011984117261619532 0.021941089535076969 0 0.011266802358993867 0.021764734962366309 0 0.010732394206246299 0.022336358925133713 0 0.011352169702691425 0.022371645905414635 0 0.011352169702691425 0.022371645905414635 0 0.011359942981979499 0.023014355190478231 0 0.011914710480504548 0.022631275914590313 0 0.010732394206246299 0.022336358925133713 0 0.011352169702691425 0.022371645905414635 0 0.011359942981979499 0.023014355190478231 0 0.012005379890884391 0.023268833252059033 0 0.011359942981979499 0.023014355190478231 0 0.011914710480504548 0.022631275914590313 0 0.012005379890884391 0.023268833252059033 0 0.011914710480504548 0.022631275914590313 0 0.01239458431391862 0.022894679704845641 0 0.011914710480504548 0.022631275914590313 0 0.01239458431391862 0.022894679704845641 0 0.012554945385153409 0.022387080882449454 0 0.012005379890884391 0.023268833252059033 0 0.01239458431391862 0.022894679704845641 0 0.012669592662861306 0.023344118105195467 0 0.01239458431391862 0.022894679704845641 0 0.012669592662861306 0.023344118105195467 0 0.012930649148000233 0.02290431750524094 0 0.012669592662861306 0.023344118105195467 0 0.012930649148000233 0.02290431750524094 0 0.013262618119402093 0.023358390944611729 0 0.01239458431391862 0.022894679704845641 0 0.012930649148000233 0.02290431750524094 0 0.012554945385153409 0.022387080882449454 0 0.012930649148000233 0.02290431750524094 0 0.012554945385153409 0.022387080882449454 0 0.013231300870836077 0.022431658366677543 0 0.013231300870836077 0.022431658366677543 0 0.013475932099792445 0.021970188932824552 0 0.012699303649933432 0.021795374712416941 0 0.012554945385153409 0.022387080882449454 0 0.013231300870836077 0.022431658366677543 0 0.012699303649933432 0.021795374712416941 0 0.011352169702691425 0.022371645905414635 0 0.011914710480504548 0.022631275914590313 0 0.011984117261619532 0.021941089535076969 0 0.012554945385153409 0.022387080882449454 0 0.011984117261619532 0.021941089535076969 0 0.012699303649933432 0.021795374712416941 0 0.011914710480504548 0.022631275914590313 0 0.012554945385153409 0.022387080882449454 0 0.011984117261619532 0.021941089535076969 0 0.01469855672695408 0.024114698577405728 0 0.014314897712233291 0.023157195984048761 0 0.015000450342964966 0.023317731087437423 0 0.014314897712233291 0.023157195984048761 0 0.013654940922312512 0.023019038288766804 0 0.013920893578400945 0.02253021805997913 0 0.013841835714944012 0.023662812090389011 0 0.014314897712233291 0.023157195984048761 0 0.013654940922312512 0.023019038288766804 0 0.013841835714944012 0.023662812090389011 0 0.013262618119402093 0.023358390944611729 0 0.013654940922312512 0.023019038288766804 0 0.012930649148000233 0.02290431750524094 0 0.013262618119402093 0.023358390944611729 0 0.013654940922312512 0.023019038288766804 0 0.012930649148000233 0.02290431750524094 0 0.013231300870836077 0.022431658366677543 0 0.013654940922312512 0.023019038288766804 0 0.013231300870836077 0.022431658366677543 0 0.013654940922312512 0.023019038288766804 0 0.013920893578400945 0.02253021805997913 0 0.013231300870836077 0.022431658366677543 0 0.013920893578400945 0.02253021805997913 0 0.013475932099792445 0.021970188932824552 0 0.013920893578400945 0.02253021805997913 0 0.013475932099792445 0.021970188932824552 0 0.015041702135440784 0.022154559649749661 0 0.014314897712233291 0.023157195984048761 0 0.015041702135440784 0.022154559649749661 0 0.015000450342964966 0.023317731087437423 0 0.014314897712233291 0.023157195984048761 0 0.013920893578400945 0.02253021805997913 0 0.015041702135440784 0.022154559649749661 0 0.015097774423239318 0.027966963035386674 0 0.015520116859627313 0.027690079676457303 0 0.016729877833286354 0.026624788880769811 0 0.013475932099792445 0.021970188932824552 0 0.012518242947851336 0.020926207899337187 0 0.015041702135440784 0.022154559649749661 0 0.015717121177479483 0.027604220335995883 0 0.01693189342289422 0.026420239366491821 0 0.01594272072643562 0.027661751067791406 0 0.016828503637066772 0.026575686917427507 0 0.017066542994834719 0.026133038041628063 0 0.015520116859627313 0.027690079676457303 0 0.016729877833286354 0.026624788880769811 0 0.017066542994834719 0.026133038041628063 0 0.013739956089580849 0.024390528640113377 0 0.015758767025283803 0.024391909122873388 0 0.016544948942457366 0.026904180912609103 0 0.01594272072643562 0.027661751067791406 0 0.016828503637066772 0.026575686917427507 0 0.016544948942457366 0.026904180912609103 0 0.01594272072643562 0.027661751067791406 0 0.016203925415572515 0.027131305668276661 0 0.01594272072643562 0.027661751067791406 0 0.015850933494087737 0.027298348918702219 0 0.016203925415572515 0.027131305668276661 0 0.012829594409632558 0.028240502799400945 0 0.015097774423239318 0.027966963035386674 0 0.015520116859627313 0.027690079676457303 0 0.012334702680978358 0.021401228486444702 0 0.011855971008699584 0.021415140205438946 0 0.012518242947851336 0.020926207899337187 0 0.011266802358993867 0.021764734962366309 0 0.011984117261619532 0.021941089535076969 0 0.011855971008699584 0.021415140205438946 0 0.011984117261619532 0.021941089535076969 0 0.012334702680978358 0.021401228486444702 0 0.012699303649933432 0.021795374712416941 0 0.011984117261619532 0.021941089535076969 0 0.012334702680978358 0.021401228486444702 0 0.011855971008699584 0.021415140205438946 0 0.013475932099792445 0.021970188932824552 0 0.012699303649933432 0.021795374712416941 0 0.012518242947851336 0.020926207899337187 0 0.012334702680978358 0.021401228486444702 0 0.012699303649933432 0.021795374712416941 0 0.012518242947851336 0.020926207899337187 0 0.011154494178395553 0.02106875679794136 0 0.011855971008699584 0.021415140205438946 0 0.012518242947851336 0.020926207899337187 0 0.01269587755276482 0.028256554328828027 0 0.015717121177479483 0.027604220335995883 0 0.012608346632443796 0.02820331345755504 0 0.01594272072643562 0.027661751067791406 0 0.014251863111365641 0.027634598906572511 0 0.014317661672090209 0.027306706446935641 0 0.015159675380736927 0.027356695640218861 0 0.015257905760498545 0.026813878228367415 0 0.014251863111365641 0.027634598906572511 0 0.014317661672090209 0.027306706446935641 0 0.015159675380736927 0.027356695640218861 0 0.015159675380736927 0.027356695640218861 0 0.016058303215615962 0.026922244930124579 0 0.015257905760498545 0.026813878228367415 0 0.01594272072643562 0.027661751067791406 0 0.015159675380736927 0.027356695640218861 0 0.015850933494087737 0.027298348918702219 0 0.015159675380736927 0.027356695640218861 0 0.015850933494087737 0.027298348918702219 0 0.016058303215615962 0.026922244930124579 0 0.01594272072643562 0.027661751067791406 0 0.014251863111365641 0.027634598906572511 0 0.015159675380736927 0.027356695640218861 0 0.016203925415572515 0.027131305668276661 0 0.016582083442855139 0.026768569517173286 0 0.016058303215615962 0.026922244930124579 0 0.015850933494087737 0.027298348918702219 0 0.016203925415572515 0.027131305668276661 0 0.016058303215615962 0.026922244930124579 0 0.016544948942457366 0.026904180912609103 0 0.016582083442855139 0.026768569517173286 0 0.016899338256821803 0.026566751008972531 0 0.016544948942457366 0.026904180912609103 0 0.016203925415572515 0.027131305668276661 0 0.016582083442855139 0.026768569517173286 0 0.016657641584880423 0.026455943071836567 0 0.016058303215615962 0.026922244930124579 0 0.016080185449953637 0.026375358318673558 0 0.016582083442855139 0.026768569517173286 0 0.016657641584880423 0.026455943071836567 0 0.016058303215615962 0.026922244930124579 0 0.016058303215615962 0.026922244930124579 0 0.016080185449953637 0.026375358318673558 0 0.015257905760498545 0.026813878228367415 0 0.015450237479727949 0.025686502762060963 0 0.016080185449953637 0.026375358318673558 0 0.016826150237927367 0.025924181340963977 0 0.016657641584880423 0.026455943071836567 0 0.016080185449953637 0.026375358318673558 0 0.016826150237927367 0.025924181340963977 0 0.015450237479727949 0.025686502762060963 0 0.016080185449953637 0.026375358318673558 0 0.015257905760498545 0.026813878228367415 0 0.015450237479727949 0.025686502762060963 0 0.013752454465870362 0.025347967745616557 0 0.014282171068591658 0.026668726209383459 0 0.015450237479727949 0.025686502762060963 0 0.014282171068591658 0.026668726209383459 0 0.015257905760498545 0.026813878228367415 0 0.014317661672090209 0.027306706446935641 0 0.014282171068591658 0.026668726209383459 0 0.015257905760498545 0.026813878228367415 0 0.017783622476090374 0.025492357252447622 0 0.017753218545404549 0.026019129910935888 0 0.017478330687566129 0.025949493741953336 0 0.017783622476090374 0.025492357252447622 0 0.017753218545404549 0.026019129910935888 0 0.018168242400713616 0.025835937818827707 0 0.017490030179261016 0.026085922517309186 0 0.017753218545404549 0.026019129910935888 0 0.017478330687566129 0.025949493741953336 0 0.017783622476090374 0.025492357252447622 0 0.017478330687566129 0.025949493741953336 0 0.016826150237927367 0.025924181340963977 0 0.016657641584880423 0.026455943071836567 0 0.016826150237927367 0.025924181340963977 0 0.017208114845144926 0.026231274151282739 0 0.017490030179261016 0.026085922517309186 0 0.017478330687566129 0.025949493741953336 0 0.017208114845144926 0.026231274151282739 0 0.017478330687566129 0.025949493741953336 0 0.016826150237927367 0.025924181340963977 0 0.017208114845144926 0.026231274151282739 0 0.017208114845144926 0.026231274151282739 0 0.017217568122657734 0.026306074755018921 0 0.017449434066803694 0.026136391819448022 0 0.017208114845144926 0.026231274151282739 0 0.016972401741864183 0.026447512744128085 0 0.017217568122657734 0.026306074755018921 0 0.016582083442855139 0.026768569517173286 0 0.016657641584880423 0.026455943071836567 0 0.016972401741864183 0.026447512744128085 0 0.016657641584880423 0.026455943071836567 0 0.017208114845144926 0.026231274151282739 0 0.016972401741864183 0.026447512744128085 0 0.016582083442855139 0.026768569517173286 0 0.016972401741864183 0.026447512744128085 0 0.016899338256821803 0.026566751008972531 0 0.016972401741864183 0.026447512744128085 0 0.017217568122657734 0.026306074755018921 0 0.016899338256821803 0.026566751008972531 0 0.017217568122657734 0.026306074755018921 0 0.017449434066803694 0.026136391819448022 0 0.017426568836467555 0.025994888456588816 0 0.017753218545404549 0.026019129910935888 0 0.017449434066803694 0.026136391819448022 0 0.017426568836467555 0.025994888456588816 0 0.017490030179261016 0.026085922517309186 0 0.017208114845144926 0.026231274151282739 0 0.017449434066803694 0.026136391819448022 0 0.017490030179261016 0.026085922517309186 0 0.017753218545404549 0.026019129910935888 0 0.017449434066803694 0.026136391819448022 0 0.017217568122657734 0.026306074755018921 0 0.017426568836467555 0.025994888456588816 0 0.017158420696604705 0.026280316479578576 0 0.017426568836467555 0.025994888456588816 0 0.017316755188915546 0.025886442206053278 0 0.017158420696604705 0.026280316479578576 0 0.017426568836467555 0.025994888456588816 0 0.017316755188915546 0.025886442206053278 0 0.017436329823086762 0.025483375600847343 0 0.016544948942457366 0.026904180912609103 0 0.016899338256821803 0.026566751008972531 0 0.016828503637066772 0.026575686917427507 0 0.016899338256821803 0.026566751008972531 0 0.017158420696604705 0.026280316479578576 0 0.016828503637066772 0.026575686917427507 0 0.017217568122657734 0.026306074755018921 0 0.016899338256821803 0.026566751008972531 0 0.017158420696604705 0.026280316479578576 0 0.017158420696604705 0.026280316479578576 0 0.017114640673874942 0.026203531627093726 0 0.016828503637066772 0.026575686917427507 0 0.017316755188915546 0.025886442206053278 0 0.017114640673874942 0.026203531627093726 0 0.017066542994834719 0.026133038041628063 0 0.017316755188915546 0.025886442206053278 0 0.017158420696604705 0.026280316479578576 0 0.017114640673874942 0.026203531627093726 0 0.017114640673874942 0.026203531627093726 0 0.016828503637066772 0.026575686917427507 0 0.017066542994834719 0.026133038041628063 0 0.016729877833286354 0.026624788880769811 0 0.017066542994834719 0.026133038041628063 0 0.01743974344062757 0.024805125359139046 0 0.015758767025283803 0.024391909122873388 0 0.017182924766207502 0.024729379604234887 0 0.015041702135440784 0.022154559649749661 0 0.01580376851987372 0.023864462621899105 0 0.01743974344062757 0.024805125359139046 0 0.01469855672695408 0.024114698577405728 0 0.01580376851987372 0.023864462621899105 0 0.015000450342964966 0.023317731087437423 0 0.015041702135440784 0.022154559649749661 0 0.01580376851987372 0.023864462621899105 0 0.015000450342964966 0.023317731087437423 0 0.017316755188915546 0.025886442206053278 0 0.01743974344062757 0.024805125359139046 0 0.017436329823086762 0.025483375600847343 0 0.017316755188915546 0.025886442206053278 0 0.017066542994834719 0.026133038041628063 0 0.01743974344062757 0.024805125359139046 0 0.01743974344062757 0.024805125359139046 0 0.017672152091051486 0.025122980161069831 0 0.017436329823086762 0.025483375600847343 0 0.017672152091051486 0.025122980161069831 0 0.017436329823086762 0.025483375600847343 0 0.017405409112940876 0.025634261472942062 0 0.017426568836467555 0.025994888456588816 0 0.017436329823086762 0.025483375600847343 0 0.017405409112940876 0.025634261472942062 0 0.01891714700928181 0.027114077619403373 0 0.020610153488202561 0.027612832538448252 0 0.01991510056148257 0.026441664401098495 0 0.022274073360653294 0.021438934466630841 0 0.017874160366229311 0.027440019015528696 0 0.020209288047250307 0.028918885500608168 0 0.01891714700928181 0.027114077619403373 0 0.020610153488202561 0.027612832538448252 0 0.017985540044344862 0.024953762946641308 0 0.017672152091051486 0.025122980161069831 0 0.017405409112940876 0.025634261472942062 0 0.025565106111799903 0.015387955056774018 0 0.025573330486482363 0.01539469850576676 0 0.025630144832264667 0.015480852558772165 0 0.020209288047250307 0.028918885500608168 0 0.02212402553559881 0.028051385978070227 0 0.020610153488202561 0.027612832538448252 0 0.022274073360653294 0.021438934466630841 0 0.023937392069757448 0.021829116509476353 0 0.021948219527085769 0.027547433335340325 0 0.02212402553559881 0.028051385978070227 0 0.020610153488202561 0.027612832538448252 0 0.02212402553559881 0.028051385978070227 0 0.022493978582914655 0.02733786174376026 0 0.023337485242147262 0.026912648412144146 0 0.025679930583383484 0.01548047393215086 0 0.025630144832264667 0.015480852558772165 0 0.025782283040137771 0.015616567152907421 0 0.025623938361529212 0.01543622259725339 0 0.025679930583383484 0.01548047393215086 0 0.025630144832264667 0.015480852558772165 0 0.025623938361529212 0.01543622259725339 0 0.025565106111799903 0.015387955056774018 0 0.025630144832264667 0.015480852558772165 0 0.021948219527085769 0.027547433335340325 0 0.02212402553559881 0.028051385978070227 0 0.022493978582914655 0.02733786174376026 0 0.022493978582914655 0.02733786174376026 0 0.021972705481315864 0.027278627597772259 0 0.022332523818222531 0.027030515226960216 0 0.022493978582914655 0.02733786174376026 0 0.022744300255072326 0.025845039611714631 0 0.023040620236823576 0.026472612154554254 0 0.02251818373905198 0.027315441623441353 0 0.022556443788516685 0.026466482394252359 0 0.021948219527085769 0.027547433335340325 0 0.022493978582914655 0.02733786174376026 0 0.021972705481315864 0.027278627597772259 0 0.021948219527085769 0.027547433335340325 0 0.020610153488202561 0.027612832538448252 0 0.01991510056148257 0.026441664401098495 0 0.021876405363883418 0.027552563022186938 0 0.020703511532040891 0.026956880368175163 0 0.021948219527085769 0.027547433335340325 0 0.021972705481315864 0.027278627597772259 0 0.021491390555994368 0.027398085566112573 0 0.021972705481315864 0.027278627597772259 0 0.022332523818222531 0.027030515226960216 0 0.021848131495996754 0.026889362033224638 0 0.021972705481315864 0.027278627597772259 0 0.021848131495996754 0.026889362033224638 0 0.021491390555994368 0.027398085566112573 0 0.022744300255072326 0.025845039611714631 0 0.023264105107138812 0.025526787278340079 0 0.02301436365673409 0.025353571057649682 0 0.022332523818222531 0.027030515226960216 0 0.021848131495996754 0.026889362033224638 0 0.022577518292608633 0.026021432629136049 0 0.022556443788516685 0.026466482394252359 0 0.022788603747291546 0.025665200401093487 0 0.021848131495996754 0.026889362033224638 0 0.021622892786777641 0.026228558853352336 0 0.022577518292608633 0.026021432629136049 0 0.02117746745878072 0.026810098980938019 0 0.020022564679998727 0.027042159251465508 0 0.020686866853213852 0.026261809309609987 0 0.021848131495996754 0.026889362033224638 0 0.02117746745878072 0.026810098980938019 0 0.021622892786777641 0.026228558853352336 0 0.02117746745878072 0.026810098980938019 0 0.020686866853213852 0.026261809309609987 0 0.021622892786777641 0.026228558853352336 0 0.017753218545404549 0.026019129910935888 0 0.018168242400713616 0.025835937818827707 0 0.018813844994433792 0.026369584456234847 0 0.017753218545404549 0.026019129910935888 0 0.017426568836467555 0.025994888456588816 0 0.017405409112940876 0.025634261472942062 0 0.01778762936066949 0.02559233058438231 0 0.017874160366229311 0.027440019015528696 0 0.017753218545404549 0.026019129910935888 0 0.01891714700928181 0.027114077619403373 0 0.018813844994433792 0.026369584456234847 0 0.01891714700928181 0.027114077619403373 0 0.018813844994433792 0.026369584456234847 0 0.01991510056148257 0.026441664401098495 0 0.018168242400713616 0.025835937818827707 0 0.018813844994433792 0.026369584456234847 0 0.01991510056148257 0.026441664401098495 0 0.021848131495996754 0.026889362033224638 0 0.02117746745878072 0.026810098980938019 0 0.021491390555994368 0.027398085566112573 0 0.02117746745878072 0.026810098980938019 0 0.020022564679998727 0.027042159251465508 0 0.021491390555994368 0.027398085566112573 0 0.019101338887689601 0.026383825076846369 0 0.020703511532040891 0.026956880368175163 0 0.025920637508268885 0.016392262185293355 0 0.025928485530473812 0.016216758608275966 0 0.025952926834561789 0.016666744161646211 0 0.025996939415922869 0.016725323938827905 0 0.025920637508268885 0.016392262185293355 0 0.025952926834561789 0.016666744161646211 0 0.025889576833489841 0.016455885743958874 0 0.025996939415922869 0.016725323938827905 0 0.025920637508268885 0.016392262185293355 0 0.025889576833489841 0.016455885743958874 0 0.025920637508268885 0.016392262185293355 0 0.025869564348438113 0.016142728654093046 0 0.025780129865633321 0.015801049357597522 0 0.025785134953051462 0.016128134058459049 0 0.025869564348438113 0.016142728654093046 0 0.025780129865633321 0.015801049357597522 0 0.025869564348438113 0.016142728654093046 0 0.025857765433670812 0.015919289932108532 0 0.025785134953051462 0.016128134058459049 0 0.025889576833489841 0.016455885743958874 0 0.025869564348438113 0.016142728654093046 0 0.025920637508268885 0.016392262185293355 0 0.025869564348438113 0.016142728654093046 0 0.025896226461933517 0.016052776484421192 0 0.025896226461933517 0.016052776484421192 0 0.025864673974120341 0.0158027788850853 0 0.025875074331272452 0.015841884493406289 0 0.025869564348438113 0.016142728654093046 0 0.025896226461933517 0.016052776484421192 0 0.025857765433670812 0.015919289932108532 0 0.025896226461933517 0.016052776484421192 0 0.025857765433670812 0.015919289932108532 0 0.025864673974120341 0.0158027788850853 0 0.025896226461933517 0.016052776484421192 0 0.025928485530473812 0.016216758608275966 0 0.025875074331272452 0.015841884493406289 0 0.025920637508268885 0.016392262185293355 0 0.025896226461933517 0.016052776484421192 0 0.025928485530473812 0.016216758608275966 0 0.023897210836353721 0.026129019226642625 0 0.023337485242147262 0.026912648412144146 0 0.023450762382420873 0.025926140501322789 0 0.025928485530473812 0.016216758608275966 0 0.025875074331272452 0.015841884493406289 0 0.025849883051514023 0.015780297492947168 0 0.024883642767580462 0.021180786324967175 0 0.024519466910859124 0.021376533135013531 0 0.025823291651267823 0.015625917312802728 0 0.025875074331272452 0.015841884493406289 0 0.025782283040137771 0.015616567152907421 0 0.025823291651267823 0.015625917312802728 0 0.025864673974120341 0.0158027788850853 0 0.025875074331272452 0.015841884493406289 0 0.025875074331272452 0.015841884493406289 0 0.025782283040137771 0.015616567152907421 0 0.025849883051514023 0.015780297492947168 0 0.023937392069757448 0.021829116509476353 0 0.024519466910859124 0.021376533135013531 0 0.025630144832264667 0.015480852558772165 0 0.025782283040137771 0.015616567152907421 0 0.025849883051514023 0.015780297492947168 0 0.022493978582914655 0.02733786174376026 0 0.023337485242147262 0.026912648412144146 0 0.023040620236823576 0.026472612154554254 0 0.023337485242147262 0.026912648412144146 0 0.023040620236823576 0.026472612154554254 0 0.023450762382420873 0.025926140501322789 0 0.022744300255072326 0.025845039611714631 0 0.023264105107138812 0.025526787278340079 0 0.023450762382420873 0.025926140501322789 0 0.022744300255072326 0.025845039611714631 0 0.023040620236823576 0.026472612154554254 0 0.023450762382420873 0.025926140501322789 0 0.023264105107138812 0.025526787278340079 0 0.023450762382420873 0.025926140501322789 0 0.023763483638179414 0.025352909926988472 0 0.023450762382420873 0.025926140501322789 0 0.023848243569575663 0.025684076456555495 0 0.023763483638179414 0.025352909926988472 0 0.023897210836353721 0.026129019226642625 0 0.023450762382420873 0.025926140501322789 0 0.023848243569575663 0.025684076456555495 0 0.024883642767580462 0.021180786324967175 0 0.024961308142047622 0.021240132503229595 0 0.023897210836353721 0.026129019226642625 0 0.023848243569575663 0.025684076456555495 0 0.024115545662255652 0.025585449342706137 0 0.023848243569575663 0.025684076456555495 0 0.023763483638179414 0.025352909926988472 0 0.023972069002234146 0.025411383388723965 0 0.023763483638179414 0.025352909926988472 0 0.023972069002234146 0.025411383388723965 0 0.023987911565347467 0.025158940307619674 0 0.024096264592812711 0.025263251862877697 0 0.023972069002234146 0.025411383388723965 0 0.024115545662255652 0.025585449342706137 0 0.024096264592812711 0.025263251862877697 0 0.023972069002234146 0.025411383388723965 0 0.023987911565347467 0.025158940307619674 0 0.024096264592812711 0.025263251862877697 0 0.024084537525773039 0.025027464289315161 0 0.023987911565347467 0.025158940307619674 0 0.023848243569575663 0.025684076456555495 0 0.023972069002234146 0.025411383388723965 0 0.024115545662255652 0.025585449342706137 0 0.023912546013740408 0.024939276070489725 0 0.024003236487541078 0.02490009954062428 0 0.02395508732178445 0.024834374895273612 0 0.024045914614113796 0.024723432462366132 0 0.024003236487541078 0.02490009954062428 0 0.02395508732178445 0.024834374895273612 0 0.023912546013740408 0.024939276070489725 0 0.024003236487541078 0.02490009954062428 0 0.023894919048757682 0.025063691135781441 0 0.024084537525773039 0.025027464289315161 0 0.024003236487541078 0.02490009954062428 0 0.023987911565347467 0.025158940307619674 0 0.024003236487541078 0.02490009954062428 0 0.023987911565347467 0.025158940307619674 0 0.023894919048757682 0.025063691135781441 0 0.023763483638179414 0.025352909926988472 0 0.023894919048757682 0.025063691135781441 0 0.023751823116890454 0.025091774646657683 0 0.023763483638179414 0.025352909926988472 0 0.023987911565347467 0.025158940307619674 0 0.023894919048757682 0.025063691135781441 0 0.023912546013740408 0.024939276070489725 0 0.023751823116890454 0.025091774646657683 0 0.023848536261069728 0.024949484332949884 0 0.023912546013740408 0.024939276070489725 0 0.023894919048757682 0.025063691135781441 0 0.023751823116890454 0.025091774646657683 0 0.023751823116890454 0.025091774646657683 0 0.023442435827757103 0.025254087075964802 0 0.02363444482735913 0.025038679288041932 0 0.023751823116890454 0.025091774646657683 0 0.02363444482735913 0.025038679288041932 0 0.023848536261069728 0.024949484332949884 0 0.023763483638179414 0.025352909926988472 0 0.023751823116890454 0.025091774646657683 0 0.023442435827757103 0.025254087075964802 0 0.023264105107138812 0.025526787278340079 0 0.023763483638179414 0.025352909926988472 0 0.023442435827757103 0.025254087075964802 0 0.023264105107138812 0.025526787278340079 0 0.023442435827757103 0.025254087075964802 0 0.02301436365673409 0.025353571057649682 0 0.023442435827757103 0.025254087075964802 0 0.023308250701216102 0.025165333433385912 0 0.02301436365673409 0.025353571057649682 0 0.023442435827757103 0.025254087075964802 0 0.023308250701216102 0.025165333433385912 0 0.02363444482735913 0.025038679288041932 0 0.023308250701216102 0.025165333433385912 0 0.02363444482735913 0.025038679288041932 0 0.023415538017493631 0.025015148756646274 0 0.02371212162721003 0.025007663099050038 0 0.02363444482735913 0.025038679288041932 0 0.023415538017493631 0.025015148756646274 0 0.02371212162721003 0.025007663099050038 0 0.023415538017493631 0.025015148756646274 0 0.023596450288560434 0.025013226875986942 0 0.02371212162721003 0.025007663099050038 0 0.023596450288560434 0.025013226875986942 0 0.023822950158836162 0.025083666288042754 0 0.02371212162721003 0.025007663099050038 0 0.023907197247768769 0.025071975487232657 0 0.023822950158836162 0.025083666288042754 0 0.02371212162721003 0.025007663099050038 0 0.023846963638249646 0.024976072621316323 0 0.023907197247768769 0.025071975487232657 0 0.023846963638249646 0.024976072621316323 0 0.02395489407022551 0.025053256498559721 0 0.023907197247768769 0.025071975487232657 0 0.02371212162721003 0.025007663099050038 0 0.023846963638249646 0.024976072621316323 0 0.02363444482735913 0.025038679288041932 0 0.023846963638249646 0.024976072621316323 0 0.02363444482735913 0.025038679288041932 0 0.023848536261069728 0.024949484332949884 0 0.023912546013740408 0.024939276070489725 0 0.023848536261069728 0.024949484332949884 0 0.02395508732178445 0.024834374895273612 0 0.023848536261069728 0.024949484332949884 0 0.023922790810380699 0.02492445599961756 0 0.02395508732178445 0.024834374895273612 0 0.023846963638249646 0.024976072621316323 0 0.023848536261069728 0.024949484332949884 0 0.023922790810380699 0.02492445599961756 0 0.023922790810380699 0.02492445599961756 0 0.023945628284936262 0.025027390482295523 0 0.02395489407022551 0.025053256498559721 0 0.023846963638249646 0.024976072621316323 0 0.023922790810380699 0.02492445599961756 0 0.02395489407022551 0.025053256498559721 0 0.023978582410599344 0.024734367119904566 0 0.023942016115476687 0.02486772110888737 0 0.02395508732178445 0.024834374895273612 0 0.023922790810380699 0.02492445599961756 0 0.023942016115476687 0.02486772110888737 0 0.023945628284936262 0.025027390482295523 0 0.023922790810380699 0.02492445599961756 0 0.023942016115476687 0.02486772110888737 0 0.02395508732178445 0.024834374895273612 0 0.021023045699352042 0.025372441678713695 0 0.019897447856822025 0.024237741563715883 0 0.020565013731793685 0.023611001317635483 0 0.021069118634481923 0.025364905782565606 0 0.02143342916713404 0.024457336775366666 0 0.021023045699352042 0.025372441678713695 0 0.022222280669654353 0.025507166391856344 0 0.022383774537494176 0.024867427871078589 0 0.021023045699352042 0.025372441678713695 0 0.019897447856822025 0.024237741563715883 0 0.019620433079216359 0.025516981977969446 0 0.018478017815591913 0.024290808123127811 0 0.019897447856822025 0.024237741563715883 0 0.019620433079216359 0.025516981977969446 0 0.021023045699352042 0.025372441678713695 0 0.019620433079216359 0.025516981977969446 0 0.020686866853213852 0.026261809309609987 0 0.020022564679998727 0.027042159251465508 0 0.019620433079216359 0.025516981977969446 0 0.020686866853213852 0.026261809309609987 0 0.021023045699352042 0.025372441678713695 0 0.021622892786777641 0.026228558853352336 0 0.022222280669654353 0.025507166391856344 0 0.021023045699352042 0.025372441678713695 0 0.020686866853213852 0.026261809309609987 0 0.021622892786777641 0.026228558853352336 0 0.021622892786777641 0.026228558853352336 0 0.022577518292608633 0.026021432629136049 0 0.022222280669654353 0.025507166391856344 0 0.022788603747291546 0.025665200401093487 0 0.02293761768300662 0.025095922682025748 0 0.023308250701216102 0.025165333433385912 0 0.02301436365673409 0.025353571057649682 0 0.022983211888122815 0.025086309626937951 0 0.022577518292608633 0.026021432629136049 0 0.022222280669654353 0.025507166391856344 0 0.022983211888122815 0.025086309626937951 0 0.022222280669654353 0.025507166391856344 0 0.022983211888122815 0.025086309626937951 0 0.022383774537494176 0.024867427871078589 0 0.022983211888122815 0.025086309626937951 0 0.023130697797458737 0.024929619806810854 0 0.022383774537494176 0.024867427871078589 0 0.022983211888122815 0.025086309626937951 0 0.023415538017493631 0.025015148756646274 0 0.023130697797458737 0.024929619806810854 0 0.023308250701216102 0.025165333433385912 0 0.022983211888122815 0.025086309626937951 0 0.023415538017493631 0.025015148756646274 0 0.023596450288560434 0.025013226875986942 0 0.023130697797458737 0.024929619806810854 0 0.023426824228804426 0.025010295865781428 0 0.023415538017493631 0.025015148756646274 0 0.023596450288560434 0.025013226875986942 0 0.023130697797458737 0.024929619806810854 0 0.023130697797458737 0.024929619806810854 0 0.022383774537494176 0.024867427871078589 0 0.023298904469846355 0.024971387397786666 0 0.023130697797458737 0.024929619806810854 0 0.023298904469846355 0.024971387397786666 0 0.023426824228804426 0.025010295865781428 0 0.019888497474928581 0.022663644442181358 0 0.020565013731793685 0.023611001317635483 0 0.019559467394714595 0.02329379459923344 0 0.019888497474928581 0.022663644442181358 0 0.020565013731793685 0.023611001317635483 0 0.020553377404167527 0.022419562422560702 0 0.02143342916713404 0.024457336775366666 0 0.022055061641817763 0.023285759326805513 0 0.019897447856822025 0.024237741563715883 0 0.020565013731793685 0.023611001317635483 0 0.019559467394714595 0.02329379459923344 0 0.018478017815591913 0.024290808123127811 0 0.019897447856822025 0.024237741563715883 0 0.019559467394714595 0.02329379459923344 0 0.018085220755006341 0.023133118142622765 0 0.019238301743593117 0.022512239139072712 0 0.019266163975250713 0.022411663335146197 0 0.018085220755006341 0.023133118142622765 0 0.019559467394714595 0.02329379459923344 0 0.019238301743593117 0.022512239139072712 0 0.019888497474928581 0.022663644442181358 0 0.019559467394714595 0.02329379459923344 0 0.019238301743593117 0.022512239139072712 0 0.011846203051975326 0.02962244275186279 0 0.011830429041788005 0.029363531633915183 0 0.011519806003737932 0.029423554490598719 0 0.019888497474928581 0.022663644442181358 0 0.019301463009085966 0.022375673609764776 0 0.020112725564319912 0.021848088888996555 0 0.016729958726204166 0.026404538727499254 0 0.014950008999108004 0.028476630771953032 0 0.01792749127731675 0.027660657328502161 0 0.018068364460083731 0.027211941344150791 0 0.018357804696421141 0.027332646637765998 0 0.017032000166412795 0.025584012856857297 0 0.016729958726204166 0.026404538727499254 0 0.019888497474928581 0.022663644442181358 0 0.019238301743593117 0.022512239139072712 0 0.019301463009085966 0.022375673609764776 0 0.016729958726204166 0.026404538727499254 0 0.019462951191226097 0.024355466187298353 0 0.014950008999108004 0.028476630771953032 0 0.016527306075264838 0.029827649334618879 0 0.011830429041788005 0.029363531633915183 0 0.011692162869953856 0.029188385244489645 0 0.011519806003737932 0.029423554490598719 0 0.011830429041788005 0.029363531633915183 0 0.011692162869953856 0.029188385244489645 0 0.011951544894792058 0.029005021996440759 0 0.011692162869953856 0.029188385244489645 0 0.011519806003737932 0.029423554490598719 0 0.011428380489002195 0.029169737253360487 0 0.018432741409558803 0.0270010157727761 0 0.018856196285588919 0.026940871456760961 0 0.018198137022083078 0.02674244469826477 0 0.018068364460083731 0.027211941344150791 0 0.018432741409558803 0.0270010157727761 0 0.018198137022083078 0.02674244469826477 0 0.018068364460083731 0.027211941344150791 0 0.018432741409558803 0.0270010157727761 0 0.018357804696421141 0.027332646637765998 0 0.019462951191226097 0.024355466187298353 0 0.021161307438292996 0.025193391454924195 0 0.018432741409558803 0.0270010157727761 0 0.018357804696421141 0.027332646637765998 0 0.018802189636155448 0.026985682142457012 0 0.019888497474928581 0.022663644442181358 0 0.020112725564319912 0.021848088888996555 0 0.020553377404167527 0.022419562422560702 0 0.020112725564319912 0.021848088888996555 0 0.020553377404167527 0.022419562422560702 0 0.020729032058158164 0.02137277286941569 0 0.022055061641817763 0.023285759326805513 0 0.021161307438292996 0.025193391454924195 0 0.023298904469846355 0.024971387397786666 0 0.023426824228804426 0.025010295865781428 0 0.023568342790810857 0.025076845506947654 0 0.023298904469846355 0.024971387397786666 0 0.023568342790810857 0.025076845506947654 0 0.023647454590682088 0.025084812093547043 0 0.023426824228804426 0.025010295865781428 0 0.023568342790810857 0.025076845506947654 0 0.023712177005616751 0.025112369909708037 0 0.023596450288560434 0.025013226875986942 0 0.023712177005616751 0.025112369909708037 0 0.023910035659507257 0.025195976753650515 0 0.023596450288560434 0.025013226875986942 0 0.023426824228804426 0.025010295865781428 0 0.023712177005616751 0.025112369909708037 0 0.023952791977032012 0.025236594377690581 0 0.023910035659507257 0.025195976753650515 0 0.02411940346999765 0.025503142990037694 0 0.023712177005616751 0.025112369909708037 0 0.023952791977032012 0.025236594377690581 0 0.023910035659507257 0.025195976753650515 0 0.023568342790810857 0.025076845506947654 0 0.023699586060746361 0.025129350104127871 0 0.023647454590682088 0.025084812093547043 0 0.023712177005616751 0.025112369909708037 0 0.023952791977032012 0.025236594377690581 0 0.023699586060746361 0.025129350104127871 0 0.023568342790810857 0.025076845506947654 0 0.023712177005616751 0.025112369909708037 0 0.023699586060746361 0.025129350104127871 0 0.024245175608630969 0.025858585825788621 0 0.021051933006226094 0.027406236721502809 0 0.023952791977032012 0.025236594377690581 0 0.023699586060746361 0.025129350104127871 0 0.023646443746973483 0.025053816313139791 0 0.018432741409558803 0.0270010157727761 0 0.018856196285588919 0.026940871456760961 0 0.018802189636155448 0.026985682142457012 0 0.021051933006226094 0.027406236721502809 0 0.021161307438292996 0.025193391454924195 0 0.023699586060746361 0.025129350104127871 0 0.023646443746973483 0.025053816313139791 0 0.023647454590682088 0.025084812093547043 0 0.021051933006226094 0.027406236721502809 0 0.021437658252939806 0.029144871191149051 0 0.019412656052898714 0.031496997211019999 0 0.019409180941178109 0.031877532841660311 0 0.019672877393378221 0.032131412312435638 0 0.019409180941178109 0.031877532841660311 0 0.019276678130831091 0.032408179699608831 0 0.018483071017936947 0.032295760331299196 0 0.019416935378123664 0.031467848191687756 0 0.019409180941178109 0.031877532841660311 0 0.018483071017936947 0.032295760331299196 0 0.023952791977032012 0.025236594377690581 0 0.024184443371512401 0.025340800823935836 0 0.024243315635387001 0.025748365599282175 0 0.021051933006226094 0.027406236721502809 0 0.020342830069228338 0.031369369385644622 0 0.019276678130831091 0.032408179699608831 0 0.019663694446252503 0.03251212920083954 0 0.019672877393378221 0.032131412312435638 0 0.019409180941178109 0.031877532841660311 0 0.019276678130831091 0.032408179699608831 0 0.019672877393378221 0.032131412312435638 0 0.023952791977032012 0.025236594377690581 0 0.024243315635387001 0.025748365599282175 0 0.02411940346999765 0.025503142990037694 0 0.018483071017936947 0.032295760331299196 0 0.0183167960738027 0.033128331854025445 0 0.0175280170433861 0.033139963670863484 0 0.018483071017936947 0.032295760331299196 0 0.0183167960738027 0.033128331854025445 0 0.018908539279767822 0.032867702653726412 0 0.0183167960738027 0.033128331854025445 0 0.018908539279767822 0.032867702653726412 0 0.018975181455155733 0.033599165519127748 0 0.015895300888131396 0.034808571514991601 0 0.015486701611104004 0.036163732544899595 0 0.019486703320128088 0.032864676122532979 0 0.019876244103673515 0.032726505453729932 0 0.018975181455155733 0.033599165519127748 0 0.019276678130831091 0.032408179699608831 0 0.018483071017936947 0.032295760331299196 0 0.018908539279767822 0.032867702653726412 0 0.019276678130831091 0.032408179699608831 0 0.019486703320128088 0.032864676122532979 0 0.019663694446252503 0.03251212920083954 0 0.019276678130831091 0.032408179699608831 0 0.018908539279767822 0.032867702653726412 0 0.019486703320128088 0.032864676122532979 0 0.018908539279767822 0.032867702653726412 0 0.019486703320128088 0.032864676122532979 0 0.018975181455155733 0.033599165519127748 0 0.011250222827471332 0.038990271739829253 0 0.010982214498040677 0.039056768322638373 0 0.011204357948155285 0.037962372427693444 0 0.019486703320128088 0.032864676122532979 0 0.019900583951123332 0.032723103693761572 0 0.019663694446252503 0.03251212920083954 0 0.019821493390982048 0.033246606862536533 0 0.015895300888131396 0.034808571514991601 0 0.019900583951123332 0.032723103693761572 0 0.019663694446252503 0.03251212920083954 0 0.019918361878779475 0.032392713228155248 0 0.014451726825697361 0.033244294600382016 0 0.011715185607670306 0.036695974776723525 0 0.014589654876104098 0.034808677553313593 0 0.013540105242056958 0.035597138221946968 0 0.013697694455002135 0.035034174299781604 0 0.019900583951123332 0.032723103693761572 0 0.02024293140104997 0.032429163551527973 0 0.019918361878779475 0.032392713228155248 0 0.015895300888131396 0.034808571514991601 0 0.014451726825697361 0.033244294600382016 0 0.015895300888131396 0.034808571514991601 0 0.011715185607670306 0.036695974776723525 0 0.0092066953785028133 0.038167484210505358 0 0.0082427101067379747 0.037627247000323299 0 0.0089713559970246472 0.037466367990787182 0 0.0092066953785028133 0.038167484210505358 0 0.0082427101067379747 0.037627247000323299 0 0.0075843363148418684 0.038421097601417702 0 0.011715185607670306 0.036695974776723525 0 0.0086154255536344121 0.034836116968132831 0 0.014451726825697361 0.033244294600382016 0 0.012138459828974175 0.030765855594248798 0 0.014263954043528995 0.031662339769268633 0 0.0148507011012692 0.031189543310455037 0 0.01442872333888575 0.031043080304642551 0 0.012464343814051228 0.033830961249791014 0 0.012582364069619623 0.033400588019369994 0 0.011262754532019154 0.034744451384680256 0 0.012582364069619623 0.033400588019369994 0 0.011262754532019154 0.034744451384680256 0 0.0095821051382644819 0.03417396362494024 0 0.011692162869953856 0.029188385244489645 0 0.011745809224518816 0.028930205838094487 0 0.011428380489002195 0.029169737253360487 0 0.012138459828974175 0.030765855594248798 0 0.011770229965583698 0.029187975431832918 0 0.012138459828974175 0.030765855594248798 0 0.016527306075264838 0.029827649334618879 0 0.011692162869953856 0.029188385244489645 0 0.011745809224518816 0.028930205838094487 0 0.011951544894792058 0.029005021996440759 0 0.019412656052898714 0.031496997211019999 0 0.020386155893036228 0.031868324348776837 0 0.020000497044308993 0.03208200438042369 0 0.021051933006226094 0.027406236721502809 0 0.016527306075264838 0.029827649334618879 0 0.019412656052898714 0.031496997211019999 0 0.020000497044308993 0.03208200438042369 0 0.019672877393378221 0.032131412312435638 0 0.020000497044308993 0.03208200438042369 0 0.019672877393378221 0.032131412312435638 0 0.019918361878779475 0.032392713228155248 0 0.019663694446252503 0.03251212920083954 0 0.019672877393378221 0.032131412312435638 0 0.019918361878779475 0.032392713228155248 0 0.02024293140104997 0.032429163551527973 0 0.020000497044308993 0.03208200438042369 0 0.019918361878779475 0.032392713228155248 0 0.02024293140104997 0.032429163551527973 0 0.020386155893036228 0.031868324348776837 0 0.020000497044308993 0.03208200438042369 0 0.014451726825697361 0.033244294600382016 0 0.016527306075264838 0.029827649334618879 0 0.023956059332497316 0.025332197372386234 0 0.023945628284936262 0.025027390482295523 0 0.024033431699078022 0.025297455820629245 0 0.023848411523089284 0.025125591080404137 0 0.023956059332497316 0.025332197372386234 0 0.023874880046952651 0.025604702015391625 0 0.023956059332497316 0.025332197372386234 0 0.0240942346884035 0.025656568128711137 0 0.023874880046952651 0.025604702015391625 0 0.023900884550857718 0.024878298212108386 0 0.023942016115476687 0.02486772110888737 0 0.023945628284936262 0.025027390482295523 0 0.023848411523089284 0.025125591080404137 0 0.023900884550857718 0.024878298212108386 0 0.023945628284936262 0.025027390482295523 0 0.023848411523089284 0.025125591080404137 0 0.023956059332497316 0.025332197372386234 0 0.023945628284936262 0.025027390482295523 0 0.023945628284936262 0.025027390482295523 0 0.02395489407022551 0.025053256498559721 0 0.024033431699078022 0.025297455820629245 0 0.02395489407022551 0.025053256498559721 0 0.024033431699078022 0.025297455820629245 0 0.024039898635925344 0.025266964427710273 0 0.024033431699078022 0.025297455820629245 0 0.024039898635925344 0.025266964427710273 0 0.02418846277675513 0.025638183251198165 0 0.023956059332497316 0.025332197372386234 0 0.024033431699078022 0.025297455820629245 0 0.0240942346884035 0.025656568128711137 0 0.024033431699078022 0.025297455820629245 0 0.02418846277675513 0.025638183251198165 0 0.0240942346884035 0.025656568128711137 0 0.024039898635925344 0.025266964427710273 0 0.024147842217079253 0.025499142368447355 0 0.02418846277675513 0.025638183251198165 0 0.024039898635925344 0.025266964427710273 0 0.023973439970984289 0.025215432993596663 0 0.024147842217079253 0.025499142368447355 0 0.02395489407022551 0.025053256498559721 0 0.024039898635925344 0.025266964427710273 0 0.023907197247768769 0.025071975487232657 0 0.023907197247768769 0.025071975487232657 0 0.023973439970984289 0.025215432993596663 0 0.023822950158836162 0.025083666288042754 0 0.024039898635925344 0.025266964427710273 0 0.023907197247768769 0.025071975487232657 0 0.023973439970984289 0.025215432993596663 0 0.023596450288560434 0.025013226875986942 0 0.023822950158836162 0.025083666288042754 0 0.023910035659507257 0.025195976753650515 0 0.023973439970984289 0.025215432993596663 0 0.023822950158836162 0.025083666288042754 0 0.023910035659507257 0.025195976753650515 0 0.023910035659507257 0.025195976753650515 0 0.024147842217079253 0.025499142368447355 0 0.02411940346999765 0.025503142990037694 0 0.023973439970984289 0.025215432993596663 0 0.023910035659507257 0.025195976753650515 0 0.024147842217079253 0.025499142368447355 0 0.024147842217079253 0.025499142368447355 0 0.024295395013043539 0.02584976140029107 0 0.024382645278250143 0.026072652510400168 0 0.024243315635387001 0.025748365599282175 0 0.02411940346999765 0.025503142990037694 0 0.024295395013043539 0.02584976140029107 0 0.024147842217079253 0.025499142368447355 0 0.02411940346999765 0.025503142990037694 0 0.024295395013043539 0.02584976140029107 0 0.021437658252939806 0.029144871191149051 0 0.020919414535382048 0.029939587472606041 0 0.024243315635387001 0.025748365599282175 0 0.024295395013043539 0.02584976140029107 0 0.024543351802736393 0.026515877808298144 0 0.024295395013043539 0.02584976140029107 0 0.024543351802736393 0.026515877808298144 0 0.024382645278250143 0.026072652510400168 0 0.024569991566643187 0.026821506871834506 0 0.024382645278250143 0.026072652510400168 0 0.024307281849876336 0.026181794052112319 0 0.024543351802736393 0.026515877808298144 0 0.024569991566643187 0.026821506871834506 0 0.024382645278250143 0.026072652510400168 0 0.024382645278250143 0.026072652510400168 0 0.02418846277675513 0.025638183251198165 0 0.024307281849876336 0.026181794052112319 0 0.024147842217079253 0.025499142368447355 0 0.024382645278250143 0.026072652510400168 0 0.02418846277675513 0.025638183251198165 0 0.0240942346884035 0.025656568128711137 0 0.024307281849876336 0.026181794052112319 0 0.024021811732923629 0.026255584979563203 0 0.02418846277675513 0.025638183251198165 0 0.0240942346884035 0.025656568128711137 0 0.024307281849876336 0.026181794052112319 0 0.024307281849876336 0.026181794052112319 0 0.024021811732923629 0.026255584979563203 0 0.024407896176501669 0.027151323338236579 0 0.024569991566643187 0.026821506871834506 0 0.024307281849876336 0.026181794052112319 0 0.024407896176501669 0.027151323338236579 0 0.024021811732923629 0.026255584979563203 0 0.023940393245719876 0.027120957458525153 0 0.024407896176501669 0.027151323338236579 0 0.023571922646450923 0.026433081542084565 0 0.024021811732923629 0.026255584979563203 0 0.023940393245719876 0.027120957458525153 0 0.0240942346884035 0.025656568128711137 0 0.024021811732923629 0.026255584979563203 0 0.023874880046952651 0.025604702015391625 0 0.023661221758278221 0.025831178579707154 0 0.024021811732923629 0.026255584979563203 0 0.023874880046952651 0.025604702015391625 0 0.023873821603520386 0.031372318664443698 0 0.024860225381636392 0.029456379151260995 0 0.02430235391304577 0.029074416497271282 0 0.021308561701428117 0.033604439592877011 0 0.01898510373333414 0.034055096331742876 0 0.024860225381636392 0.029456379151260995 0 0.02430235391304577 0.029074416497271282 0 0.024624143757910045 0.028106325749107826 0 0.023762921906018319 0.028178633403319421 0 0.02430235391304577 0.029074416497271282 0 0.024246252124599143 0.027883460528905432 0 0.023762921906018319 0.028178633403319421 0 0.024246252124599143 0.027883460528905432 0 0.023940393245719876 0.027120957458525153 0 0.024246252124599143 0.027883460528905432 0 0.023940393245719876 0.027120957458525153 0 0.024407896176501669 0.027151323338236579 0 0.024246252124599143 0.027883460528905432 0 0.024624143757910045 0.028106325749107826 0 0.024407896176501669 0.027151323338236579 0 0.02430235391304577 0.029074416497271282 0 0.024246252124599143 0.027883460528905432 0 0.024624143757910045 0.028106325749107826 0 0.024624143757910045 0.028106325749107826 0 0.024647502504525545 0.027435011160553264 0 0.024837852978655497 0.027651059057591205 0 0.024569991566643187 0.026821506871834506 0 0.024647502504525545 0.027435011160553264 0 0.024837852978655497 0.027651059057591205 0 0.024624143757910045 0.028106325749107826 0 0.024407896176501669 0.027151323338236579 0 0.024647502504525545 0.027435011160553264 0 0.024569991566643187 0.026821506871834506 0 0.024407896176501669 0.027151323338236579 0 0.024647502504525545 0.027435011160553264 0 0.01898510373333414 0.034055096331742876 0 0.015675524800559476 0.035288109493503174 0 0.024860225381636392 0.029456379151260995 0 0.024624143757910045 0.028106325749107826 0 0.024837852978655497 0.027651059057591205 0 0.016428455421204177 0.034411491730552364 0 0.016696964667452251 0.034346996441062781 0 0.016673814732009618 0.034049966688798741 0 0.01898510373333414 0.034055096331742876 0 0.02110970408712972 0.030500483862179906 0 0.016309959364159 0.036688968028130445 0 0.015350218955584883 0.035976388943260176 0 0.015721982354972363 0.036273020160036071 0 0.016696964667452251 0.034346996441062781 0 0.016673814732009618 0.034049966688798741 0 0.017166308301734191 0.034585988380476218 0 0.015675524800559476 0.035288109493503174 0 0.017310400866385925 0.03464191916469847 0 0.015350218955584883 0.035976388943260176 0 0.016403796825348069 0.0354194774101457 0 0.017166308301734191 0.034585988380476218 0 0.015350218955584883 0.035976388943260176 0 0.016403796825348069 0.0354194774101457 0 0.015318844133616153 0.036470381209990334 0 0.024543351802736393 0.026515877808298144 0 0.024569991566643187 0.026821506871834506 0 0.024837852978655497 0.027651059057591205 0 0.020919414535382048 0.029939587472606041 0 0.02110970408712972 0.030500483862179906 0 0.0175280170433861 0.033139963670863484 0 0.016673814732009618 0.034049966688798741 0 0.017695332385457636 0.033832118026987983 0 0.016673814732009618 0.034049966688798741 0 0.017695332385457636 0.033832118026987983 0 0.017166308301734191 0.034585988380476218 0 0.0183167960738027 0.033128331854025445 0 0.0175280170433861 0.033139963670863484 0 0.017695332385457636 0.033832118026987983 0 0.015698868171104982 0.03615723146572971 0 0.015356498277718861 0.036455905593601498 0 0.016403796825348069 0.0354194774101457 0 0.017909620512206844 0.034753447327483131 0 0.015318844133616153 0.036470381209990334 0 0.013473789543852237 0.037661917646437608 0 0.013821531711202605 0.036807882308461118 0 0.015318844133616153 0.036470381209990334 0 0.017695332385457636 0.033832118026987983 0 0.017909620512206844 0.034753447327483131 0 0.017166308301734191 0.034585988380476218 0 0.016403796825348069 0.0354194774101457 0 0.017909620512206844 0.034753447327483131 0 0.017166308301734191 0.034585988380476218 0 0.013473789543852237 0.037661917646437608 0 0.013821531711202605 0.036807882308461118 0 0.012986827138930736 0.036910522311587181 0 0.013821531711202605 0.036807882308461118 0 0.0142869307271481 0.036250428717705716 0 0.015318844133616153 0.036470381209990334 0 0.013821531711202605 0.036807882308461118 0 0.0135178046048408 0.036123196011570449 0 0.012986827138930736 0.036910522311587181 0 0.013821531711202605 0.036807882308461118 0 0.0142869307271481 0.036250428717705716 0 0.0135178046048408 0.036123196011570449 0 0.0142869307271481 0.036250428717705716 0 0.0135178046048408 0.036123196011570449 0 0.014534899818863599 0.035662958318921648 0 0.0135178046048408 0.036123196011570449 0 0.013305883802473113 0.034999769760185366 0 0.014534899818863599 0.035662958318921648 0 0.013305883802473113 0.034999769760185366 0 0.014534899818863599 0.035662958318921648 0 0.015073221341409784 0.034999891687412327 0 0.014534899818863599 0.035662958318921648 0 0.015073221341409784 0.034999891687412327 0 0.016030845662638755 0.035729300580743445 0 0.014534899818863599 0.035662958318921648 0 0.015318844133616153 0.036470381209990334 0 0.016030845662638755 0.035729300580743445 0 0.0142869307271481 0.036250428717705716 0 0.014534899818863599 0.035662958318921648 0 0.015318844133616153 0.036470381209990334 0 0.015350218955584883 0.035976388943260176 0 0.015318844133616153 0.036470381209990334 0 0.015721982354972363 0.036273020160036071 0 0.016309959364159 0.036688968028130445 0 0.016030845662638755 0.035729300580743445 0 0.016848644691764423 0.035660742649660904 0 0.015318844133616153 0.036470381209990334 0 0.015721982354972363 0.036273020160036071 0 0.016030845662638755 0.035729300580743445 0 0.016309959364159 0.036688968028130445 0 0.015721982354972363 0.036273020160036071 0 0.016030845662638755 0.035729300580743445 0 0.015073221341409784 0.034999891687412327 0 0.016030845662638755 0.035729300580743445 0 0.016840070278922217 0.034999578644519087 0 0.016030845662638755 0.035729300580743445 0 0.016840070278922217 0.034999578644519087 0 0.016848644691764423 0.035660742649660904 0 0.01822752850277029 0.03545612336979112 0 0.016840070278922217 0.034999578644519087 0 0.016848644691764423 0.035660742649660904 0 0.01822752850277029 0.03545612336979112 0 0.016309959364159 0.036688968028130445 0 0.016848644691764423 0.035660742649660904 0 0.017248431952636211 0.0363967206578866 0 0.01898510373333414 0.034055096331742876 0 0.01822752850277029 0.03545612336979112 0 0.018285285268486672 0.035999527306137404 0 0.017548167989218384 0.036160867723906497 0 0.0094116441689843389 0.036594284929097387 0 0.0096442569327547713 0.037118118187169216 0 0.010479217763994915 0.036198569078175806 0 0.010200335240492051 0.037970086975454675 0 0.010993406589912448 0.036231296299001195 0 0.0094116441689843389 0.036594284929097387 0 0.0087945542214172626 0.037000988770454699 0 0.0096442569327547713 0.037118118187169216 0 0.0087945542214172626 0.037000988770454699 0 0.0086985610202653368 0.036102193456230419 0 0.0077117963856530762 0.036908051055956022 0 0.0094116441689843389 0.036594284929097387 0 0.0087945542214172626 0.037000988770454699 0 0.0086985610202653368 0.036102193456230419 0 0.0082427101067379747 0.037627247000323299 0 0.0087945542214172626 0.037000988770454699 0 0.0077117963856530762 0.036908051055956022 0 0.0082427101067379747 0.037627247000323299 0 0.0089713559970246472 0.037466367990787182 0 0.0087945542214172626 0.037000988770454699 0 0.0089713559970246472 0.037466367990787182 0 0.0087945542214172626 0.037000988770454699 0 0.0096442569327547713 0.037118118187169216 0 0.0092066953785028133 0.038167484210505358 0 0.0089713559970246472 0.037466367990787182 0 0.0096442569327547713 0.037118118187169216 0 0.011715185607670306 0.036695974776723525 0 0.010200335240492051 0.037970086975454675 0 0.011204357948155285 0.037962372427693444 0 0.012211055196857099 0.038348666757989973 0 0.012134643363651379 0.037263629470775536 0 0.011250222827471332 0.038990271739829253 0 0.011204357948155285 0.037962372427693444 0 0.012211055196857099 0.038348666757989973 0 0.017695332385457636 0.033832118026987983 0 0.017909620512206844 0.034753447327483131 0 0.018975181455155733 0.033599165519127748 0 0.0183167960738027 0.033128331854025445 0 0.017695332385457636 0.033832118026987983 0 0.018975181455155733 0.033599165519127748 0 0.015698868171104982 0.03615723146572971 0 0.015486701611104004 0.036163732544899595 0 0.012211055196857099 0.038348666757989973 0 0.012693795834439983 0.037566585037546861 0 0.012134643363651379 0.037263629470775536 0 0.013473789543852237 0.037661917646437608 0 0.012211055196857099 0.038348666757989973 0 0.012693795834439983 0.037566585037546861 0 0.012693795834439983 0.037566585037546861 0 0.012134643363651379 0.037263629470775536 0 0.012986827138930736 0.036910522311587181 0 0.013473789543852237 0.037661917646437608 0 0.012693795834439983 0.037566585037546861 0 0.012986827138930736 0.036910522311587181 0 0.011204357948155285 0.037962372427693444 0 0.012134643363651379 0.037263629470775536 0 0.011394395158460252 0.036577006291524439 0 0.012134643363651379 0.037263629470775536 0 0.011394395158460252 0.036577006291524439 0 0.012362559798666774 0.036040808148037277 0 0.012134643363651379 0.037263629470775536 0 0.012362559798666774 0.036040808148037277 0 0.012986827138930736 0.036910522311587181 0 0.0135178046048408 0.036123196011570449 0 0.012362559798666774 0.036040808148037277 0 0.012986827138930736 0.036910522311587181 0 0.013305883802473113 0.034999769760185366 0 0.012362559798666774 0.036040808148037277 0 0.011538943646016429 0.035000039563110166 0 0.0135178046048408 0.036123196011570449 0 0.013305883802473113 0.034999769760185366 0 0.012362559798666774 0.036040808148037277 0 0.010993406589912448 0.036231296299001195 0 0.011538357204457918 0.03500026163585343 0 0.011394395158460252 0.036577006291524439 0 0.012362559798666774 0.036040808148037277 0 0.011538943646016429 0.035000039563110166 0 0.010479217763994915 0.036198569078175806 0 0.01153760630139356 0.034999804020192357 0 0.0096691598168140037 0.034999750644712058 0 0.010479217763994915 0.036198569078175806 0 0.0086985610202653368 0.036102193456230419 0 0.0096691598168140037 0.034999750644712058 0 0.0094116441689843389 0.036594284929097387 0 0.010479217763994915 0.036198569078175806 0 0.0086985610202653368 0.036102193456230419 0 0.0086985610202653368 0.036102193456230419 0 0.0096691598168140037 0.034999750644712058 0 0.0078002907675222277 0.034999692879684928 0 0.0078002907675222277 0.034999692879684928 0 0.0068618234008382935 0.036212247128546558 0 0.0059317697306173261 0.034999814227814494 0 0.0086985610202653368 0.036102193456230419 0 0.0078002907675222277 0.034999692879684928 0 0.0068618234008382935 0.036212247128546558 0 0.0059317697306173261 0.034999814227814494 0 0.0054043125095999435 0.036038265997768104 0 0.0040630042695335268 0.034999784233603781 0 0.0068618234008382935 0.036212247128546558 0 0.0054043125095999435 0.036038265997768104 0 0.0058775403368206266 0.036744770164188201 0 0.0068618234008382935 0.036212247128546558 0 0.0059317697306173261 0.034999814227814494 0 0.0054043125095999435 0.036038265997768104 0 0.0054043125095999435 0.036038265997768104 0 0.0052028340647435906 0.036810852395049831 0 0.0045656344401462101 0.036310118949817081 0 0.0054043125095999435 0.036038265997768104 0 0.0052028340647435906 0.036810852395049831 0 0.0058775403368206266 0.036744770164188201 0 0.0052028340647435906 0.036810852395049831 0 0.0058775403368206266 0.036744770164188201 0 0.0055424472821494651 0.036985960140666262 0 0.0058775403368206266 0.036744770164188201 0 0.0055424472821494651 0.036985960140666262 0 0.0058668303876707739 0.037103494512849874 0 0.0058775403368206266 0.036744770164188201 0 0.0065327456302864614 0.037030053676199465 0 0.0058668303876707739 0.037103494512849874 0 0.0055424472821494651 0.036985960140666262 0 0.0054668964170776291 0.036748146447406364 0 0.0052859154603151813 0.037289439144562377 0 0.0086985610202653368 0.036102193456230419 0 0.0068618234008382935 0.036212247128546558 0 0.0077117963856530762 0.036908051055956022 0 0.0068618234008382935 0.036212247128546558 0 0.0065327456302864614 0.037030053676199465 0 0.0077117963856530762 0.036908051055956022 0 0.0068618234008382935 0.036212247128546558 0 0.0058775403368206266 0.036744770164188201 0 0.0065327456302864614 0.037030053676199465 0 0.0065327456302864614 0.037030053676199465 0 0.0077117963856530762 0.036908051055956022 0 0.0071951483232873936 0.037415303623786457 0 0.0082427101067379747 0.037627247000323299 0 0.0077117963856530762 0.036908051055956022 0 0.0071951483232873936 0.037415303623786457 0 0.0082427101067379747 0.037627247000323299 0 0.0071951483232873936 0.037415303623786457 0 0.0075843363148418684 0.038421097601417702 0 0.012138459828974175 0.030765855594248798 0 0.0086154255536344121 0.034836116968132831 0 0.011305532362263915 0.02886338211490613 0 0.011428380489002195 0.029169737253360487 0 0.011008260725514843 0.029194138527077137 0 0.011666626360731817 0.028992622512939794 0 0.011305532362263915 0.02886338211490613 0 0.011428380489002195 0.029169737253360487 0 0.0086154255536344121 0.034836116968132831 0 0.0082816531917231234 0.032768549406291571 0 0.0060585441436646374 0.037366664332913663 0 0.0061196483568384504 0.037405695766579657 0 0.0058446775821350402 0.037003580355767438 0 0.011305532362263915 0.02886338211490613 0 0.010533509305112754 0.029147993740961387 0 0.011008260725514843 0.029194138527077137 0 0.0071951483232873936 0.037415303623786457 0 0.0075843363148418684 0.038421097601417702 0 0.0061196483568384504 0.037405695766579657 0 0.0065327456302864614 0.037030053676199465 0 0.0071951483232873936 0.037415303623786457 0 0.0061196483568384504 0.037405695766579657 0 0.0065327456302864614 0.037030053676199465 0 0.0061196483568384504 0.037405695766579657 0 0.0058668303876707739 0.037103494512849874 0 0.0086154255536344121 0.034836116968132831 0 0.0058112843220032842 0.03780012868146046 0 0.0061196483568384504 0.037405695766579657 0 0.0058668303876707739 0.037103494512849874 0 0.0056709894375809797 0.036865455093935948 0 0.0058668303876707739 0.037103494512849874 0 0.0054668964170776291 0.036748146447406364 0 0.0056709894375809797 0.036865455093935948 0 0.0055424472821494651 0.036985960140666262 0 0.0058668303876707739 0.037103494512849874 0 0.0054668964170776291 0.036748146447406364 0 0.0082816531917231234 0.032768549406291571 0 0.0078193687423397558 0.03252428096728386 0 0.0058446775821350402 0.037003580355767438 0 0.0056709894375809797 0.036865455093935948 0 0.0055737692686852478 0.035392147637640647 0 0.0054668964170776291 0.036748146447406364 0 0.0056709894375809797 0.036865455093935948 0 0.0055737692686852478 0.035392147637640647 0 0.0061196483568384504 0.037405695766579657 0 0.0058446775821350402 0.037003580355767438 0 0.0056709894375809797 0.036865455093935948 0 0.010533509305112754 0.029147993740961387 0 0.010186000665550633 0.029752648778217653 0 0.0107289783002064 0.029552022168574523 0 0.010186000665550633 0.029752648778217653 0 0.0098071816515332873 0.03011504030659392 0 0.0098767024106304405 0.029617680072354439 0 0.010533509305112754 0.029147993740961387 0 0.010186000665550633 0.029752648778217653 0 0.0098767024106304405 0.029617680072354439 0 0.0099892103196236592 0.030148272522020781 0 0.010186000665550633 0.029752648778217653 0 0.010311467593822206 0.02992459715045339 0 0.0099892103196236592 0.030148272522020781 0 0.010186000665550633 0.029752648778217653 0 0.0098071816515332873 0.03011504030659392 0 0.010786698064188931 0.029901486886397433 0 0.010311467593822206 0.02992459715045339 0 0.0107289783002064 0.029552022168574523 0 0.010186000665550633 0.029752648778217653 0 0.010311467593822206 0.02992459715045339 0 0.0107289783002064 0.029552022168574523 0 0.010786698064188931 0.029901486886397433 0 0.011357466358019075 0.029705151681719812 0 0.011126863481975453 0.029587865691443598 0 0.010786698064188931 0.029901486886397433 0 0.011126863481975453 0.029587865691443598 0 0.0107289783002064 0.029552022168574523 0 0.011846203051975326 0.02962244275186279 0 0.011357466358019075 0.029705151681719812 0 0.011519806003737932 0.029423554490598719 0 0.011357466358019075 0.029705151681719812 0 0.011126863481975453 0.029587865691443598 0 0.011519806003737932 0.029423554490598719 0 0.011126863481975453 0.029587865691443598 0 0.011163611303324819 0.029381814165331917 0 0.011519806003737932 0.029423554490598719 0 0.011163611303324819 0.029381814165331917 0 0.011519806003737932 0.029423554490598719 0 0.011428380489002195 0.029169737253360487 0 0.011163611303324819 0.029381814165331917 0 0.011428380489002195 0.029169737253360487 0 0.011008260725514843 0.029194138527077137 0 0.010533509305112754 0.029147993740961387 0 0.011008260725514843 0.029194138527077137 0 0.0107289783002064 0.029552022168574523 0 0.011126863481975453 0.029587865691443598 0 0.011163611303324819 0.029381814165331917 0 0.0107289783002064 0.029552022168574523 0 0.011163611303324819 0.029381814165331917 0 0.011008260725514843 0.029194138527077137 0 0.0107289783002064 0.029552022168574523 0 0.0089529151550723982 0.031608854908235298 0 0.0084934824215314505 0.031777957973368735 0 0.0073717452954670561 0.033324625968368791 0 0.0077791873924304917 0.034188945334558657 0 0.0084339733031688485 0.033434394319045019 0 0.0088665064387420962 0.031641629332979856 0 0.0073717452954670561 0.033324625968368791 0 0.0084339733031688485 0.033434394319045019 0 0.009292656492545074 0.030764421636204548 0 0.0088665064387420962 0.031641629332979856 0 0.0092204951080050931 0.030832978058918856 0 0.009292656492545074 0.030764421636204548 0 0.0088665064387420962 0.031641629332979856 0 0.009616386512931124 0.030717931116143956 0 0.009292656492545074 0.030764421636204548 0 0.0092204951080050931 0.030832978058918856 0 0.0095163199572754504 0.0304940185844884 0 0.0088665064387420962 0.031641629332979856 0 0.0092204951080050931 0.030832978058918856 0 0.0094227044296131754 0.030209677305944233 0 0.0092204951080050931 0.030832978058918856 0 0.0095163199572754504 0.0304940185844884 0 0.0094227044296131754 0.030209677305944233 0 0.0096480110355977675 0.030120869405153711 0 0.0095163199572754504 0.0304940185844884 0 0.0098071816515332873 0.03011504030659392 0 0.0096480110355977675 0.030120869405153711 0 0.0095163199572754504 0.0304940185844884 0 0.0094227044296131754 0.030209677305944233 0 0.0096480110355977675 0.030120869405153711 0 0.0098071816515332873 0.03011504030659392 0 0.0098767024106304405 0.029617680072354439 0 0.0096480110355977675 0.030120869405153711 0 0.0098767024106304405 0.029617680072354439 0 0.0094227044296131754 0.030209677305944233 0 0.0055737692686852478 0.035392147637640647 0 0.0073717452954670561 0.033324625968368791 0 0.0062593271695449643 0.035631071560889342 0 0.0078193687423397558 0.03252428096728386 0 0.0084934824215314505 0.031777957973368735 0 0.0062593271695449643 0.035631071560889342 0 0.007479080659225164 0.036246640993875881 0 0.0077791873924304917 0.034188945334558657 0 0.0073717452954670561 0.033324625968368791 0 0.0062593271695449643 0.035631071560889342 0 0.0077791873924304917 0.034188945334558657 0 0.0054668964170776291 0.036748146447406364 0 0.0055737692686852478 0.035392147637640647 0 0.0062593271695449643 0.035631071560889342 0 0.0054668964170776291 0.036748146447406364 0 0.0062593271695449643 0.035631071560889342 0 0.0052859154603151813 0.037289439144562377 0 0.0062593271695449643 0.035631071560889342 0 0.007479080659225164 0.036246640993875881 0 0.0052859154603151813 0.037289439144562377 0 0.0086707963749150484 0.033368463857337681 0 0.0082995284650177869 0.033620333009640124 0 0.0085354396888599887 0.032910697529244123 0 0.0082995284650177869 0.033620333009640124 0 0.0077791873924304917 0.034188945334558657 0 0.0084339733031688485 0.033434394319045019 0 0.0086707963749150484 0.033368463857337681 0 0.0082995284650177869 0.033620333009640124 0 0.0077791873924304917 0.034188945334558657 0 0.0081061610832365363 0.034473529871296323 0 0.0078673586232096363 0.034260162102192585 0 0.0082995284650177869 0.033620333009640124 0 0.0084339733031688485 0.033434394319045019 0 0.0084286834166671411 0.033417639672590406 0 0.0082995284650177869 0.033620333009640124 0 0.0084286834166671411 0.033417639672590406 0 0.0085354396888599887 0.032910697529244123 0 0.0084286834166671411 0.033417639672590406 0 0.0083231606933317666 0.032671344252432746 0 0.0085354396888599887 0.032910697529244123 0 0.0083231606933317666 0.032671344252432746 0 0.0083491880533668773 0.032084200921568905 0 0.0085354396888599887 0.032910697529244123 0 0.0042234023189660031 0.035010772820502641 0 0.0050838159831703093 0.036688592133989256 0 0.0083491880533668773 0.032084200921568905 0 0.0085354396888599887 0.032910697529244123 0 0.0088659074902896588 0.032787481814244845 0 0.00010562099015555941 0.038230228198216663 0 0.0022598089201203001 0.038595652829171719 0 0.00066380335185698704 0.038128642845574018 0 0.0081061610832365363 0.034473529871296323 0 0.0050838159831703093 0.036688592133989256 0 0.0086707963749150484 0.033368463857337681 0 0.0085354396888599887 0.032910697529244123 0 0.0088659074902896588 0.032787481814244845 0 0.0050838159831703093 0.036688592133989256 0 0.0025495865517230717 0.036768207841647277 0 0.0022598089201203001 0.038595652829171719 0 0.0016727843522712992 0.037622822081222237 0 0.002261622216245832 0.03683028841477156 0 0.0016727843522712992 0.037622822081222237 0 0.00066380335185698704 0.038128642845574018 0 0.001586142315708233 0.036290963236041883 0 0.0022598089201203001 0.038595652829171719 0 0.0016727843522712992 0.037622822081222237 0 0.00066380335185698704 0.038128642845574018 0 0.0016727843522712992 0.037622822081222237 0 0.002261622216245832 0.03683028841477156 0 0.001586142315708233 0.036290963236041883 0 0.00070726069332812931 0.038028021551722233 0 0.0014632850199459823 0.036468424608158807 0 0.00029982022737406181 0.037421853835076999 0 0.00066380335185698704 0.038128642845574018 0 0.0013662930326112756 0.036573552263382166 0 0.00010562099015555941 0.038230228198216663 0 0.00029982022737406181 0.037421853835076999 0 0.00066380335185698704 0.038128642845574018 0 0.0052028340647435906 0.036810852395049831 0 0.0055424472821494651 0.036985960140666262 0 0.0052859154603151813 0.037289439144562377 0 0.007479080659225164 0.036246640993875881 0 0.007356751503934199 0.037808883264535943 0 0.0052859154603151813 0.037289439144562377 0 0.0050838159831703093 0.036688592133989256 0 0.0054463955529804016 0.037495157617293121 0 0.0035267620892636426 0.037371349008259336 0 0.0052859154603151813 0.037289439144562377 0 0.0042912137474846899 0.036686855963627217 0 0.0035267620892636426 0.037371349008259336 0 0.0042912137474846899 0.036686855963627217 0 0.0032204532609344276 0.036284032600905111 0 0.0042912137474846899 0.036686855963627217 0 0.0045656344401462101 0.036310118949817081 0 0.0037792971470171494 0.03627433914339815 0 0.0042912137474846899 0.036686855963627217 0 0.0037792971470171494 0.03627433914339815 0 0.0032204532609344276 0.036284032600905111 0 0.0052028340647435906 0.036810852395049831 0 0.0042912137474846899 0.036686855963627217 0 0.0045656344401462101 0.036310118949817081 0 0.0052028340647435906 0.036810852395049831 0 0.0052859154603151813 0.037289439144562377 0 0.0042912137474846899 0.036686855963627217 0 0.0054043125095999435 0.036038265997768104 0 0.0041943232652441364 0.035760230479519844 0 0.0045656344401462101 0.036310118949817081 0 0.0041943232652441364 0.035760230479519844 0 0.0045656344401462101 0.036310118949817081 0 0.0036501700291644711 0.03590659334282742 0 0.0045656344401462101 0.036310118949817081 0 0.0036501700291644711 0.03590659334282742 0 0.0037792971470171494 0.03627433914339815 0 0.0036501700291644711 0.03590659334282742 0 0.0037792971470171494 0.03627433914339815 0 0.0032548134122489265 0.035936871975679782 0 0.0037792971470171494 0.03627433914339815 0 0.0032548134122489265 0.035936871975679782 0 0.0032204532609344276 0.036284032600905111 0 0.0036501700291644711 0.03590659334282742 0 0.0032548134122489265 0.035936871975679782 0 0.0031512558232336513 0.035689120112529338 0 0.0021955621148609292 0.034999847152287059 0 0.0032355935901262974 0.035469722340910524 0 0.0040630042695335268 0.034999784233603781 0 0.0031512558232336513 0.035689120112529338 0 0.0032355935901262974 0.035469722340910524 0 0.002414829944131087 0.035348236839598944 0 0.0032548134122489265 0.035936871975679782 0 0.0031512558232336513 0.035689120112529338 0 0.002414829944131087 0.035348236839598944 0 0.0021955621148609292 0.034999847152287059 0 0.0032355935901262974 0.035469722340910524 0 0.002414829944131087 0.035348236839598944 0 0.0041943232652441364 0.035760230479519844 0 0.0036501700291644711 0.03590659334282742 0 0.0032355935901262974 0.035469722340910524 0 0.0036501700291644711 0.03590659334282742 0 0.0031512558232336513 0.035689120112529338 0 0.0032355935901262974 0.035469722340910524 0 0.0054043125095999435 0.036038265997768104 0 0.0041943232652441364 0.035760230479519844 0 0.0040630042695335268 0.034999784233603781 0 0.0041943232652441364 0.035760230479519844 0 0.0032355935901262974 0.035469722340910524 0 0.0040630042695335268 0.034999784233603781 0 8.3175271768184362e-05 0.036817680883176752 0 0.0013662930326112756 0.036573552263382166 0 0.00051258540092402138 0.035992115337179206 0 0.00029982022737406181 0.037421853835076999 0 8.3175271768184362e-05 0.036817680883176752 0 0.0013662930326112756 0.036573552263382166 0 0.0013662930326112756 0.036573552263382166 0 0.0011670665190027414 0.035639031214628969 0 0.00051258540092402138 0.035992115337179206 0 0.0032548134122489265 0.035936871975679782 0 0.0032204532609344276 0.036284032600905111 0 0.002414829944131087 0.035348236839598944 0 0.0025495865517230717 0.036768207841647277 0 0.0021774326891473217 0.035249425116778754 0 0.002261622216245832 0.03683028841477156 0 0.001586142315708233 0.036290963236041883 0 0.002204209662317659 0.035047160748736192 0 0.0021936131661396373 0.034999986014998999 0 0.0011670665190027414 0.035639031214628969 0 0.00019637640078909674 0.034999972912609534 0 0.0014632850199459823 0.036468424608158807 0 0.0021774326891473217 0.035249425116778754 0 0.0013662930326112756 0.036573552263382166 0 0.0011670665190027414 0.035639031214628969 0 0.0019310899034014342 0.03549839255397471 0 0.0021936131661396373 0.034999986014998999 0 0.0011670665190027414 0.035639031214628969 0 0.0019310899034014342 0.03549839255397471 0 0.0021937338409955308 0.035000181803647501 0 0.0021774326891473217 0.035249425116778754 0 0.00051258540092402138 0.035992115337179206 0 0.00019637640078909674 0.034999972912609534 0 -0.00065549826761749047 0.036154959255198779 0 0.0011670665190027414 0.035639031214628969 0 0.00051258540092402138 0.035992115337179206 0 0.00019637640078909674 0.034999972912609534 0 0.00019637640078909674 0.034999972912609534 0 -0.00065549826761749047 0.036154959255198779 0 -0.0018008684375867012 0.034999975938985753 0 8.3175271768184362e-05 0.036817680883176752 0 0.00051258540092402138 0.035992115337179206 0 -0.00065549826761749047 0.036154959255198779 0 8.3175271768184362e-05 0.036817680883176752 0 -0.00065549826761749047 0.036154959255198779 0 -0.00075754796565730457 0.037400788486067281 0 -0.00065549826761749047 0.036154959255198779 0 -0.0021640335895222185 0.036677523384385513 0 -0.00075754796565730457 0.037400788486067281 0 -0.00065549826761749047 0.036154959255198779 0 -0.0018008684375867012 0.034999975938985753 0 -0.0021640335895222185 0.036677523384385513 0 -0.0018008684375867012 0.034999975938985753 0 -0.0032428564837017984 0.036126370806062361 0 -0.0021640335895222185 0.036677523384385513 0 -0.0018008684375867012 0.034999975938985753 0 -0.0037982520632954355 0.034999963861358563 0 -0.0032428564837017984 0.036126370806062361 0 -0.0037982520632954355 0.034999963861358563 0 -0.0032428564837017984 0.036126370806062361 0 -0.0047226536290292066 0.036346839093492816 0 -0.0032428564837017984 0.036126370806062361 0 -0.0037487218005819631 0.037648699420363071 0 -0.0047226536290292066 0.036346839093492816 0 -0.0032428564837017984 0.036126370806062361 0 -0.0021640335895222185 0.036677523384385513 0 -0.0037487218005819631 0.037648699420363071 0 0.0030766194860067817 0.029275654073196947 0 0.0046367540607730037 0.031088697028120449 0 0.0065015161838760565 0.030542553222617737 0 -0.0021640335895222185 0.036677523384385513 0 -0.0034420391112875851 0.037495468078416444 0 -0.001770789361828681 0.037854741243172563 0 -0.0012375944707203942 0.034738369252862007 0 0.0024995819479606217 0.03406431899548093 0 -0.0033486947725873024 0.037730721678740496 0 -0.0012375944707203942 0.034738369252862007 0 0.0030766194860067817 0.029275654073196947 0 0.002746185777976314 0.031252644618014143 0 0.0046367540607730037 0.031088697028120449 0 0.0030766194860067817 0.029275654073196947 0 0.002746185777976314 0.031252644618014143 0 0.00039120344196547866 0.030576645880706438 0 0.002746185777976314 0.031252644618014143 0 0.0046367540607730037 0.031088697028120449 0 0.0045735497718393074 0.032522526633605109 0 0.0046367540607730037 0.031088697028120449 0 0.00599567158060022 0.03200375802868094 0 0.0065015161838760565 0.030542553222617737 0 0.0046367540607730037 0.031088697028120449 0 0.00599567158060022 0.03200375802868094 0 0.0045735497718393074 0.032522526633605109 0 0.0078608665096578413 0.032176764930308646 0 0.0065015161838760565 0.030542553222617737 0 0.0075339189920826796 0.032603476112994266 0 0.00599567158060022 0.03200375802868094 0 0.0065015161838760565 0.030542553222617737 0 0.0075339189920826796 0.032603476112994266 0 0.0083491880533668773 0.032084200921568905 0 0.0078608665096578413 0.032176764930308646 0 0.0065015161838760565 0.030542553222617737 0 0.0083231606933317666 0.032671344252432746 0 0.0078608665096578413 0.032176764930308646 0 0.0075339189920826796 0.032603476112994266 0 0.0083231606933317666 0.032671344252432746 0 0.0083491880533668773 0.032084200921568905 0 0.0078608665096578413 0.032176764930308646 0 0.00010562099015555941 0.038230228198216663 0 -0.00075754796565730457 0.037400788486067281 0 -0.001770789361828681 0.037854741243172563 0 0.0042234023189660031 0.035010772820502641 0 0.0024995819479606217 0.03406431899548093 0 0.00010562099015555941 0.038230228198216663 0 0.00029982022737406181 0.037421853835076999 0 -0.00075754796565730457 0.037400788486067281 0 0.00029982022737406181 0.037421853835076999 0 8.3175271768184362e-05 0.036817680883176752 0 -0.00075754796565730457 0.037400788486067281 0 -0.0021640335895222185 0.036677523384385513 0 -0.00075754796565730457 0.037400788486067281 0 -0.001770789361828681 0.037854741243172563 0 -0.0071829431487219538 0.03615277948648201 0 -0.0075251070335307169 0.035622517743495737 0 -0.0067175029345860971 0.035313188894109261 0 -0.0081478775640127978 0.035954262474484515 0 -0.0069608530192073054 0.035412559860430841 0 -0.0085660596304174188 0.036071571895506083 0 -0.0077022674120915567 0.034999995730224484 0 -0.0072464243373753937 0.035537631022137424 0 -0.0085660596304174188 0.036071571895506083 0 -0.0077022674120915567 0.034999995730224484 0 -0.0094788518297552644 0.034999991932162744 0 -0.0077022674120915567 0.034999995730224484 0 -0.0072464243373753937 0.035537631022137424 0 -0.005925672993315723 0.034999998617232922 0 -0.0067175029345860971 0.035313188894109261 0 -0.0064742595939589961 0.035873997489227455 0 -0.0059531462748304582 0.035683062260646548 0 -0.0069608530192073054 0.035412559860430841 0 -0.0059259571378039626 0.035000114102633859 0 -0.0071829431487219538 0.03615277948648201 0 -0.0067175029345860971 0.035313188894109261 0 -0.0064742595939589961 0.035873997489227455 0 -0.0071829431487219538 0.03615277948648201 0 -0.0064742595939589961 0.035873997489227455 0 -0.0060502701957578396 0.036347103454868072 0 -0.0068609997978518918 0.034871805819647335 0 -0.0048505837492021451 0.035180915847401961 0 -0.0059370372950764893 0.036110737006291152 0 -0.0054225844438906485 0.036776928020699179 0 -0.0060931220772918512 0.037216464752455332 0 -0.0059666970382891271 0.03617203701125106 0 -0.0048505837492021451 0.035180915847401961 0 -0.0064742595939589961 0.035873997489227455 0 -0.0059531462748304582 0.035683062260646548 0 -0.0060502701957578396 0.036347103454868072 0 -0.0059370372950764893 0.036110737006291152 0 -0.0057955109720489372 0.034999994244427242 0 -0.0047226536290292066 0.036346839093492816 0 -0.0067175029345860971 0.035313188894109261 0 -0.0059531462748304582 0.035683062260646548 0 -0.0059250032565338713 0.034999919460563571 0 -0.0059666970382891271 0.03617203701125106 0 -0.0057956050538439932 0.035000036441287796 0 -0.0059531462748304582 0.035683062260646548 0 -0.0059250032565338713 0.034999919460563571 0 -0.005796263351656103 0.035000052995841802 0 -0.0037982520632954355 0.034999963861358563 0 -0.0057955109720489372 0.034999994244427242 0 -0.0047226536290292066 0.036346839093492816 0 -0.0059370372950764893 0.036110737006291152 0 -0.0047226536290292066 0.036346839093492816 0 -0.0054225844438906485 0.036776928020699179 0 -0.0037487218005819631 0.037648699420363071 0 -0.0047226536290292066 0.036346839093492816 0 -0.0049328545808214096 0.037433038090883025 0 -0.0047226536290292066 0.036346839093492816 0 -0.0054225844438906485 0.036776928020699179 0 -0.0049328545808214096 0.037433038090883025 0 -0.0012375944707203942 0.034738369252862007 0 -0.00043198055628079421 0.031885590369321551 0 -0.0012375944707203942 0.034738369252862007 0 -0.0038759317600277768 0.035657436303609916 0 -0.0019583704590080664 0.034047737314500774 0 -0.002487820140440836 0.033953709413873122 0 -0.002552949735253455 0.034401435344436938 0 -0.002487820140440836 0.033953709413873122 0 -0.002552949735253455 0.034401435344436938 0 -0.0027969564071286829 0.034246549630890195 0 0.002746185777976314 0.031252644618014143 0 0.00039120344196547866 0.030576645880706438 0 0.002262721888549939 0.033236833108789478 0 -0.00043198055628079421 0.031885590369321551 0 -0.0036675044438803633 0.034549590900829832 0 -0.0036675044438803633 0.034549590900829832 0 -0.0048505837492021451 0.035180915847401961 0 -0.002552949735253455 0.034401435344436938 0 -0.0031393309709179381 0.034760430256882434 0 -0.0027969564071286829 0.034246549630890195 0 -0.0054225844438906485 0.036776928020699179 0 -0.0049328545808214096 0.037433038090883025 0 -0.0060931220772918512 0.037216464752455332 0 -0.0031393309709179381 0.034760430256882434 0 -0.003007184947665823 0.033869878382371085 0 -0.0027969564071286829 0.034246549630890195 0 -0.0038759317600277768 0.035657436303609916 0 -0.0048505837492021451 0.035180915847401961 0 -0.002487820140440836 0.033953709413873122 0 -0.003007184947665823 0.033869878382371085 0 -0.0027969564071286829 0.034246549630890195 0 -0.0065195842555264638 0.033662104608856588 0 -0.0046271423710849743 0.03400596981351621 0 -0.0064341589023777469 0.035247690293000872 0 -0.0049422109960777323 0.036064585948360019 0 -0.0046271423710849743 0.03400596981351621 0 -0.0064341589023777469 0.035247690293000872 0 -0.0049422109960777323 0.036064585948360019 0 -0.0064341589023777469 0.035247690293000872 0 -0.0060933117360628232 0.036805097744265339 0 -0.0065195842555264638 0.033662104608856588 0 -0.0064341589023777469 0.035247690293000872 0 -0.0076373373649940212 0.034380219541039238 0 -0.0060933117360628232 0.036805097744265339 0 -0.0061459984797856233 0.038282049047343426 0 -0.0072507170468529888 0.037497214983759235 0 -0.0061459984797856233 0.038282049047343426 0 -0.0073652916981668025 0.03844429182396826 0 -0.0072507170468529888 0.037497214983759235 0 -0.0060933117360628232 0.036805097744265339 0 -0.0074193135376811221 0.036409169167980204 0 -0.0072507170468529888 0.037497214983759235 0 -0.0064341589023777469 0.035247690293000872 0 -0.0060933117360628232 0.036805097744265339 0 -0.0074193135376811221 0.036409169167980204 0 -0.0036675044438803633 0.034549590900829832 0 -0.0064980397767838436 0.037147256063892777 0 -0.0036675044438803633 0.034549590900829832 0 -0.0040194080934847958 0.036465865356235347 0 -0.0045719486018980567 0.035818451479792283 0 -0.0060933117360628232 0.036805097744265339 0 -0.0048285884607006798 0.037705578934254268 0 -0.0060933117360628232 0.036805097744265339 0 -0.0048285884607006798 0.037705578934254268 0 -0.0061459984797856233 0.038282049047343426 0 -0.0048285884607006798 0.037705578934254268 0 -0.0052637279615748937 0.038638401324368202 0 -0.0061459984797856233 0.038282049047343426 0 -0.0032623990141818315 0.03531935084707568 0 -0.0003038428253082218 0.033893650403252769 0 -0.00060601124627834824 0.036456413819012941 0 0.00039120344196547866 0.030576645880706438 0 -0.0024405639375294969 0.032065552821343712 0 -0.0003038428253082218 0.033893650403252769 0 -0.0024405639375294969 0.032065552821343712 0 -0.0032623990141818315 0.03531935084707568 0 -0.0003038428253082218 0.033893650403252769 0 0.00039120344196547866 0.030576645880706438 0 -0.0003038428253082218 0.033893650403252769 0 0.002262721888549939 0.033236833108789478 0 -0.0003038428253082218 0.033893650403252769 0 -0.00060601124627834824 0.036456413819012941 0 0.002078534611672601 0.035956350453861315 0 -0.0003038428253082218 0.033893650403252769 0 0.002262721888549939 0.033236833108789478 0 0.002078534611672601 0.035956350453861315 0 0.00084744175866897182 0.037784662522042781 0 -0.00060601124627834824 0.036456413819012941 0 0.002078534611672601 0.035956350453861315 0 0.00084744175866897182 0.037784662522042781 0 -0.00072462575693225061 0.038570924773201246 0 -0.00060601124627834824 0.036456413819012941 0 0.00084744175866897182 0.037784662522042781 0 0.00021266518689626868 0.040508781639495978 0 -0.00072462575693225061 0.038570924773201246 0 0.00084744175866897182 0.037784662522042781 0 0.00021266518689626868 0.040508781639495978 0 0.0025378345653005426 0.038387585224761114 0 0.00021266518689626868 0.040508781639495978 0 -0.0026876730927341366 0.039452789594841206 0 -0.0039190527889203901 0.040094984883623772 0 0.0069780226110845072 0.026367037678204665 0 0.0024289548209681616 0.025345808067746015 0 0.004130999986474022 0.027522524035212145 0 0.0035098523740118514 0.033247580577807717 0 -0.001106639967815961 0.036301081895197193 0 0.00021266518689626868 0.040508781639495978 0 -0.0026876730927341366 0.039452789594841206 0 -0.00072462575693225061 0.038570924773201246 0 -0.0032623990141818315 0.03531935084707568 0 -0.0022761377583005371 0.037859257576294186 0 -0.00060601124627834824 0.036456413819012941 0 -0.0026876730927341366 0.039452789594841206 0 -0.0022761377583005371 0.037859257576294186 0 -0.00072462575693225061 0.038570924773201246 0 -0.0026876730927341366 0.039452789594841206 0 -0.0022761377583005371 0.037859257576294186 0 -0.0045097487825573141 0.03938745821659248 0 -0.0022761377583005371 0.037859257576294186 0 -0.00072462575693225061 0.038570924773201246 0 -0.00060601124627834824 0.036456413819012941 0 -0.0040194080934847958 0.036465865356235347 0 -0.0044987761147849917 0.039320884516645664 0 -0.0032623990141818315 0.03531935084707568 0 -0.0022761377583005371 0.037859257576294186 0 -0.0045097487825573141 0.03938745821659248 0 -0.0048285884607006798 0.037705578934254268 0 -0.0052637279615748937 0.038638401324368202 0 -0.0045097487825573141 0.03938745821659248 0 -0.0052637279615748937 0.038638401324368202 0 -0.0056180720346530547 0.039273008902558526 0 -0.0061459984797856233 0.038282049047343426 0 -0.0052637279615748937 0.038638401324368202 0 -0.0045097487825573141 0.03938745821659248 0 -0.0056180720346530547 0.039273008902558526 0 -0.0026876730927341366 0.039452789594841206 0 -0.0043352340512690293 0.040126875007173705 0 -0.0045097487825573141 0.03938745821659248 0 -0.0036256431768910678 0.038722231501861777 0 -0.001106639967815961 0.036301081895197193 0 0.0024289548209681616 0.025345808067746015 0 -0.0023007745817556708 0.027609437178620331 0 0.0023274685349229424 0.02753204645068312 0 0.0024289548209681616 0.025345808067746015 0 0.004130999986474022 0.027522524035212145 0 0.0023274685349229424 0.02753204645068312 0 -0.0043352340512690293 0.040126875007173705 0 -0.0045097487825573141 0.03938745821659248 0 -0.0056180720346530547 0.039273008902558526 0 -0.0043352340512690293 0.040126875007173705 0 -0.0069657236621229147 0.039682251849384786 0 -0.0056180720346530547 0.039273008902558526 0 -0.001106639967815961 0.036301081895197193 0 -0.0067475317733559559 0.039932849135369243 0 -0.0022508821968620371 0.04002223490440291 0 -0.0057327173509591428 0.039466164208260567 0 -0.0058665155316176432 0.041785436962800668 0 -0.001106639967815961 0.036301081895197193 0 -0.0059334900679355726 0.032839384760288956 0 -0.0069657236621229147 0.039682251849384786 0 -0.0056180720346530547 0.039273008902558526 0 -0.0061459984797856233 0.038282049047343426 0 -0.0069657236621229147 0.039682251849384786 0 -0.0061459984797856233 0.038282049047343426 0 -0.0073652916981668025 0.03844429182396826 0 0.008563768866871364 0.034016974321375827 0 0.0063966315329285232 0.033195669293555226 0 0.0051372150262809944 0.034939133218811202 0 0.008563768866871364 0.034016974321375827 0 0.0051372150262809944 0.034939133218811202 0 0.0063990926519680988 0.03784553620064323 0 0.0084339733031688485 0.033434394319045019 0 0.0084286834166671411 0.033417639672590406 0 0.008563768866871364 0.034016974321375827 0 0.0084286834166671411 0.033417639672590406 0 0.008563768866871364 0.034016974321375827 0 0.0075339189920826796 0.032603476112994266 0 0.0084286834166671411 0.033417639672590406 0 0.0083231606933317666 0.032671344252432746 0 0.0075339189920826796 0.032603476112994266 0 0.008563768866871364 0.034016974321375827 0 0.0075339189920826796 0.032603476112994266 0 0.0063966315329285232 0.033195669293555226 0 0.00599567158060022 0.03200375802868094 0 0.0075339189920826796 0.032603476112994266 0 0.0063966315329285232 0.033195669293555226 0 0.0063966315329285232 0.033195669293555226 0 0.0045735497718393074 0.032522526633605109 0 0.0051372150262809944 0.034939133218811202 0 0.00599567158060022 0.03200375802868094 0 0.0063966315329285232 0.033195669293555226 0 0.0045735497718393074 0.032522526633605109 0 0.0045735497718393074 0.032522526633605109 0 0.002262721888549939 0.033236833108789478 0 0.0051372150262809944 0.034939133218811202 0 0.002746185777976314 0.031252644618014143 0 0.0045735497718393074 0.032522526633605109 0 0.002262721888549939 0.033236833108789478 0 0.002262721888549939 0.033236833108789478 0 0.002078534611672601 0.035956350453861315 0 0.0051372150262809944 0.034939133218811202 0 0.002078534611672601 0.035956350453861315 0 0.0051372150262809944 0.034939133218811202 0 0.0043205335290323983 0.0372154354091353 0 0.0051372150262809944 0.034939133218811202 0 0.0043205335290323983 0.0372154354091353 0 0.0063990926519680988 0.03784553620064323 0 0.00084744175866897182 0.037784662522042781 0 0.002078534611672601 0.035956350453861315 0 0.0025378345653005426 0.038387585224761114 0 0.002078534611672601 0.035956350453861315 0 0.0043205335290323983 0.0372154354091353 0 0.0025378345653005426 0.038387585224761114 0 0.0043205335290323983 0.0372154354091353 0 0.0025378345653005426 0.038387585224761114 0 0.0040587978468973381 0.040995899580986796 0 0.00021266518689626868 0.040508781639495978 0 0.0025378345653005426 0.038387585224761114 0 0.0040587978468973381 0.040995899580986796 0 0.0035098523740118514 0.033247580577807717 0 0.0079084215907965164 0.032142347652058118 0 0.0079684104279059125 0.035670497614532379 0 0.0079084215907965164 0.032142347652058118 0 0.0043205335290323983 0.0372154354091353 0 0.0063990926519680988 0.03784553620064323 0 0.0040587978468973381 0.040995899580986796 0 0.010255841864456728 0.032076943357555857 0 0.010121383303722196 0.030560162372962101 0 0.010777171603900798 0.030705529645165094 0 0.0097555197825723826 0.031194768393714777 0 0.010255841864456728 0.032076943357555857 0 0.010121383303722196 0.030560162372962101 0 0.0097555197825723826 0.031194768393714777 0 0.010255841864456728 0.032076943357555857 0 0.0092044121694232657 0.032258518314400221 0 0.008563768866871364 0.034016974321375827 0 0.010255841864456728 0.032076943357555857 0 0.0092044121694232657 0.032258518314400221 0 0.0087399242444446724 0.033858638306897101 0 0.0079684104279059125 0.035670497614532379 0 0.0088665064387420962 0.031641629332979856 0 0.0084339733031688485 0.033434394319045019 0 0.0092044121694232657 0.032258518314400221 0 0.0084339733031688485 0.033434394319045019 0 0.008563768866871364 0.034016974321375827 0 0.0092044121694232657 0.032258518314400221 0 0.0088665064387420962 0.031641629332979856 0 0.0097555197825723826 0.031194768393714777 0 0.0092044121694232657 0.032258518314400221 0 0.0088665064387420962 0.031641629332979856 0 0.0097555197825723826 0.031194768393714777 0 0.009616386512931124 0.030717931116143956 0 0.0097555197825723826 0.031194768393714777 0 0.0098669722696597024 0.030653926392448877 0 0.010121383303722196 0.030560162372962101 0 0.0097555197825723826 0.031194768393714777 0 0.009616386512931124 0.030717931116143956 0 0.0098669722696597024 0.030653926392448877 0 0.009616386512931124 0.030717931116143956 0 0.0098669722696597024 0.030653926392448877 0 0.009850464241364482 0.030538411706579411 0 0.0098669722696597024 0.030653926392448877 0 0.0099010872258820434 0.030531204960416954 0 0.010121383303722196 0.030560162372962101 0 0.0098669722696597024 0.030653926392448877 0 0.009850464241364482 0.030538411706579411 0 0.0099010872258820434 0.030531204960416954 0 0.009850464241364482 0.030538411706579411 0 0.0098810877491331568 0.030521682687859639 0 0.0099010872258820434 0.030531204960416954 0 0.009850464241364482 0.030538411706579411 0 0.0098810877491331568 0.030521682687859639 0 0.0098319708151720191 0.030411899628303006 0 0.0098810877491331568 0.030521682687859639 0 0.0098319708151720191 0.030411899628303006 0 0.0099012465306571283 0.030409063706985866 0 0.0096448360068560075 0.030444604791409275 0 0.0098888966134610019 0.030203243685455589 0 0.0098319708151720191 0.030411899628303006 0 0.009616386512931124 0.030717931116143956 0 0.009850464241364482 0.030538411706579411 0 0.0098319708151720191 0.030411899628303006 0 0.0096448360068560075 0.030444604791409275 0 0.009616386512931124 0.030717931116143956 0 0.0098319708151720191 0.030411899628303006 0 0.0098888966134610019 0.030203243685455589 0 0.0098319708151720191 0.030411899628303006 0 0.0099251052077466116 0.03026645498699328 0 0.0098888966134610019 0.030203243685455589 0 0.0099711272804791657 0.030111191632284387 0 0.0099251052077466116 0.03026645498699328 0 0.0099251052077466116 0.03026645498699328 0 0.0099012465306571283 0.030409063706985866 0 0.0099296251765591155 0.0303227228385776 0 0.0099711272804791657 0.030111191632284387 0 0.0099251052077466116 0.03026645498699328 0 0.0099716572600823967 0.030164148090447158 0 0.0099251052077466116 0.03026645498699328 0 0.0099296251765591155 0.0303227228385776 0 0.0099716572600823967 0.030164148090447158 0 0.0098319708151720191 0.030411899628303006 0 0.0099251052077466116 0.03026645498699328 0 0.0099012465306571283 0.030409063706985866 0 0.0099012465306571283 0.030409063706985866 0 0.0098681824006226302 0.030526223293168637 0 0.0098934108328148362 0.03044413155385552 0 0.0098810877491331568 0.030521682687859639 0 0.0099012465306571283 0.030409063706985866 0 0.0098681824006226302 0.030526223293168637 0 0.0098810877491331568 0.030521682687859639 0 0.0098681824006226302 0.030526223293168637 0 0.0098202026762336525 0.030620436264605932 0 0.0098681824006226302 0.030526223293168637 0 0.0098141594940680098 0.030622174688870643 0 0.0098202026762336525 0.030620436264605932 0 0.0098141594940680098 0.030622174688870643 0 0.0098934108328148362 0.03044413155385552 0 0.0099341916858622075 0.030319250398262283 0 0.0098141594940680098 0.030622174688870643 0 0.0099341916858622075 0.030319250398262283 0 0.0097118130278949933 0.030804320499030643 0 0.0098681824006226302 0.030526223293168637 0 0.0098141594940680098 0.030622174688870643 0 0.0098934108328148362 0.03044413155385552 0 0.0098934108328148362 0.03044413155385552 0 0.0099296251765591155 0.0303227228385776 0 0.0099341916858622075 0.030319250398262283 0 0.0099012465306571283 0.030409063706985866 0 0.0098934108328148362 0.03044413155385552 0 0.0099296251765591155 0.0303227228385776 0 0.0099296251765591155 0.0303227228385776 0 0.0099341916858622075 0.030319250398262283 0 0.0099716572600823967 0.030164148090447158 0 -0.0026855604723745449 0.028361589571454054 0 0.00023602444334644044 0.028522202233926187 0 -0.002734984127148947 0.029975785982979029 0 -0.0012325234501241534 0.027218689004551943 0 -0.0026855604723745449 0.028361589571454054 0 -0.0043897847994178478 0.027663405466979769 0 -0.0012325234501241534 0.027218689004551943 0 -0.0026855604723745449 0.028361589571454054 0 0.00023602444334644044 0.028522202233926187 0 0.010094980530687732 0.029726908617091138 0 0.0099341916858622075 0.030319250398262283 0 0.010022561831903138 0.02998851385756629 0 0.0039473281725656197 0.029661686897485894 0 -0.0012325234501241534 0.027218689004551943 0 0.00023602444334644044 0.028522202233926187 0 0.0099341916858622075 0.030319250398262283 0 0.010022561831903138 0.02998851385756629 0 0.0099716572600823967 0.030164148090447158 0 0.0072829948511589585 0.027111338419349283 0 0.004350305776079204 0.029155337139543189 0 0.010028574881924466 0.029961371574258763 0 0.0099711272804791657 0.030111191632284387 0 0.010022561831903138 0.02998851385756629 0 0.0099711272804791657 0.030111191632284387 0 0.010022561831903138 0.02998851385756629 0 0.0099716572600823967 0.030164148090447158 0 -0.0070062997997933025 0.025410482606637749 0 -0.0063576877763784605 0.025444353805989868 0 -0.0068019323117996045 0.025386203129726202 0 -0.0069340349954341044 0.02734084340445855 0 -0.0064345726596594143 0.02542292483197171 0 -0.0069708273173875283 0.025401078071972161 0 -0.0070062997997933025 0.025410482606637749 0 -0.0068019323117996045 0.025386203129726202 0 -0.0069708273173875283 0.025401078071972161 0 -0.0070062997997933025 0.025410482606637749 0 -0.0070500659484105032 0.025361613605548172 0 -0.0069708273173875283 0.025401078071972161 0 -0.0070086799874724591 0.025397319190816735 0 -0.0070500659484105032 0.025361613605548172 0 -0.0070062997997933025 0.025410482606637749 0 -0.0070500659484105032 0.025361613605548172 0 -0.0070219638502020156 0.025260202446977513 0 -0.006874474524059363 0.028438959173583429 0 -0.0043897847994178478 0.027663405466979769 0 -0.0047578466661025616 0.029372244060088003 0 -0.0012325234501241534 0.027218689004551943 0 -0.0043897847994178478 0.027663405466979769 0 -0.0063576877763784605 0.025444353805989868 0 -0.0026855604723745449 0.028361589571454054 0 -0.0043897847994178478 0.027663405466979769 0 -0.0047578466661025616 0.029372244060088003 0 -0.0026855604723745449 0.028361589571454054 0 -0.002734984127148947 0.029975785982979029 0 -0.0047578466661025616 0.029372244060088003 0 -0.006874474524059363 0.028438959173583429 0 -0.0043897847994178478 0.027663405466979769 0 -0.0063576877763784605 0.025444353805989868 0 -0.0012325234501241534 0.027218689004551943 0 -0.0063576877763784605 0.025444353805989868 0 -0.0067550083115098282 0.025030779912372746 0 0.0099341916858622075 0.030319250398262283 0 0.0097118130278949933 0.030804320499030643 0 0.009545992679158807 0.031108514120327963 0 0.004350305776079204 0.029155337139543189 0 0.0013785449804501735 0.028031945149230471 0 0.0097118130278949933 0.030804320499030643 0 0.0097656049256585661 0.030703187632630673 0 0.009684794161103006 0.030736563992065861 0 0.0097656049256585661 0.030703187632630673 0 0.0098202026762336525 0.030620436264605932 0 0.009684794161103006 0.030736563992065861 0 0.0098141594940680098 0.030622174688870643 0 0.0097656049256585661 0.030703187632630673 0 0.0098202026762336525 0.030620436264605932 0 0.0098141594940680098 0.030622174688870643 0 0.0097118130278949933 0.030804320499030643 0 0.0097656049256585661 0.030703187632630673 0 0.0097118130278949933 0.030804320499030643 0 0.0095868958533946134 0.030900979116674908 0 0.009684794161103006 0.030736563992065861 0 0.0097118130278949933 0.030804320499030643 0 0.0095868958533946134 0.030900979116674908 0 0.009545992679158807 0.031108514120327963 0 0.0095868958533946134 0.030900979116674908 0 0.0094612843208474393 0.030948754839322801 0 0.009545992679158807 0.031108514120327963 0 0.0095868958533946134 0.030900979116674908 0 0.009684794161103006 0.030736563992065861 0 0.0094923787519900615 0.030829817252203174 0 0.0095868958533946134 0.030900979116674908 0 0.0094923787519900615 0.030829817252203174 0 0.0094612843208474393 0.030948754839322801 0 0.0091549509075998722 0.030938582752397619 0 0.009545992679158807 0.031108514120327963 0 0.0071906030306391859 0.031286078911160746 0 0.0094923787519900615 0.030829817252203174 0 0.0091549509075998722 0.030938582752397619 0 0.0094612843208474393 0.030948754839322801 0 0.0013785449804501735 0.028031945149230471 0 3.5026898203872614e-05 0.028619486014322366 0 -0.0067550083115098282 0.025030779912372746 0 -0.006934853920693645 0.025314746272179518 0 -0.0071816301431776976 0.025771216467337953 0 0.0091549509075998722 0.030938582752397619 0 0.0094612843208474393 0.030948754839322801 0 0.009545992679158807 0.031108514120327963 0 -0.0067550083115098282 0.025030779912372746 0 -0.0068579819006815831 0.025264171722144641 0 -0.006934853920693645 0.025314746272179518 0 -0.0067550083115098282 0.025030779912372746 0 -0.0067412916211907117 0.02526450516723381 0 -0.0068579819006815831 0.025264171722144641 0 -0.0063576877763784605 0.025444353805989868 0 -0.0067550083115098282 0.025030779912372746 0 -0.0067412916211907117 0.02526450516723381 0 -0.0068579819006815831 0.025264171722144641 0 -0.0068019323117996045 0.025386203129726202 0 -0.0070086799874724591 0.025397319190816735 0 -0.0067412916211907117 0.02526450516723381 0 -0.0068579819006815831 0.025264171722144641 0 -0.0068019323117996045 0.025386203129726202 0 -0.0063576877763784605 0.025444353805989868 0 -0.0067412916211907117 0.02526450516723381 0 -0.0068019323117996045 0.025386203129726202 0 -0.0070086799874724591 0.025397319190816735 0 -0.006934853920693645 0.025314746272179518 0 -0.0070719473541397916 0.025502303423598216 0 -0.0069708273173875283 0.025401078071972161 0 -0.0068019323117996045 0.025386203129726202 0 -0.0070086799874724591 0.025397319190816735 0 -0.0068579819006815831 0.025264171722144641 0 -0.0070086799874724591 0.025397319190816735 0 -0.006934853920693645 0.025314746272179518 0 0.0091549509075998722 0.030938582752397619 0 0.0088857243062863758 0.030808213921663247 0 0.0071906030306391859 0.031286078911160746 0 0.0085316502953608226 0.03067594762407265 0 0.0088857243062863758 0.030808213921663247 0 0.0090474653493777379 0.030670613777005393 0 0.0091549509075998722 0.030938582752397619 0 0.0088857243062863758 0.030808213921663247 0 0.0093222724852465143 0.03072514767420936 0 0.0094923787519900615 0.030829817252203174 0 0.0091549509075998722 0.030938582752397619 0 0.0093222724852465143 0.03072514767420936 0 0.0093222724852465143 0.03072514767420936 0 0.0090474653493777379 0.030670613777005393 0 0.0094517025845734116 0.030585516452824441 0 0.0088857243062863758 0.030808213921663247 0 0.0093222724852465143 0.03072514767420936 0 0.0090474653493777379 0.030670613777005393 0 0.0094517025845734116 0.030585516452824441 0 0.0089584423570745648 0.030571217923489179 0 0.0092829397112039799 0.030429323090248098 0 0.0090474653493777379 0.030670613777005393 0 0.0094517025845734116 0.030585516452824441 0 0.0089584423570745648 0.030571217923489179 0 0.0089584423570745648 0.030571217923489179 0 0.0092829397112039799 0.030429323090248098 0 0.0081804511126148706 0.030549838994760818 0 0.0085316502953608226 0.03067594762407265 0 0.0089584423570745648 0.030571217923489179 0 0.0081804511126148706 0.030549838994760818 0 0.0085316502953608226 0.03067594762407265 0 0.0090474653493777379 0.030670613777005393 0 0.0089584423570745648 0.030571217923489179 0 0.0098810877491331568 0.030521682687859639 0 0.0098202026762336525 0.030620436264605932 0 0.0097734218687561009 0.030600064919631225 0 0.0098202026762336525 0.030620436264605932 0 0.009684794161103006 0.030736563992065861 0 0.0097734218687561009 0.030600064919631225 0 0.009684794161103006 0.030736563992065861 0 0.0097734218687561009 0.030600064919631225 0 0.0095564823105599508 0.030695273611854378 0 0.0094517025845734116 0.030585516452824441 0 0.0097734218687561009 0.030600064919631225 0 0.0095564823105599508 0.030695273611854378 0 0.0094923787519900615 0.030829817252203174 0 0.0093222724852465143 0.03072514767420936 0 0.0095564823105599508 0.030695273611854378 0 0.009684794161103006 0.030736563992065861 0 0.0094923787519900615 0.030829817252203174 0 0.0095564823105599508 0.030695273611854378 0 0.0093222724852465143 0.03072514767420936 0 0.0094517025845734116 0.030585516452824441 0 0.0095564823105599508 0.030695273611854378 0 0.0094517025845734116 0.030585516452824441 0 0.0097734218687561009 0.030600064919631225 0 0.009774355266513237 0.030499171884387104 0 0.0094517025845734116 0.030585516452824441 0 0.009774355266513237 0.030499171884387104 0 0.0092829397112039799 0.030429323090248098 0 0.0098810877491331568 0.030521682687859639 0 0.0097734218687561009 0.030600064919631225 0 0.0099010872258820434 0.030531204960416954 0 0.0097734218687561009 0.030600064919631225 0 0.0099010872258820434 0.030531204960416954 0 0.009774355266513237 0.030499171884387104 0 0.0099010872258820434 0.030531204960416954 0 0.009774355266513237 0.030499171884387104 0 0.010121383303722196 0.030560162372962101 0 0.009774355266513237 0.030499171884387104 0 0.0092829397112039799 0.030429323090248098 0 0.0096534587388751505 0.030084649210295227 0 0.009774355266513237 0.030499171884387104 0 0.010121383303722196 0.030560162372962101 0 0.0096534587388751505 0.030084649210295227 0 0.010281728798155887 0.031167814374490354 0 0.0079084215907965164 0.032142347652058118 0 0.0079084215907965164 0.032142347652058118 0 0.0093561720373322218 0.029083236421267571 0 0.0069780226110845072 0.026367037678204665 0 0.0109123346078316 0.027302668897839857 0 0.0085262799328278301 0.02827840478988276 0 0.0092829397112039799 0.030429323090248098 0 0.0096534587388751505 0.030084649210295227 0 0.0081804511126148706 0.030549838994760818 0 0.0109123346078316 0.027302668897839857 0 0.0085262799328278301 0.02827840478988276 0 0.0081804511126148706 0.030549838994760818 0 0.0085262799328278301 0.02827840478988276 0 0.0076647887511197737 0.029374139341173167 0 0.0081804511126148706 0.030549838994760818 0 0.0085262799328278301 0.02827840478988276 0 0.0076647887511197737 0.029374139341173167 0 0.0063154616853271983 0.028723859757328708 0 0.0069780226110845072 0.026367037678204665 0 0.0085262799328278301 0.02827840478988276 0 0.0063154616853271983 0.028723859757328708 0 0.0063154616853271983 0.028723859757328708 0 0.004130999986474022 0.027522524035212145 0 0.0024799428095763202 0.029688582307025053 0 0.0069780226110845072 0.026367037678204665 0 0.0063154616853271983 0.028723859757328708 0 0.004130999986474022 0.027522524035212145 0 0.0063154616853271983 0.028723859757328708 0 0.0071906030306391859 0.031286078911160746 0 0.0024799428095763202 0.029688582307025053 0 -0.0071816301431776976 0.025771216467337953 0 -0.007093764202618264 0.026156579496798636 0 -0.0072109033636436328 0.025933896179833132 0 3.5026898203872614e-05 0.028619486014322366 0 -0.0024045579543315473 0.026948298137796336 0 0.0076647887511197737 0.029374139341173167 0 0.0063154616853271983 0.028723859757328708 0 0.0071906030306391859 0.031286078911160746 0 0.0085316502953608226 0.03067594762407265 0 0.0088857243062863758 0.030808213921663247 0 0.0071906030306391859 0.031286078911160746 0 0.0085316502953608226 0.03067594762407265 0 0.0071906030306391859 0.031286078911160746 0 0.0081804511126148706 0.030549838994760818 0 0.0076647887511197737 0.029374139341173167 0 0.0071906030306391859 0.031286078911160746 0 0.0081804511126148706 0.030549838994760818 0 -0.0059334900679355726 0.032839384760288956 0 -0.0024045579543315473 0.026948298137796336 0 -0.0080526125096157652 0.025409666478969806 0 -0.007093764202618264 0.026156579496798636 0 -0.0075678465374244865 0.026308798846558099 0 -0.0080526125096157652 0.025409666478969806 0 -0.0075678465374244865 0.026308798846558099 0 -0.0089503693732820092 0.026101298969454543 0 -0.0023007745817556708 0.027609437178620331 0 0.0023274685349229424 0.02753204645068312 0 0.0024799428095763202 0.029688582307025053 0 0.004130999986474022 0.027522524035212145 0 0.0023274685349229424 0.02753204645068312 0 0.0024799428095763202 0.029688582307025053 0 -0.007093764202618264 0.026156579496798636 0 -0.0075678465374244865 0.026308798846558099 0 -0.0073570130298391302 0.026357560931089281 0 -0.007093764202618264 0.026156579496798636 0 -0.0073570130298391302 0.026357560931089281 0 -0.0072109033636436328 0.025933896179833132 0 -0.0075678465374244865 0.026308798846558099 0 -0.0074354595629129855 0.027158985887865392 0 -0.0073570130298391302 0.026357560931089281 0 -0.0075678465374244865 0.026308798846558099 0 -0.0074354595629129855 0.027158985887865392 0 -0.0089503693732820092 0.026101298969454543 0 -0.0074354595629129855 0.027158985887865392 0 -0.0073309645275996321 0.02621787436937046 0 -0.0073570130298391302 0.026357560931089281 0 -0.0073309645275996321 0.02621787436937046 0 -0.0074303040140207086 0.025975735885198005 0 -0.0073570130298391302 0.026357560931089281 0 -0.0073309645275996321 0.02621787436937046 0 -0.0074303040140207086 0.025975735885198005 0 -0.0074045042735346534 0.02551742938912268 0 -0.0073570130298391302 0.026357560931089281 0 -0.0073994558626479202 0.025916411368033285 0 -0.0072109033636436328 0.025933896179833132 0 -0.0074303040140207086 0.025975735885198005 0 -0.0073570130298391302 0.026357560931089281 0 -0.0073994558626479202 0.025916411368033285 0 -0.0074303040140207086 0.025975735885198005 0 -0.0073994558626479202 0.025916411368033285 0 -0.007538810770146941 0.025680515478832416 0 -0.007538810770146941 0.025680515478832416 0 -0.0071387655727372379 0.025805059377279779 0 -0.0078695568740789132 0.025123518224024206 0 -0.007538810770146941 0.025680515478832416 0 -0.0074045042735346534 0.02551742938912268 0 -0.0078695568740789132 0.025123518224024206 0 -0.0074303040140207086 0.025975735885198005 0 -0.007538810770146941 0.025680515478832416 0 -0.0074045042735346534 0.02551742938912268 0 -0.0074045042735346534 0.02551742938912268 0 -0.0070388460299322612 0.024592721603072219 0 -0.0064498494090943041 0.025300927317331696 0 -0.0073309645275996321 0.02621787436937046 0 -0.0074045042735346534 0.02551742938912268 0 -0.0064498494090943041 0.025300927317331696 0 -0.0074045042735346534 0.02551742938912268 0 -0.0070388460299322612 0.024592721603072219 0 -0.0078695568740789132 0.025123518224024206 0 -0.006934853920693645 0.025314746272179518 0 -0.0071816301431776976 0.025771216467337953 0 -0.0070719473541397916 0.025502303423598216 0 -0.0071251985051486574 0.025617685273437819 0 -0.0070969373173663556 0.02547711903062496 0 -0.0071316712016566688 0.025338620544686958 0 -0.0071251985051486574 0.025617685273437819 0 -0.0071387655727372379 0.025805059377279779 0 -0.0071316712016566688 0.025338620544686958 0 -0.0071251985051486574 0.025617685273437819 0 -0.0070969373173663556 0.02547711903062496 0 -0.0071225530842143701 0.025613869134259327 0 -0.0071251985051486574 0.025617685273437819 0 -0.0071225530842143701 0.025613869134259327 0 -0.0071466598471287435 0.025742445684475753 0 -0.0070086799874724591 0.025397319190816735 0 -0.0070969373173663556 0.02547711903062496 0 -0.0070719473541397916 0.025502303423598216 0 -0.0070969373173663556 0.02547711903062496 0 -0.0070719473541397916 0.025502303423598216 0 -0.0071225530842143701 0.025613869134259327 0 -0.0071816301431776976 0.025771216467337953 0 -0.0070719473541397916 0.025502303423598216 0 -0.0071225530842143701 0.025613869134259327 0 -0.0071816301431776976 0.025771216467337953 0 -0.0071225530842143701 0.025613869134259327 0 -0.0071466598471287435 0.025742445684475753 0 -0.0073994558626479202 0.025916411368033285 0 -0.007538810770146941 0.025680515478832416 0 -0.0071387655727372379 0.025805059377279779 0 -0.0071466598471287435 0.025742445684475753 0 -0.0072109033636436328 0.025933896179833132 0 -0.0071387655727372379 0.025805059377279779 0 -0.0071816301431776976 0.025771216467337953 0 -0.0071466598471287435 0.025742445684475753 0 -0.0072109033636436328 0.025933896179833132 0 -0.0073994558626479202 0.025916411368033285 0 -0.0072109033636436328 0.025933896179833132 0 -0.0071387655727372379 0.025805059377279779 0 -0.0071251985051486574 0.025617685273437819 0 -0.0071466598471287435 0.025742445684475753 0 -0.0071387655727372379 0.025805059377279779 0 -0.0071387655727372379 0.025805059377279779 0 -0.0068220089372400868 0.024766835711773363 0 -0.0047830011088971138 0.023734246480465536 0 -0.0071387655727372379 0.025805059377279779 0 -0.0068220089372400868 0.024766835711773363 0 -0.0071316712016566688 0.025338620544686958 0 -0.0070702468074978096 0.025644286572883642 0 -0.0063311135773468493 0.024356227977410588 0 -0.0068220089372400868 0.024766835711773363 0 -0.006968888489109766 0.025015141890678542 0 -0.0071316712016566688 0.025338620544686958 0 -0.006968888489109766 0.025015141890678542 0 -0.0071316712016566688 0.025338620544686958 0 -0.0070462060781901498 0.025206723968004052 0 -0.0070086799874724591 0.025397319190816735 0 -0.0070969373173663556 0.02547711903062496 0 -0.0070500659484105032 0.025361613605548172 0 -0.0070969373173663556 0.02547711903062496 0 -0.0071316712016566688 0.025338620544686958 0 -0.0070500659484105032 0.025361613605548172 0 -0.0071316712016566688 0.025338620544686958 0 -0.0070500659484105032 0.025361613605548172 0 -0.0070462060781901498 0.025206723968004052 0 -0.0070500659484105032 0.025361613605548172 0 -0.0070462060781901498 0.025206723968004052 0 -0.0070219638502020156 0.025260202446977513 0 -0.0070462060781901498 0.025206723968004052 0 -0.0070028545362004835 0.025155811617800741 0 -0.0070219638502020156 0.025260202446977513 0 -0.0070028545362004835 0.025155811617800741 0 -0.0070105507231190863 0.025135461937273066 0 -0.0070283846420203556 0.025188222707261568 0 -0.006968888489109766 0.025015141890678542 0 -0.0070462060781901498 0.025206723968004052 0 -0.0070028545362004835 0.025155811617800741 0 -0.0064605924679035538 0.022759042747223873 0 -0.0045571473742921 0.025870044598560241 0 -0.006968888489109766 0.025015141890678542 0 -0.0070028545362004835 0.025155811617800741 0 -0.0070105507231190863 0.025135461937273066 0 -0.0069582049478229165 0.024890748981045315 0 -0.0064605924679035538 0.022759042747223873 0 -0.0068220089372400868 0.024766835711773363 0 -0.0063954311652468752 0.023013476761976386 0 -0.0047830011088971138 0.023734246480465536 0 -0.0068220089372400868 0.024766835711773363 0 -0.0077990955425016857 0.021856324769258008 0 -0.0063954311652468752 0.023013476761976386 0 -0.0068220089372400868 0.024766835711773363 0 -0.006968888489109766 0.025015141890678542 0 -0.0070105507231190863 0.025135461937273066 0 -0.0063954311652468752 0.023013476761976386 0 -0.0070263771294508219 0.021757744803908872 0 -0.0060597140740205118 0.021545888065698068 0 -0.0063954311652468752 0.023013476761976386 0 -0.0060597140740205118 0.021545888065698068 0 -0.0051925975570069807 0.02202096369939548 0 -0.0077990955425016857 0.021856324769258008 0 -0.0063954311652468752 0.023013476761976386 0 -0.0070263771294508219 0.021757744803908872 0 -0.0064605924679035538 0.022759042747223873 0 -0.0069378894820768732 0.022557692328779064 0 -0.0058776420209841768 0.02057327589765497 0 -0.0076485343009827476 0.020468572199006777 0 -0.004632615720036746 0.019553270982569596 0 -0.0070263771294508219 0.021757744803908872 0 -0.0067149637862535709 0.020949709725162143 0 -0.0073949418832227427 0.021215406386581218 0 -0.0049280945711362044 0.020549303568254202 0 -0.0050775379725926401 0.019514291727270712 0 -0.00769129412729006 0.021874929864243938 0 -0.0070263771294508219 0.021757744803908872 0 -0.0073949418832227427 0.021215406386581218 0 -0.0070263771294508219 0.021757744803908872 0 -0.0067149637862535709 0.020949709725162143 0 -0.0060597140740205118 0.021545888065698068 0 -0.0067149637862535709 0.020949709725162143 0 -0.0073949418832227427 0.021215406386581218 0 -0.0076485343009827476 0.020468572199006777 0 -0.0060597140740205118 0.021545888065698068 0 -0.0058776420209841768 0.02057327589765497 0 -0.0046386575453434163 0.020613478190057058 0 -0.0067149637862535709 0.020949709725162143 0 -0.0060597140740205118 0.021545888065698068 0 -0.0058776420209841768 0.02057327589765497 0 -0.0067149637862535709 0.020949709725162143 0 -0.0058776420209841768 0.02057327589765497 0 -0.0076485343009827476 0.020468572199006777 0 -0.0043239794778333167 0.0214067048179056 0 -0.0018325877759763104 0.022291452887855025 0 -0.0028237933422862534 0.020878350205149436 0 -0.0029622652785833013 0.020944049335040751 0 -0.0030044991363910628 0.020192418727715031 0 -0.0050710726951117358 0.022771334871166865 0 -0.0048423458053838443 0.023330892403422131 0 -0.0036185613480137252 0.022787375179282487 0 -0.0049280945711362044 0.020549303568254202 0 -0.0043239794778333167 0.0214067048179056 0 -0.00769129412729006 0.021874929864243938 0 -0.0073949418832227427 0.021215406386581218 0 -0.0081577904285358438 0.020724149624356168 0 -0.0064605924679035538 0.022759042747223873 0 -0.0043239794778333167 0.0214067048179056 0 -0.0073949418832227427 0.021215406386581218 0 -0.0076485343009827476 0.020468572199006777 0 -0.0081577904285358438 0.020724149624356168 0 -0.0070388460299322612 0.024592721603072219 0 -0.0078695568740789132 0.025123518224024206 0 -0.0072234320258239455 0.023070712116195838 0 -0.0070388460299322612 0.024592721603072219 0 -0.0072234320258239455 0.023070712116195838 0 -0.0059234435563795219 0.023677051136081269 0 -0.0047830011088971138 0.023734246480465536 0 -0.0051925975570069807 0.02202096369939548 0 -0.0033803482390135091 0.020947072780231897 0 -0.0063311135773468493 0.024356227977410588 0 -0.0053087333365665216 0.02206095327589256 0 -0.0063954311652468752 0.023013476761976386 0 -0.0047830011088971138 0.023734246480465536 0 -0.0051925975570069807 0.02202096369939548 0 -0.0051925975570069807 0.02202096369939548 0 -0.0046386575453434163 0.020613478190057058 0 -0.0033803482390135091 0.020947072780231897 0 -0.0060597140740205118 0.021545888065698068 0 -0.0051925975570069807 0.02202096369939548 0 -0.0046386575453434163 0.020613478190057058 0 -0.0058776420209841768 0.02057327589765497 0 -0.0046386575453434163 0.020613478190057058 0 -0.004632615720036746 0.019553270982569596 0 -0.0033803482390135091 0.020947072780231897 0 -0.0038108357238027211 0.019712176880998172 0 -0.003377692399978505 0.019631605199259907 0 -0.0046386575453434163 0.020613478190057058 0 -0.0033803482390135091 0.020947072780231897 0 -0.0038108357238027211 0.019712176880998172 0 -0.0038108357238027211 0.019712176880998172 0 -0.004632615720036746 0.019553270982569596 0 -0.00424206622254613 0.019198717978527746 0 -0.0046386575453434163 0.020613478190057058 0 -0.0038108357238027211 0.019712176880998172 0 -0.004632615720036746 0.019553270982569596 0 -0.004632615720036746 0.019553270982569596 0 -0.00424206622254613 0.019198717978527746 0 -0.0041911342069457262 0.019229071841793212 0 -0.00424206622254613 0.019198717978527746 0 -0.0040355939239976549 0.019053806964911057 0 -0.004408456731494397 0.018642413908190988 0 -0.00424206622254613 0.019198717978527746 0 -0.0041911342069457262 0.019229071841793212 0 -0.004408456731494397 0.018642413908190988 0 -0.0038108357238027211 0.019712176880998172 0 -0.0040355939239976549 0.019053806964911057 0 -0.0036433022449828515 0.019203914460396251 0 -0.0038108357238027211 0.019712176880998172 0 -0.00424206622254613 0.019198717978527746 0 -0.0040355939239976549 0.019053806964911057 0 -0.0020954450581237849 0.021517669901232727 0 -0.0020832683915416568 0.021497218358551416 0 -0.0020929242459362478 0.021511218954553758 0 -0.0043239794778333167 0.0214067048179056 0 -0.0011361477562295478 0.021292805321809903 0 -0.0049280945711362044 0.020549303568254202 0 -0.0036647699291448297 0.01983529009154715 0 -0.004305510826577783 0.019299816995287863 0 -0.0043770059745694119 0.019302570509576403 0 -0.0043586662198258613 0.019394860831966378 0 -0.0029622652785833013 0.020944049335040751 0 -0.0030044991363910628 0.020192418727715031 0 -0.0033078569281466252 0.019969054325118373 0 -0.0043770059745694119 0.019302570509576403 0 -0.0043586662198258613 0.019394860831966378 0 -0.0041911342069457262 0.019229071841793212 0 -0.004305510826577783 0.019299816995287863 0 -0.004632615720036746 0.019553270982569596 0 -0.0043586662198258613 0.019394860831966378 0 -0.004632615720036746 0.019553270982569596 0 -0.0043586662198258613 0.019394860831966378 0 -0.0041911342069457262 0.019229071841793212 0 -0.0041260500020307471 0.019128368820695258 0 -0.003793740237069299 0.018296447447105676 0 -0.0041911342069457262 0.019229071841793212 0 -0.0040203606982124346 0.018737271081986206 0 -0.0031173853889612958 0.017976176444727168 0 -0.0043770059745694119 0.019302570509576403 0 -0.0041911342069457262 0.019229071841793212 0 -0.0040203606982124346 0.018737271081986206 0 -0.0036647699291448297 0.01983529009154715 0 -0.0021635902823802233 0.017912840536021636 0 -0.0043770059745694119 0.019302570509576403 0 -0.0040203606982124346 0.018737271081986206 0 -0.004413971636710627 0.018619282092673259 0 -0.0030044991363910628 0.020192418727715031 0 -0.0031844487832245303 0.019491548735896678 0 -0.0033078569281466252 0.019969054325118373 0 -0.0021635902823802233 0.017912840536021636 0 -0.0011361477562295478 0.021292805321809903 0 1.161656818025335e-05 0.020120536274011367 0 -0.00011124396700405409 0.020612852231283767 0 -0.00037075453874689122 0.019907385425869738 0 0.001218130478510834 0.02291400738999496 0 0.0029329373465788273 0.022803449378391082 0 0.0018381684898724213 0.024418531463806088 0 0.0043469768792909445 0.021477989712687613 0 0.0038379544129252324 0.022342736290430789 0 0.0043206683032533475 0.022379380436418593 0 0.0036511859361041958 0.022325220634907827 0 0.0022617367517764864 0.022149515494817362 0 -0.0011361477562295478 0.021292805321809903 0 0.0022617367517764864 0.022149515494817362 0 0.001218130478510834 0.02291400738999496 0 0.0015475472086664028 0.021421789993943251 0 0.0028717695860406051 0.021775412803804742 0 -0.0011361477562295478 0.021292805321809903 0 -0.00019574683025078672 0.02126365606510584 0 0.001218130478510834 0.02291400738999496 0 0.0028717695860406051 0.021775412803804742 0 0.0029329373465788273 0.022803449378391082 0 0.0028717695860406051 0.021775412803804742 0 0.0029329373465788273 0.022803449378391082 0 0.0041563873978368833 0.021135907419685056 0 0.0043469768792909445 0.021477989712687613 0 0.0052787700695477932 0.020724235424850454 0 0.0049079205442594002 0.020502946714501244 0 0.0036511859361041958 0.022325220634907827 0 0.0045574440874744772 0.020738815324116908 0 0.0043469768792909445 0.021477989712687613 0 0.0043206683032533475 0.022379380436418593 0 0.0048192768476244732 0.022368747763262212 0 0.0043469768792909445 0.021477989712687613 0 0.0053966634240045618 0.021971037083617483 0 0.0048192768476244732 0.022368747763262212 0 0.0056223339054876937 0.02225153628962185 0 0.0062021424315712986 0.021563543377017987 0 0.0065311667359079055 0.022544672105383669 0 0.0069335281083910622 0.021709362750288008 0 0.0062021424315712986 0.021563543377017987 0 0.0065311667359079055 0.022544672105383669 0 0.0066938197150710546 0.020917418413191374 0 0.0069335281083910622 0.021709362750288008 0 0.0062021424315712986 0.021563543377017987 0 0.0062021424315712986 0.021563543377017987 0 0.0060355513549889229 0.020755710123833516 0 0.0052787700695477932 0.020724235424850454 0 0.0066938197150710546 0.020917418413191374 0 0.0062021424315712986 0.021563543377017987 0 0.0060355513549889229 0.020755710123833516 0 0.0066938197150710546 0.020917418413191374 0 0.0060355513549889229 0.020755710123833516 0 0.0066175958548202133 0.020337649680110984 0 0.0056223339054876937 0.02225153628962185 0 0.0062021424315712986 0.021563543377017987 0 0.0052787700695477932 0.020724235424850454 0 0.0055010871758675106 0.022077197372163508 0 0.0052976785880500541 0.020794262554705588 0 0.0043469768792909445 0.021477989712687613 0 0.0053966634240045618 0.021971037083617483 0 0.0052787700695477932 0.020724235424850454 0 0.0060355513549889229 0.020755710123833516 0 0.0052787700695477932 0.020724235424850454 0 0.0056161408978353238 0.020474424515544012 0 0.0049079205442594002 0.020502946714501244 0 0.0054021264058964173 0.020205191703808269 0 0.0054756048288036509 0.019230264705295434 0 0.0052787700695477932 0.020724235424850454 0 0.0049079205442594002 0.020502946714501244 0 0.0054021264058964173 0.020205191703808269 0 0.0045574440874744772 0.020738815324116908 0 0.0054223962328883964 0.019348864767811037 0 0.0041563873978368833 0.021135907419685056 0 0.0046078745945606538 0.020053022036430092 0 0.0054756048288036509 0.019230264705295434 0 0.0052787700695477932 0.020724235424850454 0 0.0056161408978353238 0.020474424515544012 0 0.0054021264058964173 0.020205191703808269 0 0.0056161408978353238 0.020474424515544012 0 0.0054021264058964173 0.020205191703808269 0 0.0057127057609036719 0.020060369187130819 0 0.0054021264058964173 0.020205191703808269 0 0.0057127057609036719 0.020060369187130819 0 0.0054756048288036509 0.019230264705295434 0 0.0041563873978368833 0.021135907419685056 0 0.0046078745945606538 0.020053022036430092 0 0.0040599396404969075 0.020482788770951204 0 0.0046078745945606538 0.020053022036430092 0 0.0040599396404969075 0.020482788770951204 0 0.0038125274566903041 0.020026617135428131 0 0.0060355513549889229 0.020755710123833516 0 0.0066175958548202133 0.020337649680110984 0 0.0062409196336697427 0.019993908494420391 0 0.0060355513549889229 0.020755710123833516 0 0.0056161408978353238 0.020474424515544012 0 0.0057127057609036719 0.020060369187130819 0 0.0060355513549889229 0.020755710123833516 0 0.0057127057609036719 0.020060369187130819 0 0.0062409196336697427 0.019993908494420391 0 0.0057127057609036719 0.020060369187130819 0 0.0062409196336697427 0.019993908494420391 0 0.005963325055993709 0.019578188394465592 0 0.006797872966479674 0.019816610048616103 0 0.0062409196336697427 0.019993908494420391 0 0.0064460219040336306 0.0194280283707348 0 0.0062409196336697427 0.019993908494420391 0 0.0064460219040336306 0.0194280283707348 0 0.005963325055993709 0.019578188394465592 0 0.006797872966479674 0.019816610048616103 0 0.0066175958548202133 0.020337649680110984 0 0.0062409196336697427 0.019993908494420391 0 0.0072829948511589585 0.027111338419349283 0 0.0022539620584580019 0.02424156347919762 0 0.0039473281725656197 0.029661686897485894 0 0.00023602444334644044 0.028522202233926187 0 -0.00061284703353018755 0.030212857510416198 0 0.0068771230363467847 0.018762728911876223 0 0.0063106981817959368 0.01908410855003391 0 0.0051458750091348138 0.019012887271152058 0 0.0066815858130899585 0.01911932289468548 0 0.0064460219040336306 0.0194280283707348 0 0.0063106981817959368 0.01908410855003391 0 0.0069242545264521426 0.019306395573824863 0 0.0066815858130899585 0.01911932289468548 0 0.0064460219040336306 0.0194280283707348 0 0.0064460219040336306 0.0194280283707348 0 0.0059458549976526137 0.01922219370201228 0 0.0063106981817959368 0.01908410855003391 0 0.0057127057609036719 0.020060369187130819 0 0.005963325055993709 0.019578188394465592 0 0.0054756048288036509 0.019230264705295434 0 0.0064460219040336306 0.0194280283707348 0 0.0059458549976526137 0.01922219370201228 0 0.005963325055993709 0.019578188394465592 0 0.0059458549976526137 0.01922219370201228 0 0.005963325055993709 0.019578188394465592 0 0.0054756048288036509 0.019230264705295434 0 0.0059458549976526137 0.01922219370201228 0 0.0063106981817959368 0.01908410855003391 0 0.0051458750091348138 0.019012887271152058 0 0.0068771230363467847 0.018762728911876223 0 0.0066815858130899585 0.01911932289468548 0 0.0063106981817959368 0.01908410855003391 0 -0.00061284703353018755 0.030212857510416198 0 -0.0020976231570248934 0.029687208453147821 0 -0.0043020070066835808 0.030590584827542788 0 0.0048768363502588253 0.019574539852030906 0 0.0051458750091348138 0.019012887271152058 0 0.0038125274566903041 0.020026617135428131 0 0.0046078745945606538 0.020053022036430092 0 0.0048768363502588253 0.019574539852030906 0 0.0038125274566903041 0.020026617135428131 0 0.0046078745945606538 0.020053022036430092 0 0.0048768363502588253 0.019574539852030906 0 0.0054756048288036509 0.019230264705295434 0 0.0059458549976526137 0.01922219370201228 0 0.0054756048288036509 0.019230264705295434 0 0.0051458750091348138 0.019012887271152058 0 0.0048768363502588253 0.019574539852030906 0 0.0054756048288036509 0.019230264705295434 0 0.0051458750091348138 0.019012887271152058 0 2.7881028534292177e-05 0.028634436144188979 0 -0.0030346371146291731 0.029934600917554073 0 0.00023602444334644044 0.028522202233926187 0 -0.00061284703353018755 0.030212857510416198 0 -0.0020976231570248934 0.029687208453147821 0 -0.0030346371146291731 0.029934600917554073 0 -0.0021028392204895867 0.026320222972921862 0 0.0022539620584580019 0.02424156347919762 0 -0.0021028392204895867 0.026320222972921862 0 0.0051458750091348138 0.019012887271152058 0 0.0028266526251155125 0.019368825698322715 0 0.0038125274566903041 0.020026617135428131 0 -0.002734984127148947 0.029975785982979029 0 -0.0055770069195298271 0.031195923509758274 0 -0.0047578466661025616 0.029372244060088003 0 0.0028266526251155125 0.019368825698322715 0 0.0038125274566903041 0.020026617135428131 0 0.0028151378668786558 0.019999993669431445 0 -0.006874474524059363 0.028438959173583429 0 -0.0055770069195298271 0.031195923509758274 0 -0.0047578466661025616 0.029372244060088003 0 -0.006874474524059363 0.028438959173583429 0 -0.0055770069195298271 0.031195923509758274 0 -0.0075364801479229099 0.031462227393373191 0 -0.0050710726951117358 0.022771334871166865 0 -0.0035663100476636543 0.022564555652408384 0 -0.0036185613480137252 0.022787375179282487 0 -0.0069340349954341044 0.02734084340445855 0 -0.0045571473742921 0.025870044598560241 0 -0.0070062997997933025 0.025410482606637749 0 -0.0070219638502020156 0.025260202446977513 0 -0.0070283846420203556 0.025188222707261568 0 -0.0070028545362004835 0.025155811617800741 0 -0.0070219638502020156 0.025260202446977513 0 -0.0070283846420203556 0.025188222707261568 0 -0.0021028392204895867 0.026320222972921862 0 -0.0018325877759763104 0.022291452887855025 0 0.0028266526251155125 0.019368825698322715 0 0.0018589792161036512 0.01986024945527563 0 0.0028151378668786558 0.019999993669431445 0 -0.0025416158527365022 0.025123652430571214 0 -0.0031635614756125013 0.025198160000848589 0 -0.0032137647347834329 0.025407375171588194 0 -0.0021028392204895867 0.026320222972921862 0 -0.0045571473742921 0.025870044598560241 0 -0.0045571473742921 0.025870044598560241 0 -0.0018325877759763104 0.022291452887855025 0 0.0018589792161036512 0.01986024945527563 0 0.0026945190955754671 0.020683255607097547 0 0.0028151378668786558 0.019999993669431445 0 0.0015475472086664028 0.021421789993943251 0 0.0018589792161036512 0.01986024945527563 0 0.0026945190955754671 0.020683255607097547 0 -0.0020954450581237849 0.021517669901232727 0 -0.0020929242459362478 0.021511218954553758 0 -0.0020979327590743267 0.021527550875346479 0 -0.00019574683025078672 0.02126365606510584 0 -0.0018325877759763104 0.022291452887855025 0 0.0015475472086664028 0.021421789993943251 0 0.0028717695860406051 0.021775412803804742 0 0.0026945190955754671 0.020683255607097547 0 0.0028717695860406051 0.021775412803804742 0 0.0026945190955754671 0.020683255607097547 0 0.0035143704067027177 0.02082993673365658 0 0.0028717695860406051 0.021775412803804742 0 0.0041563873978368833 0.021135907419685056 0 0.0035143704067027177 0.02082993673365658 0 0.0041563873978368833 0.021135907419685056 0 0.0040599396404969075 0.020482788770951204 0 0.0035143704067027177 0.02082993673365658 0 0.0026945190955754671 0.020683255607097547 0 0.0035143704067027177 0.02082993673365658 0 0.0038125274566903041 0.020026617135428131 0 0.0040599396404969075 0.020482788770951204 0 0.0035143704067027177 0.02082993673365658 0 0.0038125274566903041 0.020026617135428131 0 0.0026945190955754671 0.020683255607097547 0 0.0038125274566903041 0.020026617135428131 0 0.0028151378668786558 0.019999993669431445 0 -0.0015536490748028864 0.020854360008145206 0 -0.0012661535542759109 0.020601996494562867 0 -0.0016462390966711664 0.020186843884286359 0 -0.0015536490748028864 0.020854360008145206 0 -0.0012660101940559351 0.02097283401088644 0 -0.0014870975408683759 0.021242365396156326 0 -0.0015536490748028864 0.020854360008145206 0 -0.0012660101940559351 0.02097283401088644 0 -0.0012661535542759109 0.020601996494562867 0 -0.0012660101940559351 0.02097283401088644 0 -0.0012661535542759109 0.020601996494562867 0 -0.0010971395527932524 0.020748284732726826 0 -0.0015536490748028864 0.020854360008145206 0 -0.0019650515400588017 0.020811176024668251 0 -0.0016462390966711664 0.020186843884286359 0 -0.0015536490748028864 0.020854360008145206 0 -0.0019650515400588017 0.020811176024668251 0 -0.0017466907731360061 0.02115473622331333 0 -0.0019650515400588017 0.020811176024668251 0 -0.0020072001135546759 0.02136539652887523 0 -0.0024467897080573814 0.021153304670418246 0 -0.0019650515400588017 0.020811176024668251 0 -0.0017466907731360061 0.02115473622331333 0 -0.0020072001135546759 0.02136539652887523 0 -0.0017466907731360061 0.02115473622331333 0 -0.0020072001135546759 0.02136539652887523 0 -0.0017321772314177154 0.021474689050068361 0 -0.0017466907731360061 0.02115473622331333 0 -0.0017321772314177154 0.021474689050068361 0 -0.0014870975408683759 0.021242365396156326 0 -0.0017321772314177154 0.021474689050068361 0 -0.0014870975408683759 0.021242365396156326 0 -0.0014802063337206186 0.021526297055686015 0 -0.0015536490748028864 0.020854360008145206 0 -0.0017466907731360061 0.02115473622331333 0 -0.0014870975408683759 0.021242365396156326 0 -0.0012660101940559351 0.02097283401088644 0 -0.0014870975408683759 0.021242365396156326 0 -0.0011940218683410854 0.021340561062895096 0 -0.0014870975408683759 0.021242365396156326 0 -0.0011940218683410854 0.021340561062895096 0 -0.0014802063337206186 0.021526297055686015 0 -0.0011940218683410854 0.021340561062895096 0 -0.00075785122074322831 0.021313977876170731 0 -0.0010379425565836425 0.021000514596445752 0 -0.0012660101940559351 0.02097283401088644 0 -0.0011940218683410854 0.021340561062895096 0 -0.0010379425565836425 0.021000514596445752 0 -0.010801705782518874 0.021329560413954615 0 -0.010750147089547113 0.021457062221059434 0 -0.011006229253365567 0.021260575520249712 0 -0.010801705782518874 0.021329560413954615 0 -0.010722319922977841 0.021359439144855875 0 -0.010750147089547113 0.021457062221059434 0 -0.010205069883506624 0.020922725195482494 0 -0.010331726379508657 0.021316192375371284 0 -0.010750147089547113 0.021457062221059434 0 -0.0080281342712056926 0.021276233625080378 0 -0.010757445445835524 0.02191541455979518 0 -0.010331726379508657 0.021316192375371284 0 -0.010750147089547113 0.021457062221059434 0 -0.010496486357358019 0.021511858920914267 0 -0.010750147089547113 0.021457062221059434 0 -0.010821121573600793 0.021587684399991838 0 -0.011006229253365567 0.021260575520249712 0 -0.011823178186437579 0.020218461004512894 0 -0.011434373299940835 0.020337276109614177 0 -0.011131294373472295 0.020203907695996216 0 -0.011554401656816204 0.02067321046722102 0 -0.011574298927954526 0.020405833140106841 0 -0.011417834679121006 0.020504505513475275 0 -0.010750147089547113 0.021457062221059434 0 -0.010495467109736992 0.02171168924718743 0 -0.010496486357358019 0.021511858920914267 0 -0.010750147089547113 0.021457062221059434 0 -0.010821121573600793 0.021587684399991838 0 -0.010495467109736992 0.02171168924718743 0 -0.010331726379508657 0.021316192375371284 0 -0.010496486357358019 0.021511858920914267 0 -0.010278049311298526 0.021756335813007375 0 -0.010495467109736992 0.02171168924718743 0 -0.010496486357358019 0.021511858920914267 0 -0.010278049311298526 0.021756335813007375 0 -0.010495467109736992 0.02171168924718743 0 -0.010278049311298526 0.021756335813007375 0 -0.010245982911106477 0.021963851430639118 0 -0.010495467109736992 0.02171168924718743 0 -0.010245982911106477 0.021963851430639118 0 -0.010303412297112166 0.022332435128633317 0 -0.010821121573600793 0.021587684399991838 0 -0.010495467109736992 0.02171168924718743 0 -0.010303412297112166 0.022332435128633317 0 -0.011554401656816204 0.02067321046722102 0 -0.011574298927954526 0.020405833140106841 0 -0.011823178186437579 0.020218461004512894 0 -0.011574298927954526 0.020405833140106841 0 -0.011823178186437579 0.020218461004512894 0 -0.011434373299940835 0.020337276109614177 0 -0.011124456712355889 0.021138087381379265 0 -0.0094655630103864796 0.020025799238663766 0 -0.011574298927954526 0.020405833140106841 0 -0.011417834679121006 0.020504505513475275 0 -0.011434373299940835 0.020337276109614177 0 -0.010331726379508657 0.021316192375371284 0 -0.010278049311298526 0.021756335813007375 0 -0.0097888443200214083 0.022337324264504462 0 -0.0010379425565836425 0.021000514596445752 0 -0.0010971395527932524 0.020748284732726826 0 -0.00094705562835127708 0.020559546908764884 0 -0.00075785122074322831 0.021313977876170731 0 -0.0010379425565836425 0.021000514596445752 0 -0.00094705562835127708 0.020559546908764884 0 -0.010205069883506624 0.020922725195482494 0 -0.010331726379508657 0.021316192375371284 0 -0.0097888443200214083 0.022337324264504462 0 -0.0080281342712056926 0.021276233625080378 0 -0.0043501329650474166 0.021238292368789023 0 -0.0012660101940559351 0.02097283401088644 0 -0.0010379425565836425 0.021000514596445752 0 -0.0010971395527932524 0.020748284732726826 0 -0.010278049311298526 0.021756335813007375 0 -0.010245982911106477 0.021963851430639118 0 -0.0097888443200214083 0.022337324264504462 0 -0.010245982911106477 0.021963851430639118 0 -0.0097888443200214083 0.022337324264504462 0 -0.010303412297112166 0.022332435128633317 0 -0.0012661535542759109 0.020601996494562867 0 -0.0010971395527932524 0.020748284732726826 0 -0.00099967001219822119 0.020562612306196628 0 -0.0010971395527932524 0.020748284732726826 0 -0.00099967001219822119 0.020562612306196628 0 -0.00094705562835127708 0.020559546908764884 0 -0.00066811683229129975 0.020287726965606368 0 -0.0028332969701091444 0.020370396351568593 0 -0.0027686550635056466 0.019630807804967766 0 -0.0028086769299345039 0.01965112518175546 0 -0.0028300873320018707 0.019519893774470623 0 -0.00042626392296496338 0.020281840482308598 0 -0.00059185645844841007 0.019396236057908373 0 -0.0010286162403359267 0.019979727379454304 0 -0.0028332969701091444 0.020370396351568593 0 -0.0016739425844825844 0.018968366825836473 0 -0.0012661535542759109 0.020601996494562867 0 -0.00099967001219822119 0.020562612306196628 0 -0.00098017321829711995 0.02049522325543569 0 -0.0048530370352710007 0.01992413348290966 0 -0.0054319534535904272 0.020479441271244639 0 -0.0067447038773186269 0.019897108102196616 0 -0.0043501329650474166 0.021238292368789023 0 -0.0094655630103864796 0.020025799238663766 0 -0.0038241074981975771 0.021214754757276383 0 -0.0043501329650474166 0.021238292368789023 0 -0.0048530370352710007 0.01992413348290966 0 -0.0054319534535904272 0.020479441271244639 0 -0.004649125077514648 0.020665542592068969 0 -0.00099967001219822119 0.020562612306196628 0 -0.0009663626066754485 0.020562861158395965 0 -0.00098017321829711995 0.02049522325543569 0 -0.0043501329650474166 0.021238292368789023 0 -0.0028332969701091444 0.020370396351568593 0 -0.0054319534535904272 0.020479441271244639 0 -0.0057892199992606004 0.021195164375019431 0 -0.0067447038773186269 0.019897108102196616 0 -0.0054319534535904272 0.020479441271244639 0 -0.0057892199992606004 0.021195164375019431 0 -0.004649125077514648 0.020665542592068969 0 -0.0047503043227591635 0.01961518896231975 0 -0.0028332969701091444 0.020370396351568593 0 -0.0047503043227591635 0.01961518896231975 0 -0.0016739425844825844 0.018968366825836473 0 -0.0094655630103864796 0.020025799238663766 0 -0.010453453335584666 0.019474461862437602 0 -0.0047503043227591635 0.01961518896231975 0 -0.0055027201327510324 0.017877217691349541 0 -0.0095430249809998584 0.01868113803733535 0 -0.0098631409320357067 0.018850808516396856 0 -0.0092025961746949377 0.018875564898933626 0 -0.0099768301070913227 0.018682895648940448 0 -0.0095430249809998584 0.01868113803733535 0 -0.0093925461252510386 0.018295358936576012 0 -0.0099768301070913227 0.018682895648940448 0 -0.0095430249809998584 0.01868113803733535 0 -0.0098631409320357067 0.018850808516396856 0 -0.0015254089705464976 0.017797515818831388 0 -0.0013752495920690447 0.017670860023709815 0 -0.0012520538390749492 0.017700768651952997 0 -0.0047503043227591635 0.01961518896231975 0 -0.0094655630103864796 0.020025799238663766 0 -0.0015254089705464976 0.017797515818831388 0 -0.0013752495920690447 0.017670860023709815 0 -0.0014522669960346174 0.017679117365361909 0 -0.0014522669960346174 0.017679117365361909 0 -0.0014175650078065483 0.017599809259972031 0 -0.0015062683642747478 0.017647850771592349 0 -0.0013752495920690447 0.017670860023709815 0 -0.0014522669960346174 0.017679117365361909 0 -0.0014175650078065483 0.017599809259972031 0 -0.0014175650078065483 0.017599809259972031 0 -0.0015062683642747478 0.017647850771592349 0 -0.0014865829201422701 0.017579526935547245 0 -0.0014175650078065483 0.017599809259972031 0 -0.0012898748804907182 0.01754243222081622 0 -0.0013411387664685843 0.017424585121527631 0 -0.0013752495920690447 0.017670860023709815 0 -0.0014175650078065483 0.017599809259972031 0 -0.0012898748804907182 0.01754243222081622 0 -0.0015254089705464976 0.017797515818831388 0 -0.0015505259267310216 0.017629239876539058 0 -0.0015062683642747478 0.017647850771592349 0 -0.0015254089705464976 0.017797515818831388 0 -0.0014522669960346174 0.017679117365361909 0 -0.0015062683642747478 0.017647850771592349 0 -0.0015505259267310216 0.017629239876539058 0 -0.0015062683642747478 0.017647850771592349 0 -0.0015448241496273389 0.017639972661268818 0 -0.0015062683642747478 0.017647850771592349 0 -0.0015448241496273389 0.017639972661268818 0 -0.0014865829201422701 0.017579526935547245 0 -0.0015448241496273389 0.017639972661268818 0 -0.0014865829201422701 0.017579526935547245 0 -0.0015653040223472688 0.017672699738300504 0 -0.0015505259267310216 0.017629239876539058 0 -0.0015448241496273389 0.017639972661268818 0 -0.0015653040223472688 0.017672699738300504 0 -0.0013539564263616 0.019396887674606383 0 -0.0016462390966711664 0.020186843884286359 0 -0.001864502856058183 0.019287379769531127 0 -0.00059185645844841007 0.019396236057908373 0 -0.0013539564263616 0.019396887674606383 0 -0.0016474531957496789 0.017928756778650832 0 -0.0013539564263616 0.019396887674606383 0 -0.001864502856058183 0.019287379769531127 0 -0.0016474531957496789 0.017928756778650832 0 -0.00059185645844841007 0.019396236057908373 0 -0.0013539564263616 0.019396887674606383 0 -0.0010286162403359267 0.019979727379454304 0 -0.0013539564263616 0.019396887674606383 0 -0.0010286162403359267 0.019979727379454304 0 -0.0016462390966711664 0.020186843884286359 0 -0.0012661535542759109 0.020601996494562867 0 -0.0010286162403359267 0.019979727379454304 0 -0.0016462390966711664 0.020186843884286359 0 -0.0012661535542759109 0.020601996494562867 0 -0.00042626392296496338 0.020281840482308598 0 -0.0010286162403359267 0.019979727379454304 0 -0.0016462390966711664 0.020186843884286359 0 -0.001864502856058183 0.019287379769531127 0 -0.002288478132909757 0.020003787269525338 0 -0.0019650515400588017 0.020811176024668251 0 -0.0016462390966711664 0.020186843884286359 0 -0.002288478132909757 0.020003787269525338 0 -0.001864502856058183 0.019287379769531127 0 -0.0027166118645071025 0.019179860518722811 0 -0.002288478132909757 0.020003787269525338 0 -0.0027166118645071025 0.019179860518722811 0 -0.0027666426290220173 0.020640227806677566 0 -0.002288478132909757 0.020003787269525338 0 -0.0018977610134514357 0.019265230837960903 0 -0.0028057072646946774 0.018970743705504532 0 -0.0027166118645071025 0.019179860518722811 0 -0.0027666426290220173 0.020640227806677566 0 -0.0035835703845993015 0.019378498902201908 0 -0.0019650515400588017 0.020811176024668251 0 -0.0027666426290220173 0.020640227806677566 0 -0.002288478132909757 0.020003787269525338 0 -0.0036433022449828515 0.019203914460396251 0 -0.0035835703845993015 0.019378498902201908 0 -0.003377692399978505 0.019631605199259907 0 -0.0027166118645071025 0.019179860518722811 0 -0.0035835703845993015 0.019378498902201908 0 -0.0035763541673380977 0.018971943080597915 0 -0.0036433022449828515 0.019203914460396251 0 -0.0035835703845993015 0.019378498902201908 0 -0.0035763541673380977 0.018971943080597915 0 -0.0036771286500837477 0.019447028987707497 0 -0.0044627931769538262 0.02033893869843165 0 -0.0027666426290220173 0.020640227806677566 0 -0.0035835703845993015 0.019378498902201908 0 -0.0039223902635788016 0.020852202162993806 0 -0.0035835703845993015 0.019378498902201908 0 -0.0039223902635788016 0.020852202162993806 0 -0.0055962890341874263 0.020912842384401633 0 -0.0038108357238027211 0.019712176880998172 0 -0.0036433022449828515 0.019203914460396251 0 -0.003377692399978505 0.019631605199259907 0 -0.0055962890341874263 0.020912842384401633 0 -0.0038608292316945768 0.022772351962838604 0 -0.0059234435563795219 0.023677051136081269 0 -0.0053087333365665216 0.02206095327589256 0 -0.0044627931769538262 0.02033893869843165 0 -0.0072234320258239455 0.023070712116195838 0 -0.0055962890341874263 0.020912842384401633 0 -0.0059234435563795219 0.023677051136081269 0 -0.0039223902635788016 0.020852202162993806 0 -0.0055962890341874263 0.020912842384401633 0 -0.0038608292316945768 0.022772351962838604 0 -0.0038608292316945768 0.022772351962838604 0 -0.0026668259296805542 0.02452124610845061 0 -0.0044938871107771377 0.024897108666263202 0 -0.0038608292316945768 0.022772351962838604 0 -0.0059234435563795219 0.023677051136081269 0 -0.0044938871107771377 0.024897108666263202 0 -0.0070388460299322612 0.024592721603072219 0 -0.0059234435563795219 0.023677051136081269 0 -0.0064498494090943041 0.025300927317331696 0 -0.0060001745211260803 0.023653517995185031 0 -0.004360371807399511 0.025143788080873281 0 -0.0019650515400588017 0.020811176024668251 0 -0.0027666426290220173 0.020640227806677566 0 -0.0024467897080573814 0.021153304670418246 0 -0.0027666426290220173 0.020640227806677566 0 -0.0038608292316945768 0.022772351962838604 0 -0.0014867607545199465 0.023192478986637326 0 -0.0027666426290220173 0.020640227806677566 0 -0.0039223902635788016 0.020852202162993806 0 -0.0038608292316945768 0.022772351962838604 0 -0.0027732726143112198 0.020672580854953125 0 -0.0017857650220236131 0.022261552113909257 0 -0.0038608292316945768 0.022772351962838604 0 -0.0014867607545199465 0.023192478986637326 0 -0.0026668259296805542 0.02452124610845061 0 -0.0017857650220236131 0.022261552113909257 0 -0.0027247111246431282 0.023406282475223753 0 -0.0020072001135546759 0.02136539652887523 0 -0.0024467897080573814 0.021153304670418246 0 -0.0021393885290376226 0.021831919448270648 0 -0.0014867607545199465 0.023192478986637326 0 -0.0026668259296805542 0.02452124610845061 0 -0.0004425217285396665 0.025396571642160699 0 -0.006786014488220588 0.026234597122363687 0 -0.0027247111246431282 0.023406282475223753 0 -0.0026668259296805542 0.02452124610845061 0 -0.0030626035392939282 0.026310864110192421 0 -0.0044938871107771377 0.024897108666263202 0 -0.0026668259296805542 0.02452124610845061 0 -0.0030626035392939282 0.026310864110192421 0 -0.0004425217285396665 0.025396571642160699 0 -0.013364468977838471 0.029670806169764502 0 -0.013019636455867971 0.028914701025384758 0 -0.0134116529850035 0.028645074962663497 0 -0.006786014488220588 0.026234597122363687 0 -0.01000684058537441 0.026713584287620509 0 -0.0071075985174555113 0.024387030689177788 0 -0.0062926099543675444 0.024563016973426378 0 -0.0066975839339244638 0.02479945191192225 0 -0.0071075985174555113 0.024387030689177788 0 -0.0062926099543675444 0.024563016973426378 0 -0.006135324677444892 0.024039179542706492 0 -0.0059234435563795219 0.023677051136081269 0 -0.0064498494090943041 0.025300927317331696 0 -0.0050470498475260438 0.02499943640310744 0 -0.0064498494090943041 0.025300927317331696 0 -0.0050470498475260438 0.02499943640310744 0 -0.0055266083662460462 0.026614026896402729 0 -0.006786014488220588 0.026234597122363687 0 -0.004360371807399511 0.025143788080873281 0 -0.0040395632620586763 0.026116285502272261 0 -0.0050470498475260438 0.02499943640310744 0 -0.0055266083662460462 0.026614026896402729 0 -0.013364468977838471 0.029670806169764502 0 -0.013019636455867971 0.028914701025384758 0 -0.011056561678064665 0.029485424535441927 0 -0.006786014488220588 0.026234597122363687 0 -0.0087195075243625651 0.028128314091899462 0 -0.0073871280127541187 0.02730436051296779 0 -0.0087195075243625651 0.028128314091899462 0 -0.0073309645275996321 0.02621787436937046 0 -0.0064498494090943041 0.025300927317331696 0 -0.0055266083662460462 0.026614026896402729 0 -0.0074354595629129855 0.027158985887865392 0 -0.0073309645275996321 0.02621787436937046 0 -0.0055266083662460462 0.026614026896402729 0 -0.0074354595629129855 0.027158985887865392 0 -0.011056561678064665 0.029485424535441927 0 -0.010967979894863608 0.027628590579323535 0 -0.0074354595629129855 0.027158985887865392 0 -0.010967979894863608 0.027628590579323535 0 -0.0089503693732820092 0.026101298969454543 0 -0.010967979894863608 0.027628590579323535 0 -0.010204926393421321 0.025238287645604283 0 -0.0089503693732820092 0.026101298969454543 0 -0.013019636455867971 0.028914701025384758 0 -0.010967979894863608 0.027628590579323535 0 -0.013968293856673661 0.028474090399506127 0 -0.010967979894863608 0.027628590579323535 0 -0.010204926393421321 0.025238287645604283 0 -0.013968293856673661 0.028474090399506127 0 -0.013019636455867971 0.028914701025384758 0 -0.011056561678064665 0.029485424535441927 0 -0.010967979894863608 0.027628590579323535 0 -0.015991246876725811 0.031133752284272075 0 -0.018953375958387215 0.030770563267592463 0 -0.013968293856673661 0.028474090399506127 0 -0.011787089907074975 0.030777458464062674 0 -0.012853673563207898 0.037459221348954679 0 -0.011787089907074975 0.030777458464062674 0 -0.014780270860347475 0.027884867732458005 0 -0.015991246876725811 0.031133752284272075 0 -0.018953375958387215 0.030770563267592463 0 -0.015287618267627371 0.033850363554593497 0 -0.0094605140637621359 0.039814318039775927 0 -0.0096405498122339103 0.039928719943322186 0 -0.0096742341052267963 0.03980609718790664 0 -0.011787089907074975 0.030777458464062674 0 -0.011061678665374254 0.028324114075846674 0 -0.0059334900679355726 0.032839384760288956 0 -0.011787089907074975 0.030777458464062674 0 -0.0080526125096157652 0.025409666478969806 0 -0.0093992836411306187 0.025767201224543866 0 -0.0089503693732820092 0.026101298969454543 0 -0.0062926099543675444 0.024563016973426378 0 -0.0062908313022843219 0.025216683537281032 0 -0.0066975839339244638 0.02479945191192225 0 -0.012974912467736223 0.029336704133969074 0 -0.011665416054161404 0.029434816631623929 0 -0.012525383204630503 0.030870617601928912 0 -0.012974912467736223 0.029336704133969074 0 -0.011665416054161404 0.029434816631623929 0 -0.0134116529850035 0.028645074962663497 0 -0.0091873952262797771 0.025915437341467742 0 -0.01000684058537441 0.026713584287620509 0 -0.012974912467736223 0.029336704133969074 0 -0.0134116529850035 0.028645074962663497 0 -0.013968293856673661 0.028474090399506127 0 -0.013019636455867971 0.028914701025384758 0 -0.0134116529850035 0.028645074962663497 0 -0.013968293856673661 0.028474090399506127 0 -0.012974912467736223 0.029336704133969074 0 -0.013968293856673661 0.028474090399506127 0 -0.013546447527808049 0.030043802406395204 0 -0.013546447527808049 0.030043802406395204 0 -0.014078475638410312 0.031863274412492051 0 -0.012525383204630503 0.030870617601928912 0 -0.015991246876725811 0.031133752284272075 0 -0.013546447527808049 0.030043802406395204 0 -0.014078475638410312 0.031863274412492051 0 -0.015991246876725811 0.031133752284272075 0 -0.013968293856673661 0.028474090399506127 0 -0.013546447527808049 0.030043802406395204 0 -0.015991246876725811 0.031133752284272075 0 -0.014806881673796559 0.032624248193718633 0 -0.015287618267627371 0.033850363554593497 0 -0.015991246876725811 0.031133752284272075 0 -0.014806881673796559 0.032624248193718633 0 -0.014078475638410312 0.031863274412492051 0 -0.014078475638410312 0.031863274412492051 0 -0.01308288152721584 0.032692842672107418 0 -0.013885206319967522 0.0336472689563177 0 -0.014078475638410312 0.031863274412492051 0 -0.01308288152721584 0.032692842672107418 0 -0.012525383204630503 0.030870617601928912 0 -0.014806881673796559 0.032624248193718633 0 -0.014078475638410312 0.031863274412492051 0 -0.013885206319967522 0.0336472689563177 0 -0.01308288152721584 0.032692842672107418 0 -0.012525383204630503 0.030870617601928912 0 -0.011941370020873672 0.033153226205939218 0 -0.012974912467736223 0.029336704133969074 0 -0.013546447527808049 0.030043802406395204 0 -0.012525383204630503 0.030870617601928912 0 -0.010933704359560977 0.029287107791723426 0 -0.012525383204630503 0.030870617601928912 0 -0.010763872982963248 0.031869878201288337 0 -0.0091873952262797771 0.025915437341467742 0 -0.013157299431559964 0.03104712653571344 0 -0.012525383204630503 0.030870617601928912 0 -0.010763872982963248 0.031869878201288337 0 -0.011941370020873672 0.033153226205939218 0 -0.010763872982963248 0.031869878201288337 0 -0.0079305231672400379 0.032375983139528969 0 -0.010434807145403973 0.034198559256365918 0 -0.010933704359560977 0.029287107791723426 0 -0.010763872982963248 0.031869878201288337 0 -0.0079305231672400379 0.032375983139528969 0 -0.0091873952262797771 0.025915437341467742 0 -0.0081811592850889597 0.026016688806576416 0 -0.0084191088427352147 0.020899728337289408 0 -0.0089554913481492155 0.020366632333422483 0 -0.0090259678408484718 0.02096072709302187 0 -0.0089554913481492155 0.020366632333422483 0 -0.0092957240083700789 0.02061405718169438 0 -0.0090259678408484718 0.02096072709302187 0 -0.0089554913481492155 0.020366632333422483 0 -0.0095143695938160518 0.020261985792071061 0 -0.0092957240083700789 0.02061405718169438 0 -0.0095143695938160518 0.020261985792071061 0 -0.0092957240083700789 0.02061405718169438 0 -0.009739321919791712 0.020602497992971164 0 -0.0092957240083700789 0.02061405718169438 0 -0.0094038028594320283 0.020913091076558643 0 -0.009739321919791712 0.020602497992971164 0 -0.0092957240083700789 0.02061405718169438 0 -0.0094038028594320283 0.020913091076558643 0 -0.0090259678408484718 0.02096072709302187 0 -0.0094038028594320283 0.020913091076558643 0 -0.0090259678408484718 0.02096072709302187 0 -0.0092827002412260492 0.021219933839453541 0 -0.0090259678408484718 0.02096072709302187 0 -0.0088523886589601287 0.021254056601254966 0 -0.0092827002412260492 0.021219933839453541 0 -0.0094038028594320283 0.020913091076558643 0 -0.0092827002412260492 0.021219933839453541 0 -0.0097211149632654599 0.02116616670785541 0 -0.0084191088427352147 0.020899728337289408 0 -0.0090259678408484718 0.02096072709302187 0 -0.0088502156176401923 0.021312864920155376 0 -0.0062926099543675444 0.024563016973426378 0 -0.0062908313022843219 0.025216683537281032 0 -0.0057990838786758023 0.024743865661387771 0 -0.0085117951615207455 0.02039345715654086 0 -0.0058042608141015686 0.022466300127646808 0 -0.0091873952262797771 0.025915437341467742 0 -0.0058042608141015686 0.022466300127646808 0 -0.0058042608141015686 0.022466300127646808 0 -0.0027247111246431282 0.023406282475223753 0 -0.0062926099543675444 0.024563016973426378 0 -0.0057990838786758023 0.024743865661387771 0 -0.006135324677444892 0.024039179542706492 0 -0.0018079363590855981 0.022018778409197866 0 -0.0018836385032650813 0.02246264096276912 0 -0.0021662125732411614 0.021837388169843038 0 -0.0058042608141015686 0.022466300127646808 0 -0.0048818283434288144 0.021715850425371476 0 -0.0092827002412260492 0.021219933839453541 0 -0.0094510814200757833 0.021836106888542834 0 -0.0097211149632654599 0.02116616670785541 0 -0.0088523886589601287 0.021254056601254966 0 -0.0092827002412260492 0.021219933839453541 0 -0.0094510814200757833 0.021836106888542834 0 -0.0018079363590855981 0.022018778409197866 0 -0.0018836385032650813 0.02246264096276912 0 -0.0012887069681948419 0.021887147913711942 0 -0.0018079363590855981 0.022018778409197866 0 -0.0016452629006094093 0.0217618482970953 0 -0.0012887069681948419 0.021887147913711942 0 -0.0011940218683410854 0.021340561062895096 0 -0.0012887069681948419 0.021887147913711942 0 -0.0014802063337206186 0.021526297055686015 0 -0.0017321772314177154 0.021474689050068361 0 -0.0016452629006094093 0.0217618482970953 0 -0.0014802063337206186 0.021526297055686015 0 -0.0016452629006094093 0.0217618482970953 0 -0.0012887069681948419 0.021887147913711942 0 -0.0014802063337206186 0.021526297055686015 0 -0.0017321772314177154 0.021474689050068361 0 -0.0016452629006094093 0.0217618482970953 0 -0.0019553281033340697 0.021764395154378089 0 -0.0020072001135546759 0.02136539652887523 0 -0.0017321772314177154 0.021474689050068361 0 -0.0019553281033340697 0.021764395154378089 0 -0.0020072001135546759 0.02136539652887523 0 -0.0019553281033340697 0.021764395154378089 0 -0.0021393885290376226 0.021831919448270648 0 -0.0018079363590855981 0.022018778409197866 0 -0.0019553281033340697 0.021764395154378089 0 -0.0021662125732411614 0.021837388169843038 0 -0.001939710663750451 0.022647830811680762 0 -0.0027247111246431282 0.023406282475223753 0 -0.0018079363590855981 0.022018778409197866 0 -0.0016452629006094093 0.0217618482970953 0 -0.0019553281033340697 0.021764395154378089 0 -0.010727210408939734 0.021345938735657325 0 -0.010489507033984755 0.021358340748071979 0 -0.010818178856811795 0.021371446265231273 0 -0.010801705782518874 0.021329560413954615 0 -0.010727210408939734 0.021345938735657325 0 -0.010818178856811795 0.021371446265231273 0 -0.0080281342712056926 0.021276233625080378 0 -0.010416447127632691 0.021601723475437491 0 -0.010801705782518874 0.021329560413954615 0 -0.010722319922977841 0.021359439144855875 0 -0.010727210408939734 0.021345938735657325 0 -0.010111500115876339 0.022476307661327754 0 -0.0094510814200757833 0.021836106888542834 0 -0.010281732363822927 0.021942242695694975 0 -0.0080281342712056926 0.021276233625080378 0 -0.0048818283434288144 0.021715850425371476 0 -0.0011940218683410854 0.021340561062895096 0 -0.00075785122074322831 0.021313977876170731 0 -0.0012887069681948419 0.021887147913711942 0 -0.0094510814200757833 0.021836106888542834 0 -0.010281732363822927 0.021942242695694975 0 -0.0099430931164231941 0.021557595621285404 0 -0.0094510814200757833 0.021836106888542834 0 -0.0099430931164231941 0.021557595621285404 0 -0.0097211149632654599 0.02116616670785541 0 -0.0099430931164231941 0.021557595621285404 0 -0.010489507033984755 0.021358340748071979 0 -0.0097211149632654599 0.02116616670785541 0 -0.010416447127632691 0.021601723475437491 0 -0.010512796277435916 0.0213778891409706 0 -0.010281732363822927 0.021942242695694975 0 -0.0099430931164231941 0.021557595621285404 0 -0.010489507033984755 0.021358340748071979 0 -0.010489507033984755 0.021358340748071979 0 -0.010350391772871509 0.020823167099037372 0 -0.010760394989602877 0.021246981862983412 0 -0.010489507033984755 0.021358340748071979 0 -0.010350391772871509 0.020823167099037372 0 -0.0097211149632654599 0.02116616670785541 0 -0.0094038028594320283 0.020913091076558643 0 -0.0097211149632654599 0.02116616670785541 0 -0.009739321919791712 0.020602497992971164 0 -0.010350391772871509 0.020823167099037372 0 -0.0097211149632654599 0.02116616670785541 0 -0.009739321919791712 0.020602497992971164 0 -0.0095143695938160518 0.020261985792071061 0 -0.009739321919791712 0.020602497992971164 0 -0.010386564746381003 0.019897703852423541 0 -0.010350391772871509 0.020823167099037372 0 -0.009739321919791712 0.020602497992971164 0 -0.010386564746381003 0.019897703852423541 0 -0.015833965451156291 0.030343661329736434 0 -0.01544515861281132 0.029275803584130334 0 -0.016453186140162734 0.029491559478401878 0 -0.014036614473724436 0.039024353777668302 0 -0.013744412982031221 0.0382115190528899 0 -0.01558131188685657 0.038295339785493383 0 -0.015833965451156291 0.030343661329736434 0 -0.014477477032588039 0.030172811900279067 0 -0.01544515861281132 0.029275803584130334 0 -0.011184501498974353 0.031101069436444442 0 -0.015980822274644726 0.034280056301231987 0 -0.0095143695938160518 0.020261985792071061 0 -0.010386564746381003 0.019897703852423541 0 -0.009485046265754379 0.019886343192026104 0 -0.013212237153916451 0.024238071859441244 0 -0.011184501498974353 0.031101069436444442 0 -0.011184501498974353 0.031101069436444442 0 -0.010459816002206235 0.037217516040611832 0 -0.0089554913481492155 0.020366632333422483 0 -0.0095143695938160518 0.020261985792071061 0 -0.009485046265754379 0.019886343192026104 0 -0.0081811592850889597 0.026016688806576416 0 -0.011184501498974353 0.031101069436444442 0 -0.0079305231672400379 0.032375983139528969 0 -0.0046639107884017626 0.035754203588274247 0 -0.007898550423424985 0.036352502705959563 0 -0.0079305231672400379 0.032375983139528969 0 -0.010434807145403973 0.034198559256365918 0 -0.007898550423424985 0.036352502705959563 0 -0.010434807145403973 0.034198559256365918 0 -0.007898550423424985 0.036352502705959563 0 -0.011805078963144569 0.037146916128907678 0 -0.012975518594926476 0.03857650324026668 0 -0.012498543126783815 0.037765205832429455 0 -0.013744412982031221 0.0382115190528899 0 -0.010459816002206235 0.037217516040611832 0 -0.011754938002679615 0.037325737554561228 0 -0.012975518594926476 0.03857650324026668 0 -0.012498543126783815 0.037765205832429455 0 -0.011805078963144569 0.037146916128907678 0 -0.012498543126783815 0.037765205832429455 0 -0.012838178713903513 0.037930208578908317 0 -0.012230054630417094 0.037205261488461094 0 -0.012498543126783815 0.037765205832429455 0 -0.013744412982031221 0.0382115190528899 0 -0.012838178713903513 0.037930208578908317 0 -0.014036614473724436 0.039024353777668302 0 -0.012975518594926476 0.03857650324026668 0 -0.013744412982031221 0.0382115190528899 0 -0.013744412982031221 0.0382115190528899 0 -0.012838178713903513 0.037930208578908317 0 -0.014589352029898056 0.037680181212994594 0 -0.012838178713903513 0.037930208578908317 0 -0.012615725588516889 0.036949990441803832 0 -0.01191533367918547 0.037864092549571682 0 -0.012615725588516889 0.036949990441803832 0 -0.014020880722929726 0.036948985898020884 0 -0.013339449384004104 0.036180515584121345 0 -0.012838178713903513 0.037930208578908317 0 -0.012615725588516889 0.036949990441803832 0 -0.014020880722929726 0.036948985898020884 0 -0.012838178713903513 0.037930208578908317 0 -0.014020880722929726 0.036948985898020884 0 -0.014589352029898056 0.037680181212994594 0 -0.014020880722929726 0.036948985898020884 0 -0.015619724154924441 0.037062962100032799 0 -0.014589352029898056 0.037680181212994594 0 -0.015619724154924441 0.037062962100032799 0 -0.01558131188685657 0.038295339785493383 0 -0.017098927774527359 0.037670639899802759 0 -0.015980822274644726 0.034280056301231987 0 -0.016412264812934493 0.032831670986858894 0 -0.013744412982031221 0.0382115190528899 0 -0.01558131188685657 0.038295339785493383 0 -0.014589352029898056 0.037680181212994594 0 -0.015619724154924441 0.037062962100032799 0 -0.01558131188685657 0.038295339785493383 0 -0.014589352029898056 0.037680181212994594 0 -0.0067475317733559559 0.039932849135369243 0 -0.0085747433491579657 0.039166856074114027 0 -0.0069657236621229147 0.039682251849384786 0 -0.0081363997120368955 0.03873582254743603 0 -0.008907589078366987 0.039219711363830984 0 -0.0073652916981668025 0.03844429182396826 0 -0.0081363997120368955 0.03873582254743603 0 -0.0082206138688087644 0.037956968789820848 0 -0.0069657236621229147 0.039682251849384786 0 -0.0073652916981668025 0.03844429182396826 0 -0.0081363997120368955 0.03873582254743603 0 -0.0059334900679355726 0.032839384760288956 0 -0.008709172912309885 0.04062199298089731 0 -0.0057327173509591428 0.039466164208260567 0 -0.0082013870344584683 0.04069314774251246 0 -0.008907589078366987 0.039219711363830984 0 -0.0057327173509591428 0.039466164208260567 0 -0.0058665155316176432 0.041785436962800668 0 -0.0082013870344584683 0.04069314774251246 0 -0.0096742341052267963 0.03980609718790664 0 -0.010023355618373539 0.039621445300926837 0 -0.009999688751242599 0.039914115528961104 0 -0.0096405498122339103 0.039928719943322186 0 -0.0096742341052267963 0.03980609718790664 0 -0.009999688751242599 0.039914115528961104 0 -0.008709172912309885 0.04062199298089731 0 -0.010031452854590556 0.03962782017896533 0 -0.0082013870344584683 0.04069314774251246 0 -0.008907589078366987 0.039219711363830984 0 -0.010023355618373539 0.039621445300926837 0 -0.008907589078366987 0.039219711363830984 0 -0.0097052331447195841 0.038921565655277712 0 -0.010023355618373539 0.039621445300926837 0 -0.0081363997120368955 0.03873582254743603 0 -0.0091109262596747072 0.038359911316601859 0 -0.0082206138688087644 0.037956968789820848 0 -0.0081363997120368955 0.03873582254743603 0 -0.008907589078366987 0.039219711363830984 0 -0.0091109262596747072 0.038359911316601859 0 -0.008907589078366987 0.039219711363830984 0 -0.0097052331447195841 0.038921565655277712 0 -0.0091109262596747072 0.038359911316601859 0 -0.0097052331447195841 0.038921565655277712 0 -0.0099545843148681409 0.03841315663209862 0 -0.0091109262596747072 0.038359911316601859 0 -0.0097052331447195841 0.038921565655277712 0 -0.0099545843148681409 0.03841315663209862 0 -0.010455996528370402 0.038897253371483413 0 -0.0099545843148681409 0.03841315663209862 0 -0.010455996528370402 0.038897253371483413 0 -0.010591888579287598 0.038368075640193344 0 -0.010887119747521948 0.038799661217177497 0 -0.010455996528370402 0.038897253371483413 0 -0.010591888579287598 0.038368075640193344 0 -0.010887119747521948 0.038799661217177497 0 -0.01119277521172171 0.038224482122670059 0 -0.010591888579287598 0.038368075640193344 0 -0.010887119747521948 0.038799661217177497 0 -0.010455996528370402 0.038897253371483413 0 -0.010812936614730926 0.039237153717311395 0 -0.010455996528370402 0.038897253371483413 0 -0.010812936614730926 0.039237153717311395 0 -0.010286273113044666 0.039389067658758076 0 -0.0097052331447195841 0.038921565655277712 0 -0.010286273113044666 0.039389067658758076 0 -0.010023355618373539 0.039621445300926837 0 -0.0097052331447195841 0.038921565655277712 0 -0.010455996528370402 0.038897253371483413 0 -0.010286273113044666 0.039389067658758076 0 -0.010812936614730926 0.039237153717311395 0 -0.010286273113044666 0.039389067658758076 0 -0.009999688751242599 0.039914115528961104 0 -0.010286273113044666 0.039389067658758076 0 -0.010023355618373539 0.039621445300926837 0 -0.009999688751242599 0.039914115528961104 0 -0.010812936614730926 0.039237153717311395 0 -0.009999688751242599 0.039914115528961104 0 -0.011340061157027136 0.039189344505781973 0 -0.012853673563207898 0.037459221348954679 0 -0.011821930824512732 0.038093438103172207 0 -0.015287618267627371 0.033850363554593497 0 -0.013885206319967522 0.0336472689563177 0 -0.012230054630417094 0.037205261488461094 0 -0.014806881673796559 0.032624248193718633 0 -0.015287618267627371 0.033850363554593497 0 -0.013885206319967522 0.0336472689563177 0 -0.01308288152721584 0.032692842672107418 0 -0.013885206319967522 0.0336472689563177 0 -0.012800575173157523 0.034269982199586511 0 -0.012800575173157523 0.034269982199586511 0 -0.011918735316531688 0.035198764847055565 0 -0.012230054630417094 0.037205261488461094 0 -0.013885206319967522 0.0336472689563177 0 -0.012800575173157523 0.034269982199586511 0 -0.012230054630417094 0.037205261488461094 0 -0.012800575173157523 0.034269982199586511 0 -0.011941370020873672 0.033153226205939218 0 -0.011918735316531688 0.035198764847055565 0 -0.01308288152721584 0.032692842672107418 0 -0.012800575173157523 0.034269982199586511 0 -0.011941370020873672 0.033153226205939218 0 -0.010763872982963248 0.031869878201288337 0 -0.010434807145403973 0.034198559256365918 0 -0.011941370020873672 0.033153226205939218 0 -0.010434807145403973 0.034198559256365918 0 -0.011941370020873672 0.033153226205939218 0 -0.011918735316531688 0.035198764847055565 0 -0.010434807145403973 0.034198559256365918 0 -0.011918735316531688 0.035198764847055565 0 -0.011805078963144569 0.037146916128907678 0 -0.011918735316531688 0.035198764847055565 0 -0.011805078963144569 0.037146916128907678 0 -0.012230054630417094 0.037205261488461094 0 -0.012663539775358189 0.037975275832051264 0 -0.011821930824512732 0.038093438103172207 0 -0.012498543126783815 0.037765205832429455 0 -0.011805078963144569 0.037146916128907678 0 -0.012230054630417094 0.037205261488461094 0 -0.010887119747521948 0.038799661217177497 0 -0.010812936614730926 0.039237153717311395 0 -0.011340061157027136 0.039189344505781973 0 -0.010887119747521948 0.038799661217177497 0 -0.011340061157027136 0.039189344505781973 0 -0.01119277521172171 0.038224482122670059 0 -0.012838178713903513 0.037930208578908317 0 -0.011340061157027136 0.039189344505781973 0 -0.01191533367918547 0.037864092549571682 0 -0.011340061157027136 0.039189344505781973 0 -0.01119277521172171 0.038224482122670059 0 -0.01191533367918547 0.037864092549571682 0 -0.01119277521172171 0.038224482122670059 0 -0.01191533367918547 0.037864092549571682 0 -0.011546715290626706 0.037339244640082363 0 -0.01119277521172171 0.038224482122670059 0 -0.011546715290626706 0.037339244640082363 0 -0.010743766451538054 0.037702730166067698 0 -0.012615725588516889 0.036949990441803832 0 -0.01191533367918547 0.037864092549571682 0 -0.011546715290626706 0.037339244640082363 0 -0.012615725588516889 0.036949990441803832 0 -0.011751350476291762 0.03657989247001963 0 -0.011546715290626706 0.037339244640082363 0 -0.011751350476291762 0.03657989247001963 0 -0.010840200454578418 0.036873857111615525 0 -0.011015378514738706 0.036185576256721037 0 -0.011546715290626706 0.037339244640082363 0 -0.010840200454578418 0.036873857111615525 0 -0.010743766451538054 0.037702730166067698 0 -0.011751350476291762 0.03657989247001963 0 -0.011546715290626706 0.037339244640082363 0 -0.010840200454578418 0.036873857111615525 0 -0.010840200454578418 0.036873857111615525 0 -0.010081581353473451 0.037333213301215348 0 -0.010743766451538054 0.037702730166067698 0 -0.010840200454578418 0.036873857111615525 0 -0.0099811340132442642 0.036431110728284005 0 -0.011015378514738706 0.036185576256721037 0 -0.010840200454578418 0.036873857111615525 0 -0.0099811340132442642 0.036431110728284005 0 -0.010081581353473451 0.037333213301215348 0 -0.0099811340132442642 0.036431110728284005 0 -0.010081581353473451 0.037333213301215348 0 -0.0094580519473606503 0.036867959955029436 0 -0.010081581353473451 0.037333213301215348 0 -0.010213800407256316 0.03801228344435921 0 -0.0096106836683830677 0.037918435676950621 0 -0.010081581353473451 0.037333213301215348 0 -0.010743766451538054 0.037702730166067698 0 -0.010213800407256316 0.03801228344435921 0 -0.01119277521172171 0.038224482122670059 0 -0.010743766451538054 0.037702730166067698 0 -0.010591888579287598 0.038368075640193344 0 -0.010743766451538054 0.037702730166067698 0 -0.010591888579287598 0.038368075640193344 0 -0.010213800407256316 0.03801228344435921 0 -0.0099545843148681409 0.03841315663209862 0 -0.010591888579287598 0.038368075640193344 0 -0.010213800407256316 0.03801228344435921 0 -0.0099545843148681409 0.03841315663209862 0 -0.010213800407256316 0.03801228344435921 0 -0.0096106836683830677 0.037918435676950621 0 -0.0099545843148681409 0.03841315663209862 0 -0.0096106836683830677 0.037918435676950621 0 -0.0091109262596747072 0.038359911316601859 0 -0.0096106836683830677 0.037918435676950621 0 -0.0091109262596747072 0.038359911316601859 0 -0.0090650469968780768 0.037411819223097935 0 -0.0091109262596747072 0.038359911316601859 0 -0.0090650469968780768 0.037411819223097935 0 -0.0082206138688087644 0.037956968789820848 0 -0.0090650469968780768 0.037411819223097935 0 -0.0081809204798702941 0.037138809506277057 0 -0.0082206138688087644 0.037956968789820848 0 -0.010081581353473451 0.037333213301215348 0 -0.0096106836683830677 0.037918435676950621 0 -0.0090650469968780768 0.037411819223097935 0 -0.010081581353473451 0.037333213301215348 0 -0.0090650469968780768 0.037411819223097935 0 -0.0094580519473606503 0.036867959955029436 0 -0.0099811340132442642 0.036431110728284005 0 -0.0094580519473606503 0.036867959955029436 0 -0.0088296199477575985 0.036418768954999833 0 -0.0090650469968780768 0.037411819223097935 0 -0.0094580519473606503 0.036867959955029436 0 -0.0088296199477575985 0.036418768954999833 0 -0.0090650469968780768 0.037411819223097935 0 -0.0088296199477575985 0.036418768954999833 0 -0.0081809204798702941 0.037138809506277057 0 -0.0088296199477575985 0.036418768954999833 0 -0.0074193135376811221 0.036409169167980204 0 -0.0081809204798702941 0.037138809506277057 0 -0.0074193135376811221 0.036409169167980204 0 -0.0081809204798702941 0.037138809506277057 0 -0.0072507170468529888 0.037497214983759235 0 -0.0081809204798702941 0.037138809506277057 0 -0.0072507170468529888 0.037497214983759235 0 -0.0082206138688087644 0.037956968789820848 0 -0.0073652916981668025 0.03844429182396826 0 -0.0072507170468529888 0.037497214983759235 0 -0.0082206138688087644 0.037956968789820848 0 -0.0064341589023777469 0.035247690293000872 0 -0.0076373373649940212 0.034380219541039238 0 -0.0081066094628940901 0.035329585981211026 0 -0.0076373373649940212 0.034380219541039238 0 -0.0085926712496858827 0.034296457444845239 0 -0.0085565607231036945 0.033331740829357269 0 -0.0076373373649940212 0.034380219541039238 0 -0.0081066094628940901 0.035329585981211026 0 -0.0085926712496858827 0.034296457444845239 0 -0.0088296199477575985 0.036418768954999833 0 -0.0074193135376811221 0.036409169167980204 0 -0.0081066094628940901 0.035329585981211026 0 -0.0064341589023777469 0.035247690293000872 0 -0.0074193135376811221 0.036409169167980204 0 -0.0081066094628940901 0.035329585981211026 0 -0.0081066094628940901 0.035329585981211026 0 -0.0093526927914990669 0.035563036974705489 0 -0.0088867066728888708 0.034954709943589901 0 -0.0088296199477575985 0.036418768954999833 0 -0.0081066094628940901 0.035329585981211026 0 -0.0093526927914990669 0.035563036974705489 0 -0.0099811340132442642 0.036431110728284005 0 -0.0088296199477575985 0.036418768954999833 0 -0.0093526927914990669 0.035563036974705489 0 -0.0093526927914990669 0.035563036974705489 0 -0.0094922629194864969 0.034632430733961342 0 -0.0088867066728888708 0.034954709943589901 0 -0.0094922629194864969 0.034632430733961342 0 -0.0088867066728888708 0.034954709943589901 0 -0.0085926712496858827 0.034296457444845239 0 -0.0081066094628940901 0.035329585981211026 0 -0.0088867066728888708 0.034954709943589901 0 -0.0085926712496858827 0.034296457444845239 0 -0.0094922629194864969 0.034632430733961342 0 -0.0085926712496858827 0.034296457444845239 0 -0.0092913012902916623 0.033659225565650729 0 -0.0094922629194864969 0.034632430733961342 0 -0.010311454387820664 0.034023528854843166 0 -0.0092913012902916623 0.033659225565650729 0 -0.0094922629194864969 0.034632430733961342 0 -0.010462536952627837 0.035051688397046608 0 -0.010311454387820664 0.034023528854843166 0 -0.010462536952627837 0.035051688397046608 0 -0.011105186913789859 0.03422353016019803 0 -0.010311454387820664 0.034023528854843166 0 -0.0093526927914990669 0.035563036974705489 0 -0.0094922629194864969 0.034632430733961342 0 -0.010462536952627837 0.035051688397046608 0 -0.0093526927914990669 0.035563036974705489 0 -0.010462536952627837 0.035051688397046608 0 -0.010283515252458396 0.035813965165581808 0 -0.0099811340132442642 0.036431110728284005 0 -0.0093526927914990669 0.035563036974705489 0 -0.010283515252458396 0.035813965165581808 0 -0.0099811340132442642 0.036431110728284005 0 -0.010283515252458396 0.035813965165581808 0 -0.011015378514738706 0.036185576256721037 0 -0.010283515252458396 0.035813965165581808 0 -0.011066833669755955 0.035507004811774635 0 -0.011015378514738706 0.036185576256721037 0 -0.010462536952627837 0.035051688397046608 0 -0.010283515252458396 0.035813965165581808 0 -0.011066833669755955 0.035507004811774635 0 -0.011066833669755955 0.035507004811774635 0 -0.011015378514738706 0.036185576256721037 0 -0.012140453085447258 0.035940252227227333 0 -0.011066833669755955 0.035507004811774635 0 -0.012140453085447258 0.035940252227227333 0 -0.01156711512356344 0.035022636556559815 0 -0.011751350476291762 0.03657989247001963 0 -0.011015378514738706 0.036185576256721037 0 -0.012140453085447258 0.035940252227227333 0 -0.012615725588516889 0.036949990441803832 0 -0.011751350476291762 0.03657989247001963 0 -0.012140453085447258 0.035940252227227333 0 -0.012140453085447258 0.035940252227227333 0 -0.01156711512356344 0.035022636556559815 0 -0.012933185374349952 0.035001905811643558 0 -0.01156711512356344 0.035022636556559815 0 -0.012065881843528536 0.033992224849573476 0 -0.012933185374349952 0.035001905811643558 0 -0.010462536952627837 0.035051688397046608 0 -0.011066833669755955 0.035507004811774635 0 -0.01156711512356344 0.035022636556559815 0 -0.010462536952627837 0.035051688397046608 0 -0.01156711512356344 0.035022636556559815 0 -0.011105186913789859 0.03422353016019803 0 -0.01156711512356344 0.035022636556559815 0 -0.011105186913789859 0.03422353016019803 0 -0.012065881843528536 0.033992224849573476 0 -0.012065881843528536 0.033992224849573476 0 -0.010700679648757335 0.033055622481352104 0 -0.01299321087040959 0.032698826206872762 0 -0.011312926385360968 0.034578966086866378 0 -0.013379623478632309 0.034975825236131609 0 -0.011105186913789859 0.03422353016019803 0 -0.012065881843528536 0.033992224849573476 0 -0.010700679648757335 0.033055622481352104 0 -0.013032001310370647 0.034999980096112632 0 -0.011795774019360848 0.036267999708260744 0 -0.013695562900880962 0.035929699304852639 0 -0.013032001310370647 0.034999980096112632 0 -0.011255457933930568 0.034999990494968977 0 -0.011795774019360848 0.036267999708260744 0 -0.011255457933930568 0.034999990494968977 0 -0.011795774019360848 0.036267999708260744 0 -0.010451793600477219 0.035661872691162569 0 -0.010700679648757335 0.033055622481352104 0 -0.010311454387820664 0.034023528854843166 0 -0.0092913012902916623 0.033659225565650729 0 -0.011105186913789859 0.03422353016019803 0 -0.010700679648757335 0.033055622481352104 0 -0.010311454387820664 0.034023528854843166 0 -0.010700679648757335 0.033055622481352104 0 -0.0092913012902916623 0.033659225565650729 0 -0.0085783811550520644 0.033361689040248652 0 -0.011312926385360968 0.034578966086866378 0 -0.00892329285542094 0.034920431412301223 0 -0.011795774019360848 0.036267999708260744 0 -0.0098816969930910162 0.03660263710088265 0 -0.010451793600477219 0.035661872691162569 0 -0.0085926712496858827 0.034296457444845239 0 -0.0092913012902916623 0.033659225565650729 0 -0.0085565607231036945 0.033331740829357269 0 -0.0088151745071785234 0.034027508833714658 0 -0.00892329285542094 0.034920431412301223 0 -0.0098816969930910162 0.03660263710088265 0 -0.010451793600477219 0.035661872691162569 0 -0.0094788518297552644 0.034999991932162744 0 -0.011255457933930568 0.034999990494968977 0 -0.010451793600477219 0.035661872691162569 0 -0.0094788518297552644 0.034999991932162744 0 -0.0085660596304174188 0.036071571895506083 0 -0.0098816969930910162 0.03660263710088265 0 -0.0094788518297552644 0.034999991932162744 0 -0.0065195842555264638 0.033662104608856588 0 -0.0076373373649940212 0.034380219541039238 0 -0.0085565607231036945 0.033331740829357269 0 -0.0071829431487219538 0.03615277948648201 0 -0.0075251070335307169 0.035622517743495737 0 -0.0083476529520248952 0.035941628460582568 0 -0.0081478775640127978 0.035954262474484515 0 -0.00892329285542094 0.034920431412301223 0 -0.0068609997978518918 0.034871805819647335 0 -0.00892329285542094 0.034920431412301223 0 -0.015917007439904887 0.036370284667220885 0 -0.015635673163620942 0.036037173491765058 0 -0.014941658464418932 0.035889511935846538 0 -0.015635673163620942 0.036037173491765058 0 -0.014941658464418932 0.035889511935846538 0 -0.015207546970487004 0.03595336645883386 0 -0.015917007439904887 0.036370284667220885 0 -0.015635673163620942 0.036037173491765058 0 -0.016563522170490771 0.036152168835388417 0 -0.015917007439904887 0.036370284667220885 0 -0.016563522170490771 0.036152168835388417 0 -0.017110304322666404 0.036825340306004178 0 -0.015619724154924441 0.037062962100032799 0 -0.015917007439904887 0.036370284667220885 0 -0.017110304322666404 0.036825340306004178 0 -0.015619724154924441 0.037062962100032799 0 -0.017110304322666404 0.036825340306004178 0 -0.017098927774527359 0.037670639899802759 0 -0.015619724154924441 0.037062962100032799 0 -0.015917007439904887 0.036370284667220885 0 -0.014941658464418932 0.035889511935846538 0 -0.014020880722929726 0.036948985898020884 0 -0.015619724154924441 0.037062962100032799 0 -0.014941658464418932 0.035889511935846538 0 -0.014020880722929726 0.036948985898020884 0 -0.013339449384004104 0.036180515584121345 0 -0.014941658464418932 0.035889511935846538 0 -0.012615725588516889 0.036949990441803832 0 -0.012140453085447258 0.035940252227227333 0 -0.013339449384004104 0.036180515584121345 0 -0.012140453085447258 0.035940252227227333 0 -0.013339449384004104 0.036180515584121345 0 -0.012933185374349952 0.035001905811643558 0 -0.012933185374349952 0.035001905811643558 0 -0.013956409381528078 0.034017113948073961 0 -0.012983650553878696 0.033920639482069449 0 -0.012065881843528536 0.033992224849573476 0 -0.012933185374349952 0.035001905811643558 0 -0.012983650553878696 0.033920639482069449 0 -0.012933185374349952 0.035001905811643558 0 -0.014941658464418932 0.035889511935846538 0 -0.013956409381528078 0.034017113948073961 0 -0.013339449384004104 0.036180515584121345 0 -0.012933185374349952 0.035001905811643558 0 -0.014941658464418932 0.035889511935846538 0 -0.014892552253932486 0.03579368446526162 0 -0.014278084161188793 0.03494502289024231 0 -0.014941658464418932 0.035889511935846538 0 -0.015207546970487004 0.03595336645883386 0 -0.014813504068241475 0.036041506078266214 0 -0.015207546970487004 0.03595336645883386 0 -0.014813504068241475 0.036041506078266214 0 -0.014972938252554236 0.035663957871665659 0 -0.014813504068241475 0.036041506078266214 0 -0.014607712435636291 0.035705463576032125 0 -0.014972938252554236 0.035663957871665659 0 -0.014813504068241475 0.036041506078266214 0 -0.014607712435636291 0.035705463576032125 0 -0.014152435718832622 0.035654439056229448 0 -0.013956409381528078 0.034017113948073961 0 -0.012983650553878696 0.033920639482069449 0 -0.01299321087040959 0.032698826206872762 0 -0.014813504068241475 0.036041506078266214 0 -0.014008673958604423 0.035684388380375097 0 -0.014152435718832622 0.035654439056229448 0 -0.014278084161188793 0.03494502289024231 0 -0.013379623478632309 0.034975825236131609 0 -0.012065881843528536 0.033992224849573476 0 -0.012983650553878696 0.033920639482069449 0 -0.01299321087040959 0.032698826206872762 0 -0.0130325365120386 0.034999849681565894 0 -0.014497238134200388 0.035387063832702854 0 -0.015015447445061241 0.034999735255372512 0 -0.0130325365120386 0.034999849681565894 0 -0.014152435718832622 0.035654439056229448 0 -0.014497238134200388 0.035387063832702854 0 -0.0130325365120386 0.034999849681565894 0 -0.013905663105018449 0.035716860158881036 0 -0.014152435718832622 0.035654439056229448 0 -0.013379623478632309 0.034975825236131609 0 -0.013583673878910785 0.035023000274181128 0 -0.013032713163698759 0.035000772114272535 0 -0.013379623478632309 0.034975825236131609 0 -0.014972938252554236 0.035663957871665659 0 -0.015015447445061241 0.034999735255372512 0 -0.015817452633698277 0.035707133428595737 0 -0.014972938252554236 0.035663957871665659 0 -0.014497238134200388 0.035387063832702854 0 -0.015015447445061241 0.034999735255372512 0 -0.014607712435636291 0.035705463576032125 0 -0.014972938252554236 0.035663957871665659 0 -0.014497238134200388 0.035387063832702854 0 -0.014607712435636291 0.035705463576032125 0 -0.014152435718832622 0.035654439056229448 0 -0.014497238134200388 0.035387063832702854 0 -0.015015447445061241 0.034999735255372512 0 -0.015817452633698277 0.035707133428595737 0 -0.016997954231891817 0.034999562456859604 0 -0.015207546970487004 0.03595336645883386 0 -0.014972938252554236 0.035663957871665659 0 -0.015817452633698277 0.035707133428595737 0 -0.015635673163620942 0.036037173491765058 0 -0.016563522170490771 0.036152168835388417 0 -0.015817452633698277 0.035707133428595737 0 -0.015635673163620942 0.036037173491765058 0 -0.015207546970487004 0.03595336645883386 0 -0.015817452633698277 0.035707133428595737 0 -0.016563522170490771 0.036152168835388417 0 -0.015817452633698277 0.035707133428595737 0 -0.01737059394911809 0.035648573217434087 0 -0.015817452633698277 0.035707133428595737 0 -0.016997954231891817 0.034999562456859604 0 -0.01737059394911809 0.035648573217434087 0 -0.018981140677391001 0.03499964610388271 0 -0.01831758883821415 0.035973001428922069 0 -0.01737059394911809 0.035648573217434087 0 -0.016997954231891817 0.034999562456859604 0 -0.018981140677391001 0.03499964610388271 0 -0.01737059394911809 0.035648573217434087 0 -0.018981140677391001 0.03499964610388271 0 -0.01831758883821415 0.035973001428922069 0 -0.019798227704103187 0.035761842184050104 0 -0.01831758883821415 0.035973001428922069 0 -0.018942973820141613 0.036528230175017259 0 -0.019798227704103187 0.035761842184050104 0 -0.01831758883821415 0.035973001428922069 0 -0.018301830382619053 0.036480224838116769 0 -0.018942973820141613 0.036528230175017259 0 -0.016563522170490771 0.036152168835388417 0 -0.01737059394911809 0.035648573217434087 0 -0.017631390042589592 0.036460158335404488 0 -0.01831758883821415 0.035973001428922069 0 -0.01737059394911809 0.035648573217434087 0 -0.017631390042589592 0.036460158335404488 0 -0.01831758883821415 0.035973001428922069 0 -0.017631390042589592 0.036460158335404488 0 -0.018301830382619053 0.036480224838116769 0 -0.017631390042589592 0.036460158335404488 0 -0.018327701056308033 0.036970113605782493 0 -0.017110304322666404 0.036825340306004178 0 -0.016563522170490771 0.036152168835388417 0 -0.017631390042589592 0.036460158335404488 0 -0.017110304322666404 0.036825340306004178 0 -0.018301830382619053 0.036480224838116769 0 -0.018942973820141613 0.036528230175017259 0 -0.018327701056308033 0.036970113605782493 0 -0.017631390042589592 0.036460158335404488 0 -0.018301830382619053 0.036480224838116769 0 -0.018327701056308033 0.036970113605782493 0 -0.018942973820141613 0.036528230175017259 0 -0.018327701056308033 0.036970113605782493 0 -0.018779681356473791 0.037393713005831379 0 -0.018327701056308033 0.036970113605782493 0 -0.018554126525011629 0.037154776695032754 0 -0.017110304322666404 0.036825340306004178 0 -0.019877124155619961 0.033600050775461389 0 -0.016412264812934493 0.032831670986858894 0 -0.019757223815299024 0.035635223385824547 0 -0.019877124155619961 0.033600050775461389 0 -0.018554126525011629 0.037154776695032754 0 -0.017110304322666404 0.036825340306004178 0 -0.017098927774527359 0.037670639899802759 0 -0.026513181492485948 0.03220229967249455 0 -0.026755954165299321 0.032534464219750515 0 -0.026218287715800946 0.032905111591869075 0 -0.026513181492485948 0.03220229967249455 0 -0.026755954165299321 0.032534464219750515 0 -0.026888401486171172 0.032117259801076922 0 -0.027239045585644946 0.03247602138672516 0 -0.026755954165299321 0.032534464219750515 0 -0.026888401486171172 0.032117259801076922 0 -0.019877124155619961 0.033600050775461389 0 -0.022507694219740686 0.03024549753764157 0 -0.01728141714724275 0.027621280251759972 0 -0.017659440915964626 0.028167472350065798 0 -0.017895210593996239 0.028119966176681315 0 -0.027239045585644946 0.03247602138672516 0 -0.026755954165299321 0.032534464219750515 0 -0.026827109234348334 0.033071477825634764 0 -0.019877124155619961 0.033600050775461389 0 -0.023916992598577751 0.034894307788648139 0 -0.018942973820141613 0.036528230175017259 0 -0.018779681356473791 0.037393713005831379 0 -0.020193727707826282 0.03669963085457862 0 -0.026755954165299321 0.032534464219750515 0 -0.026827109234348334 0.033071477825634764 0 -0.026218287715800946 0.032905111591869075 0 -0.026827109234348334 0.033071477825634764 0 -0.026218287715800946 0.032905111591869075 0 -0.025893334273762596 0.033975395464875643 0 -0.020193727707826282 0.03669963085457862 0 -0.021611484871910454 0.035959300044262496 0 -0.019798227704103187 0.035761842184050104 0 -0.023916992598577751 0.034894307788648139 0 -0.02367676833597623 0.034889733842392787 0 -0.018942973820141613 0.036528230175017259 0 -0.020193727707826282 0.03669963085457862 0 -0.019798227704103187 0.035761842184050104 0 -0.018981140677391001 0.03499964610388271 0 -0.019798227704103187 0.035761842184050104 0 -0.020964363983821933 0.034999669097274845 0 -0.021611484871910454 0.035959300044262496 0 -0.019798227704103187 0.035761842184050104 0 -0.020964363983821933 0.034999669097274845 0 -0.021611484871910454 0.035959300044262496 0 -0.020964363983821933 0.034999669097274845 0 -0.022947856727334685 0.035000043776195366 0 -0.02367676833597623 0.034889733842392787 0 -0.022948553271479388 0.034999804318122253 0 -0.022958673129115776 0.034997258729759395 0 -0.027375369537452954 0.034997071951437288 0 -0.026499443606887468 0.03431037002122362 0 -0.025893334273762596 0.033975395464875643 0 -0.022958673129115776 0.034997258729759395 0 -0.025398150913695579 0.033339781381123923 0 -0.022958673129115776 0.034997258729759395 0 -0.025398150913695579 0.033339781381123923 0 -0.025283716366623795 0.033746309008899376 0 -0.026218287715800946 0.032905111591869075 0 -0.025893334273762596 0.033975395464875643 0 -0.025398150913695579 0.033339781381123923 0 -0.022958673129115776 0.034997258729759395 0 -0.025283716366623795 0.033746309008899376 0 -0.026499443606887468 0.03431037002122362 0 -0.025283716366623795 0.033746309008899376 0 -0.026228224817294116 0.033274349925676919 0 -0.026499443606887468 0.03431037002122362 0 -0.026228224817294116 0.033274349925676919 0 -0.026514106531316247 0.033247232991296068 0 -0.026499443606887468 0.03431037002122362 0 -0.026228224817294116 0.033274349925676919 0 -0.026622832742369016 0.032343725079186918 0 -0.02607216493029613 0.032826536741853429 0 -0.026622832742369016 0.032343725079186918 0 -0.02607216493029613 0.032826536741853429 0 -0.026455454539051411 0.032029261901076689 0 -0.026228224817294116 0.033274349925676919 0 -0.026514106531316247 0.033247232991296068 0 -0.026622832742369016 0.032343725079186918 0 -0.025283716366623795 0.033746309008899376 0 -0.02607216493029613 0.032826536741853429 0 -0.025958243262832061 0.03265564774917365 0 -0.025283716366623795 0.033746309008899376 0 -0.026228224817294116 0.033274349925676919 0 -0.02607216493029613 0.032826536741853429 0 -0.02607216493029613 0.032826536741853429 0 -0.026455454539051411 0.032029261901076689 0 -0.025958243262832061 0.03265564774917365 0 -0.026622832742369016 0.032343725079186918 0 -0.026455454539051411 0.032029261901076689 0 -0.027011004545254694 0.031459718159808407 0 -0.026218287715800946 0.032905111591869075 0 -0.025398150913695579 0.033339781381123923 0 -0.026154141450459824 0.032428240023143338 0 -0.025398150913695579 0.033339781381123923 0 -0.025958243262832061 0.03265564774917365 0 -0.026154141450459824 0.032428240023143338 0 -0.025398150913695579 0.033339781381123923 0 -0.025283716366623795 0.033746309008899376 0 -0.025958243262832061 0.03265564774917365 0 -0.026455454539051411 0.032029261901076689 0 -0.025958243262832061 0.03265564774917365 0 -0.026410828023921255 0.031879635003288186 0 -0.025958243262832061 0.03265564774917365 0 -0.026154141450459824 0.032428240023143338 0 -0.026410828023921255 0.031879635003288186 0 -0.026513181492485948 0.03220229967249455 0 -0.026154141450459824 0.032428240023143338 0 -0.026424329375600259 0.031939844753649298 0 -0.026513181492485948 0.03220229967249455 0 -0.026218287715800946 0.032905111591869075 0 -0.026154141450459824 0.032428240023143338 0 -0.026154141450459824 0.032428240023143338 0 -0.026424329375600259 0.031939844753649298 0 -0.026410828023921255 0.031879635003288186 0 -0.026424329375600259 0.031939844753649298 0 -0.026410828023921255 0.031879635003288186 0 -0.026505788275705804 0.031617177955871198 0 -0.026410828023921255 0.031879635003288186 0 -0.026505788275705804 0.031617177955871198 0 -0.026779010464252042 0.03146021437000731 0 -0.026424329375600259 0.031939844753649298 0 -0.026505788275705804 0.031617177955871198 0 -0.026596482794659506 0.031847956051080095 0 -0.019386427074858024 0.029360228196720694 0 -0.019248976956877904 0.029302442432591991 0 -0.019095853359107545 0.029134852835165471 0 -0.019386427074858024 0.029360228196720694 0 -0.019248976956877904 0.029302442432591991 0 -0.019442609960585371 0.029603422329247852 0 -0.023401001083090709 0.030716410545798097 0 -0.020872909711442067 0.029779177844550336 0 -0.027011004545254694 0.031459718159808407 0 -0.026779010464252042 0.03146021437000731 0 -0.027528442926391047 0.03098981904113331 0 -0.026455454539051411 0.032029261901076689 0 -0.026410828023921255 0.031879635003288186 0 -0.026779010464252042 0.03146021437000731 0 -0.026455454539051411 0.032029261901076689 0 -0.027011004545254694 0.031459718159808407 0 -0.026779010464252042 0.03146021437000731 0 -0.026779010464252042 0.03146021437000731 0 -0.027232747996887029 0.031230646026312741 0 -0.027528442926391047 0.03098981904113331 0 -0.027232747996887029 0.031230646026312741 0 -0.027528442926391047 0.03098981904113331 0 -0.027945269207012007 0.031000883843761876 0 -0.027232747996887029 0.031230646026312741 0 -0.027694211783321175 0.031460579834646465 0 -0.027945269207012007 0.031000883843761876 0 -0.026779010464252042 0.03146021437000731 0 -0.027232747996887029 0.031230646026312741 0 -0.026908853370371268 0.03146934028047265 0 -0.020209374651513321 0.029822514010433246 0 -0.020501649439869436 0.030383515572647065 0 -0.019723887171320696 0.03003982703279871 0 -0.020209374651513321 0.029822514010433246 0 -0.020501649439869436 0.030383515572647065 0 -0.021201638139452715 0.030405078271938248 0 -0.023334950040297397 0.030418442604885059 0 -0.024909058980565786 0.031830071589815254 0 -0.027232747996887029 0.031230646026312741 0 -0.026908853370371268 0.03146934028047265 0 -0.027694211783321175 0.031460579834646465 0 -0.018865917404022828 0.029574171450068801 0 -0.019442609960585371 0.029603422329247852 0 -0.019131450156244723 0.030132203704364813 0 -0.018865917404022828 0.029574171450068801 0 -0.019131450156244723 0.030132203704364813 0 -0.018478697465931233 0.029941543004656526 0 -0.018835588773924196 0.029070408719335802 0 -0.018865917404022828 0.029574171450068801 0 -0.019442609960585371 0.029603422329247852 0 -0.018767201002161841 0.028930306848745896 0 -0.019501885731113604 0.029658908048772255 0 -0.020209374651513321 0.029822514010433246 0 -0.019442609960585371 0.029603422329247852 0 -0.019723887171320696 0.03003982703279871 0 -0.026505788275705804 0.031617177955871198 0 -0.026779010464252042 0.03146021437000731 0 -0.026908853370371268 0.03146934028047265 0 -0.019386427074858024 0.029360228196720694 0 -0.020209374651513321 0.029822514010433246 0 -0.019442609960585371 0.029603422329247852 0 -0.023401001083090709 0.030716410545798097 0 -0.023334950040297397 0.030418442604885059 0 -0.020501649439869436 0.030383515572647065 0 -0.019723887171320696 0.03003982703279871 0 -0.019672797879435083 0.030750192870212488 0 -0.019723887171320696 0.03003982703279871 0 -0.019131450156244723 0.030132203704364813 0 -0.019672797879435083 0.030750192870212488 0 -0.019131450156244723 0.030132203704364813 0 -0.018417206240063985 0.030635054764266371 0 -0.019672797879435083 0.030750192870212488 0 -0.019442609960585371 0.029603422329247852 0 -0.019723887171320696 0.03003982703279871 0 -0.019131450156244723 0.030132203704364813 0 -0.019131450156244723 0.030132203704364813 0 -0.018478697465931233 0.029941543004656526 0 -0.018417206240063985 0.030635054764266371 0 -0.018478697465931233 0.029941543004656526 0 -0.017842339182005423 0.029970284617104121 0 -0.018417206240063985 0.030635054764266371 0 -0.018478697465931233 0.029941543004656526 0 -0.017842339182005423 0.029970284617104121 0 -0.01818237350971089 0.029316754897550541 0 -0.018835588773924196 0.029070408719335802 0 -0.018865917404022828 0.029574171450068801 0 -0.01818237350971089 0.029316754897550541 0 -0.018865917404022828 0.029574171450068801 0 -0.018478697465931233 0.029941543004656526 0 -0.01818237350971089 0.029316754897550541 0 -0.017842339182005423 0.029970284617104121 0 -0.01713073337984861 0.030489022905469062 0 -0.017324283416417167 0.029381458571264802 0 -0.017842339182005423 0.029970284617104121 0 -0.017324283416417167 0.029381458571264802 0 -0.01818237350971089 0.029316754897550541 0 -0.017842339182005423 0.029970284617104121 0 -0.01713073337984861 0.030489022905469062 0 -0.018417206240063985 0.030635054764266371 0 -0.014279712810522788 0.025214344332354224 0 -0.015876764942096895 0.024965773196088906 0 -0.013212237153916451 0.024238071859441244 0 -0.014279712810522788 0.025214344332354224 0 -0.015833965451156291 0.030343661329736434 0 -0.01713073337984861 0.030489022905469062 0 -0.016453186140162734 0.029491559478401878 0 -0.01713073337984861 0.030489022905469062 0 -0.016453186140162734 0.029491559478401878 0 -0.017324283416417167 0.029381458571264802 0 -0.017324283416417167 0.029381458571264802 0 -0.017124091591084679 0.028658635247929921 0 -0.017707651894855313 0.028785658154154209 0 -0.016453186140162734 0.029491559478401878 0 -0.017324283416417167 0.029381458571264802 0 -0.017124091591084679 0.028658635247929921 0 -0.016453186140162734 0.029491559478401878 0 -0.016386372197895571 0.028442208501521096 0 -0.017124091591084679 0.028658635247929921 0 -0.01544515861281132 0.029275803584130334 0 -0.016453186140162734 0.029491559478401878 0 -0.016386372197895571 0.028442208501521096 0 -0.01728141714724275 0.027621280251759972 0 -0.017124091591084679 0.028658635247929921 0 -0.017659440915964626 0.028167472350065798 0 -0.01728141714724275 0.027621280251759972 0 -0.016386372197895571 0.028442208501521096 0 -0.017124091591084679 0.028658635247929921 0 -0.016984029476132242 0.027735558968621603 0 -0.020872909711442067 0.029779177844550336 0 -0.017659440915964626 0.028167472350065798 0 -0.018289099246020096 0.028588475589687787 0 -0.017707651894855313 0.028785658154154209 0 -0.017124091591084679 0.028658635247929921 0 -0.017659440915964626 0.028167472350065798 0 -0.017707651894855313 0.028785658154154209 0 -0.017659440915964626 0.028167472350065798 0 -0.017895210593996239 0.028119966176681315 0 -0.018796880337886866 0.02902073157178468 0 -0.022507694219740686 0.03024549753764157 0 -0.020872909711442067 0.029779177844550336 0 -0.026513181492485948 0.03220229967249455 0 -0.026888401486171172 0.032117259801076922 0 -0.026596482794659506 0.031847956051080095 0 -0.026513181492485948 0.03220229967249455 0 -0.026424329375600259 0.031939844753649298 0 -0.026596482794659506 0.031847956051080095 0 -0.018835588773924196 0.029070408719335802 0 -0.018289099246020096 0.028588475589687787 0 -0.01818237350971089 0.029316754897550541 0 -0.018767201002161841 0.028930306848745896 0 -0.020872909711442067 0.029779177844550336 0 -0.018289099246020096 0.028588475589687787 0 -0.01818237350971089 0.029316754897550541 0 -0.017707651894855313 0.028785658154154209 0 -0.017324283416417167 0.029381458571264802 0 -0.01818237350971089 0.029316754897550541 0 -0.017707651894855313 0.028785658154154209 0 -0.034999563623307008 0.03163906787132284 0 -0.035456944168747603 0.031998323250050004 0 -0.034999930580023021 0.030071229305345948 0 -0.035456944168747603 0.031998323250050004 0 -0.035247472122756737 0.032569807591972581 0 -0.035608892537218884 0.032108274583302357 0 -0.035456944168747603 0.031998323250050004 0 -0.035347023473947088 0.032716406378925388 0 -0.035247472122756737 0.032569807591972581 0 -0.035456944168747603 0.031998323250050004 0 -0.035347023473947088 0.032716406378925388 0 -0.035383644898958136 0.032492009647910859 0 -0.035347023473947088 0.032716406378925388 0 -0.035383644898958136 0.032492009647910859 0 -0.03546270076093002 0.033039995392087788 0 -0.035347023473947088 0.032716406378925388 0 -0.03546270076093002 0.033039995392087788 0 -0.035303846314130263 0.032960580914234774 0 -0.034999563623307008 0.03163906787132284 0 -0.035456944168747603 0.031998323250050004 0 -0.035383644898958136 0.032492009647910859 0 -0.034999563623307008 0.03163906787132284 0 -0.035383644898958136 0.032492009647910859 0 -0.034999676368077791 0.033207899256706509 0 -0.03500052367736043 0.034996909570958072 0 -0.033057366096731843 0.035502765112411322 0 -0.030675051174249648 0.035001048074199972 0 -0.035383644898958136 0.032492009647910859 0 -0.034999676368077791 0.033207899256706509 0 -0.03546270076093002 0.033039995392087788 0 -0.034999676368077791 0.033207899256706509 0 -0.035334092343098464 0.033546150552682716 0 -0.03546270076093002 0.033039995392087788 0 -0.034998979003580559 0.034782150206163757 0 -0.03500052367736043 0.034996909570958072 0 -0.033057366096731843 0.035502765112411322 0 -0.034999676368077791 0.033207899256706509 0 -0.034999872679263841 0.034775502781981077 0 -0.035334092343098464 0.033546150552682716 0 -0.034999872679263841 0.034775502781981077 0 -0.035334092343098464 0.033546150552682716 0 -0.03556737772844519 0.033110114847172037 0 -0.034999554201275491 0.034777178610405163 0 -0.034209361570596543 0.034327510699489722 0 -0.035334092343098464 0.033546150552682716 0 -0.03556737772844519 0.033110114847172037 0 -0.03546270076093002 0.033039995392087788 0 -0.03556737772844519 0.033110114847172037 0 -0.03546270076093002 0.033039995392087788 0 -0.035303846314130263 0.032960580914234774 0 -0.033057366096731843 0.035502765112411322 0 -0.030675051174249648 0.035001048074199972 0 -0.03106103194104879 0.035817529886039173 0 -0.03556737772844519 0.033110114847172037 0 -0.035303846314130263 0.032960580914234774 0 -0.034969554099187547 0.03286726034081916 0 -0.035303846314130263 0.032960580914234774 0 -0.034969554099187547 0.03286726034081916 0 -0.035030503713349009 0.03300312230599619 0 -0.034969554099187547 0.03286726034081916 0 -0.034605457613243996 0.03315570051589678 0 -0.035030503713349009 0.03300312230599619 0 -0.034209361570596543 0.034327510699489722 0 -0.032748496064213387 0.034047606190143048 0 -0.03556737772844519 0.033110114847172037 0 -0.034969554099187547 0.03286726034081916 0 -0.03450172375380773 0.032254449279010125 0 -0.03450172375380773 0.032254449279010125 0 -0.034372948571680731 0.033040567387865649 0 -0.033448513968593455 0.033294135067477311 0 -0.034969554099187547 0.03286726034081916 0 -0.03450172375380773 0.032254449279010125 0 -0.034372948571680731 0.033040567387865649 0 -0.034969554099187547 0.03286726034081916 0 -0.034372948571680731 0.033040567387865649 0 -0.034605457613243996 0.03315570051589678 0 -0.034372948571680731 0.033040567387865649 0 -0.034130559931318499 0.033497125032917921 0 -0.033448513968593455 0.033294135067477311 0 -0.034372948571680731 0.033040567387865649 0 -0.034130559931318499 0.033497125032917921 0 -0.034605457613243996 0.03315570051589678 0 -0.034130559931318499 0.033497125032917921 0 -0.034287581880034314 0.033493023807025776 0 -0.034642800003005049 0.033225561308130959 0 -0.034287581880034314 0.033493023807025776 0 -0.034642800003005049 0.033225561308130959 0 -0.034713804349970678 0.033132067353899779 0 -0.034130559931318499 0.033497125032917921 0 -0.034642800003005049 0.033225561308130959 0 -0.034605457613243996 0.03315570051589678 0 -0.034642800003005049 0.033225561308130959 0 -0.034605457613243996 0.03315570051589678 0 -0.035030503713349009 0.03300312230599619 0 -0.035347023473947088 0.032716406378925388 0 -0.035303846314130263 0.032960580914234774 0 -0.035030503713349009 0.03300312230599619 0 -0.035347023473947088 0.032716406378925388 0 -0.035030503713349009 0.03300312230599619 0 -0.034994218234141193 0.032940797313281339 0 -0.034642800003005049 0.033225561308130959 0 -0.035030503713349009 0.03300312230599619 0 -0.034994218234141193 0.032940797313281339 0 -0.034642800003005049 0.033225561308130959 0 -0.034994218234141193 0.032940797313281339 0 -0.034713804349970678 0.033132067353899779 0 -0.034994218234141193 0.032940797313281339 0 -0.034713804349970678 0.033132067353899779 0 -0.03491590304296914 0.032920660452003585 0 -0.034713804349970678 0.033132067353899779 0 -0.03491590304296914 0.032920660452003585 0 -0.034646120522832426 0.033102581088024705 0 -0.034646120522832426 0.033102581088024705 0 -0.034143669290842824 0.033641549364951201 0 -0.035608892537218884 0.032108274583302357 0 -0.035247472122756737 0.032569807591972581 0 -0.034646120522832426 0.033102581088024705 0 -0.035608892537218884 0.032108274583302357 0 -0.034994218234141193 0.032940797313281339 0 -0.03491590304296914 0.032920660452003585 0 -0.035247472122756737 0.032569807591972581 0 -0.035347023473947088 0.032716406378925388 0 -0.034994218234141193 0.032940797313281339 0 -0.035247472122756737 0.032569807591972581 0 -0.03491590304296914 0.032920660452003585 0 -0.035247472122756737 0.032569807591972581 0 -0.034646120522832426 0.033102581088024705 0 -0.034287581880034314 0.033493023807025776 0 -0.034646120522832426 0.033102581088024705 0 -0.033453998943435939 0.034255906146783838 0 -0.034646120522832426 0.033102581088024705 0 -0.0318099434323365 0.032557775226018611 0 -0.029496415233626949 0.030827287686095443 0 -0.034646120522832426 0.033102581088024705 0 -0.034143669290842824 0.033641549364951201 0 -0.0318099434323365 0.032557775226018611 0 -0.034398869749276736 0.033127128665416526 0 -0.031459376668742843 0.032592889503460912 0 -0.034287581880034314 0.033493023807025776 0 -0.034713804349970678 0.033132067353899779 0 -0.034646120522832426 0.033102581088024705 0 -0.033274870035229984 0.030778510602928147 0 -0.029584894608149424 0.030765994445069528 0 -0.034143669290842824 0.033641549364951201 0 -0.0318099434323365 0.032557775226018611 0 -0.028863649999444185 0.032741801096673476 0 -0.0318099434323365 0.032557775226018611 0 -0.028863649999444185 0.032741801096673476 0 -0.029496415233626949 0.030827287686095443 0 -0.029584894608149424 0.030765994445069528 0 -0.027770092459757607 0.031037406323623 0 -0.028863649999444185 0.032741801096673476 0 -0.027967272381253488 0.03149279252984321 0 -0.027440137977552848 0.031132217287362058 0 -0.029943726503507812 0.028646673176185532 0 -0.027440137977552848 0.031132217287362058 0 -0.028598021538277181 0.030104028880968803 0 -0.028863649999444185 0.032741801096673476 0 -0.027967272381253488 0.03149279252984321 0 -0.029496415233626949 0.030827287686095443 0 -0.031459376668742843 0.032592889503460912 0 -0.028372565209359154 0.033174836363219266 0 -0.033453998943435939 0.034255906146783838 0 -0.0322025425011256 0.033691551624936214 0 -0.029821832029478516 0.034627323373648128 0 -0.027967272381253488 0.03149279252984321 0 -0.029496415233626949 0.030827287686095443 0 -0.026877899593881378 0.031637126299655718 0 -0.034130559931318499 0.033497125032917921 0 -0.033453998943435939 0.034255906146783838 0 -0.033448513968593455 0.033294135067477311 0 -0.033453998943435939 0.034255906146783838 0 -0.033448513968593455 0.033294135067477311 0 -0.0322025425011256 0.033691551624936214 0 -0.034130559931318499 0.033497125032917921 0 -0.034287581880034314 0.033493023807025776 0 -0.033453998943435939 0.034255906146783838 0 -0.030675051174249648 0.035001048074199972 0 -0.028873484057146053 0.035729599403560741 0 -0.027375369537452954 0.034997071951437288 0 -0.03450172375380773 0.032254449279010125 0 -0.033448513968593455 0.033294135067477311 0 -0.031800496961522151 0.032367063329604553 0 -0.033448513968593455 0.033294135067477311 0 -0.031800496961522151 0.032367063329604553 0 -0.0322025425011256 0.033691551624936214 0 -0.030675051174249648 0.035001048074199972 0 -0.03106103194104879 0.035817529886039173 0 -0.028873484057146053 0.035729599403560741 0 -0.032748496064213387 0.034047606190143048 0 -0.030378489451675216 0.034069339050392972 0 -0.031800496961522151 0.032367063329604553 0 -0.0322025425011256 0.033691551624936214 0 -0.029821832029478516 0.034627323373648128 0 -0.031800496961522151 0.032367063329604553 0 -0.029821832029478516 0.034627323373648128 0 -0.027800313907927043 0.034433993248399436 0 -0.030378489451675216 0.034069339050392972 0 -0.028072746402101782 0.034386205171082415 0 -0.028873484057146053 0.035729599403560741 0 -0.027375369537452954 0.034997071951437288 0 -0.027800313907927043 0.034433993248399436 0 -0.027375369537452954 0.034997071951437288 0 -0.027800313907927043 0.034433993248399436 0 -0.026499443606887468 0.03431037002122362 0 -0.026877899593881378 0.031637126299655718 0 -0.026499443606887468 0.03431037002122362 0 -0.026694600747609952 0.032573546549659542 0 -0.028372565209359154 0.033174836363219266 0 -0.026732956424661919 0.034098014216654593 0 -0.029821832029478516 0.034627323373648128 0 -0.027800313907927043 0.034433993248399436 0 -0.026499443606887468 0.03431037002122362 0 -0.026514106531316247 0.033247232991296068 0 -0.026499443606887468 0.03431037002122362 0 -0.026694600747609952 0.032573546549659542 0 -0.026514106531316247 0.033247232991296068 0 -0.026622832742369016 0.032343725079186918 0 -0.026694600747609952 0.032573546549659542 0 -0.026622832742369016 0.032343725079186918 0 -0.027013695283535911 0.031694602290298003 0 -0.026694600747609952 0.032573546549659542 0 -0.026877899593881378 0.031637126299655718 0 -0.027013695283535911 0.031694602290298003 0 -0.026694600747609952 0.032573546549659542 0 -0.027967272381253488 0.03149279252984321 0 -0.026877899593881378 0.031637126299655718 0 -0.027440137977552848 0.031132217287362058 0 -0.026877899593881378 0.031637126299655718 0 -0.027013695283535911 0.031694602290298003 0 -0.027440137977552848 0.031132217287362058 0 -0.027013695283535911 0.031694602290298003 0 -0.027440137977552848 0.031132217287362058 0 -0.027748811573483148 0.030748810209206504 0 -0.027440137977552848 0.031132217287362058 0 -0.027748811573483148 0.030748810209206504 0 -0.028598021538277181 0.030104028880968803 0 -0.026622832742369016 0.032343725079186918 0 -0.027011004545254694 0.031459718159808407 0 -0.027013695283535911 0.031694602290298003 0 -0.027011004545254694 0.031459718159808407 0 -0.027013695283535911 0.031694602290298003 0 -0.027748811573483148 0.030748810209206504 0 -0.027011004545254694 0.031459718159808407 0 -0.027748811573483148 0.030748810209206504 0 -0.027528442926391047 0.03098981904113331 0 -0.027748811573483148 0.030748810209206504 0 -0.028845294798948727 0.030216994903786838 0 -0.028598021538277181 0.030104028880968803 0 -0.027748811573483148 0.030748810209206504 0 -0.028570676766574259 0.03056157851766695 0 -0.028845294798948727 0.030216994903786838 0 -0.028570676766574259 0.03056157851766695 0 -0.027528442926391047 0.03098981904113331 0 -0.027945269207012007 0.031000883843761876 0 -0.027748811573483148 0.030748810209206504 0 -0.028570676766574259 0.03056157851766695 0 -0.027528442926391047 0.03098981904113331 0 -0.028570676766574259 0.03056157851766695 0 -0.027945269207012007 0.031000883843761876 0 -0.028805705313435223 0.030951188299435696 0 -0.027694211783321175 0.031460579834646465 0 -0.027945269207012007 0.031000883843761876 0 -0.028805705313435223 0.030951188299435696 0 -0.028805705313435223 0.030951188299435696 0 -0.030314957362666026 0.030573940633283739 0 -0.029722514167212499 0.03106119399161306 0 -0.028570676766574259 0.03056157851766695 0 -0.028805705313435223 0.030951188299435696 0 -0.029792917343697364 0.030350581765460828 0 -0.028570676766574259 0.03056157851766695 0 -0.029792917343697364 0.030350581765460828 0 -0.029940887391337011 0.030029940632262456 0 -0.029792917343697364 0.030350581765460828 0 -0.031283756189741267 0.029881554209522588 0 -0.029940887391337011 0.030029940632262456 0 -0.028805705313435223 0.030951188299435696 0 -0.029792917343697364 0.030350581765460828 0 -0.030314957362666026 0.030573940633283739 0 -0.029792917343697364 0.030350581765460828 0 -0.030314957362666026 0.030573940633283739 0 -0.030743141858134329 0.030200087038805661 0 -0.031808976715230482 0.029873175694468148 0 -0.030743141858134329 0.030200087038805661 0 -0.031283756189741267 0.029881554209522588 0 -0.031808976715230482 0.029873175694468148 0 -0.03109670857697789 0.030227272603290334 0 -0.031700553576170694 0.030080995921890084 0 -0.030314957362666026 0.030573940633283739 0 -0.03109670857697789 0.030227272603290334 0 -0.030971043404998472 0.03045009747761622 0 -0.031808976715230482 0.029873175694468148 0 -0.03109670857697789 0.030227272603290334 0 -0.030743141858134329 0.030200087038805661 0 -0.030314957362666026 0.030573940633283739 0 -0.03109670857697789 0.030227272603290334 0 -0.030743141858134329 0.030200087038805661 0 -0.029792917343697364 0.030350581765460828 0 -0.030743141858134329 0.030200087038805661 0 -0.031283756189741267 0.029881554209522588 0 -0.031283329601317217 0.029464163127385506 0 -0.029940887391337011 0.030029940632262456 0 -0.029960511768617991 0.029590168406631513 0 -0.031283756189741267 0.029881554209522588 0 -0.031283329601317217 0.029464163127385506 0 -0.029940887391337011 0.030029940632262456 0 -0.028570676766574259 0.03056157851766695 0 -0.029940887391337011 0.030029940632262456 0 -0.028845294798948727 0.030216994903786838 0 -0.029940887391337011 0.030029940632262456 0 -0.028845294798948727 0.030216994903786838 0 -0.029960511768617991 0.029590168406631513 0 -0.028845294798948727 0.030216994903786838 0 -0.028598021538277181 0.030104028880968803 0 -0.029960511768617991 0.029590168406631513 0 -0.029943726503507812 0.028646673176185532 0 -0.028598021538277181 0.030104028880968803 0 -0.029960511768617991 0.029590168406631513 0 -0.029943726503507812 0.028646673176185532 0 -0.031224632171128027 0.028955973736471362 0 -0.029960511768617991 0.029590168406631513 0 -0.032574946486223735 0.028000578356858617 0 -0.029943726503507812 0.028646673176185532 0 -0.031224632171128027 0.028955973736471362 0 -0.031283329601317217 0.029464163127385506 0 -0.031224632171128027 0.028955973736471362 0 -0.029960511768617991 0.029590168406631513 0 -0.032574946486223735 0.028000578356858617 0 -0.032348332468230462 0.028964523503863984 0 -0.033552092780059731 0.028819299579582226 0 -0.031283329601317217 0.029464163127385506 0 -0.031224632171128027 0.028955973736471362 0 -0.032348332468230462 0.028964523503863984 0 -0.032574946486223735 0.028000578356858617 0 -0.031224632171128027 0.028955973736471362 0 -0.032348332468230462 0.028964523503863984 0 -0.032574946486223735 0.028000578356858617 0 -0.033552092780059731 0.028819299579582226 0 -0.034551108510530941 0.028618116818573722 0 -0.033274870035229984 0.030778510602928147 0 -0.034866123302089949 0.030372783255415616 0 -0.033552092780059731 0.028819299579582226 0 -0.033112754597994482 0.029301298168449948 0 -0.034945390562273373 0.028822561251588733 0 -0.032348332468230462 0.028964523503863984 0 -0.033552092780059731 0.028819299579582226 0 -0.033112754597994482 0.029301298168449948 0 -0.031283329601317217 0.029464163127385506 0 -0.032348332468230462 0.028964523503863984 0 -0.033112754597994482 0.029301298168449948 0 -0.031283756189741267 0.029881554209522588 0 -0.031283329601317217 0.029464163127385506 0 -0.033112754597994482 0.029301298168449948 0 -0.031283756189741267 0.029881554209522588 0 -0.033112754597994482 0.029301298168449948 0 -0.032638178565638491 0.029481067594819232 0 -0.031808976715230482 0.029873175694468148 0 -0.032638178565638491 0.029481067594819232 0 -0.03285242887626201 0.029172661150667641 0 -0.031808976715230482 0.029873175694468148 0 -0.031283756189741267 0.029881554209522588 0 -0.032638178565638491 0.029481067594819232 0 -0.032638178565638491 0.029481067594819232 0 -0.033202832309062805 0.028933830526245884 0 -0.03285242887626201 0.029172661150667641 0 -0.033112754597994482 0.029301298168449948 0 -0.035064940379475183 0.028446584672727485 0 -0.034945390562273373 0.028822561251588733 0 -0.033262446200115398 0.02907819358276954 0 -0.034050979080704272 0.028599816563749395 0 -0.033112754597994482 0.029301298168449948 0 -0.032638178565638491 0.029481067594819232 0 -0.033202832309062805 0.028933830526245884 0 -0.035064940379475183 0.028446584672727485 0 -0.035197399803039126 0.027875607001716922 0 -0.034945390562273373 0.028822561251588733 0 -0.035064940379475183 0.028446584672727485 0 -0.035197399803039126 0.027875607001716922 0 -0.035566782361617866 0.026519378317696161 0 -0.034050979080704272 0.028599816563749395 0 -0.034685619587875527 0.027159000809602291 0 -0.033202832309062805 0.028933830526245884 0 -0.033640622646034943 0.027756695790519224 0 -0.03353709691094281 0.028169073855398314 0 -0.034999329204693258 0.026598385038400025 0 -0.035197399803039126 0.027875607001716922 0 -0.035566782361617866 0.026519378317696161 0 -0.034999329204693258 0.026598385038400025 0 -0.035197399803039126 0.027875607001716922 0 -0.034999209593132102 0.028334751916615594 0 -0.035197399803039126 0.027875607001716922 0 -0.034999209593132102 0.028334751916615594 0 -0.034945390562273373 0.028822561251588733 0 -0.034999209593132102 0.028334751916615594 0 -0.034945390562273373 0.028822561251588733 0 -0.03499990410901211 0.030065199174015265 0 -0.033552092780059731 0.028819299579582226 0 -0.034945390562273373 0.028822561251588733 0 -0.034551108510530941 0.028618116818573722 0 -0.034945390562273373 0.028822561251588733 0 -0.034551108510530941 0.028618116818573722 0 -0.03499990410901211 0.030065199174015265 0 -0.034866123302089949 0.030372783255415616 0 -0.034999521862975898 0.030069120074961996 0 -0.035456944168747603 0.031998323250050004 0 -0.035608892537218884 0.032108274583302357 0 -0.034999930580023021 0.030071229305345948 0 -0.034999990966859199 0.022012088075542485 0 -0.036255783381011403 0.022108200614552494 0 -0.035532525718938758 0.023009874611843135 0 -0.033040035417559482 0.019258850551316112 0 -0.033890287442313538 0.01939461648508652 0 -0.034174937890123783 0.018558510338829048 0 -0.033040035417559482 0.019258850551316112 0 -0.033736740683583004 0.020153284911439244 0 -0.033890287442313538 0.01939461648508652 0 -0.033736740683583004 0.020153284911439244 0 -0.03271446095627311 0.020920876681564483 0 -0.034007302420692588 0.02112047248813189 0 -0.033040035417559482 0.019258850551316112 0 -0.033736740683583004 0.020153284911439244 0 -0.03271446095627311 0.020920876681564483 0 -0.036255783381011403 0.022108200614552494 0 -0.035872369192029303 0.024025405275806797 0 -0.035532525718938758 0.023009874611843135 0 -0.034686820716194153 0.020580309696477443 0 -0.034085083017986247 0.022938781438827091 0 -0.034999990966859199 0.022012088075542485 0 -0.035532525718938758 0.023009874611843135 0 -0.034999978039217061 0.02389119924529862 0 -0.035872369192029303 0.024025405275806797 0 -0.035532525718938758 0.023009874611843135 0 -0.034999978039217061 0.02389119924529862 0 -0.034085083017986247 0.022938781438827091 0 -0.03500021756145974 0.023891471159785439 0 -0.035000537358726581 0.023893331828025961 0 -0.034513291392140683 0.025925384429878989 0 -0.034628680842628601 0.02562776851623004 0 -0.035000537358726581 0.023893331828025961 0 -0.034628680842628601 0.02562776851623004 0 -0.034997276912935263 0.024864645156902863 0 -0.034463520918274385 0.026006236362405084 0 -0.035000537358726581 0.023893331828025961 0 -0.034513291392140683 0.025925384429878989 0 -0.034513291392140683 0.025925384429878989 0 -0.034628680842628601 0.02562776851623004 0 -0.034244388885166725 0.026520873561201707 0 -0.034463520918274385 0.026006236362405084 0 -0.034513291392140683 0.025925384429878989 0 -0.034244388885166725 0.026520873561201707 0 -0.034215787727826727 0.026482570700309179 0 -0.034628680842628601 0.02562776851623004 0 -0.034244388885166725 0.026520873561201707 0 -0.034215787727826727 0.026482570700309179 0 -0.034628680842628601 0.02562776851623004 0 -0.034997276912935263 0.024864645156902863 0 -0.034215787727826727 0.026482570700309179 0 -0.034997276912935263 0.024864645156902863 0 -0.033640622646034943 0.027756695790519224 0 -0.034999329204693258 0.026598385038400025 0 -0.035000141714491964 0.024861955973828197 0 -0.035566782361617866 0.026519378317696161 0 -0.034999920369126143 0.02486280184524791 0 -0.034685619587875527 0.027159000809602291 0 -0.034215787727826727 0.026482570700309179 0 -0.033640622646034943 0.027756695790519224 0 -0.033941548762897823 0.027288373741324083 0 -0.033640622646034943 0.027756695790519224 0 -0.03353709691094281 0.028169073855398314 0 -0.033941548762897823 0.027288373741324083 0 -0.034085083017986247 0.022938781438827091 0 -0.033427279072510668 0.024669541133700082 0 -0.033941548762897823 0.027288373741324083 0 -0.034244388885166725 0.026520873561201707 0 -0.033541582274707958 0.028336980935212353 0 -0.03353709691094281 0.028169073855398314 0 -0.033941548762897823 0.027288373741324083 0 -0.033541582274707958 0.028336980935212353 0 -0.034463520918274385 0.026006236362405084 0 -0.034244388885166725 0.026520873561201707 0 -0.033541582274707958 0.028336980935212353 0 -0.034215787727826727 0.026482570700309179 0 -0.033941548762897823 0.027288373741324083 0 -0.034244388885166725 0.026520873561201707 0 -0.033541582274707958 0.028336980935212353 0 -0.03285242887626201 0.029172661150667641 0 -0.032401746854197132 0.030029110086139947 0 -0.033427279072510668 0.024669541133700082 0 -0.034288278994954693 0.02594059709911278 0 -0.034007302420692588 0.02112047248813189 0 -0.035260709914898519 0.021328064145937818 0 -0.034750606152279928 0.020549985601004416 0 -0.03353709691094281 0.028169073855398314 0 -0.033541582274707958 0.028336980935212353 0 -0.03285242887626201 0.029172661150667641 0 -0.033202832309062805 0.028933830526245884 0 -0.03353709691094281 0.028169073855398314 0 -0.03285242887626201 0.029172661150667641 0 -0.031808976715230482 0.029873175694468148 0 -0.03285242887626201 0.029172661150667641 0 -0.031700553576170694 0.030080995921890084 0 -0.03285242887626201 0.029172661150667641 0 -0.032401746854197132 0.030029110086139947 0 -0.031700553576170694 0.030080995921890084 0 -0.035260709914898519 0.021328064145937818 0 -0.034750606152279928 0.020549985601004416 0 -0.036202202391251236 0.019938899540619129 0 -0.034750606152279928 0.020549985601004416 0 -0.034604244079434313 0.019598535764141937 0 -0.036202202391251236 0.019938899540619129 0 -0.033736740683583004 0.020153284911439244 0 -0.034750606152279928 0.020549985601004416 0 -0.034604244079434313 0.019598535764141937 0 -0.033736740683583004 0.020153284911439244 0 -0.034007302420692588 0.02112047248813189 0 -0.034750606152279928 0.020549985601004416 0 -0.034604244079434313 0.019598535764141937 0 -0.033890287442313538 0.01939461648508652 0 -0.034174937890123783 0.018558510338829048 0 -0.033736740683583004 0.020153284911439244 0 -0.034604244079434313 0.019598535764141937 0 -0.033890287442313538 0.01939461648508652 0 -0.034604244079434313 0.019598535764141937 0 -0.036202202391251236 0.019938899540619129 0 -0.035202071406040578 0.018878582838023291 0 -0.027256406920799163 0.023671427821798856 0 -0.026583539262118223 0.024984348041027563 0 -0.027937065452168466 0.026667007444116014 0 -0.031636137215681571 0.021854291067471571 0 -0.032879965743242361 0.020150683735688561 0 -0.026583539262118223 0.024984348041027563 0 -0.025434903806714003 0.025016831069126211 0 -0.025751906254182225 0.024133085823450268 0 -0.026583539262118223 0.024984348041027563 0 -0.025434903806714003 0.025016831069126211 0 -0.026287855978061925 0.025874345351002203 0 -0.027256406920799163 0.023671427821798856 0 -0.025751906254182225 0.024133085823450268 0 -0.024991415350940648 0.022941887206953716 0 -0.025434903806714003 0.025016831069126211 0 -0.025751906254182225 0.024133085823450268 0 -0.024514897761806227 0.024323634470545943 0 -0.025751906254182225 0.024133085823450268 0 -0.024991415350940648 0.022941887206953716 0 -0.024514897761806227 0.024323634470545943 0 -0.027256406920799163 0.023671427821798856 0 -0.026583539262118223 0.024984348041027563 0 -0.025751906254182225 0.024133085823450268 0 -0.027256406920799163 0.023671427821798856 0 -0.026008241026095877 0.022007232556198016 0 -0.024991415350940648 0.022941887206953716 0 -0.027256406920799163 0.023671427821798856 0 -0.026008241026095877 0.022007232556198016 0 -0.026552184690937633 0.020853509049771075 0 -0.026008241026095877 0.022007232556198016 0 -0.024991415350940648 0.022941887206953716 0 -0.024012872875533397 0.02207115052053998 0 -0.031636137215681571 0.021854291067471571 0 -0.031271607195646957 0.023234490607714178 0 -0.032401746854197132 0.030029110086139947 0 -0.03119540246868362 0.030634768127848665 0 -0.03078588503808441 0.031208301208786756 0 -0.034288278994954693 0.02594059709911278 0 -0.031271607195646957 0.023234490607714178 0 -0.035260709914898519 0.021328064145937818 0 -0.036202202391251236 0.019938899540619129 0 -0.036484317340557702 0.021545421187798213 0 -0.032401746854197132 0.030029110086139947 0 -0.03119540246868362 0.030634768127848665 0 -0.031700553576170694 0.030080995921890084 0 -0.03119540246868362 0.030634768127848665 0 -0.030971043404998472 0.03045009747761622 0 -0.030514867319029259 0.030776261744635776 0 -0.03119540246868362 0.030634768127848665 0 -0.030514867319029259 0.030776261744635776 0 -0.03078588503808441 0.031208301208786756 0 -0.03119540246868362 0.030634768127848665 0 -0.030971043404998472 0.03045009747761622 0 -0.031700553576170694 0.030080995921890084 0 -0.03109670857697789 0.030227272603290334 0 -0.030971043404998472 0.03045009747761622 0 -0.031700553576170694 0.030080995921890084 0 -0.029722514167212499 0.03106119399161306 0 -0.03078588503808441 0.031208301208786756 0 -0.028891855490944085 0.031677159820145163 0 -0.030314957362666026 0.030573940633283739 0 -0.029722514167212499 0.03106119399161306 0 -0.030514867319029259 0.030776261744635776 0 -0.030314957362666026 0.030573940633283739 0 -0.030971043404998472 0.03045009747761622 0 -0.030514867319029259 0.030776261744635776 0 -0.029722514167212499 0.03106119399161306 0 -0.030514867319029259 0.030776261744635776 0 -0.03078588503808441 0.031208301208786756 0 -0.031271607195646957 0.023234490607714178 0 -0.024404459745383571 0.026185462281966432 0 -0.026008241026095877 0.022007232556198016 0 -0.026552184690937633 0.020853509049771075 0 -0.023942568916806135 0.020568374618238329 0 -0.025106506542974187 0.019957157295654511 0 -0.024404459745383571 0.026185462281966432 0 -0.026008241026095877 0.022007232556198016 0 -0.023195055420232071 0.019962613933151199 0 -0.024012872875533397 0.02207115052053998 0 -0.023195055420232071 0.019962613933151199 0 -0.022394763425238065 0.022158017311915926 0 -0.024012872875533397 0.02207115052053998 0 -0.028805705313435223 0.030951188299435696 0 -0.029722514167212499 0.03106119399161306 0 -0.028891855490944085 0.031677159820145163 0 -0.027694211783321175 0.031460579834646465 0 -0.028805705313435223 0.030951188299435696 0 -0.028891855490944085 0.031677159820145163 0 -0.024909058980565786 0.031830071589815254 0 -0.024404459745383571 0.026185462281966432 0 -0.024404459745383571 0.026185462281966432 0 -0.019854586263879419 0.025069384777838891 0 -0.021201638139452715 0.030405078271938248 0 -0.022207983592373602 0.03098139511828113 0 -0.020911759971954685 0.030880025648351083 0 -0.023195055420232071 0.019962613933151199 0 -0.021169682832331661 0.021130183844213016 0 -0.022394763425238065 0.022158017311915926 0 -0.023195055420232071 0.019962613933151199 0 -0.021169682832331661 0.021130183844213016 0 -0.019582378447884748 0.019503858688105637 0 -0.021169682832331661 0.021130183844213016 0 -0.022394763425238065 0.022158017311915926 0 -0.020876077163912966 0.022769399075722715 0 -0.021402121076732165 0.024095351298317507 0 -0.022227269582628321 0.023627780490804925 0 -0.020876077163912966 0.022769399075722715 0 -0.022394763425238065 0.022158017311915926 0 -0.022227269582628321 0.023627780490804925 0 -0.020876077163912966 0.022769399075722715 0 -0.022394763425238065 0.022158017311915926 0 -0.023443945211460631 0.023262064603519698 0 -0.022227269582628321 0.023627780490804925 0 -0.022394763425238065 0.022158017311915926 0 -0.024012872875533397 0.02207115052053998 0 -0.023443945211460631 0.023262064603519698 0 -0.024991415350940648 0.022941887206953716 0 -0.024012872875533397 0.02207115052053998 0 -0.023443945211460631 0.023262064603519698 0 -0.024991415350940648 0.022941887206953716 0 -0.023443945211460631 0.023262064603519698 0 -0.024514897761806227 0.024323634470545943 0 -0.023443945211460631 0.023262064603519698 0 -0.024514897761806227 0.024323634470545943 0 -0.023127860204642695 0.024763689425014467 0 -0.023127860204642695 0.024763689425014467 0 -0.021532157054758905 0.025194816090931018 0 -0.024279182345852118 0.025858051145953277 0 -0.025434903806714003 0.025016831069126211 0 -0.024514897761806227 0.024323634470545943 0 -0.024279182345852118 0.025858051145953277 0 -0.024514897761806227 0.024323634470545943 0 -0.023127860204642695 0.024763689425014467 0 -0.024279182345852118 0.025858051145953277 0 -0.023127860204642695 0.024763689425014467 0 -0.021532157054758905 0.025194816090931018 0 -0.022074702870525337 0.024418099837153959 0 -0.021532157054758905 0.025194816090931018 0 -0.021402121076732165 0.024095351298317507 0 -0.022074702870525337 0.024418099837153959 0 -0.021175436958116647 0.024331353710172327 0 -0.020840597018771247 0.024914165719929129 0 -0.020840003572065131 0.024650836512882347 0 -0.021532157054758905 0.025194816090931018 0 -0.021402121076732165 0.024095351298317507 0 -0.020378159763186868 0.024016878539411469 0 -0.021402121076732165 0.024095351298317507 0 -0.022227269582628321 0.023627780490804925 0 -0.022074702870525337 0.024418099837153959 0 -0.023443945211460631 0.023262064603519698 0 -0.023127860204642695 0.024763689425014467 0 -0.022227269582628321 0.023627780490804925 0 -0.023127860204642695 0.024763689425014467 0 -0.022227269582628321 0.023627780490804925 0 -0.022074702870525337 0.024418099837153959 0 -0.022311029053115609 0.018699814769556483 0 -0.026406563192117666 0.022532411097119946 0 -0.022311029053115609 0.018699814769556483 0 -0.022033903809068354 0.01691143916023051 0 -0.028755424039983046 0.014067304197355445 0 -0.026823696505490921 0.012658934831838563 0 -0.031103080839913231 0.012994573363814498 0 -0.028755424039983046 0.014067304197355445 0 -0.030017824642589022 0.015281001573709811 0 -0.027044606372758944 0.015348082874302468 0 -0.021044259703109757 0.024980182059275262 0 -0.026406563192117666 0.022532411097119946 0 -0.021175436958116647 0.024331353710172327 0 -0.020840597018771247 0.024914165719929129 0 -0.024310565322890158 0.025089176525669072 0 -0.028755424039983046 0.014067304197355445 0 -0.026823696505490921 0.012658934831838563 0 -0.027044606372758944 0.015348082874302468 0 -0.022311029053115609 0.018699814769556483 0 -0.022303921788427869 0.019513427413256165 0 -0.031103080839913231 0.012994573363814498 0 -0.030017824642589022 0.015281001573709811 0 -0.032878109648297578 0.015084658721355169 0 -0.028755424039983046 0.014067304197355445 0 -0.031103080839913231 0.012994573363814498 0 -0.030017824642589022 0.015281001573709811 0 -0.030633777761119363 0.014889053136651238 0 -0.031806911588685899 0.01599693677638276 0 -0.032878109648297578 0.015084658721355169 0 -0.031321964052758791 0.015098222741001418 0 -0.032221892341545995 0.015085969625061382 0 -0.031806911588685899 0.01599693677638276 0 -0.030721123459068318 0.016392839917492304 0 -0.031680963998849662 0.017310187388931544 0 -0.030633777761119363 0.014889053136651238 0 -0.031806911588685899 0.01599693677638276 0 -0.030721123459068318 0.016392839917492304 0 -0.030633777761119363 0.014889053136651238 0 -0.030721123459068318 0.016392839917492304 0 -0.029440622076136961 0.016032546465447432 0 -0.031321964052758791 0.015098222741001418 0 -0.022033903809068354 0.01691143916023051 0 -0.030633777761119363 0.014889053136651238 0 -0.029440622076136961 0.016032546465447432 0 -0.028204680766770074 0.014836114645548522 0 -0.029440622076136961 0.016032546465447432 0 -0.028204680766770074 0.014836114645548522 0 -0.028256437560287184 0.01548794482499047 0 -0.022033903809068354 0.01691143916023051 0 -0.019471628742204906 0.016777932780451407 0 -0.028288098239217425 0.018078735972386031 0 -0.019471628742204906 0.016777932780451407 0 -0.029440622076136961 0.016032546465447432 0 -0.030026421826841211 0.017663071316223126 0 -0.028714159914378361 0.01875489880317897 0 -0.029440622076136961 0.016032546465447432 0 -0.028353789683888925 0.01552875652576755 0 -0.028714159914378361 0.01875489880317897 0 -0.003456205671068273 0.019708522094599123 0 -0.0033273193598495699 0.018188674040625533 0 -0.0039803995516380928 0.019171940962534474 0 -0.019471628742204906 0.016777932780451407 0 -0.015660336966748855 0.018477802384013139 0 -0.030026421826841211 0.017663071316223126 0 -0.028714159914378361 0.01875489880317897 0 -0.030721961317244327 0.018714109742691342 0 -0.028714159914378361 0.01875489880317897 0 -0.030408181358225511 0.020141962035919229 0 -0.030721961317244327 0.018714109742691342 0 -0.028714159914378361 0.01875489880317897 0 -0.030408181358225511 0.020141962035919229 0 -0.029031137279874004 0.021680639133378254 0 -0.015660336966748855 0.018477802384013139 0 -0.015949442549447992 0.019945922561177169 0 -0.030408181358225511 0.020141962035919229 0 -0.030721961317244327 0.018714109742691342 0 -0.032833081325060992 0.019674216858733148 0 -0.030721961317244327 0.018714109742691342 0 -0.031680963998849662 0.017310187388931544 0 -0.032833081325060992 0.019674216858733148 0 -0.030026421826841211 0.017663071316223126 0 -0.030721961317244327 0.018714109742691342 0 -0.031680963998849662 0.017310187388931544 0 -0.030721123459068318 0.016392839917492304 0 -0.030026421826841211 0.017663071316223126 0 -0.031680963998849662 0.017310187388931544 0 -0.030721123459068318 0.016392839917492304 0 -0.029440622076136961 0.016032546465447432 0 -0.030026421826841211 0.017663071316223126 0 -0.031806911588685899 0.01599693677638276 0 -0.031680963998849662 0.017310187388931544 0 -0.033141134349006306 0.016661743203970424 0 -0.034280861630210949 0.01793646874428979 0 -0.03520059824958393 0.016748123444307962 0 -0.033141134349006306 0.016661743203970424 0 -0.032833081325060992 0.019674216858733148 0 -0.035077835667840215 0.016790215372049618 0 -0.031680963998849662 0.017310187388931544 0 -0.033141134349006306 0.016661743203970424 0 -0.032833081325060992 0.019674216858733148 0 -0.036338863267405666 0.016051820212600355 0 -0.035389527335606061 0.016048073197405182 0 -0.035428246917095646 0.016522092233751021 0 -0.036338863267405666 0.016051820212600355 0 -0.035389527335606061 0.016048073197405182 0 -0.035757943980314608 0.015459460084852951 0 -0.036338863267405666 0.016051820212600355 0 -0.035428246917095646 0.016522092233751021 0 -0.035077835667840215 0.016790215372049618 0 -0.035428246917095646 0.016522092233751021 0 -0.035077835667840215 0.016790215372049618 0 -0.035601949147540127 0.016853764890075038 0 -0.035788569784148433 0.015574541534026234 0 -0.032879965743242361 0.020150683735688561 0 -0.035601949147540127 0.016853764890075038 0 -0.034504168241835789 0.015654610706778038 0 -0.035520340147847274 0.014578996336256925 0 -0.035601949147540127 0.016853764890075038 0 -0.035968675449322383 0.018266932184137667 0 -0.035397685291121868 0.01758329342098542 0 -0.035077835667840215 0.016790215372049618 0 -0.035601949147540127 0.016853764890075038 0 -0.034504168241835789 0.015654610706778038 0 -0.033141134349006306 0.016661743203970424 0 -0.035077835667840215 0.016790215372049618 0 -0.034504168241835789 0.015654610706778038 0 -0.033141134349006306 0.016661743203970424 0 -0.034504168241835789 0.015654610706778038 0 -0.032878109648297578 0.015084658721355169 0 -0.031806911588685899 0.01599693677638276 0 -0.033141134349006306 0.016661743203970424 0 -0.032878109648297578 0.015084658721355169 0 -0.034504168241835789 0.015654610706778038 0 -0.032878109648297578 0.015084658721355169 0 -0.033601340879164852 0.013783040660086131 0 -0.026406563192117666 0.022532411097119946 0 -0.029812949207793232 0.020004556898003987 0 -0.025434903806714003 0.025016831069126211 0 -0.024279182345852118 0.025858051145953277 0 -0.026287855978061925 0.025874345351002203 0 -0.02481217339106789 0.025651719057754437 0 -0.026191737951165837 0.026175229028519074 0 -0.026287855978061925 0.025874345351002203 0 -0.026406563192117666 0.022532411097119946 0 -0.02554235822153178 0.025781546634457354 0 -0.031103080839913231 0.012994573363814498 0 -0.032878109648297578 0.015084658721355169 0 -0.033601340879164852 0.013783040660086131 0 -0.029812949207793232 0.020004556898003987 0 -0.032879965743242361 0.020150683735688561 0 -0.036202202391251236 0.019938899540619129 0 -0.035896366450130279 0.018267274658137909 0 -0.035202071406040578 0.018878582838023291 0 -0.034504168241835789 0.015654610706778038 0 -0.033601340879164852 0.013783040660086131 0 -0.035520340147847274 0.014578996336256925 0 -0.026583539262118223 0.024984348041027563 0 -0.026287855978061925 0.025874345351002203 0 -0.027937065452168466 0.026667007444116014 0 -0.026191737951165837 0.026175229028519074 0 -0.026287855978061925 0.025874345351002203 0 -0.027937065452168466 0.026667007444116014 0 -0.035202071406040578 0.018878582838023291 0 -0.034174937890123783 0.018558510338829048 0 -0.035138011277210029 0.018010919103504296 0 -0.035896366450130279 0.018267274658137909 0 -0.035202071406040578 0.018878582838023291 0 -0.035138011277210029 0.018010919103504296 0 -0.032879965743242361 0.020150683735688561 0 -0.035699445448768151 0.018688960153302445 0 -0.034604244079434313 0.019598535764141937 0 -0.035202071406040578 0.018878582838023291 0 -0.034174937890123783 0.018558510338829048 0 -0.034174937890123783 0.018558510338829048 0 -0.034557435178051675 0.017794884539661843 0 -0.035138011277210029 0.018010919103504296 0 -0.034557435178051675 0.017794884539661843 0 -0.034262086907178656 0.017272466222690238 0 -0.033457007699390813 0.017585320911762209 0 -0.034174937890123783 0.018558510338829048 0 -0.034557435178051675 0.017794884539661843 0 -0.033457007699390813 0.017585320911762209 0 -0.034262086907178656 0.017272466222690238 0 -0.034161337465416337 0.016812785250682607 0 -0.033457007699390813 0.017585320911762209 0 -0.034557435178051675 0.017794884539661843 0 -0.034262086907178656 0.017272466222690238 0 -0.034943315200250818 0.017236311544256339 0 -0.034557435178051675 0.017794884539661843 0 -0.034943315200250818 0.017236311544256339 0 -0.035138011277210029 0.018010919103504296 0 -0.034943315200250818 0.017236311544256339 0 -0.035138011277210029 0.018010919103504296 0 -0.035397685291121868 0.01758329342098542 0 -0.035968675449322383 0.018266932184137667 0 -0.035138011277210029 0.018010919103504296 0 -0.035397685291121868 0.01758329342098542 0 -0.035601949147540127 0.016853764890075038 0 -0.034943315200250818 0.017236311544256339 0 -0.035397685291121868 0.01758329342098542 0 -0.035601949147540127 0.016853764890075038 0 -0.034943315200250818 0.017236311544256339 0 -0.035206535411236452 0.016554779072936853 0 -0.034943315200250818 0.017236311544256339 0 -0.035206535411236452 0.016554779072936853 0 -0.034670927500451719 0.016697924535435105 0 -0.035206535411236452 0.016554779072936853 0 -0.034888413860267212 0.016147735101960093 0 -0.034670927500451719 0.016697924535435105 0 -0.035428246917095646 0.016522092233751021 0 -0.035601949147540127 0.016853764890075038 0 -0.035206535411236452 0.016554779072936853 0 -0.035389527335606061 0.016048073197405182 0 -0.035206535411236452 0.016554779072936853 0 -0.034888413860267212 0.016147735101960093 0 -0.035389527335606061 0.016048073197405182 0 -0.035428246917095646 0.016522092233751021 0 -0.035206535411236452 0.016554779072936853 0 -0.035389527335606061 0.016048073197405182 0 -0.034888413860267212 0.016147735101960093 0 -0.035065157797820719 0.015444164188448468 0 -0.034888413860267212 0.016147735101960093 0 -0.034465420957058339 0.015885797705475182 0 -0.035065157797820719 0.015444164188448468 0 -0.034888413860267212 0.016147735101960093 0 -0.034465420957058339 0.015885797705475182 0 -0.034421795936964379 0.016341474497517532 0 -0.034888413860267212 0.016147735101960093 0 -0.034421795936964379 0.016341474497517532 0 -0.034670927500451719 0.016697924535435105 0 -0.034465420957058339 0.015885797705475182 0 -0.034421795936964379 0.016341474497517532 0 -0.03395928003067028 0.0161986977773158 0 -0.034421795936964379 0.016341474497517532 0 -0.034161337465416337 0.016812785250682607 0 -0.03395928003067028 0.0161986977773158 0 -0.034421795936964379 0.016341474497517532 0 -0.034670927500451719 0.016697924535435105 0 -0.034161337465416337 0.016812785250682607 0 -0.034262086907178656 0.017272466222690238 0 -0.034670927500451719 0.016697924535435105 0 -0.034161337465416337 0.016812785250682607 0 -0.034262086907178656 0.017272466222690238 0 -0.034943315200250818 0.017236311544256339 0 -0.034670927500451719 0.016697924535435105 0 -0.03549996242432938 0.017325833661594802 0 -0.035040871722026995 0.018901857950994309 0 -0.037009870756212267 0.018264218223285979 0 -0.035967449777245447 0.019023617382787138 0 -0.036633597100041972 0.020184965058067737 0 -0.034161337465416337 0.016812785250682607 0 -0.03395928003067028 0.0161986977773158 0 -0.033457007699390813 0.017585320911762209 0 -0.037009870756212267 0.018264218223285979 0 -0.036021222807686173 0.018178474448921345 0 -0.036107143464365728 0.017172197333339665 0 -0.037009870756212267 0.018264218223285979 0 -0.036021222807686173 0.018178474448921345 0 -0.035967449777245447 0.019023617382787138 0 -0.036021222807686173 0.018178474448921345 0 -0.034999990290134911 0.018253792782797835 0 -0.036107143464365728 0.017172197333339665 0 -0.036021222807686173 0.018178474448921345 0 -0.034999990290134911 0.018253792782797835 0 -0.035967449777245447 0.019023617382787138 0 -0.034999990290134911 0.018253792782797835 0 -0.035967449777245447 0.019023617382787138 0 -0.034999990219226923 0.020132935051856087 0 -0.034999990219226923 0.020132935051856087 0 -0.036633597100041972 0.020184965058067737 0 -0.035709966708754592 0.021067263108914779 0 -0.035967449777245447 0.019023617382787138 0 -0.034999990219226923 0.020132935051856087 0 -0.036633597100041972 0.020184965058067737 0 -0.034686820716194153 0.020580309696477443 0 -0.035040871722026995 0.018901857950994309 0 -0.033040035417559482 0.019258850551316112 0 -0.034174937890123783 0.018558510338829048 0 -0.033457007699390813 0.017585320911762209 0 -0.036255783381011403 0.022108200614552494 0 -0.036633597100041972 0.020184965058067737 0 -0.035709966708754592 0.021067263108914779 0 -0.034999990966859199 0.022012088075542485 0 -0.034999990219226923 0.020132935051856087 0 -0.035709966708754592 0.021067263108914779 0 -0.034999990966859199 0.022012088075542485 0 -0.036255783381011403 0.022108200614552494 0 -0.035709966708754592 0.021067263108914779 0 -0.013248657282605318 0.023287904984931069 0 -0.011145653382322689 0.021686237879223455 0 -0.012756922401528557 0.021440225155143818 0 -0.011886495531206983 0.022572275043208877 0 -0.011100425805292937 0.021698521099828189 0 -0.013248657282605318 0.023287904984931069 0 -0.012756922401528557 0.021440225155143818 0 -0.014109361367917569 0.02230816017318912 0 -0.013248657282605318 0.023287904984931069 0 -0.014109361367917569 0.02230816017318912 0 -0.014893709640215334 0.02321741408955063 0 -0.010218387709106208 0.021444049301840448 0 -0.010282976362165885 0.021223303619968787 0 -0.010611306470914576 0.021313291143902909 0 -0.010218387709106208 0.021444049301840448 0 -0.010124187316209243 0.021224519652164573 0 -0.010282976362165885 0.021223303619968787 0 -0.010282976362165885 0.021223303619968787 0 -0.010611306470914576 0.021313291143902909 0 -0.01036599353265647 0.021132969832597943 0 -0.010218387709106208 0.021444049301840448 0 -0.010611306470914576 0.021313291143902909 0 -0.011145653382322689 0.021686237879223455 0 -0.010611306470914576 0.021313291143902909 0 -0.010740488249338988 0.021272350194536247 0 -0.010539001408417922 0.021134916532807406 0 -0.010611306470914576 0.021313291143902909 0 -0.010890662497245381 0.021435777463588591 0 -0.011145653382322689 0.021686237879223455 0 -0.010611306470914576 0.021313291143902909 0 -0.010740488249338988 0.021272350194536247 0 -0.010890662497245381 0.021435777463588591 0 -0.010740488249338988 0.021272350194536247 0 -0.010890662497245381 0.021435777463588591 0 -0.010886356763182703 0.021358594870175988 0 -0.010890662497245381 0.021435777463588591 0 -0.010886356763182703 0.021358594870175988 0 -0.010856858526475617 0.021438889393144752 0 -0.010818178856811795 0.021371446265231273 0 -0.010886356763182703 0.021358594870175988 0 -0.011006229253365567 0.021260575520249712 0 -0.010818178856811795 0.021371446265231273 0 -0.010886356763182703 0.021358594870175988 0 -0.010856858526475617 0.021438889393144752 0 -0.010489507033984755 0.021358340748071979 0 -0.010818178856811795 0.021371446265231273 0 -0.010856858526475617 0.021438889393144752 0 -0.010489507033984755 0.021358340748071979 0 -0.010760394989602877 0.021246981862983412 0 -0.010856858526475617 0.021438889393144752 0 -0.010760394989602877 0.021246981862983412 0 -0.010856858526475617 0.021438889393144752 0 -0.011145653382322689 0.021686237879223455 0 -0.010890662497245381 0.021435777463588591 0 -0.010856858526475617 0.021438889393144752 0 -0.011145653382322689 0.021686237879223455 0 -0.011145653382322689 0.021686237879223455 0 -0.010902557152049543 0.02062138669730508 0 -0.011669705555911403 0.020573850707068603 0 -0.010760394989602877 0.021246981862983412 0 -0.011145653382322689 0.021686237879223455 0 -0.010902557152049543 0.02062138669730508 0 -0.010350391772871509 0.020823167099037372 0 -0.010760394989602877 0.021246981862983412 0 -0.010902557152049543 0.02062138669730508 0 -0.010350391772871509 0.020823167099037372 0 -0.010386564746381003 0.019897703852423541 0 -0.010902557152049543 0.02062138669730508 0 -0.010386564746381003 0.019897703852423541 0 -0.01137767097354616 0.019698148659951415 0 -0.010902557152049543 0.02062138669730508 0 -0.01137767097354616 0.019698148659951415 0 -0.010902557152049543 0.02062138669730508 0 -0.011669705555911403 0.020573850707068603 0 -0.01137767097354616 0.019698148659951415 0 -0.011669705555911403 0.020573850707068603 0 -0.013318706330790988 0.019320243031965167 0 -0.011669705555911403 0.020573850707068603 0 -0.012756922401528557 0.021440225155143818 0 -0.013318706330790988 0.019320243031965167 0 -0.011145653382322689 0.021686237879223455 0 -0.011669705555911403 0.020573850707068603 0 -0.012756922401528557 0.021440225155143818 0 -0.012756922401528557 0.021440225155143818 0 -0.014589037583531013 0.021138544518301806 0 -0.014109361367917569 0.02230816017318912 0 -0.012756922401528557 0.021440225155143818 0 -0.013318706330790988 0.019320243031965167 0 -0.014589037583531013 0.021138544518301806 0 -0.015876764942096895 0.024965773196088906 0 -0.018052511529009212 0.025049988343473665 0 -0.013318706330790988 0.019320243031965167 0 -0.016214176591053151 0.019278764700102265 0 -0.014589037583531013 0.021138544518301806 0 -0.016214176591053151 0.019278764700102265 0 -0.016269134967302906 0.021713724915382985 0 -0.014589037583531013 0.021138544518301806 0 -0.016214176591053151 0.019278764700102265 0 -0.016269134967302906 0.021713724915382985 0 -0.018072551922355577 0.021299824109046794 0 -0.020501649439869436 0.030383515572647065 0 -0.021201638139452715 0.030405078271938248 0 -0.020911759971954685 0.030880025648351083 0 -0.016214176591053151 0.019278764700102265 0 -0.019582378447884748 0.019503858688105637 0 -0.018072551922355577 0.021299824109046794 0 -0.018052511529009212 0.025049988343473665 0 -0.019854586263879419 0.025069384777838891 0 -0.020501649439869436 0.030383515572647065 0 -0.019672797879435083 0.030750192870212488 0 -0.020911759971954685 0.030880025648351083 0 -0.021169682832331661 0.021130183844213016 0 -0.019582378447884748 0.019503858688105637 0 -0.019708958907660085 0.021445207097121381 0 -0.019582378447884748 0.019503858688105637 0 -0.018072551922355577 0.021299824109046794 0 -0.019708958907660085 0.021445207097121381 0 -0.020876077163912966 0.022769399075722715 0 -0.019236758217756281 0.022823584238534953 0 -0.020378159763186868 0.024016878539411469 0 -0.021169682832331661 0.021130183844213016 0 -0.019708958907660085 0.021445207097121381 0 -0.020876077163912966 0.022769399075722715 0 -0.019708958907660085 0.021445207097121381 0 -0.020876077163912966 0.022769399075722715 0 -0.019236758217756281 0.022823584238534953 0 -0.016269134967302906 0.021713724915382985 0 -0.018072551922355577 0.021299824109046794 0 -0.017694902171010322 0.022691585772122561 0 -0.019236758217756281 0.022823584238534953 0 -0.017694902171010322 0.022691585772122561 0 -0.018792693513118259 0.024368852348925954 0 -0.018072551922355577 0.021299824109046794 0 -0.019236758217756281 0.022823584238534953 0 -0.017694902171010322 0.022691585772122561 0 -0.018072551922355577 0.021299824109046794 0 -0.019708958907660085 0.021445207097121381 0 -0.019236758217756281 0.022823584238534953 0 -0.018521724224730019 0.023804615991694072 0 -0.016249417940315404 0.023368779377444162 0 -0.01804205545265759 0.024752065711936916 0 -0.017694902171010322 0.022691585772122561 0 -0.018792693513118259 0.024368852348925954 0 -0.016249417940315404 0.023368779377444162 0 -0.018714377275367615 0.024061875096968176 0 -0.0164188177812041 0.02343189156687818 0 -0.021532157054758905 0.025194816090931018 0 -0.018792693513118259 0.024368852348925954 0 -0.020378159763186868 0.024016878539411469 0 -0.021175436958116647 0.024331353710172327 0 -0.020840003572065131 0.024650836512882347 0 -0.018521724224730019 0.023804615991694072 0 -0.021044259703109757 0.024980182059275262 0 -0.018714377275367615 0.024061875096968176 0 -0.020840003572065131 0.024650836512882347 0 -0.018521724224730019 0.023804615991694072 0 -0.01804205545265759 0.024752065711936916 0 -0.019236758217756281 0.022823584238534953 0 -0.018792693513118259 0.024368852348925954 0 -0.020378159763186868 0.024016878539411469 0 -0.021402121076732165 0.024095351298317507 0 -0.020876077163912966 0.022769399075722715 0 -0.020378159763186868 0.024016878539411469 0 -0.016269134967302906 0.021713724915382985 0 -0.014589037583531013 0.021138544518301806 0 -0.015350475038886114 0.022449351988973312 0 -0.015350475038886114 0.022449351988973312 0 -0.016249417940315404 0.023368779377444162 0 -0.014893709640215334 0.02321741408955063 0 -0.014109361367917569 0.02230816017318912 0 -0.015350475038886114 0.022449351988973312 0 -0.014893709640215334 0.02321741408955063 0 -0.014589037583531013 0.021138544518301806 0 -0.014109361367917569 0.02230816017318912 0 -0.015350475038886114 0.022449351988973312 0 -0.016269134967302906 0.021713724915382985 0 -0.017694902171010322 0.022691585772122561 0 -0.016249417940315404 0.023368779377444162 0 -0.016269134967302906 0.021713724915382985 0 -0.015350475038886114 0.022449351988973312 0 -0.016249417940315404 0.023368779377444162 0 -0.012502279656232792 0.021392993013152426 0 -0.016457443211032884 0.02229066909977118 0 -0.016249417940315404 0.023368779377444162 0 -0.015625727080993437 0.024614358928163212 0 -0.01804205545265759 0.024752065711936916 0 -0.0092951419100286113 0.021144585879555023 0 -0.012502279656232792 0.021392993013152426 0 -0.010218387709106208 0.021444049301840448 0 -0.010124187316209243 0.021224519652164573 0 -0.0099219612171091588 0.021166325311212927 0 -0.013248657282605318 0.023287904984931069 0 -0.015625727080993437 0.024614358928163212 0 -0.014893709640215334 0.02321741408955063 0 -0.011886495531206983 0.022572275043208877 0 -0.012502279656232792 0.021392993013152426 0 -0.016249417940315404 0.023368779377444162 0 -0.015625727080993437 0.024614358928163212 0 -0.014893709640215334 0.02321741408955063 0 -0.010075581799829852 0.021103469366612979 0 -0.0099794973081227881 0.021069027107335853 0 -0.010130744448245476 0.020992282592753212 0 -0.0099794973081227881 0.021069027107335853 0 -0.0098883598279846836 0.021001122910447159 0 -0.010130744448245476 0.020992282592753212 0 -0.010124187316209243 0.021224519652164573 0 -0.0099913546574171824 0.02116635211060924 0 -0.010075581799829852 0.021103469366612979 0 -0.0099913546574171824 0.02116635211060924 0 -0.010075581799829852 0.021103469366612979 0 -0.0099794973081227881 0.021069027107335853 0 -0.013006577540131306 0.019003842659263869 0 -0.015308096826347824 0.019115366488089983 0 -0.014917337823703828 0.019863615706511531 0 -0.012502279656232792 0.021392993013152426 0 -0.012679912745503787 0.020573798622114788 0 -0.0099794973081227881 0.021069027107335853 0 -0.0098883598279846836 0.021001122910447159 0 -0.0098520530882584261 0.021055028834937612 0 -0.0099913546574171824 0.02116635211060924 0 -0.0099794973081227881 0.021069027107335853 0 -0.0098520530882584261 0.021055028834937612 0 -0.0055087302721134445 0.020175556446524443 0 -0.0053920698954273965 0.019395712635736754 0 -0.00625517505758436 0.01970524062414503 0 -0.0053920698954273965 0.019395712635736754 0 -0.00625517505758436 0.01970524062414503 0 -0.0061660751266087695 0.019026073074031646 0 -0.00625517505758436 0.01970524062414503 0 -0.00689985846182746 0.019487949732551638 0 -0.0061660751266087695 0.019026073074031646 0 -0.0068347412005794958 0.020768878997887943 0 -0.0090349924342112368 0.020741139419677274 0 -0.0055087302721134445 0.020175556446524443 0 -0.00625517505758436 0.01970524062414503 0 -0.0074297177755074766 0.02055686178864978 0 -0.00625517505758436 0.01970524062414503 0 -0.00689985846182746 0.019487949732551638 0 -0.0074297177755074766 0.02055686178864978 0 -0.020858253383269378 0.024870839397642824 0 -0.020840003572065131 0.024650836512882347 0 -0.01804205545265759 0.024752065711936916 0 -0.017641540811863522 0.019246233787388656 0 -0.017751728621735244 0.020738763055250839 0 -0.016840560614811654 0.020746252328620277 0 -0.022311029053115609 0.018699814769556483 0 -0.016457443211032884 0.02229066909977118 0 -0.017641540811863522 0.019246233787388656 0 -0.015308096826347824 0.019115366488089983 0 -0.016840560614811654 0.020746252328620277 0 -0.012679912745503787 0.020573798622114788 0 -0.010701922010768186 0.019171747132882097 0 -0.015308096826347824 0.019115366488089983 0 -0.014917337823703828 0.019863615706511531 0 -0.016840560614811654 0.020746252328620277 0 -0.0098883598279846836 0.021001122910447159 0 -0.0098520530882584261 0.021055028834937612 0 -0.0097556937453964314 0.020970036771003675 0 -0.0068347412005794958 0.020768878997887943 0 -0.010701922010768186 0.019171747132882097 0 -0.0055087302721134445 0.020175556446524443 0 -0.0048156953033177208 0.019708927233340019 0 -0.0039633528299649256 0.019988257861309082 0 -0.0055087302721134445 0.020175556446524443 0 -0.0053920698954273965 0.019395712635736754 0 -0.0048156953033177208 0.019708927233340019 0 -0.0053920698954273965 0.019395712635736754 0 -0.0048156953033177208 0.019708927233340019 0 -0.0046355435729027563 0.019116835843523236 0 -0.0048156953033177208 0.019708927233340019 0 -0.0043469414675523258 0.019497441273984759 0 -0.0046355435729027563 0.019116835843523236 0 -0.0048156953033177208 0.019708927233340019 0 -0.0043469414675523258 0.019497441273984759 0 -0.0039633528299649256 0.019988257861309082 0 -0.0043469414675523258 0.019497441273984759 0 -0.0039633528299649256 0.019988257861309082 0 -0.0039803995516380928 0.019171940962534474 0 -0.0043469414675523258 0.019497441273984759 0 -0.0039803995516380928 0.019171940962534474 0 -0.0046355435729027563 0.019116835843523236 0 -0.003456205671068273 0.019708522094599123 0 -0.0039633528299649256 0.019988257861309082 0 -0.0039803995516380928 0.019171940962534474 0 -0.019471628742204906 0.016777932780451407 0 -0.010701922010768186 0.019171747132882097 0 -0.022033903809068354 0.01691143916023051 0 -0.010701922010768186 0.019171747132882097 0 -0.018063462737003155 0.017025431008062086 0 -0.018267330701172473 0.019593031773431885 0 -0.012893327612352195 0.017008329032440577 0 -0.0039803995516380928 0.019171940962534474 0 -0.0046355435729027563 0.019116835843523236 0 -0.0042453371267730097 0.018216057720902065 0 -0.0033273193598495699 0.018188674040625533 0 -0.0039803995516380928 0.019171940962534474 0 -0.0042453371267730097 0.018216057720902065 0 -0.0046355435729027563 0.019116835843523236 0 -0.0051914782563987506 0.018546717488498763 0 -0.0042453371267730097 0.018216057720902065 0 -0.0053920698954273965 0.019395712635736754 0 -0.0046355435729027563 0.019116835843523236 0 -0.0051914782563987506 0.018546717488498763 0 -0.0051914782563987506 0.018546717488498763 0 -0.0045102503071253307 0.017442141997372138 0 -0.0042453371267730097 0.018216057720902065 0 -0.0045102503071253307 0.017442141997372138 0 -0.0042453371267730097 0.018216057720902065 0 -0.0040207286928507276 0.017025879010154125 0 -0.0033273193598495699 0.018188674040625533 0 -0.0042453371267730097 0.018216057720902065 0 -0.0040207286928507276 0.017025879010154125 0 -0.0069805539691374869 0.018705401730349513 0 -0.0061660751266087695 0.019026073074031646 0 -0.0061126442611613993 0.017992403735039211 0 -0.0069805539691374869 0.018705401730349513 0 -0.0072269821888091253 0.017932184733210461 0 -0.0076483370716710734 0.018561902450186057 0 -0.00689985846182746 0.019487949732551638 0 -0.0069805539691374869 0.018705401730349513 0 -0.0078937965072794873 0.019314407440711528 0 -0.00689985846182746 0.019487949732551638 0 -0.0069805539691374869 0.018705401730349513 0 -0.0061660751266087695 0.019026073074031646 0 -0.0051914782563987506 0.018546717488498763 0 -0.0061660751266087695 0.019026073074031646 0 -0.0061126442611613993 0.017992403735039211 0 -0.0053920698954273965 0.019395712635736754 0 -0.0051914782563987506 0.018546717488498763 0 -0.0061660751266087695 0.019026073074031646 0 -0.0045102503071253307 0.017442141997372138 0 -0.0061126442611613993 0.017992403735039211 0 -0.0059293244831723005 0.016975958799280547 0 -0.0061126442611613993 0.017992403735039211 0 -0.0067240626177028041 0.017446493945510538 0 -0.0059293244831723005 0.016975958799280547 0 -0.0051914782563987506 0.018546717488498763 0 -0.0045102503071253307 0.017442141997372138 0 -0.0061126442611613993 0.017992403735039211 0 -0.0069805539691374869 0.018705401730349513 0 -0.0061126442611613993 0.017992403735039211 0 -0.0072269821888091253 0.017932184733210461 0 -0.0061126442611613993 0.017992403735039211 0 -0.0067240626177028041 0.017446493945510538 0 -0.0072269821888091253 0.017932184733210461 0 -0.0067240626177028041 0.017446493945510538 0 -0.0072269821888091253 0.017932184733210461 0 -0.0073605452232485 0.017336438800358605 0 -0.0072269821888091253 0.017932184733210461 0 -0.0078085759306261151 0.017656474988852616 0 -0.0079872297798119721 0.018144687993154905 0 -0.0078085759306261151 0.017656474988852616 0 -0.0083228886141799643 0.018020724629495548 0 -0.0079983935523130715 0.017038507521314802 0 -0.0072269821888091253 0.017932184733210461 0 -0.0078085759306261151 0.017656474988852616 0 -0.0073605452232485 0.017336438800358605 0 -0.0078085759306261151 0.017656474988852616 0 -0.0079872297798119721 0.018144687993154905 0 -0.0083228886141799643 0.018020724629495548 0 -0.0072269821888091253 0.017932184733210461 0 -0.0079872297798119721 0.018144687993154905 0 -0.0076483370716710734 0.018561902450186057 0 -0.008772215271557934 0.018199617797690932 0 -0.0049926384296816043 0.017004264982813336 0 -0.0079736420756687573 0.018020463196469595 0 -0.0082872549182736698 0.01762532512854521 0 -0.006651288445610604 0.016852460411968195 0 -0.0083228886141799643 0.018020724629495548 0 -0.0088351059620285066 0.018159225006691301 0 -0.0079983935523130715 0.017038507521314802 0 -0.0079872297798119721 0.018144687993154905 0 -0.0083228886141799643 0.018020724629495548 0 -0.0084869781404017779 0.018597456308930942 0 -0.0083228886141799643 0.018020724629495548 0 -0.0086713022458492044 0.018391091713624921 0 -0.0084869781404017779 0.018597456308930942 0 -0.0083228886141799643 0.018020724629495548 0 -0.0086713022458492044 0.018391091713624921 0 -0.0088351059620285066 0.018159225006691301 0 -0.0086713022458492044 0.018391091713624921 0 -0.0088351059620285066 0.018159225006691301 0 -0.0087955397529260598 0.018584653814999855 0 -0.0093221750115172752 0.019378960267414262 0 -0.0080001500611956069 0.019324668984176837 0 -0.0084869781404017779 0.018597456308930942 0 -0.0087491663200811743 0.018948757215310062 0 -0.0078937965072794873 0.019314407440711528 0 -0.0086713022458492044 0.018391091713624921 0 -0.0087955397529260598 0.018584653814999855 0 -0.0084869781404017779 0.018597456308930942 0 -0.0087955397529260598 0.018584653814999855 0 -0.0084869781404017779 0.018597456308930942 0 -0.0087491663200811743 0.018948757215310062 0 -0.0079872297798119721 0.018144687993154905 0 -0.0084869781404017779 0.018597456308930942 0 -0.0076483370716710734 0.018561902450186057 0 -0.0084869781404017779 0.018597456308930942 0 -0.0076483370716710734 0.018561902450186057 0 -0.0078937965072794873 0.019314407440711528 0 -0.0069805539691374869 0.018705401730349513 0 -0.0076483370716710734 0.018561902450186057 0 -0.0078937965072794873 0.019314407440711528 0 -0.0074297177755074766 0.02055686178864978 0 -0.0089755987589267387 0.020108729910716265 0 -0.010295907480819705 0.020832836377449749 0 -0.0078937965072794873 0.019314407440711528 0 -0.0074297177755074766 0.02055686178864978 0 -0.0089755987589267387 0.020108729910716265 0 -0.0090349924342112368 0.020741139419677274 0 -0.01014444527454143 0.020833276299893736 0 -0.00689985846182746 0.019487949732551638 0 -0.0078937965072794873 0.019314407440711528 0 -0.0074297177755074766 0.02055686178864978 0 -0.010216160128474415 0.01976890102278132 0 -0.0078937965072794873 0.019314407440711528 0 -0.0089755987589267387 0.020108729910716265 0 -0.010216160128474415 0.01976890102278132 0 -0.0089755987589267387 0.020108729910716265 0 -0.010295907480819705 0.020832836377449749 0 -0.010295907480819705 0.020832836377449749 0 -0.01036599353265647 0.021132969832597943 0 -0.010212210740197887 0.021075755835200972 0 -0.010295907480819705 0.020832836377449749 0 -0.010539001408417922 0.021134916532807406 0 -0.01036599353265647 0.021132969832597943 0 -0.010611306470914576 0.021313291143902909 0 -0.010539001408417922 0.021134916532807406 0 -0.01036599353265647 0.021132969832597943 0 -0.010282976362165885 0.021223303619968787 0 -0.01036599353265647 0.021132969832597943 0 -0.010212210740197887 0.021075755835200972 0 -0.010130744448245476 0.020992282592753212 0 -0.010295907480819705 0.020832836377449749 0 -0.010212210740197887 0.021075755835200972 0 -0.010124187316209243 0.021224519652164573 0 -0.010282976362165885 0.021223303619968787 0 -0.010212210740197887 0.021075755835200972 0 -0.010124187316209243 0.021224519652164573 0 -0.010075581799829852 0.021103469366612979 0 -0.010212210740197887 0.021075755835200972 0 -0.010075581799829852 0.021103469366612979 0 -0.010130744448245476 0.020992282592753212 0 -0.010212210740197887 0.021075755835200972 0 -0.011006229253365567 0.021260575520249712 0 -0.010750722161857988 0.021053879457722927 0 -0.011025066039073892 0.020693880727713141 0 -0.011006229253365567 0.021260575520249712 0 -0.011025066039073892 0.020693880727713141 0 -0.011263936253272502 0.020705315929991815 0 -0.011554401656816204 0.02067321046722102 0 -0.011006229253365567 0.021260575520249712 0 -0.011263936253272502 0.020705315929991815 0 -0.011124456712355889 0.021138087381379265 0 -0.011051583201703753 0.021238037453616413 0 -0.010801705782518874 0.021329560413954615 0 -0.010818178856811795 0.021371446265231273 0 -0.011006229253365567 0.021260575520249712 0 -0.010886356763182703 0.021358594870175988 0 -0.011006229253365567 0.021260575520249712 0 -0.010750722161857988 0.021053879457722927 0 -0.010740488249338988 0.021272350194536247 0 -0.010886356763182703 0.021358594870175988 0 -0.010750722161857988 0.021053879457722927 0 -0.010740488249338988 0.021272350194536247 0 -0.010539001408417922 0.021134916532807406 0 -0.010750722161857988 0.021053879457722927 0 -0.010295907480819705 0.020832836377449749 0 -0.010539001408417922 0.021134916532807406 0 -0.010750722161857988 0.021053879457722927 0 -0.010750722161857988 0.021053879457722927 0 -0.010748472836659719 0.020397616225228111 0 -0.011025066039073892 0.020693880727713141 0 -0.010216160128474415 0.01976890102278132 0 -0.010748472836659719 0.020397616225228111 0 -0.011131294373472295 0.020203907695996216 0 -0.010295907480819705 0.020832836377449749 0 -0.010750722161857988 0.021053879457722927 0 -0.010748472836659719 0.020397616225228111 0 -0.010216160128474415 0.01976890102278132 0 -0.010295907480819705 0.020832836377449749 0 -0.010748472836659719 0.020397616225228111 0 -0.010748472836659719 0.020397616225228111 0 -0.011039228581161636 0.020435015396988929 0 -0.011131294373472295 0.020203907695996216 0 -0.011039228581161636 0.020435015396988929 0 -0.011253459580173422 0.020459375254167418 0 -0.011131294373472295 0.020203907695996216 0 -0.010748472836659719 0.020397616225228111 0 -0.011039228581161636 0.020435015396988929 0 -0.011025066039073892 0.020693880727713141 0 -0.011039228581161636 0.020435015396988929 0 -0.011025066039073892 0.020693880727713141 0 -0.011253459580173422 0.020459375254167418 0 -0.011025066039073892 0.020693880727713141 0 -0.011263936253272502 0.020705315929991815 0 -0.011253459580173422 0.020459375254167418 0 -0.011554401656816204 0.02067321046722102 0 -0.011263936253272502 0.020705315929991815 0 -0.011417834679121006 0.020504505513475275 0 -0.011263936253272502 0.020705315929991815 0 -0.011417834679121006 0.020504505513475275 0 -0.011253459580173422 0.020459375254167418 0 -0.011253459580173422 0.020459375254167418 0 -0.011434373299940835 0.020337276109614177 0 -0.011131294373472295 0.020203907695996216 0 -0.011417834679121006 0.020504505513475275 0 -0.011253459580173422 0.020459375254167418 0 -0.011434373299940835 0.020337276109614177 0 -0.0095430249809998584 0.01868113803733535 0 -0.0092025961746949377 0.018875564898933626 0 -0.0092637035200341094 0.018623669555293335 0 -0.0092025961746949377 0.018875564898933626 0 -0.0090973742198874955 0.018769778647077365 0 -0.0092637035200341094 0.018623669555293335 0 -0.0092637035200341094 0.018623669555293335 0 -0.0091197551868014391 0.018466754293819321 0 -0.0093925461252510386 0.018295358936576012 0 -0.0090973742198874955 0.018769778647077365 0 -0.0091197551868014391 0.018466754293819321 0 -0.0087820695183507061 0.018228364873788972 0 -0.0090973742198874955 0.018769778647077365 0 -0.0092637035200341094 0.018623669555293335 0 -0.0091197551868014391 0.018466754293819321 0 -0.0095430249809998584 0.01868113803733535 0 -0.0092637035200341094 0.018623669555293335 0 -0.0093925461252510386 0.018295358936576012 0 -0.0087955397529260598 0.018584653814999855 0 -0.0087491663200811743 0.018948757215310062 0 -0.0090973742198874955 0.018769778647077365 0 -0.0088351059620285066 0.018159225006691301 0 -0.0087955397529260598 0.018584653814999855 0 -0.0090973742198874955 0.018769778647077365 0 -0.0079736420756687573 0.018020463196469595 0 -0.0090973742198874955 0.018769778647077365 0 -0.0087820695183507061 0.018228364873788972 0 -0.0093221750115172752 0.019378960267414262 0 -0.010453453335584666 0.019474461862437602 0 -0.008772215271557934 0.018199617797690932 0 -0.0089066639729909955 0.018630457691261319 0 -0.0087491663200811743 0.018948757215310062 0 -0.0092025961746949377 0.018875564898933626 0 -0.0090973742198874955 0.018769778647077365 0 -0.0042295674419028165 0.017506493336189751 0 -0.0055027201327510324 0.017877217691349541 0 -0.0087820695183507061 0.018228364873788972 0 -0.0082872549182736698 0.01762532512854521 0 -0.0093925461252510386 0.018295358936576012 0 -0.0079736420756687573 0.018020463196469595 0 -0.0087820695183507061 0.018228364873788972 0 -0.0082872549182736698 0.01762532512854521 0 -0.00082323537806827402 0.017487216269751846 0 -0.001106372679416499 0.017482982827108719 0 -0.00098365915250229357 0.017368541382537007 0 -0.00082323537806827402 0.017487216269751846 0 -0.0012520538390749492 0.017700768651952997 0 -0.001106372679416499 0.017482982827108719 0 -0.0013752495920690447 0.017670860023709815 0 -0.0012520538390749492 0.017700768651952997 0 -0.0012898748804907182 0.01754243222081622 0 -0.0091197551868014391 0.018466754293819321 0 -0.0087820695183507061 0.018228364873788972 0 -0.0093925461252510386 0.018295358936576012 0 -0.0012520538390749492 0.017700768651952997 0 -0.001106372679416499 0.017482982827108719 0 -0.0012898748804907182 0.01754243222081622 0 -0.0011469515713009386 0.017324508537342156 0 -0.0009340910945470275 0.017105401973153255 0 -0.0010598941302258002 0.016887906406002028 0 -0.0012898748804907182 0.01754243222081622 0 -0.0011469515713009386 0.017324508537342156 0 -0.0013411387664685843 0.017424585121527631 0 -0.001106372679416499 0.017482982827108719 0 -0.0012898748804907182 0.01754243222081622 0 -0.0011469515713009386 0.017324508537342156 0 -0.001106372679416499 0.017482982827108719 0 -0.0011469515713009386 0.017324508537342156 0 -0.00098365915250229357 0.017368541382537007 0 -0.0011469515713009386 0.017324508537342156 0 -0.0013411387664685843 0.017424585121527631 0 -0.0013060291371503952 0.017184103871142879 0 -0.00082323537806827402 0.017487216269751846 0 -0.00098365915250229357 0.017368541382537007 0 -0.00080780864961861609 0.017231979610965582 0 -0.00082323537806827402 0.017487216269751846 0 -0.00080780864961861609 0.017231979610965582 0 -0.00061077568705788935 0.017190891400259405 0 -0.00098365915250229357 0.017368541382537007 0 -0.0009340910945470275 0.017105401973153255 0 -0.00080780864961861609 0.017231979610965582 0 -0.0011469515713009386 0.017324508537342156 0 -0.00098365915250229357 0.017368541382537007 0 -0.0009340910945470275 0.017105401973153255 0 -0.0009340910945470275 0.017105401973153255 0 -0.00080780864961861609 0.017231979610965582 0 -0.0006863282599785858 0.016993033104094873 0 -0.0009340910945470275 0.017105401973153255 0 -0.00084368424511722137 0.016615112861640632 0 -0.0006863282599785858 0.016993033104094873 0 -0.0009340910945470275 0.017105401973153255 0 -0.00084368424511722137 0.016615112861640632 0 -0.0010598941302258002 0.016887906406002028 0 -0.0011469515713009386 0.017324508537342156 0 -0.0010598941302258002 0.016887906406002028 0 -0.0013060291371503952 0.017184103871142879 0 -0.0010598941302258002 0.016887906406002028 0 -0.0011697185172817065 0.016758914046926046 0 -0.0013060291371503952 0.017184103871142879 0 -0.0010598941302258002 0.016887906406002028 0 -0.0011697185172817065 0.016758914046926046 0 -0.00093863140957564021 0.016471868621537041 0 -0.00084368424511722137 0.016615112861640632 0 -0.00093863140957564021 0.016471868621537041 0 -0.00088119884357940536 0.016348604479365984 0 -0.00084368424511722137 0.016615112861640632 0 -0.0010598941302258002 0.016887906406002028 0 -0.00093863140957564021 0.016471868621537041 0 -0.00093863140957564021 0.016471868621537041 0 -0.00086306977580640225 0.016269842178408288 0 -0.00096778629765409147 0.016150381283121941 0 -0.00093863140957564021 0.016471868621537041 0 -0.0011615062487995746 0.016303647729756555 0 -0.00096778629765409147 0.016150381283121941 0 -0.0011697185172817065 0.016758914046926046 0 -0.00093863140957564021 0.016471868621537041 0 -0.0011615062487995746 0.016303647729756555 0 -0.00093863140957564021 0.016471868621537041 0 -0.00086306977580640225 0.016269842178408288 0 -0.00088119884357940536 0.016348604479365984 0 -0.0010047154771859993 0.016317001579126248 0 -0.00086306977580640225 0.016269842178408288 0 -0.00088119884357940536 0.016348604479365984 0 -0.00088119884357940536 0.016348604479365984 0 -0.0011338239989518268 0.016104884586369165 0 -0.00093968202377289485 0.016089111202854903 0 -0.0010047154771859993 0.016317001579126248 0 -0.0011338239989518268 0.016104884586369165 0 -0.0014661697141823463 0.016225462049859279 0 -0.0010047154771859993 0.016317001579126248 0 -0.00088119884357940536 0.016348604479365984 0 -0.0011338239989518268 0.016104884586369165 0 -0.0011338239989518268 0.016104884586369165 0 -0.001308830652764358 0.015901732441415326 0 -0.0014100523910998246 0.015988949174166715 0 -0.0021504325755735861 0.016283347439931851 0 -0.00050914162085946135 0.016575270022157057 0 -0.0011338239989518268 0.016104884586369165 0 -0.0011393746542600752 0.015952016546246409 0 -0.001308830652764358 0.015901732441415326 0 -0.0011393746542600752 0.015952016546246409 0 -0.0012131664057420592 0.015754216450280179 0 -0.00093968202377289485 0.016089111202854903 0 -0.0011338239989518268 0.016104884586369165 0 -0.0011393746542600752 0.015952016546246409 0 -0.00093968202377289485 0.016089111202854903 0 -0.0011393746542600752 0.015952016546246409 0 -0.001308830652764358 0.015901732441415326 0 -0.0012131664057420592 0.015754216450280179 0 -0.00084368424511722137 0.016615112861640632 0 -0.00088119884357940536 0.016348604479365984 0 -0.00093968202377289485 0.016089111202854903 0 -0.00092611698193751453 0.016519943218949895 0 -0.00050914162085946135 0.016575270022157057 0 -0.00084368424511722137 0.016615112861640632 0 -0.00044732381209596313 0.016884582925999293 0 -0.0006863282599785858 0.016993033104094873 0 -0.00044732381209596313 0.016884582925999293 0 -0.0006863282599785858 0.016993033104094873 0 -0.00061077568705788935 0.017190891400259405 0 -0.00082323537806827402 0.017487216269751846 0 -0.00061077568705788935 0.017190891400259405 0 -0.00031846789045335836 0.017208211172468391 0 -0.0042295674419028165 0.017506493336189751 0 -0.0049926384296816043 0.017004264982813336 0 -0.00080780864961861609 0.017231979610965582 0 -0.0006863282599785858 0.016993033104094873 0 -0.00061077568705788935 0.017190891400259405 0 -0.00044732381209596313 0.016884582925999293 0 -0.00061077568705788935 0.017190891400259405 0 -0.00031846789045335836 0.017208211172468391 0 -0.00014888121796507601 0.017032118270476126 0 -0.00044732381209596313 0.016884582925999293 0 -0.00031846789045335836 0.017208211172468391 0 -0.0079983935523130715 0.017038507521314802 0 -0.0073605452232485 0.017336438800358605 0 -0.0071981462403141521 0.016589834631768115 0 -0.0038321589325564613 0.01614448439638046 0 -0.0046576315146740705 0.016916066975775999 0 -0.0033904931110867453 0.016314231001189592 0 -0.0049926384296816043 0.017004264982813336 0 -0.0049156624419189696 0.016292404875540092 0 -0.0021504325755735861 0.016283347439931851 0 -0.0049926384296816043 0.017004264982813336 0 -0.0021504325755735861 0.016283347439931851 0 -0.0049156624419189696 0.016292404875540092 0 -0.0078085759306261151 0.017656474988852616 0 -0.0079983935523130715 0.017038507521314802 0 -0.0073605452232485 0.017336438800358605 0 -0.0068063305476206964 0.017088533359296502 0 -0.0071981462403141521 0.016589834631768115 0 -0.0059293244831723005 0.016975958799280547 0 -0.0067240626177028041 0.017446493945510538 0 -0.0073605452232485 0.017336438800358605 0 -0.0068063305476206964 0.017088533359296502 0 -0.0057430253482392271 0.016764185536729443 0 -0.0049749484121949733 0.017073908948160715 0 -0.005031442222274818 0.016424987042653563 0 -0.0073605452232485 0.017336438800358605 0 -0.0068063305476206964 0.017088533359296502 0 -0.0071981462403141521 0.016589834631768115 0 -0.0049156624419189696 0.016292404875540092 0 -0.0057091788629797403 0.017002921817953646 0 -0.0067240626177028041 0.017446493945510538 0 -0.0068063305476206964 0.017088533359296502 0 -0.0059293244831723005 0.016975958799280547 0 -0.0049749484121949733 0.017073908948160715 0 -0.005031442222274818 0.016424987042653563 0 -0.0044812744583569101 0.016792837553214403 0 -0.0044669576911494542 0.017435810642284146 0 -0.0057091788629797403 0.017002921817953646 0 -0.0038936763905508638 0.015953704187250034 0 -0.0040226872488097337 0.016039329009014901 0 -0.0030276149496963724 0.015567078267035479 0 -0.0039577839055318694 0.016028561325048634 0 -0.0034521783212772489 0.016025725005530501 0 -0.005031442222274818 0.016424987042653563 0 -0.0044812744583569101 0.016792837553214403 0 -0.0039577839055318694 0.016028561325048634 0 -0.0030276149496963724 0.015567078267035479 0 -0.0030965177062334931 0.015902696979288932 0 -0.0034521783212772489 0.016025725005530501 0 -0.0030276149496963724 0.015567078267035479 0 -0.002854208471884865 0.015774938940530225 0 -0.0030965177062334931 0.015902696979288932 0 -0.0025434244852806493 0.015475059435335925 0 -0.0026424074369167769 0.015435334688375019 0 -0.002854208471884865 0.015774938940530225 0 -0.0026424074369167769 0.015435334688375019 0 -0.0030276149496963724 0.015567078267035479 0 -0.002854208471884865 0.015774938940530225 0 -0.0049156624419189696 0.016292404875540092 0 -0.0038936763905508638 0.015953704187250034 0 -0.001308830652764358 0.015901732441415326 0 -0.001692151950052175 0.015729858251114177 0 -0.0014100523910998246 0.015988949174166715 0 -0.001308830652764358 0.015901732441415326 0 -0.0012131664057420592 0.015754216450280179 0 -0.001692151950052175 0.015729858251114177 0 -0.0021504325755735861 0.016283347439931851 0 -0.0022514986819016738 0.015690016015799814 0 -0.0040207286928507276 0.017025879010154125 0 -0.0038151986281145427 0.016370178998695716 0 -0.0033949973707465739 0.016859133814871523 0 -0.0045102503071253307 0.017442141997372138 0 -0.0049749484121949733 0.017073908948160715 0 -0.0044812744583569101 0.016792837553214403 0 -0.0045102503071253307 0.017442141997372138 0 -0.0040207286928507276 0.017025879010154125 0 -0.0044812744583569101 0.016792837553214403 0 -0.0040207286928507276 0.017025879010154125 0 -0.0044812744583569101 0.016792837553214403 0 -0.0039577839055318694 0.016028561325048634 0 -0.0040207286928507276 0.017025879010154125 0 -0.0038151986281145427 0.016370178998695716 0 -0.0039577839055318694 0.016028561325048634 0 -0.0038813122462101096 0.016157392907733256 0 -0.0037623253884502121 0.016262465756231966 0 -0.0039762484107479009 0.016178613267053044 0 -0.0038151986281145427 0.016370178998695716 0 -0.0038813122462101096 0.016157392907733256 0 -0.0036999396399688628 0.016179997353655568 0 -0.0038151986281145427 0.016370178998695716 0 -0.0038813122462101096 0.016157392907733256 0 -0.0039577839055318694 0.016028561325048634 0 -0.0039577839055318694 0.016028561325048634 0 -0.0035634332027126652 0.016191139405343034 0 -0.0037623253884502121 0.016262465756231966 0 -0.0038813122462101096 0.016157392907733256 0 -0.0039577839055318694 0.016028561325048634 0 -0.0037623253884502121 0.016262465756231966 0 -0.0039577839055318694 0.016028561325048634 0 -0.0035634332027126652 0.016191139405343034 0 -0.0034521783212772489 0.016025725005530501 0 -0.0037623253884502121 0.016262465756231966 0 -0.0033658967500040096 0.016433042247943945 0 -0.0036734470575376056 0.016520471025855681 0 -0.0035634332027126652 0.016191139405343034 0 -0.0037623253884502121 0.016262465756231966 0 -0.0033658967500040096 0.016433042247943945 0 -0.0037623253884502121 0.016262465756231966 0 -0.0039158422734167165 0.016393791718276953 0 -0.0036734470575376056 0.016520471025855681 0 -0.0037623253884502121 0.016262465756231966 0 -0.0039158422734167165 0.016393791718276953 0 -0.0039762484107479009 0.016178613267053044 0 -0.0011338239989518268 0.016104884586369165 0 -0.0014661697141823463 0.016225462049859279 0 -0.0014100523910998246 0.015988949174166715 0 -0.001692151950052175 0.015729858251114177 0 -0.0014661697141823463 0.016225462049859279 0 -0.0014100523910998246 0.015988949174166715 0 -0.001692151950052175 0.015729858251114177 0 -0.0014661697141823463 0.016225462049859279 0 -0.0025671840571646885 0.016185939807225394 0 -0.002854208471884865 0.015774938940530225 0 -0.0030965177062334931 0.015902696979288932 0 -0.0030923205220093602 0.016163399144488715 0 -0.001692151950052175 0.015729858251114177 0 -0.0030923205220093602 0.016163399144488715 0 -0.0025671840571646885 0.016185939807225394 0 -0.0022514986819016738 0.015690016015799814 0 -0.0030538626210620304 0.016224116851499777 0 -0.0030965177062334931 0.015902696979288932 0 -0.0034521783212772489 0.016025725005530501 0 -0.0030923205220093602 0.016163399144488715 0 -0.0035634332027126652 0.016191139405343034 0 -0.0034521783212772489 0.016025725005530501 0 -0.0030923205220093602 0.016163399144488715 0 -0.0025671840571646885 0.016185939807225394 0 -0.0033658967500040096 0.016433042247943945 0 -0.003469054555829609 0.016592943426147738 0 -0.0025344405970878434 0.016130089204679655 0 -0.0022356082185958815 0.016280277074180529 0 -0.0035634332027126652 0.016191139405343034 0 -0.0030923205220093602 0.016163399144488715 0 -0.0033658967500040096 0.016433042247943945 0 -0.0030923205220093602 0.016163399144488715 0 -0.0025671840571646885 0.016185939807225394 0 -0.0033658967500040096 0.016433042247943945 0 -0.0014661697141823463 0.016225462049859279 0 -0.0025671840571646885 0.016185939807225394 0 -0.00092771962212348882 0.016371735958699379 0 -0.0010047154771859993 0.016317001579126248 0 -0.0014661697141823463 0.016225462049859279 0 -0.00092771962212348882 0.016371735958699379 0 -0.0033658967500040096 0.016433042247943945 0 -0.003469054555829609 0.016592943426147738 0 -0.0036734470575376056 0.016520471025855681 0 -0.003469054555829609 0.016592943426147738 0 -0.0037748172658680166 0.01660712806437285 0 -0.00367674149388708 0.01659949196885168 0 -0.00092771962212348882 0.016371735958699379 0 -0.00023059027163809445 0.015566471042314912 0 -0.00075832608005593251 0.016113000080211583 0 -0.0022356082185958815 0.016280277074180529 0 -0.0019268684168166129 0.016511579819297514 0 -0.0039158422734167165 0.016393791718276953 0 -0.0036734470575376056 0.016520471025855681 0 -0.0039512915873018062 0.016540357135231575 0 -0.003469054555829609 0.016592943426147738 0 -0.0036734470575376056 0.016520471025855681 0 -0.0037748172658680166 0.01660712806437285 0 -0.0036734470575376056 0.016520471025855681 0 -0.0039512915873018062 0.016540357135231575 0 -0.0037748172658680166 0.01660712806437285 0 -0.0039512915873018062 0.016540357135231575 0 -0.0039550468914764233 0.016604556205097709 0 -0.0037748172658680166 0.01660712806437285 0 -0.0039550468914764233 0.016604556205097709 0 -0.0037748172658680166 0.01660712806437285 0 -0.0038921679192904456 0.016626823715662181 0 -0.0039550468914764233 0.016604556205097709 0 -0.0038921679192904456 0.016626823715662181 0 -0.0040173152465716767 0.01664218022416428 0 -0.0037748172658680166 0.01660712806437285 0 -0.0038173591237120837 0.016614339385271602 0 -0.0038921679192904456 0.016626823715662181 0 -0.0038173591237120837 0.016614339385271602 0 -0.0038921679192904456 0.016626823715662181 0 -0.0039314417498132045 0.016615342812264119 0 -0.0038921679192904456 0.016626823715662181 0 -0.0040173152465716767 0.01664218022416428 0 -0.0039314417498132045 0.016615342812264119 0 -0.010136558771709193 0.014334693503243854 0 -0.012257911720567841 0.013093319467251402 0 -0.01966394275457908 0.01030706232111718 0 -0.019485824256363138 0.009340090723089306 0 -0.020348381169249159 0.0092227273524119174 0 -0.0037748172658680166 0.01660712806437285 0 -0.0038173591237120837 0.016614339385271602 0 -0.00367674149388708 0.01659949196885168 0 -0.0038173591237120837 0.016614339385271602 0 -0.0037789748116295262 0.016606887579219028 0 -0.0038605589872889403 0.016608691394131934 0 -0.0038173591237120837 0.016614339385271602 0 -0.00367674149388708 0.01659949196885168 0 -0.0037789748116295262 0.016606887579219028 0 -0.0019268684168166129 0.016511579819297514 0 -0.0019508236716643545 0.01369942472254581 0 -0.00367674149388708 0.01659949196885168 0 -0.0037789748116295262 0.016606887579219028 0 -0.0037418450456571033 0.01659782755317506 0 -0.00023059027163809445 0.015566471042314912 0 -0.00021905236047823753 0.01485372183860861 0 -2.5739793370001943e-05 0.01473299007775437 0 -0.00023059027163809445 0.015566471042314912 0 -0.00021905236047823753 0.01485372183860861 0 -0.00053981493824519617 0.015516026314331138 0 -0.00053981493824519617 0.015516026314331138 0 -0.00066308276883521344 0.015062073765166408 0 -0.00080815127473396204 0.015801208445443155 0 -0.00021905236047823753 0.01485372183860861 0 -0.00053981493824519617 0.015516026314331138 0 -0.00066308276883521344 0.015062073765166408 0 -0.00021905236047823753 0.01485372183860861 0 -0.00066308276883521344 0.015062073765166408 0 -0.00051273269188006605 0.014528264196479982 0 -0.00066308276883521344 0.015062073765166408 0 -0.00088061232947186832 0.014369375768654831 0 -0.00051273269188006605 0.014528264196479982 0 -0.00066308276883521344 0.015062073765166408 0 -0.00098006299711774782 0.015168461954164898 0 -0.00088061232947186832 0.014369375768654831 0 -0.0012761455642086483 0.014503325845796028 0 -0.00098006299711774782 0.015168461954164898 0 -0.00088061232947186832 0.014369375768654831 0 -0.0012761455642086483 0.014503325845796028 0 -0.00098006299711774782 0.015168461954164898 0 -0.0012837554889225278 0.0152288903314357 0 -0.00098006299711774782 0.015168461954164898 0 -0.0010888056665251137 0.015761577710590644 0 -0.0012837554889225278 0.0152288903314357 0 -0.00098006299711774782 0.015168461954164898 0 -0.0010888056665251137 0.015761577710590644 0 -0.00080815127473396204 0.015801208445443155 0 -0.00066308276883521344 0.015062073765166408 0 -0.00098006299711774782 0.015168461954164898 0 -0.00080815127473396204 0.015801208445443155 0 -0.0010888056665251137 0.015761577710590644 0 -0.00096778629765409147 0.016150381283121941 0 -0.00080815127473396204 0.015801208445443155 0 -0.0011615062487995746 0.016303647729756555 0 -0.0010888056665251137 0.015761577710590644 0 -0.00096778629765409147 0.016150381283121941 0 -0.00086306977580640225 0.016269842178408288 0 -0.00096778629765409147 0.016150381283121941 0 -0.00080815127473396204 0.015801208445443155 0 -0.00086306977580640225 0.016269842178408288 0 -0.00075832608005593251 0.016113000080211583 0 -0.00080815127473396204 0.015801208445443155 0 -0.0010047154771859993 0.016317001579126248 0 -0.00092771962212348882 0.016371735958699379 0 -0.00075832608005593251 0.016113000080211583 0 -0.0010047154771859993 0.016317001579126248 0 -0.00086306977580640225 0.016269842178408288 0 -0.00075832608005593251 0.016113000080211583 0 -0.00023059027163809445 0.015566471042314912 0 -0.00053981493824519617 0.015516026314331138 0 -0.00075832608005593251 0.016113000080211583 0 -0.00053981493824519617 0.015516026314331138 0 -0.00075832608005593251 0.016113000080211583 0 -0.00080815127473396204 0.015801208445443155 0 -0.036065887999968647 0.013964871159816391 0 -0.03668723473495171 0.012942228981734017 0 -0.035000029660084947 0.012616398682692244 0 -0.036065887999968647 0.013964871159816391 0 -0.034999983582332785 0.014495496528665731 0 -0.035000029660084947 0.012616398682692244 0 -0.036716512570157851 0.013699985175772336 0 -0.036290082755033003 0.012099815970289947 0 -0.036065887999968647 0.013964871159816391 0 -0.037038339435854863 0.014644012618476513 0 -0.03668723473495171 0.012942228981734017 0 -0.036107149431687441 0.012661536185376143 0 -0.036499523241963198 0.011763254645591156 0 -0.035913567753886065 0.011258453294636969 0 -0.036065887999968647 0.013964871159816391 0 -0.037038339435854863 0.014644012618476513 0 -0.036056131479282216 0.014687221765480133 0 -0.037038339435854863 0.014644012618476513 0 -0.036056131479282216 0.014687221765480133 0 -0.036120109606243324 0.01564451002090346 0 -0.036056131479282216 0.014687221765480133 0 -0.034999983582332785 0.014495496528665731 0 -0.036120109606243324 0.01564451002090346 0 -0.036065887999968647 0.013964871159816391 0 -0.036056131479282216 0.014687221765480133 0 -0.034999983582332785 0.014495496528665731 0 -0.034999994256733585 0.016374652511155673 0 -0.036107143464365728 0.017172197333339665 0 -0.036120109606243324 0.01564451002090346 0 -0.034999983582332785 0.014495496528665731 0 -0.034999994256733585 0.016374652511155673 0 -0.036120109606243324 0.01564451002090346 0 -0.034999990290134911 0.018253792782797835 0 -0.034999994256733585 0.016374652511155673 0 -0.036107143464365728 0.017172197333339665 0 -0.037009870756212267 0.018264218223285979 0 -0.036107143464365728 0.017172197333339665 0 -0.037386842668417145 0.016342804009632832 0 -0.036107143464365728 0.017172197333339665 0 -0.036120109606243324 0.01564451002090346 0 -0.037386842668417145 0.016342804009632832 0 -0.037038339435854863 0.014644012618476513 0 -0.036120109606243324 0.01564451002090346 0 -0.037386842668417145 0.016342804009632832 0 -0.03441897347158461 0.015108692811442103 0 -0.035073364749310887 0.014704851853456257 0 -0.034688851449279377 0.013978513198357278 0 -0.03441897347158461 0.015108692811442103 0 -0.035065157797820719 0.015444164188448468 0 -0.035073364749310887 0.014704851853456257 0 -0.03563195667701799 0.015218230514190882 0 -0.035691203125047657 0.01316212055013714 0 -0.036716512570157851 0.013699985175772336 0 -0.03563195667701799 0.015218230514190882 0 -0.03549996242432938 0.017325833661594802 0 -0.03563195667701799 0.015218230514190882 0 -0.034465420957058339 0.015885797705475182 0 -0.03395928003067028 0.0161986977773158 0 -0.034310642613739964 0.014944150746449808 0 -0.034465420957058339 0.015885797705475182 0 -0.03441897347158461 0.015108692811442103 0 -0.035065157797820719 0.015444164188448468 0 -0.034306778760358293 0.01568094152559113 0 -0.03563195667701799 0.015218230514190882 0 -0.035065157797820719 0.015444164188448468 0 -0.035772515661858656 0.014746057290803902 0 -0.035757943980314608 0.015459460084852951 0 -0.035389527335606061 0.016048073197405182 0 -0.035065157797820719 0.015444164188448468 0 -0.035757943980314608 0.015459460084852951 0 -0.035065157797820719 0.015444164188448468 0 -0.035073364749310887 0.014704851853456257 0 -0.035772515661858656 0.014746057290803902 0 -0.035073364749310887 0.014704851853456257 0 -0.035574714150261123 0.014170491006419369 0 -0.035772515661858656 0.014746057290803902 0 -0.035574714150261123 0.014170491006419369 0 -0.034688851449279377 0.013978513198357278 0 -0.035625929829755418 0.013368241643046383 0 -0.035073364749310887 0.014704851853456257 0 -0.035574714150261123 0.014170491006419369 0 -0.034688851449279377 0.013978513198357278 0 -0.036107149431687441 0.012661536185376143 0 -0.036408190710196214 0.014238245881877167 0 -0.036731083201543765 0.012575632030300141 0 -0.036107149431687441 0.012661536185376143 0 -0.036731083201543765 0.012575632030300141 0 -0.036499523241963198 0.011763254645591156 0 -0.034688851449279377 0.013978513198357278 0 -0.035625929829755418 0.013368241643046383 0 -0.035084793002307144 0.012398416854310064 0 -0.036731083201543765 0.012575632030300141 0 -0.036499523241963198 0.011763254645591156 0 -0.036935583845429332 0.011113146678375121 0 -0.035691203125047657 0.01316212055013714 0 -0.036017869895656765 0.011802585438679835 0 -0.035625929829755418 0.013368241643046383 0 -0.036640960423215636 0.013967356296610986 0 -0.036428618802298904 0.012230767558941327 0 -0.035907013958304347 0.014385059079182822 0 -0.039707046465764437 0.01234989608773455 0 -0.036640960423215636 0.013967356296610986 0 -0.036653727301322429 0.014141633207654953 0 -0.036625230752836455 0.014135206750204734 0 -0.036640960423215636 0.013967356296610986 0 -0.038390593689539933 0.012066405153029331 0 -0.036428618802298904 0.012230767558941327 0 -0.036640960423215636 0.013967356296610986 0 -0.036632340679899227 0.014444400185337315 0 -0.036653727301322429 0.014141633207654953 0 -0.036640960423215636 0.013967356296610986 0 -0.035772515661858656 0.014746057290803902 0 -0.036632340679899227 0.014444400185337315 0 -0.035574714150261123 0.014170491006419369 0 -0.035625929829755418 0.013368241643046383 0 -0.036640960423215636 0.013967356296610986 0 -0.035574714150261123 0.014170491006419369 0 -0.036640960423215636 0.013967356296610986 0 -0.035772515661858656 0.014746057290803902 0 -0.035772515661858656 0.014746057290803902 0 -0.035757943980314608 0.015459460084852951 0 -0.036251621964360194 0.015105844248718154 0 -0.036338863267405666 0.016051820212600355 0 -0.035757943980314608 0.015459460084852951 0 -0.036251621964360194 0.015105844248718154 0 -0.036338863267405666 0.016051820212600355 0 -0.036251621964360194 0.015105844248718154 0 -0.036886546247946135 0.014977885484504299 0 -0.036251621964360194 0.015105844248718154 0 -0.036632340679899227 0.014444400185337315 0 -0.036886546247946135 0.014977885484504299 0 -0.035772515661858656 0.014746057290803902 0 -0.036251621964360194 0.015105844248718154 0 -0.036632340679899227 0.014444400185337315 0 -0.03577410298814105 0.018332044703810346 0 -0.019401825918828216 0.017010671867112429 0 -0.036632340679899227 0.014444400185337315 0 -0.036886546247946135 0.014977885484504299 0 -0.036844208340461086 0.014341451328997907 0 -0.030408181358225511 0.020141962035919229 0 -0.032833081325060992 0.019674216858733148 0 -0.030874578322198247 0.02208259033622172 0 -0.030408181358225511 0.020141962035919229 0 -0.030874578322198247 0.02208259033622172 0 -0.029031137279874004 0.021680639133378254 0 -0.034280861630210949 0.01793646874428979 0 -0.03577410298814105 0.018332044703810346 0 -0.0033273193598495699 0.018188674040625533 0 -0.0040207286928507276 0.017025879010154125 0 -0.0033949973707465739 0.016859133814871523 0 -0.030874578322198247 0.02208259033622172 0 -0.029031137279874004 0.021680639133378254 0 -0.029162376796563614 0.024299548920396284 0 -0.015949442549447992 0.019945922561177169 0 -0.019401825918828216 0.017010671867112429 0 -0.0038151986281145427 0.016370178998695716 0 -0.0033949973707465739 0.016859133814871523 0 -0.0036999396399688628 0.016179997353655568 0 -0.0038813122462101096 0.016157392907733256 0 -0.0036999396399688628 0.016179997353655568 0 -0.0039762484107479009 0.016178613267053044 0 -0.019401825918828216 0.017010671867112429 0 -0.0030644383653662035 0.018456928442038056 0 -0.036632340679899227 0.014444400185337315 0 -0.036844208340461086 0.014341451328997907 0 -0.036653727301322429 0.014141633207654953 0 -0.036653727301322429 0.014141633207654953 0 -0.036525347380071002 0.014111627689692041 0 -0.036625230752836455 0.014135206750204734 0 -0.0043036339539616192 0.015901948783704437 0 -0.0039762484107479009 0.016178613267053044 0 -0.0042093016114461623 0.016419372610103389 0 -0.0039158422734167165 0.016393791718276953 0 -0.0039762484107479009 0.016178613267053044 0 -0.0042093016114461623 0.016419372610103389 0 -0.036844208340461086 0.014341451328997907 0 -0.036653727301322429 0.014141633207654953 0 -0.036525347380071002 0.014111627689692041 0 -0.019401825918828216 0.017010671867112429 0 -0.019810944439954986 0.015290633387293733 0 -0.0039158422734167165 0.016393791718276953 0 -0.0039512915873018062 0.016540357135231575 0 -0.0042093016114461623 0.016419372610103389 0 -0.036525347380071002 0.014111627689692041 0 -0.036625230752836455 0.014135206750204734 0 -0.036352359440045168 0.014277302259000875 0 -0.038390593689539933 0.012066405153029331 0 -0.039199067453861779 0.010532036141476938 0 -0.038318062639356054 0.010956511833740166 0 -0.039707046465764437 0.01234989608773455 0 -0.025575033519524296 0.013353362059637936 0 -0.019810944439954986 0.015290633387293733 0 -0.025575033519524296 0.013353362059637936 0 -0.0039512915873018062 0.016540357135231575 0 -0.0042093016114461623 0.016419372610103389 0 -0.0042097571506789413 0.016585197968615534 0 -0.0039512915873018062 0.016540357135231575 0 -0.0039550468914764233 0.016604556205097709 0 -0.0042097571506789413 0.016585197968615534 0 -0.0039550468914764233 0.016604556205097709 0 -0.0042097571506789413 0.016585197968615534 0 -0.0040173152465716767 0.01664218022416428 0 -0.025575033519524296 0.013353362059637936 0 -0.029193633790142066 0.0092673309988304791 0 -0.025575033519524296 0.013353362059637936 0 -0.010136558771709193 0.014334693503243854 0 -0.019018473413090462 0.011369764517228216 0 -0.01966394275457908 0.01030706232111718 0 -0.018863324424743852 0.010046440777909862 0 -0.01966394275457908 0.01030706232111718 0 -0.018863324424743852 0.010046440777909862 0 -0.019485824256363138 0.009340090723089306 0 -0.038962243021131313 0.0094539241902578987 0 -0.038270467925560853 0.010221173499881588 0 -0.038304719352607701 0.0094606958667686411 0 -0.038962243021131313 0.0094539241902578987 0 -0.038304719352607701 0.0094606958667686411 0 -0.038488398782096742 0.0090309233828936575 0 -0.039199067453861779 0.010532036141476938 0 -0.038962243021131313 0.0094539241902578987 0 -0.038270467925560853 0.010221173499881588 0 -0.039199067453861779 0.010532036141476938 0 -0.038270467925560853 0.010221173499881588 0 -0.038318062639356054 0.010956511833740166 0 -0.038270467925560853 0.010221173499881588 0 -0.03778081885281611 0.0095044017050456651 0 -0.037301019924649875 0.011027940584179299 0 -0.037942295536676204 0.0093625336502181217 0 -0.03839420975721973 0.0088308096076201922 0 -0.038304719352607701 0.0094606958667686411 0 -0.03778081885281611 0.0095044017050456651 0 -0.038069625719380072 0.0090707566963123473 0 -0.038270467925560853 0.010221173499881588 0 -0.038304719352607701 0.0094606958667686411 0 -0.03778081885281611 0.0095044017050456651 0 -0.03778081885281611 0.0095044017050456651 0 -0.037882467405572308 0.0080666399911923908 0 -0.039032497049476499 0.0082840006719594877 0 -0.03778081885281611 0.0095044017050456651 0 -0.036998460980803012 0.0089362900699288816 0 -0.037882467405572308 0.0080666399911923908 0 -0.03778081885281611 0.0095044017050456651 0 -0.037301019924649875 0.011027940584179299 0 -0.035893588800416015 0.010610248014709056 0 -0.037301019924649875 0.011027940584179299 0 -0.036428618802298904 0.012230767558941327 0 -0.035893588800416015 0.010610248014709056 0 -0.038390593689539933 0.012066405153029331 0 -0.037301019924649875 0.011027940584179299 0 -0.038318062639356054 0.010956511833740166 0 -0.038270467925560853 0.010221173499881588 0 -0.037301019924649875 0.011027940584179299 0 -0.038318062639356054 0.010956511833740166 0 -0.038390593689539933 0.012066405153029331 0 -0.037301019924649875 0.011027940584179299 0 -0.036428618802298904 0.012230767558941327 0 -0.036428618802298904 0.012230767558941327 0 -0.035084793002307144 0.012398416854310064 0 -0.035893588800416015 0.010610248014709056 0 -0.035625929829755418 0.013368241643046383 0 -0.036428618802298904 0.012230767558941327 0 -0.035084793002307144 0.012398416854310064 0 -0.036935583845429332 0.011113146678375121 0 -0.036404789908943067 0.010464409439429743 0 -0.035913567753886065 0.011258453294636969 0 -0.036499523241963198 0.011763254645591156 0 -0.036935583845429332 0.011113146678375121 0 -0.035913567753886065 0.011258453294636969 0 -0.036404789908943067 0.010464409439429743 0 -0.037025915542385948 0.0099159183674783699 0 -0.036274249553173446 0.0097807711555095486 0 -0.036935583845429332 0.011113146678375121 0 -0.036404789908943067 0.010464409439429743 0 -0.037025915542385948 0.0099159183674783699 0 -0.036017869895656765 0.011802585438679835 0 -0.036470410621778353 0.010285507605090576 0 -0.03778081885281611 0.0095044017050456651 0 -0.035893588800416015 0.010610248014709056 0 -0.036998460980803012 0.0089362900699288816 0 -0.036470410621778353 0.010285507605090576 0 -0.036922116624576611 0.0090543240073234273 0 -0.036998460980803012 0.0089362900699288816 0 -0.036484807947013871 0.0092648574286127959 0 -0.036606541804629987 0.0085205144887300095 0 -0.036484807947013871 0.0092648574286127959 0 -0.036198115677953432 0.0086357569835862798 0 -0.036606541804629987 0.0085205144887300095 0 -0.037025915542385948 0.0099159183674783699 0 -0.036998460980803012 0.0089362900699288816 0 -0.036484807947013871 0.0092648574286127959 0 -0.037025915542385948 0.0099159183674783699 0 -0.036484807947013871 0.0092648574286127959 0 -0.036274249553173446 0.0097807711555095486 0 -0.035819962501881804 0.0094382151197412324 0 -0.03607362058686326 0.010665715902321323 0 -0.036274249553173446 0.0097807711555095486 0 -0.03579724422065151 0.0093449690761213261 0 -0.035834612516183251 0.010098404436774155 0 -0.036484807947013871 0.0092648574286127959 0 -0.036274249553173446 0.0097807711555095486 0 -0.03579724422065151 0.0093449690761213261 0 -0.036484807947013871 0.0092648574286127959 0 -0.03579724422065151 0.0093449690761213261 0 -0.036198115677953432 0.0086357569835862798 0 -0.03579724422065151 0.0093449690761213261 0 -0.035796380756411027 0.0083548086837593894 0 -0.036198115677953432 0.0086357569835862798 0 -0.034999823924469299 0.0088576463498530201 0 -0.03579724422065151 0.0093449690761213261 0 -0.035796380756411027 0.0083548086837593894 0 -0.034999823924469299 0.0088576463498530201 0 -0.03579724422065151 0.0093449690761213261 0 -0.034999842405153914 0.010737051630513505 0 -0.03579724422065151 0.0093449690761213261 0 -0.034999842405153914 0.010737051630513505 0 -0.036328743345322663 0.011233485892750071 0 -0.034999842405153914 0.010737051630513505 0 -0.036328743345322663 0.011233485892750071 0 -0.035000029660084947 0.012616398682692244 0 -0.036404789908943067 0.010464409439429743 0 -0.035834612516183251 0.010098404436774155 0 -0.035913567753886065 0.011258453294636969 0 -0.036404789908943067 0.010464409439429743 0 -0.036274249553173446 0.0097807711555095486 0 -0.035834612516183251 0.010098404436774155 0 -0.03607362058686326 0.010665715902321323 0 -0.036290082755033003 0.012099815970289947 0 -0.036328743345322663 0.011233485892750071 0 -0.03668723473495171 0.012942228981734017 0 -0.035000029660084947 0.012616398682692244 0 -0.034999721495197977 0.0049190783048836543 0 -0.036303786595467243 0.0048769906895130954 0 -0.035819034606695756 0.0059960650647859536 0 -0.036303786595467243 0.0048769906895130954 0 -0.035819034606695756 0.0059960650647859536 0 -0.037038232505464404 0.0060149388519295729 0 -0.035819034606695756 0.0059960650647859536 0 -0.03619130914113617 0.0070489422065181237 0 -0.037038232505464404 0.0060149388519295729 0 -0.034999721495197977 0.0049190783048836543 0 -0.035819034606695756 0.0059960650647859536 0 -0.034999737532520052 0.0069780930388082573 0 -0.035000074630339703 0.0069789935652311424 0 -0.03620682858561846 0.0073610318337935729 0 -0.034999898517015945 0.0069797784448833227 0 -0.035796380756411027 0.0083548086837593894 0 -0.036227479973351094 0.0076749181452147918 0 -0.035819034606695756 0.0059960650647859536 0 -0.034999737532520052 0.0069780930388082573 0 -0.03619130914113617 0.0070489422065181237 0 -0.034999823924469299 0.0088576463498530201 0 -0.034999898517015945 0.0069797784448833227 0 -0.035796380756411027 0.0083548086837593894 0 -0.035796380756411027 0.0083548086837593894 0 -0.036198115677953432 0.0086357569835862798 0 -0.036227479973351094 0.0076749181452147918 0 -0.036198115677953432 0.0086357569835862798 0 -0.036227479973351094 0.0076749181452147918 0 -0.036606541804629987 0.0085205144887300095 0 -0.03620682858561846 0.0073610318337935729 0 -0.03721785903543421 0.0076585055239791321 0 -0.03619130914113617 0.0070489422065181237 0 -0.037225081282878367 0.0076760655711233354 0 -0.037038232505464404 0.0060149388519295729 0 -0.036227479973351094 0.0076749181452147918 0 -0.036606541804629987 0.0085205144887300095 0 -0.037225081282878367 0.0076760655711233354 0 -0.036998460980803012 0.0089362900699288816 0 -0.037225081282878367 0.0076760655711233354 0 -0.037882467405572308 0.0080666399911923908 0 -0.036998460980803012 0.0089362900699288816 0 -0.036606541804629987 0.0085205144887300095 0 -0.037225081282878367 0.0076760655711233354 0 -0.037225081282878367 0.0076760655711233354 0 -0.037784905533211899 0.0067024027886885707 0 -0.037038232505464404 0.0060149388519295729 0 -0.037225081282878367 0.0076760655711233354 0 -0.037784905533211899 0.0067024027886885707 0 -0.037882467405572308 0.0080666399911923908 0 -0.037784905533211899 0.0067024027886885707 0 -0.037038232505464404 0.0060149388519295729 0 -0.038392877711459612 0.0055800785690958647 0 -0.036303786595467243 0.0048769906895130954 0 -0.037038232505464404 0.0060149388519295729 0 -0.037543222283865259 0.0042058505635614108 0 -0.037038232505464404 0.0060149388519295729 0 -0.038392877711459612 0.0055800785690958647 0 -0.037543222283865259 0.0042058505635614108 0 -0.038392877711459612 0.0055800785690958647 0 -0.038926769480953909 0.0041929225219135861 0 -0.037543222283865259 0.0042058505635614108 0 -0.039533631812688673 0.0051028582816408079 0 -0.040374013251132365 0.0044879008816464247 0 -0.038926769480953909 0.0041929225219135861 0 -0.039533631812688673 0.0051028582816408079 0 -0.038392877711459612 0.0055800785690958647 0 -0.038926769480953909 0.0041929225219135861 0 -0.039414611718482581 0.0060293359507910677 0 -0.038392877711459612 0.0055800785690958647 0 -0.038715204892789325 0.0069485055585329254 0 -0.039533631812688673 0.0051028582816408079 0 -0.039414611718482581 0.0060293359507910677 0 -0.038392877711459612 0.0055800785690958647 0 -0.037784905533211899 0.0067024027886885707 0 -0.038392877711459612 0.0055800785690958647 0 -0.038715204892789325 0.0069485055585329254 0 -0.037784905533211899 0.0067024027886885707 0 -0.038715204892789325 0.0069485055585329254 0 -0.037882467405572308 0.0080666399911923908 0 -0.038715204892789325 0.0069485055585329254 0 -0.037882467405572308 0.0080666399911923908 0 -0.039032497049476499 0.0082840006719594877 0 -0.038069625719380072 0.0090707566963123473 0 -0.038362986153086399 0.0085201016785603923 0 -0.038488398782096742 0.0090309233828936575 0 -0.03839420975721973 0.0088308096076201922 0 -0.040009941380293998 0.007150507327846051 0 -0.038304719352607701 0.0094606958667686411 0 -0.038069625719380072 0.0090707566963123473 0 -0.038488398782096742 0.0090309233828936575 0 -0.038715204892789325 0.0069485055585329254 0 -0.039032497049476499 0.0082840006719594877 0 -0.039861063679577764 0.00708474556605418 0 -0.039414611718482581 0.0060293359507910677 0 -0.038715204892789325 0.0069485055585329254 0 -0.039861063679577764 0.00708474556605418 0 -0.028667743102102836 0.0089526512000983813 0 -0.029466036697547267 0.0068876912673306156 0 -0.038362986153086399 0.0085201016785603923 0 -0.038725091404642503 0.0086847288972115664 0 -0.038550064785985293 0.008046288984315985 0 -0.040009941380293998 0.007150507327846051 0 -0.029466036697547267 0.0068876912673306156 0 -0.038962243021131313 0.0094539241902578987 0 -0.038725091404642503 0.0086847288972115664 0 -0.038488398782096742 0.0090309233828936575 0 -0.038362986153086399 0.0085201016785603923 0 -0.038725091404642503 0.0086847288972115664 0 -0.038488398782096742 0.0090309233828936575 0 -0.029193633790142066 0.0092673309988304791 0 -0.028667743102102836 0.0089526512000983813 0 -0.018760494007501596 0.0086906761697648702 0 -0.019485824256363138 0.009340090723089306 0 -0.019811479147503905 0.0084112248437603516 0 -0.018863324424743852 0.010046440777909862 0 -0.018760494007501596 0.0086906761697648702 0 -0.019485824256363138 0.009340090723089306 0 -0.018760494007501596 0.0086906761697648702 0 -0.019309123478460907 0.0077870817171202958 0 -0.018706689335313824 0.0073669328611164426 0 -0.019309123478460907 0.0077870817171202958 0 -0.019811479147503905 0.0084112248437603516 0 -0.01993026509782455 0.0073624461955322153 0 -0.018760494007501596 0.0086906761697648702 0 -0.019309123478460907 0.0077870817171202958 0 -0.019811479147503905 0.0084112248437603516 0 -0.019309123478460907 0.0077870817171202958 0 -0.019234068694803385 0.0065959665621779205 0 -0.01993026509782455 0.0073624461955322153 0 -0.019309123478460907 0.0077870817171202958 0 -0.018706689335313824 0.0073669328611164426 0 -0.019234068694803385 0.0065959665621779205 0 -0.029466036697547267 0.0068876912673306156 0 -0.018401011524798762 0.0084527042073113418 0 -0.039533631812688673 0.0051028582816408079 0 -0.039414611718482581 0.0060293359507910677 0 -0.040508141224315737 0.0059648481794192208 0 -0.039414611718482581 0.0060293359507910677 0 -0.039861063679577764 0.00708474556605418 0 -0.040508141224315737 0.0059648481794192208 0 -0.039533631812688673 0.0051028582816408079 0 -0.040508141224315737 0.0059648481794192208 0 -0.040374013251132365 0.0044879008816464247 0 -0.019007943361952453 0.0071169514699982147 0 -0.018812401438360386 0.006183127983195107 0 -0.019234068694803385 0.0065959665621779205 0 -0.029466036697547267 0.0068876912673306156 0 -0.029619371100804141 0.0052629962844729745 0 -0.019234068694803385 0.0065959665621779205 0 -0.01993026509782455 0.0073624461955322153 0 -0.019797209228380297 0.0063173548214706648 0 -0.018812401438360386 0.006183127983195107 0 -0.019234068694803385 0.0065959665621779205 0 -0.019250210502360195 0.0059718274845817331 0 -0.019234068694803385 0.0065959665621779205 0 -0.019250210502360195 0.0059718274845817331 0 -0.019797209228380297 0.0063173548214706648 0 -0.019701919834204971 0.0056576513374411198 0 -0.019250210502360195 0.0059718274845817331 0 -0.018683773857037612 0.0050384272098645023 0 -0.019701919834204971 0.0056576513374411198 0 -0.019250210502360195 0.0059718274845817331 0 -0.019797209228380297 0.0063173548214706648 0 -0.018812401438360386 0.006183127983195107 0 -0.019250210502360195 0.0059718274845817331 0 -0.018683773857037612 0.0050384272098645023 0 -0.040374013251132365 0.0044879008816464247 0 -0.040226344801301134 0.003084813234961794 0 -0.039279211099787742 0.0031929313558585904 0 -0.029619371100804141 0.0052629962844729745 0 -0.029457166922562481 0.0040559874506921161 0 -0.040226344801301134 0.003084813234961794 0 -0.040048184335214572 0.0017646110995834521 0 -0.039279211099787742 0.0031929313558585904 0 -0.019701919834204971 0.0056576513374411198 0 -0.018683773857037612 0.0050384272098645023 0 -0.019511796230759257 0.0047840071509143607 0 -0.019511796230759257 0.0047840071509143607 0 -0.01856749883611936 0.003832597908587716 0 -0.019861127628792139 0.0039224824130679745 0 -0.019251869601855303 0.0032393848660934341 0 -0.01856749883611936 0.003832597908587716 0 -0.019861127628792139 0.0039224824130679745 0 -0.018494400377001854 0.0026367868291139172 0 -0.019251869601855303 0.0032393848660934341 0 -0.01856749883611936 0.003832597908587716 0 -0.029966597477304586 0.0010617150262912996 0 -0.029244712851198354 0.0029121425275851517 0 -0.029457166922562481 0.0040559874506921161 0 -0.029244712851198354 0.0029121425275851517 0 -0.018683773857037612 0.0050384272098645023 0 -0.019511796230759257 0.0047840071509143607 0 -0.01856749883611936 0.003832597908587716 0 -0.040048184335214572 0.0017646110995834521 0 -0.039023386322367751 0.0017402895958084467 0 -0.039279211099787742 0.0031929313558585904 0 -0.039879072416318259 0.00059130424585213982 0 -0.038509144476438252 0.00075615552768085973 0 -0.039023386322367751 0.0017402895958084467 0 -0.039879072416318259 0.00059130424585213982 0 -0.040048184335214572 0.0017646110995834521 0 -0.039023386322367751 0.0017402895958084467 0 -0.038509144476438252 0.00075615552768085973 0 -0.039023386322367751 0.0017402895958084467 0 -0.037890667377843502 0.0017129922182016215 0 -0.039023386322367751 0.0017402895958084467 0 -0.03852030691424136 0.0026096103862337941 0 -0.037890667377843502 0.0017129922182016215 0 -0.039023386322367751 0.0017402895958084467 0 -0.03852030691424136 0.0026096103862337941 0 -0.039279211099787742 0.0031929313558585904 0 -0.03852030691424136 0.0026096103862337941 0 -0.039279211099787742 0.0031929313558585904 0 -0.038926769480953909 0.0041929225219135861 0 -0.040374013251132365 0.0044879008816464247 0 -0.039279211099787742 0.0031929313558585904 0 -0.038926769480953909 0.0041929225219135861 0 -0.03852030691424136 0.0026096103862337941 0 -0.038926769480953909 0.0041929225219135861 0 -0.037543222283865259 0.0042058505635614108 0 -0.036303786595467243 0.0048769906895130954 0 -0.037543222283865259 0.0042058505635614108 0 -0.036308785919638563 0.0033389630408092023 0 -0.037543222283865259 0.0042058505635614108 0 -0.037500586450034921 0.0027978205340700359 0 -0.036308785919638563 0.0033389630408092023 0 -0.037500586450034921 0.0027978205340700359 0 -0.036750461389590032 0.0020670713452226939 0 -0.036308785919638563 0.0033389630408092023 0 -0.03852030691424136 0.0026096103862337941 0 -0.037543222283865259 0.0042058505635614108 0 -0.037500586450034921 0.0027978205340700359 0 -0.03852030691424136 0.0026096103862337941 0 -0.037500586450034921 0.0027978205340700359 0 -0.037890667377843502 0.0017129922182016215 0 -0.038509144476438252 0.00075615552768085973 0 -0.037890667377843502 0.0017129922182016215 0 -0.037091666155096056 0.00076175565559765692 0 -0.037890667377843502 0.0017129922182016215 0 -0.037091666155096056 0.00076175565559765692 0 -0.036750461389590032 0.0020670713452226939 0 -0.037500586450034921 0.0027978205340700359 0 -0.037890667377843502 0.0017129922182016215 0 -0.036750461389590032 0.0020670713452226939 0 -0.037091666155096056 0.00076175565559765692 0 -0.036750461389590032 0.0020670713452226939 0 -0.035895042031593535 0.0016649658242902168 0 -0.03665247661820302 0.00037532995015097345 0 -0.035859007452884298 0.00042472430061746166 0 -0.037091666155096056 0.00076175565559765692 0 -0.035895042031593535 0.0016649658242902168 0 -0.035565264040575806 0.0004488177878884459 0 -0.035895042031593535 0.0016649658242902168 0 -0.034999850292007001 0.00079910460808685693 0 -0.035565264040575806 0.0004488177878884459 0 -0.035895042031593535 0.0016649658242902168 0 -0.034999850292007001 0.00079910460808685693 0 -0.034999794170817639 0.0028588988518520437 0 -0.035895042031593535 0.0016649658242902168 0 -0.034999794170817639 0.0028588988518520437 0 -0.036308785919638563 0.0033389630408092023 0 -0.036750461389590032 0.0020670713452226939 0 -0.035895042031593535 0.0016649658242902168 0 -0.036308785919638563 0.0033389630408092023 0 -0.034999721495197977 0.0049190783048836543 0 -0.036303786595467243 0.0048769906895130954 0 -0.036308785919638563 0.0033389630408092023 0 -0.034999721495197977 0.0049190783048836543 0 -0.034999794170817639 0.0028588988518520437 0 -0.036308785919638563 0.0033389630408092023 0 -0.00055759745607593207 0.013209131885074532 0 -0.00029225143941164421 0.012802320965458499 0 -0.00061231693458458248 0.01255718357702375 0 -0.00055759745607593207 0.013209131885074532 0 0.00023646273190456381 0.013361256318287268 0 -0.00029225143941164421 0.012802320965458499 0 -0.00082380962575072858 0.010531246381786947 0 -0.00081301532537743674 0.011608413233526025 0 0.00023646273190456381 0.013361256318287268 0 -6.1266980433049694e-05 0.012422481151858702 0 -0.00029225143941164421 0.012802320965458499 0 -0.00029225143941164421 0.012802320965458499 0 -0.00061231693458458248 0.01255718357702375 0 -0.0004381177441251529 0.012235657288920548 0 -6.1266980433049694e-05 0.012422481151858702 0 -0.00029225143941164421 0.012802320965458499 0 -0.0004381177441251529 0.012235657288920548 0 -0.00061231693458458248 0.01255718357702375 0 -0.00105160141773035 0.013030475980318052 0 -0.00094239515098389558 0.01234410083604214 0 -0.00105160141773035 0.013030475980318052 0 -0.00094239515098389558 0.01234410083604214 0 -0.0013581982640493825 0.012520034131228309 0 -0.00055759745607593207 0.013209131885074532 0 -0.00105160141773035 0.013030475980318052 0 -0.00085928928839337716 0.013650257998733557 0 -0.00055759745607593207 0.013209131885074532 0 -0.00061231693458458248 0.01255718357702375 0 -0.00105160141773035 0.013030475980318052 0 -0.00055759745607593207 0.013209131885074532 0 -0.00085928928839337716 0.013650257998733557 0 -0.00049103375542044613 0.01390466922827706 0 -0.00105160141773035 0.013030475980318052 0 -0.00085928928839337716 0.013650257998733557 0 -0.0013746535587633912 0.013809718492030118 0 -0.0012761455642086483 0.014503325845796028 0 -0.00088061232947186832 0.014369375768654831 0 -0.0013746535587633912 0.013809718492030118 0 -0.00085928928839337716 0.013650257998733557 0 -0.00088061232947186832 0.014369375768654831 0 -0.0013746535587633912 0.013809718492030118 0 -0.00085928928839337716 0.013650257998733557 0 -0.00088061232947186832 0.014369375768654831 0 -0.00049103375542044613 0.01390466922827706 0 -0.00088061232947186832 0.014369375768654831 0 -0.00051273269188006605 0.014528264196479982 0 -0.00049103375542044613 0.01390466922827706 0 -0.00051273269188006605 0.014528264196479982 0 -0.00049103375542044613 0.01390466922827706 0 -0.0001351780578886301 0.014207171310371549 0 -0.00055759745607593207 0.013209131885074532 0 0.00023646273190456381 0.013361256318287268 0 -0.00049103375542044613 0.01390466922827706 0 0.00023646273190456381 0.013361256318287268 0 -0.0001351780578886301 0.014207171310371549 0 0.00042717546257967147 0.01446682436026364 0 0.00023646273190456381 0.013361256318287268 0 -0.00049103375542044613 0.01390466922827706 0 -0.0001351780578886301 0.014207171310371549 0 -0.00021905236047823753 0.01485372183860861 0 -0.00051273269188006605 0.014528264196479982 0 -0.0001351780578886301 0.014207171310371549 0 4.0765516339937644e-05 0.014417977769404074 0 -0.0019508236716643545 0.01369942472254581 0 -0.00021905236047823753 0.01485372183860861 0 -0.0001351780578886301 0.014207171310371549 0 0.00042717546257967147 0.01446682436026364 0 -0.0019508236716643545 0.01369942472254581 0 -0.0026257238597162218 0.011899110139298421 0 -0.0033634038476761294 0.0079465349809299483 0 -0.0043973428381028131 0.0085184211607021512 0 -0.0033407607489163334 0.0098613670725707977 0 -0.0037789748116295262 0.016606887579219028 0 -0.0037418450456571033 0.01659782755317506 0 -0.0038059402709773103 0.016610893827482664 0 -0.0037789748116295262 0.016606887579219028 0 -0.0038059402709773103 0.016610893827482664 0 -0.0038605589872889403 0.016608691394131934 0 -0.0038059402709773103 0.016610893827482664 0 -0.0038605589872889403 0.016608691394131934 0 -0.0039169294792401194 0.016595609411263538 0 -0.0026257238597162218 0.011899110139298421 0 -0.012440741099339193 0.0098191559283390267 0 -0.00082380962575072858 0.010531246381786947 0 -0.0019508236716643545 0.01369942472254581 0 -0.0020386134248451177 0.0088845711340773421 0 -0.0024013255132576128 0.0074239820607497316 0 -0.0033634038476761294 0.0079465349809299483 0 -0.019485824256363138 0.009340090723089306 0 -0.020348381169249159 0.0092227273524119174 0 -0.019811479147503905 0.0084112248437603516 0 -0.0038173591237120837 0.016614339385271602 0 -0.0039314417498132045 0.016615342812264119 0 -0.0038605589872889403 0.016608691394131934 0 -0.0039314417498132045 0.016615342812264119 0 -0.0038605589872889403 0.016608691394131934 0 -0.0039169294792401194 0.016595609411263538 0 -0.012257911720567841 0.013093319467251402 0 -0.012440741099339193 0.0098191559283390267 0 -0.020348381169249159 0.0092227273524119174 0 -0.021051146835207969 0.0081600689853631482 0 -0.019811479147503905 0.0084112248437603516 0 -0.021051146835207969 0.0081600689853631482 0 -0.019811479147503905 0.0084112248437603516 0 -0.01993026509782455 0.0073624461955322153 0 -0.012440741099339193 0.0098191559283390267 0 -0.022794356036086427 0.007745074043627626 0 -0.01993026509782455 0.0073624461955322153 0 -0.020665405332448906 0.0070864814230636184 0 -0.020470330061983909 0.0063295660713032801 0 -0.020744918917130865 0.0078662331215302913 0 -0.01993026509782455 0.0073624461955322153 0 -0.020665405332448906 0.0070864814230636184 0 -0.020744918917130865 0.0078662331215302913 0 -0.020665405332448906 0.0070864814230636184 0 -0.021518668057395041 0.0067652030104467277 0 -0.020665405332448906 0.0070864814230636184 0 -0.020470330061983909 0.0063295660713032801 0 -0.021518668057395041 0.0067652030104467277 0 -0.01993026509782455 0.0073624461955322153 0 -0.020470330061983909 0.0063295660713032801 0 -0.019797209228380297 0.0063173548214706648 0 -0.0020386134248451177 0.0088845711340773421 0 -0.0033634038476761294 0.0079465349809299483 0 -0.0033407607489163334 0.0098613670725707977 0 -0.0020386134248451177 0.0088845711340773421 0 -0.0015568152339448145 0.010427249051013476 0 -0.0033407607489163334 0.0098613670725707977 0 -0.012440741099339193 0.0098191559283390267 0 -0.012437434118416855 0.0080102447082118552 0 -0.020470330061983909 0.0063295660713032801 0 -0.021518668057395041 0.0067652030104467277 0 -0.021189580069106432 0.0057929970707292135 0 -0.0015568152339448145 0.010427249051013476 0 -0.0033407607489163334 0.0098613670725707977 0 -0.0021186712215902188 0.011289684390816703 0 -0.012437434118416855 0.0080102447082118552 0 -0.012599013987945256 0.0084225060526823044 0 -0.022229393084184638 0.0056076822928121913 0 -0.021189580069106432 0.0057929970707292135 0 -0.021436065444086719 0.0048455331784930805 0 -0.021518668057395041 0.0067652030104467277 0 -0.022229393084184638 0.0056076822928121913 0 -0.021189580069106432 0.0057929970707292135 0 -0.022229393084184638 0.0056076822928121913 0 -0.021436065444086719 0.0048455331784930805 0 -0.022103921496436547 0.0044404160000104569 0 -0.019701919834204971 0.0056576513374411198 0 -0.020470330061983909 0.0063295660713032801 0 -0.020504731946360821 0.0053079113443940023 0 -0.019701919834204971 0.0056576513374411198 0 -0.020470330061983909 0.0063295660713032801 0 -0.019797209228380297 0.0063173548214706648 0 -0.020470330061983909 0.0063295660713032801 0 -0.021189580069106432 0.0057929970707292135 0 -0.020504731946360821 0.0053079113443940023 0 -0.021189580069106432 0.0057929970707292135 0 -0.021436065444086719 0.0048455331784930805 0 -0.020504731946360821 0.0053079113443940023 0 -0.021436065444086719 0.0048455331784930805 0 -0.020504731946360821 0.0053079113443940023 0 -0.020648978573757467 0.0043287927475510225 0 -0.019511796230759257 0.0047840071509143607 0 -0.020504731946360821 0.0053079113443940023 0 -0.020648978573757467 0.0043287927475510225 0 -0.019701919834204971 0.0056576513374411198 0 -0.019511796230759257 0.0047840071509143607 0 -0.020504731946360821 0.0053079113443940023 0 -0.019511796230759257 0.0047840071509143607 0 -0.019861127628792139 0.0039224824130679745 0 -0.020648978573757467 0.0043287927475510225 0 -0.021436065444086719 0.0048455331784930805 0 -0.020648978573757467 0.0043287927475510225 0 -0.021375076676320749 0.0036334756282599525 0 -0.020648978573757467 0.0043287927475510225 0 -0.020385201555191853 0.0032207838419324288 0 -0.021375076676320749 0.0036334756282599525 0 -0.019861127628792139 0.0039224824130679745 0 -0.020648978573757467 0.0043287927475510225 0 -0.020385201555191853 0.0032207838419324288 0 -0.019251869601855303 0.0032393848660934341 0 -0.019861127628792139 0.0039224824130679745 0 -0.020385201555191853 0.0032207838419324288 0 -0.021436065444086719 0.0048455331784930805 0 -0.022103921496436547 0.0044404160000104569 0 -0.021375076676320749 0.0036334756282599525 0 -0.022817830127332291 0.0030925227421843898 0 -0.019363146187652631 0.0055270412284682815 0 -0.022103921496436547 0.0044404160000104569 0 -0.021375076676320749 0.0036334756282599525 0 -0.022229312708053815 0.0036719297834870495 0 -0.015813972747244838 0.0051256015626564497 0 -0.01550279162735653 0.0059273520918700718 0 -0.016491532097091952 0.0058168335283261879 0 -0.019363146187652631 0.0055270412284682815 0 -0.014265654633914802 0.0077914496595893421 0 -0.014952435998601247 0.0092082780543211815 0 -0.011573282568778749 0.0097384032916870162 0 -0.011791618578616103 0.0052259347061889847 0 -0.0073582486595842054 0.008561625872828011 0 -0.014265654633914802 0.0077914496595893421 0 -0.0082010427717579999 0.010248694292341215 0 -0.011573282568778749 0.0097384032916870162 0 -0.010001033717562379 0.0077420729341075639 0 -0.011573282568778749 0.0097384032916870162 0 -0.010001033717562379 0.0077420729341075639 0 -0.011791618578616103 0.0052259347061889847 0 -0.0073582486595842054 0.008561625872828011 0 -0.0047351686945118375 0.010120070827911226 0 -0.00040340516313262044 0.011125928006292978 0 -0.00048987837378074151 0.011572020401790381 0 -0.00015888577104083691 0.011467711209403399 0 -0.00040340516313262044 0.011125928006292978 0 -0.00048987837378074151 0.011572020401790381 0 -0.00071391750237368215 0.011431271096039468 0 -0.0047351686945118375 0.010120070827911226 0 -0.0090516069633750848 0.0084317154354883149 0 -0.019363146187652631 0.0055270412284682815 0 -0.0090516069633750848 0.0084317154354883149 0 -0.022103921496436547 0.0044404160000104569 0 -0.022229312708053815 0.0036719297834870495 0 -0.022820108681889117 0.0045730426473136604 0 -0.0021186712215902188 0.011289684390816703 0 -0.00065520049360506707 0.012602562599623744 0 -0.00080493739799825678 0.012027610403983344 0 -0.012599013987945256 0.0084225060526823044 0 -0.0090516069633750848 0.0084317154354883149 0 -0.022229393084184638 0.0056076822928121913 0 -0.022103921496436547 0.0044404160000104569 0 -0.022820108681889117 0.0045730426473136604 0 -0.0090516069633750848 0.0084317154354883149 0 0.00091779880204024005 0.011915433428738924 0 -0.00048987837378074151 0.011572020401790381 0 -0.00015888577104083691 0.011467711209403399 0 -0.00048212346173101095 0.011973726126962687 0 -0.00065520049360506707 0.012602562599623744 0 -0.00080493739799825678 0.012027610403983344 0 -0.00048212346173101095 0.011973726126962687 0 -0.00080493739799825678 0.012027610403983344 0 -0.00048212346173101095 0.011973726126962687 0 -0.0004381177441251529 0.012235657288920548 0 -0.00048212346173101095 0.011973726126962687 0 -0.0004381177441251529 0.012235657288920548 0 -0.00064612843461500245 0.012182922165365082 0 -0.00061231693458458248 0.01255718357702375 0 -0.0004381177441251529 0.012235657288920548 0 -0.00064612843461500245 0.012182922165365082 0 -0.0015568152339448145 0.010427249051013476 0 -0.0021186712215902188 0.011289684390816703 0 -0.00080493739799825678 0.012027610403983344 0 -6.1266980433049694e-05 0.012422481151858702 0 -0.00080493739799825678 0.012027610403983344 0 -0.0004381177441251529 0.012235657288920548 0 -0.00081301532537743674 0.011608413233526025 0 -0.00078350590265782738 0.011987422284483599 0 -0.00094239515098389558 0.01234410083604214 0 -0.00078420468555173099 0.011856752311757897 0 -0.0011818140760955914 0.011973335987428935 0 -0.00094239515098389558 0.01234410083604214 0 -0.0011818140760955914 0.011973335987428935 0 -0.0013581982640493825 0.012520034131228309 0 -0.00094239515098389558 0.01234410083604214 0 -0.00064612843461500245 0.012182922165365082 0 -0.00078420468555173099 0.011856752311757897 0 -0.00061231693458458248 0.01255718357702375 0 -0.00094239515098389558 0.01234410083604214 0 -0.00064612843461500245 0.012182922165365082 0 -0.00048212346173101095 0.011973726126962687 0 -0.00064612843461500245 0.012182922165365082 0 -0.00078420468555173099 0.011856752311757897 0 -0.00048987837378074151 0.011572020401790381 0 -0.00078420468555173099 0.011856752311757897 0 -0.00071391750237368215 0.011431271096039468 0 -0.00048987837378074151 0.011572020401790381 0 -0.00048212346173101095 0.011973726126962687 0 -0.00078420468555173099 0.011856752311757897 0 -0.00078420468555173099 0.011856752311757897 0 -0.0010438918673469104 0.011507368768745594 0 -0.0011818140760955914 0.011973335987428935 0 -0.00078420468555173099 0.011856752311757897 0 -0.0010438918673469104 0.011507368768745594 0 -0.00071391750237368215 0.011431271096039468 0 -0.0010438918673469104 0.011507368768745594 0 -0.00071391750237368215 0.011431271096039468 0 -0.00085082342625720977 0.011060880155022731 0 -0.0010438918673469104 0.011507368768745594 0 -0.00085082342625720977 0.011060880155022731 0 -0.0011655319576696402 0.011041034607079305 0 -0.00040340516313262044 0.011125928006292978 0 -0.00071391750237368215 0.011431271096039468 0 -0.00085082342625720977 0.011060880155022731 0 -0.0006089256480170149 0.010822384423186898 0 -0.0010074942123637484 0.010716489290179277 0 -0.00085082342625720977 0.011060880155022731 0 -0.0006089256480170149 0.010822384423186898 0 -0.00040340516313262044 0.011125928006292978 0 -0.00085082342625720977 0.011060880155022731 0 -0.0010074942123637484 0.010716489290179277 0 -0.00085082342625720977 0.011060880155022731 0 -0.0011655319576696402 0.011041034607079305 0 -0.0010074942123637484 0.010716489290179277 0 -0.0013828867896116864 0.010481646664170122 0 -0.0011655319576696402 0.011041034607079305 0 -0.0013828867896116864 0.010481646664170122 0 -0.0011655319576696402 0.011041034607079305 0 -0.0015029511685386121 0.011140790223002316 0 -0.0013828867896116864 0.010481646664170122 0 -0.0015029511685386121 0.011140790223002316 0 -0.001781408396945028 0.010769134919542501 0 -0.0015029511685386121 0.011140790223002316 0 -0.0016890474585204813 0.011555215438898455 0 -0.0013607799338786295 0.011554962437096979 0 -0.0011655319576696402 0.011041034607079305 0 -0.0015029511685386121 0.011140790223002316 0 -0.0013607799338786295 0.011554962437096979 0 -0.0010438918673469104 0.011507368768745594 0 -0.0011655319576696402 0.011041034607079305 0 -0.0013607799338786295 0.011554962437096979 0 -0.0018983234354166775 0.010051835996486078 0 -0.0022798092697535119 0.010785669239118497 0 -0.001781408396945028 0.010769134919542501 0 -0.0022798092697535119 0.010785669239118497 0 -0.001781408396945028 0.010769134919542501 0 -0.0019604678098829173 0.011225606422193359 0 -0.0015029511685386121 0.011140790223002316 0 -0.0019604678098829173 0.011225606422193359 0 -0.0016890474585204813 0.011555215438898455 0 -0.0015029511685386121 0.011140790223002316 0 -0.001781408396945028 0.010769134919542501 0 -0.0019604678098829173 0.011225606422193359 0 -0.0022798092697535119 0.010785669239118497 0 -0.0019604678098829173 0.011225606422193359 0 -0.0022692250820407485 0.011381326766434557 0 -0.0019604678098829173 0.011225606422193359 0 -0.001964955047239059 0.01179064271403534 0 -0.0022692250820407485 0.011381326766434557 0 -0.0019604678098829173 0.011225606422193359 0 -0.0016890474585204813 0.011555215438898455 0 -0.001964955047239059 0.01179064271403534 0 -0.0016890474585204813 0.011555215438898455 0 -0.001964955047239059 0.01179064271403534 0 -0.0015992344686014015 0.012049170248675132 0 -0.001964955047239059 0.01179064271403534 0 -0.0015992344686014015 0.012049170248675132 0 -0.0019280707431574195 0.012498543364123864 0 -0.001964955047239059 0.01179064271403534 0 -0.0023051258797428305 0.012051939243116741 0 -0.0022692250820407485 0.011381326766434557 0 -0.001964955047239059 0.01179064271403534 0 -0.0019280707431574195 0.012498543364123864 0 -0.0023051258797428305 0.012051939243116741 0 -0.0010438918673469104 0.011507368768745594 0 -0.0013607799338786295 0.011554962437096979 0 -0.0011818140760955914 0.011973335987428935 0 -0.0013607799338786295 0.011554962437096979 0 -0.0015992344686014015 0.012049170248675132 0 -0.0011818140760955914 0.011973335987428935 0 -0.0016890474585204813 0.011555215438898455 0 -0.0013607799338786295 0.011554962437096979 0 -0.0015992344686014015 0.012049170248675132 0 -0.0015992344686014015 0.012049170248675132 0 -0.0011818140760955914 0.011973335987428935 0 -0.0013581982640493825 0.012520034131228309 0 -0.00105160141773035 0.013030475980318052 0 -0.00166324351803341 0.013052116803885305 0 -0.0013746535587633912 0.013809718492030118 0 -0.00105160141773035 0.013030475980318052 0 -0.0013581982640493825 0.012520034131228309 0 -0.00166324351803341 0.013052116803885305 0 -0.0013581982640493825 0.012520034131228309 0 -0.00166324351803341 0.013052116803885305 0 -0.0016521933924695555 0.012531780703664249 0 -0.0015992344686014015 0.012049170248675132 0 -0.0013581982640493825 0.012520034131228309 0 -0.0016521933924695555 0.012531780703664249 0 -0.0015992344686014015 0.012049170248675132 0 -0.0016521933924695555 0.012531780703664249 0 -0.0019280707431574195 0.012498543364123864 0 -0.00166324351803341 0.013052116803885305 0 -0.0016521933924695555 0.012531780703664249 0 -0.0019280707431574195 0.012498543364123864 0 -0.0019280707431574195 0.012498543364123864 0 -0.0021855020624482126 0.012726633350299088 0 -0.0023051258797428305 0.012051939243116741 0 -0.0019280707431574195 0.012498543364123864 0 -0.0021855020624482126 0.012726633350299088 0 -0.0019992751122954564 0.013177555833818416 0 -0.0021855020624482126 0.012726633350299088 0 -0.0019992751122954564 0.013177555833818416 0 -0.0022560665075948469 0.013381882930558388 0 -0.00166324351803341 0.013052116803885305 0 -0.0019280707431574195 0.012498543364123864 0 -0.0019992751122954564 0.013177555833818416 0 -0.0019992751122954564 0.013177555833818416 0 -0.0021007856646225679 0.013729082373133259 0 -0.0017702898503106589 0.013653583317580011 0 -0.001893745843745328 0.01401709113836086 0 -0.0022653556087897232 0.01344380190931325 0 -0.0019992751122954564 0.013177555833818416 0 -0.0021007856646225679 0.013729082373133259 0 -0.0022560665075948469 0.013381882930558388 0 -0.0016565082030184637 0.014327862082862214 0 -0.002419777277037855 0.014426256066138354 0 -0.0022560665075948469 0.013381882930558388 0 -0.001893745843745328 0.01401709113836086 0 -0.0015937840133703602 0.014677077721312657 0 -0.0021007856646225679 0.013729082373133259 0 -0.0017702898503106589 0.013653583317580011 0 -0.0018423621125055539 0.014378059633921771 0 -0.0013746535587633912 0.013809718492030118 0 -0.0017702898503106589 0.013653583317580011 0 -0.0018423621125055539 0.014378059633921771 0 -0.0012761455642086483 0.014503325845796028 0 -0.0013746535587633912 0.013809718492030118 0 -0.0018423621125055539 0.014378059633921771 0 -0.00166324351803341 0.013052116803885305 0 -0.0019992751122954564 0.013177555833818416 0 -0.0017702898503106589 0.013653583317580011 0 -0.00166324351803341 0.013052116803885305 0 -0.0013746535587633912 0.013809718492030118 0 -0.0017702898503106589 0.013653583317580011 0 -0.0032758637968537735 0.012988448621923009 0 -0.0029701445343454503 0.012817393009937056 0 -0.0038464035488045439 0.013879037239744754 0 -0.0035306641977601695 0.01453792533711655 0 -0.0029866544397003482 0.012839887775211591 0 -0.0032758637968537735 0.012988448621923009 0 -0.0033210367252956155 0.013310440065401592 0 -0.0038464035488045439 0.013879037239744754 0 -0.003870081195331707 0.014660784930463076 0 -0.003997234449466135 0.014708623676951216 0 -0.0038464035488045439 0.013879037239744754 0 -0.003870081195331707 0.014660784930463076 0 -0.0035306641977601695 0.01453792533711655 0 -0.003870081195331707 0.014660784930463076 0 -0.0040358339109753099 0.015083717834733196 0 -0.003851709115495826 0.015042651253871015 0 -0.003870081195331707 0.014660784930463076 0 -0.0035306641977601695 0.01453792533711655 0 -0.003851709115495826 0.015042651253871015 0 -0.0035306641977601695 0.01453792533711655 0 -0.0029456942938462 0.014590021613411211 0 -0.002675488978693135 0.013661825619411212 0 -0.0029456942938462 0.014590021613411211 0 -0.002419777277037855 0.014426256066138354 0 -0.002675488978693135 0.013661825619411212 0 -0.002419777277037855 0.014426256066138354 0 -0.0022560665075948469 0.013381882930558388 0 -0.002675488978693135 0.013661825619411212 0 -0.0022560665075948469 0.013381882930558388 0 -0.002675488978693135 0.013661825619411212 0 -0.0025040548620097565 0.012599609437029338 0 -0.0035306641977601695 0.01453792533711655 0 -0.002675488978693135 0.013661825619411212 0 -0.0029866544397003482 0.012839887775211591 0 -0.002675488978693135 0.013661825619411212 0 -0.0025040548620097565 0.012599609437029338 0 -0.0029866544397003482 0.012839887775211591 0 -0.0025040548620097565 0.012599609437029338 0 -0.0027309928559314336 0.012016898045082953 0 -0.0029866544397003482 0.012839887775211591 0 -0.0021855020624482126 0.012726633350299088 0 -0.0022560665075948469 0.013381882930558388 0 -0.0025040548620097565 0.012599609437029338 0 -0.0021855020624482126 0.012726633350299088 0 -0.0025040548620097565 0.012599609437029338 0 -0.0023051258797428305 0.012051939243116741 0 -0.0025040548620097565 0.012599609437029338 0 -0.0027309928559314336 0.012016898045082953 0 -0.0023051258797428305 0.012051939243116741 0 -0.002879358870796901 0.012120599587389373 0 -0.0029866544397003482 0.012839887775211591 0 -0.0029137720126341717 0.012233253515321764 0 -0.0027309928559314336 0.012016898045082953 0 -0.0029866544397003482 0.012839887775211591 0 -0.0029137720126341717 0.012233253515321764 0 -0.002879358870796901 0.012120599587389373 0 -0.0029137720126341717 0.012233253515321764 0 -0.0027215378989257988 0.011949861334202692 0 -0.0027309928559314336 0.012016898045082953 0 -0.0029137720126341717 0.012233253515321764 0 -0.0029537443412816439 0.01180110178791866 0 -0.0027309928559314336 0.012016898045082953 0 -0.0026474540939327436 0.011154412905863931 0 -0.0029537443412816439 0.01180110178791866 0 -0.0026474540939327436 0.011154412905863931 0 -0.002481818905702629 0.011512638285805782 0 -0.0024212566370317473 0.011028689230328933 0 -0.0027309928559314336 0.012016898045082953 0 -0.0026474540939327436 0.011154412905863931 0 -0.002481818905702629 0.011512638285805782 0 -0.0026474540939327436 0.011154412905863931 0 -0.0030506732423729553 0.010766705558759349 0 -0.0029537443412816439 0.01180110178791866 0 -0.0027309928559314336 0.012016898045082953 0 -0.0023051258797428305 0.012051939243116741 0 -0.002481818905702629 0.011512638285805782 0 -0.002481818905702629 0.011512638285805782 0 -0.0022692250820407485 0.011381326766434557 0 -0.0024212566370317473 0.011028689230328933 0 -0.0023051258797428305 0.012051939243116741 0 -0.002481818905702629 0.011512638285805782 0 -0.0022692250820407485 0.011381326766434557 0 -0.0022798092697535119 0.010785669239118497 0 -0.0022692250820407485 0.011381326766434557 0 -0.0024212566370317473 0.011028689230328933 0 -0.0018788583326044711 0.0098777602808842509 0 -0.0024212566370317473 0.011028689230328933 0 -0.002432718464090741 0.010312588084674754 0 -0.0022963091760093753 0.010181013266683947 0 -0.002409249079362645 0.010947509792761765 0 -0.0026916276653468447 0.010499185604995954 0 -0.0022798092697535119 0.010785669239118497 0 -0.0024212566370317473 0.011028689230328933 0 -0.0026474540939327436 0.011154412905863931 0 -0.002432718464090741 0.010312588084674754 0 -0.0027697007059385701 0.010220279534267358 0 -0.0026474540939327436 0.011154412905863931 0 -0.0027697007059385701 0.010220279534267358 0 -0.0030506732423729553 0.010766705558759349 0 -0.0026474540939327436 0.011154412905863931 0 -0.0024212566370317473 0.011028689230328933 0 -0.002432718464090741 0.010312588084674754 0 -0.0024529220742161477 0.0095389034192256781 0 -0.002432718464090741 0.010312588084674754 0 -0.0027697007059385701 0.010220279534267358 0 -0.002821182782680824 0.0095607510818460657 0 -0.0027697007059385701 0.010220279534267358 0 -0.0030698362269003287 0.010038293319008396 0 -0.0027697007059385701 0.010220279534267358 0 -0.0030506732423729553 0.010766705558759349 0 -0.0030698362269003287 0.010038293319008396 0 -0.0030506732423729553 0.010766705558759349 0 -0.0034516592827198329 0.01037371949044856 0 -0.0034862344295357194 0.011064847960665791 0 -0.0030506732423729553 0.010766705558759349 0 -0.0034516592827198329 0.01037371949044856 0 -0.0030698362269003287 0.010038293319008396 0 -0.0034516592827198329 0.01037371949044856 0 -0.0030698362269003287 0.010038293319008396 0 -0.0032836835017026793 0.0098523653386388584 0 -0.0030751186584668409 0.0096941126425972319 0 -0.0030698362269003287 0.010038293319008396 0 -0.0032836835017026793 0.0098523653386388584 0 0.0033008796477075322 0.0020708088374591527 0 0.0030287693916000048 0.0023826715344740027 0 0.0026721641450417441 0.0023186210500320539 0 -0.0034516592827198329 0.01037371949044856 0 -0.0037449042938465056 0.0099679597703221934 0 -0.0040623997103024865 0.010461848288602622 0 -0.00042296412854670584 0.0062058442202928667 0 -0.00035555662570716678 0.009393110792115144 0 -0.0034516592827198329 0.01037371949044856 0 -0.0032836835017026793 0.0098523653386388584 0 -0.0037449042938465056 0.0099679597703221934 0 0.0030287693916000048 0.0023826715344740027 0 0.0026721641450417441 0.0023186210500320539 0 0.0026978992039046351 0.0031255662752315947 0 0.0024588073143234496 0.0016079529514409737 0 0.0026721641450417441 0.0023186210500320539 0 0.0018511199415850062 0.0026239554751334377 0 0.0035952295932381636 0.00062950812670743424 0 0.0035476342997919652 0.00072038267678712145 0 0.0035543668629870592 0.00083170386463154165 0 0.0032164151171663749 0.00085952613650185181 0 0.0020999835019768595 0.0033663655442879806 0 0.0026721641450417441 0.0023186210500320539 0 0.0026978992039046351 0.0031255662752315947 0 0.0018511199415850062 0.0026239554751334377 0 0.0012729173140467599 0.0097034767652646389 0 0.00057991274641252036 0.0099667916383034405 0 0.0005719467087314785 0.010631941765655692 0 0.0012729173140467599 0.0097034767652646389 0 0.00056452857927094026 0.0092032867002664678 0 0.00057991274641252036 0.0099667916383034405 0 -0.00035555662570716678 0.009393110792115144 0 0.0020999835019768595 0.0033663655442879806 0 -0.00035555662570716678 0.009393110792115144 0 -0.0034476821668488521 0.012023339729524704 0 -0.0034516592827198329 0.01037371949044856 0 -0.0040623997103024865 0.010461848288602622 0 -0.0034862344295357194 0.011064847960665791 0 -0.0018603208568109583 0.013008097643576348 0 -0.0020060359621110776 0.012237765554875378 0 -0.0025825454907181787 0.012403388172826485 0 -0.0018603208568109583 0.013008097643576348 0 -0.0020060359621110776 0.012237765554875378 0 -0.0012532016038528924 0.012423472211361251 0 -0.00035555662570716678 0.009393110792115144 0 -0.00043254251878765564 0.011857092582109825 0 -0.0020060359621110776 0.012237765554875378 0 -0.0012532016038528924 0.012423472211361251 0 -0.0012937154948172778 0.011663230507345978 0 -0.0020060359621110776 0.012237765554875378 0 -0.0012937154948172778 0.011663230507345978 0 -0.0020865653333469155 0.011528975789888792 0 -0.0020060359621110776 0.012237765554875378 0 -0.0025841822587990859 0.011888732456284424 0 -0.0025825454907181787 0.012403388172826485 0 -0.0020060359621110776 0.012237765554875378 0 -0.0025841822587990859 0.011888732456284424 0 -0.0020865653333469155 0.011528975789888792 0 -0.0025841822587990859 0.011888732456284424 0 -0.0029537443412816439 0.01180110178791866 0 -0.0025825454907181787 0.012403388172826485 0 -0.0025841822587990859 0.011888732456284424 0 -0.0029537443412816439 0.01180110178791866 0 -0.002784050705515414 0.011931713147168144 0 -0.0027871197431496319 0.011758130723159184 0 -0.0034476821668488521 0.012023339729524704 0 -0.0030506732423729553 0.010766705558759349 0 -0.0029537443412816439 0.01180110178791866 0 -0.0034862344295357194 0.011064847960665791 0 0.0036068304863890745 0.00084687216648425111 0 0.00367752120365842 0.00083811014083895604 0 0.0037779520836488797 0.0008024032401689361 0 0.0036631246518321033 0.00072012360021175511 0 0.0034488836823139031 0.0010821235911528833 0 0.0036888893236209004 0.00090509430432253533 0 0.0036068304863890745 0.00084687216648425111 0 0.00367752120365842 0.00083811014083895604 0 0.0058453572231430273 -0.0014797227551463141 0 0.0057439609086626922 -0.0017966652270363468 0 0.0081021953407915594 -0.0040016284048931304 0 0.0077990899574227422 -0.0038575080608536432 0 0.0074410810285812307 -0.0039650707291471344 0 0.0036888893236209004 0.00090509430432253533 0 0.00367752120365842 0.00083811014083895604 0 0.0036816173597853234 0.00072176097868127773 0 0.00367752120365842 0.00083811014083895604 0 0.0036816173597853234 0.00072176097868127773 0 0.0037779520836488797 0.0008024032401689361 0 0.0034020577841299806 0.00086370759567637435 0 0.003427752852931541 0.0008608577946961313 0 0.0034187398522400399 0.00078162643934331325 0 0.0034020577841299806 0.00086370759567637435 0 0.003427752852931541 0.0008608577946961313 0 0.0034626374889960652 0.00088152223958241037 0 0.0036068304863890745 0.00084687216648425111 0 0.0034020577841299806 0.00086370759567637435 0 0.0034626374889960652 0.00088152223958241037 0 0.003427752852931541 0.0008608577946961313 0 0.0034626374889960652 0.00088152223958241037 0 0.0034435815627550694 0.00090254903386748639 0 0.0036068304863890745 0.00084687216648425111 0 0.0034626374889960652 0.00088152223958241037 0 0.0034952681536411685 0.00089918956403509055 0 0.0034626374889960652 0.00088152223958241037 0 0.0034435815627550694 0.00090254903386748639 0 0.0034952681536411685 0.00089918956403509055 0 0.0034435815627550694 0.00090254903386748639 0 0.0034293855525949612 0.00097101116189488945 0 0.0034952681536411685 0.00089918956403509055 0 0.0034578080898661841 0.00089497663827379234 0 0.0034435815627550694 0.00090254903386748639 0 0.0034293855525949612 0.00097101116189488945 0 0.0034578080898661841 0.00089497663827379234 0 0.0034435815627550694 0.00090254903386748639 0 0.0034509624858475104 0.00085448728279434319 0 0.003427752852931541 0.0008608577946961313 0 0.0034435815627550694 0.00090254903386748639 0 0.0034509624858475104 0.00085448728279434319 0 0.003427752852931541 0.0008608577946961313 0 0.0034187398522400399 0.00078162643934331325 0 0.0034509624858475104 0.00085448728279434319 0 0.0034187398522400399 0.00078162643934331325 0 0.0034624613370562605 0.00078929056440593182 0 0.0034509624858475104 0.00085448728279434319 0 0.0034597515055543003 0.00071178343348064028 0 0.0034187398522400399 0.00078162643934331325 0 0.0034624613370562605 0.00078929056440593182 0 0.0034624613370562605 0.00078929056440593182 0 0.0034509624858475104 0.00085448728279434319 0 0.0035050350394801246 0.00079942480117110566 0 0.0034509624858475104 0.00085448728279434319 0 0.0035050350394801246 0.00079942480117110566 0 0.003539065643435296 0.00084679434756306524 0 0.0034578080898661841 0.00089497663827379234 0 0.0034509624858475104 0.00085448728279434319 0 0.003539065643435296 0.00084679434756306524 0 0.0035079930506369153 0.00071387525622660026 0 0.0034624613370562605 0.00078929056440593182 0 0.0035050350394801246 0.00079942480117110566 0 0.0034597515055543003 0.00071178343348064028 0 0.0035079930506369153 0.00071387525622660026 0 0.0034624613370562605 0.00078929056440593182 0 0.0035079930506369153 0.00071387525622660026 0 0.0035050350394801246 0.00079942480117110566 0 0.0035476342997919652 0.00072038267678712145 0 0.0035050350394801246 0.00079942480117110566 0 0.0035476342997919652 0.00072038267678712145 0 0.0035543668629870592 0.00083170386463154165 0 0.0025825259550462756 0.0022770486627749693 0 0.0020999835019768595 0.0033663655442879806 0 0.0034578080898661841 0.00089497663827379234 0 0.003539065643435296 0.00084679434756306524 0 0.0034293855525949612 0.00097101116189488945 0 0.0020999835019768595 0.0033663655442879806 0 0.0016931522584861967 0.0059132110801138867 0 0.00056452857927094026 0.0092032867002664678 0 0.00057991274641252036 0.0099667916383034405 0 -6.8227249505005926e-05 0.010298337259814168 0 0.0005719467087314785 0.010631941765655692 0 -4.2504688169629229e-06 0.010821818234023887 0 -6.8227249505005926e-05 0.010298337259814168 0 0.00057991274641252036 0.0099667916383034405 0 0.0005719467087314785 0.010631941765655692 0 -6.8227249505005926e-05 0.010298337259814168 0 -0.00043254251878765564 0.011857092582109825 0 -0.00014913791981011358 0.011099283349103387 0 0.0005719467087314785 0.010631941765655692 0 -4.2504688169629229e-06 0.010821818234023887 0 -0.00022751253252957502 0.011226109091941197 0 -0.0012532016038528924 0.012423472211361251 0 -0.0012937154948172778 0.011663230507345978 0 -0.00022751253252957502 0.011226109091941197 0 -4.2504688169629229e-06 0.010821818234023887 0 -2.3642669179528787e-05 0.011056386422754558 0 -0.00022751253252957502 0.011226109091941197 0 -4.2504688169629229e-06 0.010821818234023887 0 -6.8227249505005926e-05 0.010298337259814168 0 -2.3642669179528787e-05 0.011056386422754558 0 0.0034293855525949612 0.00097101116189488945 0 0.0034952681536411685 0.00089918956403509055 0 0.0034997361913999539 0.00091664280792013862 0 0.0016931522584861967 0.0059132110801138867 0 0.001343505913976902 0.0059714273360753399 0 0.0034952681536411685 0.00089918956403509055 0 0.0034997361913999539 0.00091664280792013862 0 0.0035987114462507322 0.00085409145462430822 0 0.0036068304863890745 0.00084687216648425111 0 0.0034952681536411685 0.00089918956403509055 0 0.0035987114462507322 0.00085409145462430822 0 0.0034997361913999539 0.00091664280792013862 0 0.0036505883429851292 0.00085685535247129196 0 0.0035987114462507322 0.00085409145462430822 0 0.0036505883429851292 0.00085685535247129196 0 0.0037248296989896034 0.00078098838076973588 0 0.0035987114462507322 0.00085409145462430822 0 0.0037674946117504963 0.00084750918221505455 0 0.0036505883429851292 0.00085685535247129196 0 0.0037248296989896034 0.00078098838076973588 0 0.0036068304863890745 0.00084687216648425111 0 0.0037248296989896034 0.00078098838076973588 0 0.0035987114462507322 0.00085409145462430822 0 0.0037505434776318185 0.00064384666752888774 0 0.0036068304863890745 0.00084687216648425111 0 0.0037248296989896034 0.00078098838076973588 0 0.0061512814589624962 0.0075627981471469439 0 0.0075106893151905309 0.0056355263738008367 0 0.0077891988803465853 0.0078583009922612752 0 0.0070137566612639216 0.0069109387732118211 0 0.0050056349156673537 0.0059624648810868959 0 0.0056688698235548875 0.0052598457153093508 0 0.0061512814589624962 0.0075627981471469439 0 0.0079999590936646204 0.0049934416434041437 0 0.005740513498428735 0.002928498409909087 0 0.0056688698235548875 0.0052598457153093508 0 0.0079999590936646204 0.0049934416434041437 0 0.0037674946117504963 0.00084750918221505455 0 0.0036505883429851292 0.00085685535247129196 0 0.0036297200671836297 0.00084003153939503914 0 0.004647638333609966 0.001501459625738966 0 0.0050056349156673537 0.0059624648810868959 0 0.0034997361913999539 0.00091664280792013862 0 0.0036505883429851292 0.00085685535247129196 0 0.0036297200671836297 0.00084003153939503914 0 0.001343505913976902 0.0059714273360753399 0 0.0050056349156673537 0.0059624648810868959 0 -2.3642669179528787e-05 0.011056386422754558 0 0.00067502513244996473 0.010543540270989717 0 0.00010534596014898082 0.01071956976774974 0 0.0075106893151905309 0.0056355263738008367 0 0.0087943635627024536 0.0067861623234042601 0 0.0077891988803465853 0.0078583009922612752 0 0.00067502513244996473 0.010543540270989717 0 0.00010534596014898082 0.01071956976774974 0 0.00031981998822979188 0.010200743652930562 0 0.0050056349156673537 0.0059624648810868959 0 0.0047045109894014829 0.0086181407377199145 0 -0.00019157714035149999 0.010398555327541697 0 -0.00091171466456048628 0.010353567355277307 0 -7.4246656497738422e-05 0.0097771830033460093 0 0.00031981998822979188 0.010200743652930562 0 -0.00019157714035149999 0.010398555327541697 0 -7.4246656497738422e-05 0.0097771830033460093 0 0.00010534596014898082 0.01071956976774974 0 0.00031981998822979188 0.010200743652930562 0 -0.00019157714035149999 0.010398555327541697 0 -2.3642669179528787e-05 0.011056386422754558 0 0.00010534596014898082 0.01071956976774974 0 -0.00022751253252957502 0.011226109091941197 0 0.00010534596014898082 0.01071956976774974 0 -0.00019157714035149999 0.010398555327541697 0 -0.00022751253252957502 0.011226109091941197 0 -0.00019157714035149999 0.010398555327541697 0 -0.00022751253252957502 0.011226109091941197 0 -0.00091171466456048628 0.010353567355277307 0 -0.0012937154948172778 0.011663230507345978 0 -0.00022751253252957502 0.011226109091941197 0 -0.00091171466456048628 0.010353567355277307 0 -0.0023152037302428502 0.011375875391450411 0 0.0032707957756642858 0.010026945564073454 0 -0.0021209271257863604 0.01157664400108338 0 -0.0020768550815990733 0.011433916547193916 0 -0.0018830697523464816 0.011571082913052077 0 -0.0021182249379232214 0.011668507830419814 0 -0.0021209271257863604 0.01157664400108338 0 -0.0018830697523464816 0.011571082913052077 0 0.00049997157930524406 0.014632782563677376 0 0.0032707957756642858 0.010026945564073454 0 0.0057376127804807629 0.011802072248262773 0 0.0060477841815566088 0.011809584681177019 0 0.0060244142734427499 0.01196620767384019 0 0.0057376127804807629 0.011802072248262773 0 0.0060477841815566088 0.011809584681177019 0 0.0061584512770875991 0.01170933973737481 0 0.010081824493266929 0.0079518989468698141 0 0.0081642176633580955 0.0096476338374094743 0 0.0077891988803465853 0.0078583009922612752 0 0.0032707957756642858 0.010026945564073454 0 0.0079528011809483559 0.010414451604498311 0 0.0087943635627024536 0.0067861623234042601 0 0.010081824493266929 0.0079518989468698141 0 0.0077891988803465853 0.0078583009922612752 0 0.0047045109894014829 0.0086181407377199145 0 0.0032707957756642858 0.010026945564073454 0 0.0060477841815566088 0.011809584681177019 0 0.0060244142734427499 0.01196620767384019 0 0.006170353541465016 0.011756947714110101 0 0.0060477841815566088 0.011809584681177019 0 0.006170353541465016 0.011756947714110101 0 0.0061584512770875991 0.01170933973737481 0 0.0056682135446679601 0.011694232819229376 0 0.0079528011809483559 0.010414451604498311 0 0.0060093639871352574 0.0095685885459177791 0 0.005882050519986551 0.011546189049411588 0 0.0081642176633580955 0.0096476338374094743 0 0.0060093639871352574 0.0095685885459177791 0 0.0081642176633580955 0.0096476338374094743 0 0.0077891988803465853 0.0078583009922612752 0 0.0060093639871352574 0.0095685885459177791 0 0.0061512814589624962 0.0075627981471469439 0 0.0077891988803465853 0.0078583009922612752 0 -0.002511944065811021 0.011760354980011356 0 -0.0027215378989257988 0.011949861334202692 0 -0.002784050705515414 0.011931713147168144 0 -0.002511944065811021 0.011760354980011356 0 -0.0027215378989257988 0.011949861334202692 0 -0.0025557781565529246 0.011747955421694434 0 -0.0029137720126341717 0.012233253515321764 0 -0.0027215378989257988 0.011949861334202692 0 -0.002784050705515414 0.011931713147168144 0 -0.0029137720126341717 0.012233253515321764 0 -0.0029537443412816439 0.01180110178791866 0 -0.002784050705515414 0.011931713147168144 0 -0.0025841822587990859 0.011888732456284424 0 -0.002511944065811021 0.011760354980011356 0 -0.002784050705515414 0.011931713147168144 0 -0.0025841822587990859 0.011888732456284424 0 -0.002511944065811021 0.011760354980011356 0 -0.0020865653333469155 0.011528975789888792 0 -0.0012937154948172778 0.011663230507345978 0 -0.00091171466456048628 0.010353567355277307 0 -0.0020865653333469155 0.011528975789888792 0 -0.0023152037302428502 0.011375875391450411 0 -0.0017403660769721447 0.011297332640262333 0 -0.0021182249379232214 0.011668507830419814 0 -0.0020865653333469155 0.011528975789888792 0 -0.0022323439869119228 0.011661699620042062 0 -0.0021182249379232214 0.011668507830419814 0 -0.0021209271257863604 0.01157664400108338 0 -0.0022323439869119228 0.011661699620042062 0 -0.002511944065811021 0.011760354980011356 0 -0.0022323439869119228 0.011661699620042062 0 -0.0025557781565529246 0.011747955421694434 0 -0.002511944065811021 0.011760354980011356 0 -0.0020865653333469155 0.011528975789888792 0 -0.0022323439869119228 0.011661699620042062 0 -0.0022323439869119228 0.011661699620042062 0 -0.0022628023455816405 0.011513235655470645 0 -0.0025557781565529246 0.011747955421694434 0 -0.0026673395277585087 0.011876162975810945 0 -0.0025893744440032458 0.011847878227557642 0 -0.0025557781565529246 0.011747955421694434 0 -0.0028362083957960502 0.011582773495586618 0 -0.0024221909254203032 0.011721094653636884 0 -0.0021209271257863604 0.01157664400108338 0 -0.0022323439869119228 0.011661699620042062 0 -0.0022628023455816405 0.011513235655470645 0 0.00049997157930524406 0.014632782563677376 0 -0.0028362083957960502 0.011582773495586618 0 -0.0021209271257863604 0.01157664400108338 0 -0.0020768550815990733 0.011433916547193916 0 -0.0022628023455816405 0.011513235655470645 0 -0.0027372974368919732 0.011963599127579584 0 -0.0026673395277585087 0.011876162975810945 0 -0.0026566361721432298 0.011946766170127346 0 -0.0026673395277585087 0.011876162975810945 0 -0.0026566361721432298 0.011946766170127346 0 -0.0025929666650590711 0.011914493691330203 0 -0.0026673395277585087 0.011876162975810945 0 -0.0025929666650590711 0.011914493691330203 0 -0.0025893744440032458 0.011847878227557642 0 -0.0055433732326412707 0.016025093074353632 0 -0.003997234449466135 0.014708623676951216 0 -0.0042413987325078256 0.015453248088059313 0 -0.0042532086510060005 0.013508312445243139 0 -0.0033210367252956155 0.013310440065401592 0 -0.0025929666650590711 0.011914493691330203 0 -0.0025893744440032458 0.011847878227557642 0 -0.0026614515872716163 0.011830797641393052 0 -0.0025893744440032458 0.011847878227557642 0 -0.0026274055092433638 0.011841002091931493 0 -0.0026614515872716163 0.011830797641393052 0 -0.0027215378989257988 0.011949861334202692 0 -0.0026274055092433638 0.011841002091931493 0 -0.0025557781565529246 0.011747955421694434 0 -0.0025893744440032458 0.011847878227557642 0 -0.0026274055092433638 0.011841002091931493 0 -0.0025557781565529246 0.011747955421694434 0 -0.002879358870796901 0.012120599587389373 0 -0.0027215378989257988 0.011949861334202692 0 -0.0026614515872716163 0.011830797641393052 0 -0.0027215378989257988 0.011949861334202692 0 -0.0026274055092433638 0.011841002091931493 0 -0.0026614515872716163 0.011830797641393052 0 -0.003997234449466135 0.014708623676951216 0 -0.0042413987325078256 0.015453248088059313 0 -0.0040358339109753099 0.015083717834733196 0 -0.003870081195331707 0.014660784930463076 0 -0.003997234449466135 0.014708623676951216 0 -0.0040358339109753099 0.015083717834733196 0 -0.0042413987325078256 0.015453248088059313 0 -0.0041232018290300329 0.015279221322606798 0 -0.00433166368762303 0.015475367684409325 0 -0.0042003550982486898 0.015608708640505491 0 -0.0039511329974956143 0.01748319441308923 0 -0.0042413987325078256 0.015453248088059313 0 -0.003409316560272606 0.019652475250528153 0 -0.0045755919938664071 0.017802253918521024 0 -0.0042413987325078256 0.015453248088059313 0 -0.0040358339109753099 0.015083717834733196 0 -0.0041232018290300329 0.015279221322606798 0 -0.0041232018290300329 0.015279221322606798 0 -0.00433166368762303 0.015475367684409325 0 -0.0038794010397073964 0.015392925871550559 0 -0.003409316560272606 0.019652475250528153 0 -0.0043059485920038266 0.020550746315716191 0 -0.0045755919938664071 0.017802253918521024 0 -0.0043059485920038266 0.020550746315716191 0 -0.0045755919938664071 0.017802253918521024 0 -0.0058063860637376022 0.017788157701108212 0 -0.0055433732326412707 0.016025093074353632 0 -0.0042413987325078256 0.015453248088059313 0 -0.0045755919938664071 0.017802253918521024 0 -0.0055433732326412707 0.016025093074353632 0 -0.0045755919938664071 0.017802253918521024 0 -0.0058063860637376022 0.017788157701108212 0 -0.0055433732326412707 0.016025093074353632 0 -0.0058063860637376022 0.017788157701108212 0 -0.0081879040692097692 0.017570962296427559 0 -0.0042532086510060005 0.013508312445243139 0 -0.0029429609165560161 0.020139798879437325 0 -0.0026566361721432298 0.011946766170127346 0 -0.0025929666650590711 0.011914493691330203 0 -0.0026768218769931624 0.012045988230992 0 -0.0058063860637376022 0.017788157701108212 0 -0.0081879040692097692 0.017570962296427559 0 -0.006549522733346822 0.019046290381512503 0 -0.0029429609165560161 0.020139798879437325 0 -0.0047632313901192092 0.020736651651322272 0 -0.0027372974368919732 0.011963599127579584 0 -0.0026566361721432298 0.011946766170127346 0 -0.0026768218769931624 0.012045988230992 0 -0.0029429609165560161 0.020139798879437325 0 0.00071508451603831933 0.024120490753228457 0 0.00074431112032315942 0.026049649353941298 0 -0.0010156171266286387 0.024489734178580039 0 0.00083388605407917478 0.023580695571620236 0 0.00049997157930524406 0.014632782563677376 0 -0.0029429609165560161 0.020139798879437325 0 -0.0015718833678745555 0.024372801343782318 0 -0.0012088866621709452 0.022030474863779494 0 0.00083388605407917478 0.023580695571620236 0 -0.0015718833678745555 0.024372801343782318 0 -0.0012088866621709452 0.022030474863779494 0 -0.0029925975065887714 0.022767048018722369 0 -0.0012088866621709452 0.022030474863779494 0 -0.0029925975065887714 0.022767048018722369 0 -0.0027216613727666546 0.020675868221766251 0 -0.0043059485920038266 0.020550746315716191 0 -0.0029925975065887714 0.022767048018722369 0 -0.0027216613727666546 0.020675868221766251 0 -0.0043059485920038266 0.020550746315716191 0 -0.0058063860637376022 0.017788157701108212 0 -0.006549522733346822 0.019046290381512503 0 -0.0043978956236416285 0.020744640411624118 0 -0.0047632313901192092 0.020736651651322272 0 -0.0043059485920038266 0.020550746315716191 0 -0.0027216613727666546 0.020675868221766251 0 -0.0033028762316292615 0.019607528582524212 0 -0.0027216613727666546 0.020675868221766251 0 -0.0015674287448612511 0.020077635125080109 0 -0.0033028762316292615 0.019607528582524212 0 -0.0012088866621709452 0.022030474863779494 0 -0.0027216613727666546 0.020675868221766251 0 -0.0015674287448612511 0.020077635125080109 0 -0.0012088866621709452 0.022030474863779494 0 -0.0015674287448612511 0.020077635125080109 0 0.0007241312303057051 0.021283116881025188 0 -0.0015674287448612511 0.020077635125080109 0 0.0007241312303057051 0.021283116881025188 0 -0.00066786934980661962 0.018713486601773667 0 -0.0015674287448612511 0.020077635125080109 0 -0.0022554355472210004 0.018779939272492972 0 -0.00066786934980661962 0.018713486601773667 0 -0.0015674287448612511 0.020077635125080109 0 -0.0033028762316292615 0.019607528582524212 0 -0.0022554355472210004 0.018779939272492972 0 -0.0033028762316292615 0.019607528582524212 0 -0.0022554355472210004 0.018779939272492972 0 -0.0031316362420090857 0.018236059148899721 0 -0.0033028762316292615 0.019607528582524212 0 -0.0039970864225007041 0.018826144960220968 0 -0.0031316362420090857 0.018236059148899721 0 -0.0033028762316292615 0.019607528582524212 0 -0.0039970864225007041 0.018826144960220968 0 -0.0040362320056995579 0.019996078451681942 0 -0.0043415218318628634 0.018011152641590294 0 -0.0043550955717994184 0.017894802278665162 0 -0.0039970864225007041 0.018826144960220968 0 -0.0043584773944527347 0.019682830177834124 0 -0.0043225351117307199 0.017843529480799362 0 -0.0039970864225007041 0.018826144960220968 0 -0.0043584773944527347 0.019682830177834124 0 -0.0040362320056995579 0.019996078451681942 0 -0.003409316560272606 0.019652475250528153 0 -0.0043584773944527347 0.019682830177834124 0 -0.0040362320056995579 0.019996078451681942 0 -0.0039511329974956143 0.01748319441308923 0 -0.0043415218318628634 0.018011152641590294 0 -0.00433166368762303 0.015475367684409325 0 -0.004477368842178143 0.01638475434689941 0 -0.0039363483562894121 0.015851495100112668 0 -0.0043059485920038266 0.020550746315716191 0 -0.0033028762316292615 0.019607528582524212 0 -0.0040362320056995579 0.019996078451681942 0 -0.003409316560272606 0.019652475250528153 0 -0.0043059485920038266 0.020550746315716191 0 -0.0040362320056995579 0.019996078451681942 0 0.004638191946144744 0.023776750806236348 0 0.0041604725840989273 0.023750291283943435 0 0.0043474734080244781 0.023599189678530471 0 0.005882050519986551 0.011546189049411588 0 0.0060556115472188022 0.012300893397726206 0 0.0061045715480731906 0.011772075595561576 0 0.005882050519986551 0.011546189049411588 0 0.006170353541465016 0.011756947714110101 0 0.0061045715480731906 0.011772075595561576 0 0.0039996086029495028 0.018304393762926755 0 0.0056308327911362083 0.018737427417214163 0 0.006170353541465016 0.011756947714110101 0 0.0061045715480731906 0.011772075595561576 0 0.0061584512770875991 0.01170933973737481 0 0.0060556115472188022 0.012300893397726206 0 0.0061045715480731906 0.011772075595561576 0 0.0061584512770875991 0.01170933973737481 0 0.0041604725840989273 0.023750291283943435 0 0.0036225866027969878 0.023051009706862857 0 0.0037709542102743608 0.024709116898069022 0 0.0041604725840989273 0.023750291283943435 0 0.0036225866027969878 0.023051009706862857 0 0.0043474734080244781 0.023599189678530471 0 0.004638191946144744 0.023776750806236348 0 0.0041604725840989273 0.023750291283943435 0 0.0037709542102743608 0.024709116898069022 0 0.0036225866027969878 0.023051009706862857 0 0.0037709542102743608 0.024709116898069022 0 0.00083388605407917478 0.023580695571620236 0 0.00049997157930524406 0.014632782563677376 0 0.0056308327911362083 0.018737427417214163 0 0.00074431112032315942 0.026049649353941298 0 0.0037709542102743608 0.024709116898069022 0 0.00083388605407917478 0.023580695571620236 0 0.0036225866027969878 0.023051009706862857 0 0.00083388605407917478 0.023580695571620236 0 0.0007241312303057051 0.021283116881025188 0 -0.0012088866621709452 0.022030474863779494 0 0.00083388605407917478 0.023580695571620236 0 0.0007241312303057051 0.021283116881025188 0 0.0007241312303057051 0.021283116881025188 0 0.001690846864765777 0.019347976334060078 0 -0.00066786934980661962 0.018713486601773667 0 0.0036225866027969878 0.023051009706862857 0 0.0007241312303057051 0.021283116881025188 0 0.001690846864765777 0.019347976334060078 0 0.0036225866027969878 0.023051009706862857 0 0.0046015594659647779 0.024238081905204049 0 0.0044642440412129437 0.024029235962148055 0 0.0036269381733659359 0.02306469285398581 0 0.0031024502469310707 0.021833587874188005 0 0.0044642440412129437 0.024029235962148055 0 0.0044336029362213557 0.023741223386221755 0 0.0043474734080244781 0.023599189678530471 0 0.0036225866027969878 0.023051009706862857 0 0.0044642440412129437 0.024029235962148055 0 0.0043474734080244781 0.023599189678530471 0 0.0044642440412129437 0.024029235962148055 0 0.0059280891093599613 0.025138793057210451 0 0.0049617410451730012 0.024417165276574747 0 0.0046015594659647779 0.024238081905204049 0 0.0044642440412129437 0.024029235962148055 0 0.0049617410451730012 0.024417165276574747 0 0.0049492735156693446 0.023987803821056794 0 0.0046107495842825173 0.024674954381835514 0 0.0044642440412129437 0.024029235962148055 0 0.0044957045639298253 0.023602512988998847 0 0.0044336029362213557 0.023741223386221755 0 0.0045880725547108063 0.023675742153446425 0 0.0044957045639298253 0.023602512988998847 0 0.0044336029362213557 0.023741223386221755 0 0.0045880725547108063 0.023675742153446425 0 0.0044336029362213557 0.023741223386221755 0 0.0043474734080244781 0.023599189678530471 0 0.0045880725547108063 0.023675742153446425 0 0.004638191946144744 0.023776750806236348 0 0.0043474734080244781 0.023599189678530471 0 0.0056786642472025093 0.02436118203676876 0 0.0056455713405735618 0.023307357023581381 0 0.0063103864284066325 0.02386847132595803 0 0.0056558049055663879 0.02441016261115532 0 0.0058277964105221541 0.02348973343154917 0 0.0063103864284066325 0.02386847132595803 0 0.0065078526084606679 0.024669604770915426 0 0.0056558049055663879 0.02441016261115532 0 0.0065078526084606679 0.024669604770915426 0 0.0059889816609757802 0.024776475155340715 0 0.0056558049055663879 0.02441016261115532 0 0.0059280891093599613 0.025138793057210451 0 0.0059889816609757802 0.024776475155340715 0 0.0049617410451730012 0.024417165276574747 0 0.0067614808519230107 0.025041796398634027 0 0.0065078526084606679 0.024669604770915426 0 0.0059889816609757802 0.024776475155340715 0 0.0067614808519230107 0.025041796398634027 0 0.0059280891093599613 0.025138793057210451 0 0.0059889816609757802 0.024776475155340715 0 0.0059889816609757802 0.024776475155340715 0 0.0056558049055663879 0.02441016261115532 0 0.0049617410451730012 0.024417165276574747 0 0.0056558049055663879 0.02441016261115532 0 0.0050620164180908986 0.024202995472055785 0 0.0049617410451730012 0.024417165276574747 0 0.0050620164180908986 0.024202995472055785 0 0.0049617410451730012 0.024417165276574747 0 0.0047324585720088345 0.024079458290145909 0 0.0056558049055663879 0.02441016261115532 0 0.0050703341922801789 0.023852535950406088 0 0.005488291153006121 0.023077848542169873 0 0.0050620164180908986 0.024202995472055785 0 0.0050703341922801789 0.023852535950406088 0 0.0047324585720088345 0.024079458290145909 0 0.0050703341922801789 0.023852535950406088 0 0.0046660034535425127 0.023472173501641276 0 0.005488291153006121 0.023077848542169873 0 0.0050703341922801789 0.023852535950406088 0 0.0046660034535425127 0.023472173501641276 0 0.0047324585720088345 0.024079458290145909 0 0.0056558049055663879 0.02441016261115532 0 0.0050620164180908986 0.024202995472055785 0 0.0050703341922801789 0.023852535950406088 0 0.0046660034535425127 0.023472173501641276 0 0.0041230635937402641 0.023821009547212911 0 0.0042022817897076348 0.023193712338340153 0 0.0046660034535425127 0.023472173501641276 0 0.0047324585720088345 0.024079458290145909 0 0.0041230635937402641 0.023821009547212911 0 0.0046015594659647779 0.024238081905204049 0 0.0049617410451730012 0.024417165276574747 0 0.0047324585720088345 0.024079458290145909 0 0.0046015594659647779 0.024238081905204049 0 0.0047324585720088345 0.024079458290145909 0 0.0041230635937402641 0.023821009547212911 0 0.0031024502469310707 0.021833587874188005 0 0.0023158013584791584 0.020500616739337587 0 0.001690846864765777 0.019347976334060078 0 0.00019773212406905689 0.017062845188728169 0 -0.00066786934980661962 0.018713486601773667 0 0.0041230635937402641 0.023821009547212911 0 0.0042022817897076348 0.023193712338340153 0 0.0035930248324708754 0.022700205021100255 0 0.0023158013584791584 0.020500616739337587 0 0.0005484348869047907 0.018482029759159573 0 0.00019773212406905689 0.017062845188728169 0 -0.00079682336671713029 0.014693823174180913 0 -0.00096192286669924941 0.014960165052689977 0 0.00019773212406905689 0.017062845188728169 0 -0.0016404216572519109 0.01532104475925818 0 -0.00096192286669924941 0.014960165052689977 0 0.0042022817897076348 0.023193712338340153 0 0.0040349120389893672 0.022763300746101077 0 0.0035930248324708754 0.022700205021100255 0 0.0005484348869047907 0.018482029759159573 0 0.00069903026285647216 0.0175413748522175 0 0.0040349120389893672 0.022763300746101077 0 0.0035930248324708754 0.022700205021100255 0 0.0038438841016603057 0.022293163266007075 0 0.0005484348869047907 0.018482029759159573 0 0.0022617367517764864 0.022149515494817362 0 1.161656818025335e-05 0.020120536274011367 0 -0.00014569111772122975 0.019558038872052659 0 -0.00037075453874689122 0.019907385425869738 0 0.0035836002882079225 0.022927018836648692 0 0.0022617367517764864 0.022149515494817362 0 0.0040349120389893672 0.022763300746101077 0 0.0038379544129252324 0.022342736290430789 0 0.0043206683032533475 0.022379380436418593 0 0.0040349120389893672 0.022763300746101077 0 0.0043206683032533475 0.022379380436418593 0 0.0045693717489867008 0.022911990301434728 0 0.0043206683032533475 0.022379380436418593 0 0.0048192768476244732 0.022368747763262212 0 0.0045693717489867008 0.022911990301434728 0 0.0042022817897076348 0.023193712338340153 0 0.0040349120389893672 0.022763300746101077 0 0.0045693717489867008 0.022911990301434728 0 0.0046660034535425127 0.023472173501641276 0 0.0042022817897076348 0.023193712338340153 0 0.0045693717489867008 0.022911990301434728 0 0.0048192768476244732 0.022368747763262212 0 0.0045693717489867008 0.022911990301434728 0 0.005488291153006121 0.023077848542169873 0 0.0046660034535425127 0.023472173501641276 0 0.0045693717489867008 0.022911990301434728 0 0.005488291153006121 0.023077848542169873 0 0.0055010871758675106 0.022077197372163508 0 0.0056455713405735618 0.023307357023581381 0 0.0053966634240045618 0.021971037083617483 0 0.0048192768476244732 0.022368747763262212 0 0.005488291153006121 0.023077848542169873 0 0.0056223339054876937 0.02225153628962185 0 0.0065311667359079055 0.022544672105383669 0 0.0058277964105221541 0.02348973343154917 0 0.0069369452198643202 0.023440596087619437 0 0.0065311667359079055 0.022544672105383669 0 0.0058277964105221541 0.02348973343154917 0 0.0069369452198643202 0.023440596087619437 0 0.0063103864284066325 0.02386847132595803 0 0.0058277964105221541 0.02348973343154917 0 -0.0033722021864328873 0.017669918446887038 0 -0.0031316362420090857 0.018236059148899721 0 -0.0030655648003954125 0.017551453981248608 0 -0.0041611372220870073 0.017885922192106794 0 -0.0040721295031438797 0.018017205096358183 0 -0.0043225351117307199 0.017843529480799362 0 -0.0039970864225007041 0.018826144960220968 0 -0.0041611372220870073 0.017885922192106794 0 -0.0043225351117307199 0.017843529480799362 0 -0.0039970864225007041 0.018826144960220968 0 -0.0033722021864328873 0.017669918446887038 0 -0.0031316362420090857 0.018236059148899721 0 -0.00400165871162215 0.018783439018863826 0 -0.0037661064853152628 0.017862472530077868 0 -0.0022554355472210004 0.018779939272492972 0 -0.0031316362420090857 0.018236059148899721 0 -0.0023214331181741106 0.017550787333421875 0 -0.0022554355472210004 0.018779939272492972 0 -0.00066786934980661962 0.018713486601773667 0 -0.0023214331181741106 0.017550787333421875 0 0.00019773212406905689 0.017062845188728169 0 -0.00066786934980661962 0.018713486601773667 0 -0.0023214331181741106 0.017550787333421875 0 -0.0023214331181741106 0.017550787333421875 0 -0.0030655648003954125 0.017551453981248608 0 -0.003659305717684871 0.017721430201406069 0 -0.0024704904961825088 0.017665091614992738 0 -0.0026255475610586039 0.016272144286513617 0 0.00019773212406905689 0.017062845188728169 0 -0.0023214331181741106 0.017550787333421875 0 -0.0016404216572519109 0.01532104475925818 0 -0.0031316362420090857 0.018236059148899721 0 -0.0023214331181741106 0.017550787333421875 0 -0.0030655648003954125 0.017551453981248608 0 -0.0030655648003954125 0.017551453981248608 0 -0.0034037211417292088 0.017851973672604739 0 -0.0031173853889612958 0.017976176444727168 0 -0.0030655648003954125 0.017551453981248608 0 -0.0034037211417292088 0.017851973672604739 0 -0.003659305717684871 0.017721430201406069 0 -0.0034037211417292088 0.017851973672604739 0 -0.003659305717684871 0.017721430201406069 0 -0.0037674394962013851 0.018220743558093666 0 -0.004413971636710627 0.018619282092673259 0 -0.003659305717684871 0.017721430201406069 0 -0.0037674394962013851 0.018220743558093666 0 -0.0021635902823802233 0.017912840536021636 0 -0.0026255475610586039 0.016272144286513617 0 -0.0011333280513661009 0.013647313452946466 0 -0.00081169995168521136 0.014736566364484954 0 -0.00096192286669924941 0.014960165052689977 0 -0.0011333280513661009 0.013647313452946466 0 -0.0016404216572519109 0.01532104475925818 0 -0.00096192286669924941 0.014960165052689977 0 -0.0040203606982124346 0.018737271081986206 0 -0.004413971636710627 0.018619282092673259 0 -0.0037674394962013851 0.018220743558093666 0 -0.0021635902823802233 0.017912840536021636 0 0.0005484348869047907 0.018482029759159573 0 -0.0040203606982124346 0.018737271081986206 0 -0.0037674394962013851 0.018220743558093666 0 -0.0031173853889612958 0.017976176444727168 0 -0.0034037211417292088 0.017851973672604739 0 -0.0037674394962013851 0.018220743558093666 0 -0.0031173853889612958 0.017976176444727168 0 -0.0033722021864328873 0.017669918446887038 0 -0.0030655648003954125 0.017551453981248608 0 -0.0031173853889612958 0.017976176444727168 0 -0.0041611372220870073 0.017885922192106794 0 -0.004408456731494397 0.018642413908190988 0 -0.0039748357843047699 0.018533039533859534 0 -0.0037661064853152628 0.017862472530077868 0 -0.003793740237069299 0.018296447447105676 0 -0.0041611372220870073 0.017885922192106794 0 -0.0040721295031438797 0.018017205096358183 0 -0.0039748357843047699 0.018533039533859534 0 -0.0040355939239976549 0.019053806964911057 0 -0.0036433022449828515 0.019203914460396251 0 -0.0039748357843047699 0.018533039533859534 0 -0.0040355939239976549 0.019053806964911057 0 -0.004408456731494397 0.018642413908190988 0 -0.0039748357843047699 0.018533039533859534 0 -0.0036433022449828515 0.019203914460396251 0 -0.0039748357843047699 0.018533039533859534 0 -0.0035763541673380977 0.018971943080597915 0 -0.0039856138470544516 0.018547045001821257 0 -0.0035949547021739345 0.018716367668896519 0 -0.0039748357843047699 0.018533039533859534 0 -0.0036011946391192842 0.018480036630641305 0 -0.0036337894445747027 0.018208595906243429 0 -0.0036011946391192842 0.018480036630641305 0 -0.0036337894445747027 0.018208595906243429 0 -0.0031561191381944643 0.018148119427519611 0 -0.0036337894445747027 0.018208595906243429 0 -0.0033837904761044287 0.017821174804306297 0 -0.0031561191381944643 0.018148119427519611 0 -0.0036337894445747027 0.018208595906243429 0 -0.0038076453223554168 0.017986554760334731 0 -0.0033837904761044287 0.017821174804306297 0 -0.0040721295031438797 0.018017205096358183 0 -0.0039748357843047699 0.018533039533859534 0 -0.0038076453223554168 0.017986554760334731 0 -0.0039748357843047699 0.018533039533859534 0 -0.0036337894445747027 0.018208595906243429 0 -0.0038076453223554168 0.017986554760334731 0 -0.0040721295031438797 0.018017205096358183 0 -0.0043225351117307199 0.017843529480799362 0 -0.0038076453223554168 0.017986554760334731 0 -0.0043225351117307199 0.017843529480799362 0 -0.0038076453223554168 0.017986554760334731 0 -0.003557037670611816 0.017410742830201276 0 -0.0038076453223554168 0.017986554760334731 0 -0.0033837904761044287 0.017821174804306297 0 -0.003557037670611816 0.017410742830201276 0 -0.0033837904761044287 0.017821174804306297 0 -0.003557037670611816 0.017410742830201276 0 -0.0030544698952658859 0.017369828070321811 0 -0.003557037670611816 0.017410742830201276 0 -0.0039118439092959778 0.016940759808716774 0 -0.0034762687075598443 0.016661882717365788 0 -0.003557037670611816 0.017410742830201276 0 -0.0030258225451863267 0.01686957474097122 0 -0.0034762687075598443 0.016661882717365788 0 -0.0043225351117307199 0.017843529480799362 0 -0.003557037670611816 0.017410742830201276 0 -0.0039118439092959778 0.016940759808716774 0 -0.0026285456058580017 0.017072951918012981 0 -0.0022945267694401534 0.017363017514288627 0 -0.0022019159692389335 0.016774449331901305 0 -0.0026285456058580017 0.017072951918012981 0 -0.0022019159692389335 0.016774449331901305 0 -0.0024662919260231698 0.016391574677633743 0 -0.0026285456058580017 0.017072951918012981 0 -0.0030258225451863267 0.01686957474097122 0 -0.0024662919260231698 0.016391574677633743 0 -0.003557037670611816 0.017410742830201276 0 -0.0030258225451863267 0.01686957474097122 0 -0.0030544698952658859 0.017369828070321811 0 -0.0026285456058580017 0.017072951918012981 0 -0.0030258225451863267 0.01686957474097122 0 -0.0030544698952658859 0.017369828070321811 0 -0.0033837904761044287 0.017821174804306297 0 -0.0030544698952658859 0.017369828070321811 0 -0.0027633846003092362 0.017654653378306389 0 -0.0026285456058580017 0.017072951918012981 0 -0.0027633846003092362 0.017654653378306389 0 -0.0022945267694401534 0.017363017514288627 0 -0.0026285456058580017 0.017072951918012981 0 -0.0030544698952658859 0.017369828070321811 0 -0.0027633846003092362 0.017654653378306389 0 -0.0027633846003092362 0.017654653378306389 0 -0.0023929766081061993 0.017961281350660354 0 -0.0022945267694401534 0.017363017514288627 0 -0.0027633846003092362 0.017654653378306389 0 -0.0023929766081061993 0.017961281350660354 0 -0.0031561191381944643 0.018148119427519611 0 -0.0033837904761044287 0.017821174804306297 0 -0.0027633846003092362 0.017654653378306389 0 -0.0031561191381944643 0.018148119427519611 0 -0.0029511994829156743 0.018734239055231573 0 -0.0036011946391192842 0.018480036630641305 0 -0.0031561191381944643 0.018148119427519611 0 -0.0028057072646946774 0.018970743705504532 0 -0.0035949547021739345 0.018716367668896519 0 -0.001864502856058183 0.019287379769531127 0 -0.0029511994829156743 0.018734239055231573 0 -0.0023929766081061993 0.017961281350660354 0 -0.0029511994829156743 0.018734239055231573 0 -0.0023929766081061993 0.017961281350660354 0 -0.0031561191381944643 0.018148119427519611 0 -0.001864502856058183 0.019287379769531127 0 -0.0023929766081061993 0.017961281350660354 0 -0.0016474531957496789 0.017928756778650832 0 -0.0016474531957496789 0.017928756778650832 0 -0.0015653040223472688 0.017672699738300504 0 -0.0015416732503586179 0.017585016460706315 0 -0.0016739425844825844 0.018968366825836473 0 -0.0014621341502792128 0.017810399123267231 0 -0.0016474531957496789 0.017928756778650832 0 -0.0015853517854538489 0.017512251545039111 0 -0.0015416732503586179 0.017585016460706315 0 -0.0015505259267310216 0.017629239876539058 0 -0.0016474531957496789 0.017928756778650832 0 -0.0015653040223472688 0.017672699738300504 0 -0.0018175951580289441 0.017423272473541928 0 -0.0015853517854538489 0.017512251545039111 0 -0.0015433306539257984 0.017160102295286431 0 -0.0016474531957496789 0.017928756778650832 0 -0.0018175951580289441 0.017423272473541928 0 -0.0015853517854538489 0.017512251545039111 0 -0.0023929766081061993 0.017961281350660354 0 -0.0018175951580289441 0.017423272473541928 0 -0.0022945267694401534 0.017363017514288627 0 -0.0023929766081061993 0.017961281350660354 0 -0.0016474531957496789 0.017928756778650832 0 -0.0018175951580289441 0.017423272473541928 0 -0.0013411387664685843 0.017424585121527631 0 -0.0014359622343450759 0.017443914919516933 0 -0.0013060291371503952 0.017184103871142879 0 -0.0013411387664685843 0.017424585121527631 0 -0.0014359622343450759 0.017443914919516933 0 -0.0014865829201422701 0.017579526935547245 0 -0.0014175650078065483 0.017599809259972031 0 -0.0013411387664685843 0.017424585121527631 0 -0.0014865829201422701 0.017579526935547245 0 -0.0014359622343450759 0.017443914919516933 0 -0.0015416732503586179 0.017585016460706315 0 -0.0014649700257774278 0.017331884939535525 0 -0.0014865829201422701 0.017579526935547245 0 -0.0015653040223472688 0.017672699738300504 0 -0.0015416732503586179 0.017585016460706315 0 -0.0014359622343450759 0.017443914919516933 0 -0.0014865829201422701 0.017579526935547245 0 -0.0015416732503586179 0.017585016460706315 0 -0.0015853517854538489 0.017512251545039111 0 -0.0015416732503586179 0.017585016460706315 0 -0.0014649700257774278 0.017331884939535525 0 -0.0015853517854538489 0.017512251545039111 0 -0.0014649700257774278 0.017331884939535525 0 -0.0015433306539257984 0.017160102295286431 0 -0.0014649700257774278 0.017331884939535525 0 -0.0013718718711045611 0.017031271802708709 0 -0.0015433306539257984 0.017160102295286431 0 -0.0011697185172817065 0.016758914046926046 0 -0.0013060291371503952 0.017184103871142879 0 -0.0013718718711045611 0.017031271802708709 0 -0.0014359622343450759 0.017443914919516933 0 -0.0014649700257774278 0.017331884939535525 0 -0.0013060291371503952 0.017184103871142879 0 -0.0014649700257774278 0.017331884939535525 0 -0.0013060291371503952 0.017184103871142879 0 -0.0013718718711045611 0.017031271802708709 0 -0.0011697185172817065 0.016758914046926046 0 -0.0013718718711045611 0.017031271802708709 0 -0.0013770186194474799 0.016722987208238109 0 -0.0015433306539257984 0.017160102295286431 0 -0.0013770186194474799 0.016722987208238109 0 -0.0017532661377184589 0.016854292466562882 0 -0.0013718718711045611 0.017031271802708709 0 -0.0015433306539257984 0.017160102295286431 0 -0.0013770186194474799 0.016722987208238109 0 -0.0013770186194474799 0.016722987208238109 0 -0.0017532661377184589 0.016854292466562882 0 -0.0015103097024234593 0.016292500826448453 0 -0.0011697185172817065 0.016758914046926046 0 -0.0011615062487995746 0.016303647729756555 0 -0.0013770186194474799 0.016722987208238109 0 -0.0011615062487995746 0.016303647729756555 0 -0.0013770186194474799 0.016722987208238109 0 -0.0015103097024234593 0.016292500826448453 0 -0.0022945267694401534 0.017363017514288627 0 -0.0017532661377184589 0.016854292466562882 0 -0.0022019159692389335 0.016774449331901305 0 -0.0018175951580289441 0.017423272473541928 0 -0.0022945267694401534 0.017363017514288627 0 -0.0017532661377184589 0.016854292466562882 0 -0.0018175951580289441 0.017423272473541928 0 -0.0015433306539257984 0.017160102295286431 0 -0.0017532661377184589 0.016854292466562882 0 -0.0017532661377184589 0.016854292466562882 0 -0.0019011442853598471 0.016318065342929504 0 -0.0015103097024234593 0.016292500826448453 0 -0.0017532661377184589 0.016854292466562882 0 -0.0022019159692389335 0.016774449331901305 0 -0.0019011442853598471 0.016318065342929504 0 -0.0019011442853598471 0.016318065342929504 0 -0.0020657345552657965 0.015795356802770399 0 -0.0024662919260231698 0.016391574677633743 0 -0.0022019159692389335 0.016774449331901305 0 -0.0019011442853598471 0.016318065342929504 0 -0.0024662919260231698 0.016391574677633743 0 -0.0019011442853598471 0.016318065342929504 0 -0.0016447493536993478 0.015796304934755919 0 -0.0015103097024234593 0.016292500826448453 0 -0.0019011442853598471 0.016318065342929504 0 -0.0016447493536993478 0.015796304934755919 0 -0.0020657345552657965 0.015795356802770399 0 -0.0011615062487995746 0.016303647729756555 0 -0.0010888056665251137 0.015761577710590644 0 -0.0013485586189631441 0.015796543132227201 0 -0.0011615062487995746 0.016303647729756555 0 -0.0015103097024234593 0.016292500826448453 0 -0.0013485586189631441 0.015796543132227201 0 -0.0016447493536993478 0.015796304934755919 0 -0.0013485586189631441 0.015796543132227201 0 -0.0014529393212978025 0.015391931268679314 0 -0.0016447493536993478 0.015796304934755919 0 -0.0015103097024234593 0.016292500826448453 0 -0.0013485586189631441 0.015796543132227201 0 -0.0010888056665251137 0.015761577710590644 0 -0.0013485586189631441 0.015796543132227201 0 -0.0012837554889225278 0.0152288903314357 0 -0.0013485586189631441 0.015796543132227201 0 -0.0012837554889225278 0.0152288903314357 0 -0.0014529393212978025 0.015391931268679314 0 -0.0012837554889225278 0.0152288903314357 0 -0.0014529393212978025 0.015391931268679314 0 -0.001376989292272872 0.01496269714038149 0 -0.0016447493536993478 0.015796304934755919 0 -0.0014529393212978025 0.015391931268679314 0 -0.0017001889353831508 0.015257968763605096 0 -0.0014529393212978025 0.015391931268679314 0 -0.001376989292272872 0.01496269714038149 0 -0.0017001889353831508 0.015257968763605096 0 -0.0012761455642086483 0.014503325845796028 0 -0.0012837554889225278 0.0152288903314357 0 -0.0018423621125055539 0.014378059633921771 0 -0.0012760519459157325 0.015176334863632525 0 -0.0015937840133703602 0.014677077721312657 0 -0.0020657345552657965 0.015795356802770399 0 -0.0021987782397382967 0.015205095588342789 0 -0.0017001889353831508 0.015257968763605096 0 -0.0016447493536993478 0.015796304934755919 0 -0.0020657345552657965 0.015795356802770399 0 -0.0017001889353831508 0.015257968763605096 0 -0.0016565082030184637 0.014327862082862214 0 -0.001376989292272872 0.01496269714038149 0 -0.0017001889353831508 0.015257968763605096 0 -0.0016565082030184637 0.014327862082862214 0 -0.0021987782397382967 0.015205095588342789 0 -0.0017001889353831508 0.015257968763605096 0 -0.0016565082030184637 0.014327862082862214 0 -0.002419777277037855 0.014426256066138354 0 -0.0021987782397382967 0.015205095588342789 0 -0.002419777277037855 0.014426256066138354 0 -0.0021987782397382967 0.015205095588342789 0 -0.0028339998335014742 0.015137278197365718 0 -0.0020657345552657965 0.015795356802770399 0 -0.0021987782397382967 0.015205095588342789 0 -0.002654744165919337 0.015759204459300825 0 -0.0021987782397382967 0.015205095588342789 0 -0.0028339998335014742 0.015137278197365718 0 -0.002654744165919337 0.015759204459300825 0 -0.0028339998335014742 0.015137278197365718 0 -0.0033558835673372874 0.015669149937013484 0 -0.002654744165919337 0.015759204459300825 0 -0.0029456942938462 0.014590021613411211 0 -0.002419777277037855 0.014426256066138354 0 -0.0028339998335014742 0.015137278197365718 0 -0.0029456942938462 0.014590021613411211 0 -0.0028339998335014742 0.015137278197365718 0 -0.0034416009527358437 0.015093181146984694 0 -0.0035306641977601695 0.01453792533711655 0 -0.0034416009527358437 0.015093181146984694 0 -0.003851709115495826 0.015042651253871015 0 -0.0035306641977601695 0.01453792533711655 0 -0.0029456942938462 0.014590021613411211 0 -0.0034416009527358437 0.015093181146984694 0 -0.0040358339109753099 0.015083717834733196 0 -0.0041232018290300329 0.015279221322606798 0 -0.003851709115495826 0.015042651253871015 0 -0.0034416009527358437 0.015093181146984694 0 -0.003851709115495826 0.015042651253871015 0 -0.0038794010397073964 0.015392925871550559 0 -0.0041232018290300329 0.015279221322606798 0 -0.003851709115495826 0.015042651253871015 0 -0.0038794010397073964 0.015392925871550559 0 -0.0038794010397073964 0.015392925871550559 0 -0.0033558835673372874 0.015669149937013484 0 -0.0039363483562894121 0.015851495100112668 0 -0.00433166368762303 0.015475367684409325 0 -0.0038794010397073964 0.015392925871550559 0 -0.0039363483562894121 0.015851495100112668 0 -0.0028339998335014742 0.015137278197365718 0 -0.0034416009527358437 0.015093181146984694 0 -0.0033558835673372874 0.015669149937013484 0 -0.0034416009527358437 0.015093181146984694 0 -0.0038794010397073964 0.015392925871550559 0 -0.0033558835673372874 0.015669149937013484 0 -0.0033558835673372874 0.015669149937013484 0 -0.0035379100877217162 0.016147148800073327 0 -0.0030577861936947792 0.016224924850785336 0 -0.0033558835673372874 0.015669149937013484 0 -0.0035379100877217162 0.016147148800073327 0 -0.0039363483562894121 0.015851495100112668 0 -0.0035379100877217162 0.016147148800073327 0 -0.0039363483562894121 0.015851495100112668 0 -0.0038913210059842618 0.016359323109109526 0 -0.004477368842178143 0.01638475434689941 0 -0.0039363483562894121 0.015851495100112668 0 -0.0038913210059842618 0.016359323109109526 0 -0.004477368842178143 0.01638475434689941 0 -0.0043225351117307199 0.017843529480799362 0 -0.0039118439092959778 0.016940759808716774 0 -0.004477368842178143 0.01638475434689941 0 -0.0038913210059842618 0.016359323109109526 0 -0.0039118439092959778 0.016940759808716774 0 -0.0038913210059842618 0.016359323109109526 0 -0.0039118439092959778 0.016940759808716774 0 -0.0034762687075598443 0.016661882717365788 0 -0.0035379100877217162 0.016147148800073327 0 -0.0034762687075598443 0.016661882717365788 0 -0.0030577861936947792 0.016224924850785336 0 -0.0035379100877217162 0.016147148800073327 0 -0.0038913210059842618 0.016359323109109526 0 -0.0034762687075598443 0.016661882717365788 0 -0.0030258225451863267 0.01686957474097122 0 -0.0024662919260231698 0.016391574677633743 0 -0.0030577861936947792 0.016224924850785336 0 -0.0030258225451863267 0.01686957474097122 0 -0.0034762687075598443 0.016661882717365788 0 -0.0030577861936947792 0.016224924850785336 0 -0.0020657345552657965 0.015795356802770399 0 -0.0024662919260231698 0.016391574677633743 0 -0.002654744165919337 0.015759204459300825 0 -0.0024662919260231698 0.016391574677633743 0 -0.002654744165919337 0.015759204459300825 0 -0.0030577861936947792 0.016224924850785336 0 -0.0033558835673372874 0.015669149937013484 0 -0.002654744165919337 0.015759204459300825 0 -0.0030577861936947792 0.016224924850785336 0 
</DataArray>
</PointData>
<CellData Scalars="region_id,cross_section_updated," Vectors="" Tensors="stress,">
<DataArray type="Float64" Name="region_id" format="ascii">
5 5 6 5 5 5 5 5 5 5 6 6 5 5 5 5 5 5 5 6 5 5 5 5 5 5 5 5 5 5 5 5 5 5 5 5 6 5 5 6 5 5 5 6 5 5 5 5 5 5 5 5 5 6 5 5 5 5 5 5 5 5 6 5 5 5 6 5 5 5 5 6 5 5 5 5 6 5 5 5 5 5 5 6 5 5 5 5 5 5 5 5 5 5 6 5 5 6 5 5 5 5 5 5 5 5 5 5 6 5 6 5 5 5 5 5 5 6 5 5 5 5 5 5 5 5 5 5 5 5 5 5 6 5 5 5 5 5 5 5 5 5 5 5 5 5 5 6 5 5 5 5 6 5 6 5 5 5 5 5 5 6 5 6 6 5 5 5 5 6 5 5 5 6 6 5 6 5 5 5 6 5 5 5 5 5 5 6 5 5 5 5 6 6 5 5 5 5 5 6 5 5 5 5 5 6 6 5 5 5 5 5 5 6 5 5 5 5 5 5 5 5 6 5 5 5 5 5 5 5 5 5 5 5 5 5 5 5 5 5 5 5 5 5 5 5 5 5 5 5 5 5 5 5 6 5 5 5 6 5 5 5 5 5 5 5 6 6 6 6 5 5 5 5 5 5 5 5 5 5 5 5 5 5 5 5 5 5 5 5 5 5 6 5 5 5 5 5 5 5 5 5 5 5 5 5 5 5 5 5 5 5 5 5 5 5 5 5 5 5 6 5 5 5 5 5 5 5 5 5 5 5 5 5 5 5 5 5 5 5 5 5 5 5 5 5 5 5 5 5 6 5 6 5 6 5 5 5 5 5 5 5 6 5 5 5 6 5 5 5 5 5 5 6 5 5 5 5 5 5 6 5 5 5 5 5 5 5 5 5 5 5 5 5 5 5 5 6 6 6 5 6 5 5 5 6 6 5 5 5 5 5 5 5 5 5 5 5 5 5 5 5 5 5 5 5 5 5 5 5 5 5 5 5 5 5 5 5 5 5 5 6 5 5 5 5 6 5 5 5 5 6 5 5 5 5 5 6 5 5 5 5 5 5 5 5 6 5 5 5 5 6 5 5 5 5 5 6 5 5 5 5 5 6 6 5 5 5 5 5 5 5 6 5 5 6 5 5 5 5 5 6 6 5 5 5 5 5 5 6 5 5 5 6 5 5 5 5 5 5 5 6 6 5 5 5 5 5 5 5 5 6 5 5 5 6 5 5 5 6 5 5 5 5 5 5 5 5 5 5 5 5 5 5 5 5 5 5 6 5 6 5 5 5 5 5 5 6 5 6 5 5 6 5 5 5 5 6 5 6 5 5 5 5 6 5 5 5 5 5 5 5 5 6 5 5 6 5 5 5 5 5 5 5 5 5 6 5 6 5 5 6 5 5 5 5 6 5 5 6 5 5 6 5 5 6 5 6 5 6 5 5 6 6 5 5 5 5 5 5 5 5 5 5 5 5 5 5 5 5 6 5 5 5 5 5 5 5 5 5 5 5 5 5 5 5 5 6 5 5 5 6 6 6 5 5 5 5 5 6 5 5 5 5 6 6 5 5 5 5 6 5 5 5 6 5 6 6 5 5 6 5 5 6 5 5 5 5 5 6 5 5 5 5 5 5 5 5 5 5 6 6 5 5 5 5 5 5 5 5 6 5 5 5 5 6 5 5 5 5 5 5 5 5 5 5 5 5 5 5 5 5 6 5 5 5 5 5 5 5 5 5 5 5 5 5 5 5 5 5 5 5 5 5 6 5 5 5 5 5 5 5 6 6 5 5 5 5 5 5 5 5 5 5 6 5 5 5 5 6 5 5 5 5 5 5 5 5 5 5 6 5 5 5 5 5 5 5 5 5 6 6 5 5 5 5 5 5 5 5 5 5 5 5 6 5 5 6 5 6 5 5 6 5 5 5 5 5 5 5 5 5 5 6 5 6 5 6 5 5 5 5 5 5 6 5 5 5 6 5 5 6 5 5 5 6 6 5 5 5 5 5 5 5 5 5 5 5 5 5 5 5 5 5 5 5 5 5 5 5 5 6 5 5 5 6 5 5 5 5 5 6 5 5 5 6 5 5 5 5 5 5 5 6 5 5 5 5 5 5 6 5 5 6 5 5 5 5 5 5 6 5 5 6 5 5 5 5 5 5 5 5 5 6 5 5 5 5 5 5 5 5 5 5 5 5 5 5 5 5 5 5 5 5 5 6 5 5 6 6 5 5 5 5 5 5 5 5 5 5 5 5 5 5 5 5 5 5 5 5 6 5 5 6 5 5 5 6 5 5 5 5 5 5 5 6 5 5 5 6 5 5 5 6 6 6 5 5 5 5 5 6 5 5 6 5 5 6 5 5 5 5 6 5 5 5 5 5 6 5 5 6 5 5 5 5 5 6 5 5 5 5 5 5 6 5 5 6 5 6 5 5 5 6 5 5 5 5 5 5 5 5 5 6 5 5 5 5 6 5 5 6 5 6 5 5 5 5 5 5 5 6 5 5 5 5 5 5 5 6 5 5 6 5 5 5 5 5 5 6 5 5 5 5 6 6 6 5 6 5 5 5 5 5 5 5 5 5 6 5 5 5 5 5 5 6 5 5 5 5 5 6 5 5 5 5 5 6 5 5 5 5 6 5 5 5 6 5 5 5 5 5 5 5 5 6 5 5 6 6 5 5 5 5 6 5 5 5 5 5 5 5 5 6 5 5 6 5 5 5 5 5 6 5 5 6 5 5 5 5 5 5 5 5 5 5 5 5 6 5 6 5 5 5 5 5 6 5 5 5 6 5 5 6 5 5 5 5 5 5 5 5 5 5 6 5 6 5 5 5 5 5 5 5 5 5 5 5 5 5 5 5 5 5 6 5 5 5 6 5 5 5 6 5 5 5 5 5 5 5 5 5 5 5 5 5 5 5 5 5 5 5 5 6 5 6 5 5 5 5 5 5 5 5 5 5 5 5 5 6 5 5 5 5 5 5 5 5 5 5 5 5 5 5 5 5 5 5 5 5 5 5 5 5 5 5 5 5 5 5 5 5 5 5 5 5 5 5 5 5 5 5 5 5 5 5 5 5 5 6 6 5 5 5 5 5 5 5 5 5 5 5 5 5 6 5 5 6 5 5 6 5 5 5 6 5 5 6 5 5 5 5 5 5 5 5 5 5 5 5 5 5 5 5 5 5 5 6 5 5 5 5 5 6 5 5 5 5 5 5 5 5 5 5 5 5 5 5 5 5 5 5 5 6 6 5 5 5 5 5 5 5 5 5 5 5 5 6 5 6 5 5 5 5 5 5 5 5 5 5 5 5 5 5 5 6 5 5 5 5 5 6 6 5 5 5 5 5 5 5 5 5 5 5 5 5 5 5 5 5 5 5 5 5 5 5 5 5 5 5 5 5 5 6 5 5 5 5 5 6 5 5 5 5 5 5 5 6 5 5 5 5 6 5 5 5 5 5 5 5 5 6 5 5 5 6 6 5 5 5 5 6 5 5 5 6 6 5 5 5 5 5 5 5 5 5 5 5 5 5 5 5 5 5 5 5 5 5 5 5 6 5 6 5 5 5 5 5 5 5 5 6 5 6 5 5 5 6 5 5 6 5 5 6 5 6 5 5 5 5 5 5 5 5 5 5 5 5 5 6 5 5 5 5 6 5 5 6 5 6 5 5 6 5 5 5 5 5 5 5 5 5 5 5 5 5 5 6 5 5 5 5 5 5 5 6 5 5 5 5 5 6 5 5 5 5 5 5 5 5 5 5 5 5 5 5 5 5 5 5 5 5 5 6 5 5 5 5 5 6 5 5 6 5 5 5 5 5 5 6 5 6 5 5 5 5 6 5 5 5 5 6 5 6 6 5 6 5 6 6 5 5 6 6 5 5 5 5 5 5 5 5 5 5 5 5 6 5 5 6 5 5 5 5 5 5 5 5 5 5 5 5 6 6 6 5 5 5 6 6 5 6 5 5 6 5 5 6 5 5 5 5 5 5 5 5 5 5 5 5 5 5 5 5 5 5 5 5 5 5 5 5 5 5 5 5 5 5 5 5 6 5 5 5 5 5 5 5 5 6 5 5 6 5 5 5 5 5 5 5 6 5 5 5 5 5 5 5 5 5 5 6 5 5 5 5 6 6 5 5 5 5 5 5 6 5 5 5 5 5 5 5 5 5 5 5 5 5 5 5 5 5 5 5 5 6 5 5 5 5 6 5 5 6 5 5 5 5 5 5 5 5 5 5 5 5 5 5 5 5 5 5 5 6 5 5 6 5 5 5 5 6 6 5 5 6 5 5 5 6 5 5 5 5 5 5 5 6 5 5 5 5 5 6 5 5 5 5 5 5 5 5 5 5 5 5 5 5 5 5 5 5 5 6 5 5 5 5 5 5 5 5 5 5 5 5 5 6 5 5 5 5 6 5 5 5 5 5 5 5 5 5 5 5 5 5 5 5 5 5 5 5 5 5 5 5 5 5 5 5 5 5 6 5 5 5 6 5 5 5 5 5 6 5 5 5 5 5 5 5 5 5 5 5 5 5 5 5 5 5 5 5 5 5 5 5 5 5 5 5 5 5 5 5 5 5 5 5 5 5 5 5 5 5 5 5 5 5 5 5 5 5 5 5 5 5 5 6 5 5 5 5 6 5 5 5 5 5 6 6 5 5 5 5 5 5 6 5 5 5 5 5 5 5 5 6 5 5 6 5 5 5 5 5 5 5 6 5 5 5 6 5 5 5 6 6 5 5 5 5 6 5 5 6 5 5 5 5 5 5 5 5 5 5 6 5 5 5 5 6 5 5 5 5 5 6 5 5 5 5 5 5 5 5 5 5 5 6 5 5 5 6 5 6 5 5 5 5 5 5 6 5 5 5 5 5 6 5 5 6 5 5 5 5 5 5 5 5 5 5 5 5 5 5 5 5 5 5 5 5 5 5 5 5 5 5 5 5 5 5 5 5 5 5 5 5 6 5 5 6 5 6 5 5 5 5 5 5 5 5 5 5 5 5 6 6 5 5 5 5 5 5 5 5 5 5 5 5 5 5 5 5 5 5 5 5 5 5 5 5 5 5 5 5 5 5 5 5 5 5 5 5 5 5 5 5 5 5 5 5 5 5 5 5 5 5 6 5 5 5 5 5 5 6 5 5 5 5 5 6 5 5 5 5 6 5 5 6 5 6 5 5 5 5 5 5 5 5 6 5 6 5 5 5 5 5 5 5 5 5 5 5 5 5 6 5 6 6 5 5 5 5 5 6 5 5 5 5 5 5 6 5 5 5 6 5 5 5 5 5 5 5 5 5 5 5 5 5 5 5 5 5 5 5 5 5 5 6 5 5 5 5 5 5 6 5 5 5 5 6 6 5 5 5 5 5 5 5 5 5 5 5 5 5 5 5 5 5 5 5 5 5 6 6 5 5 5 5 5 5 5 5 5 5 5 5 5 5 5 5 5 5 5 5 5 5 5 5 5 5 5 5 5 5 5 5 5 5 5 5 5 5 5 6 5 5 6 5 5 5 6 5 5 5 5 5 6 5 6 5 5 5 5 5 6 5 6 5 6 5 6 5 5 5 5 6 5 5 5 6 5 5 5 6 5 5 5 5 5 5 5 6 5 6 5 5 5 6 5 5 5 6 5 5 5 5 5 5 5 5 5 5 5 5 6 5 5 5 5 5 6 6 5 5 5 5 6 5 6 5 5 5 6 5 5 6 5 5 5 6 5 5 5 5 5 5 5 5 5 6 5 6 5 6 5 5 5 5 5 5 5 5 6 6 5 5 5 5 5 5 5 6 5 5 5 5 5 5 5 5 6 5 6 5 5 5 6 5 5 6 5 5 6 6 5 5 6 5 5 5 5 5 5 5 5 5 5 5 6 5 5 5 5 5 5 5 5 5 5 5 5 5 5 5 6 5 5 6 5 5 6 5 5 5 5 5 6 5 5 5 6 5 6 5 5 5 6 5 5 5 6 5 5 5 5 5 5 5 5 5 5 5 5 5 5 5 5 5 5 6 5 6 5 5 5 5 5 5 5 5 5 5 5 5 5 5 5 5 5 5 5 5 5 5 5 5 5 5 6 5 5 5 5 5 5 5 5 5 5 5 5 5 5 5 5 5 6 5 6 5 6 5 6 6 5 5 5 6 5 5 6 6 5 5 5 5 5 5 5 6 5 5 6 5 6 5 5 5 6 5 5 6 5 5 5 5 5 5 6 5 5 6 5 6 5 5 6 5 6 5 5 5 6 6 5 5 6 6 5 6 5 5 5 5 5 5 5 5 5 5 5 5 6 5 5 5 5 5 5 5 5 5 5 5 5 5 5 5 5 5 5 5 5 5 5 5 5 5 5 5 6 5 5 5 5 5 5 5 6 5 5 5 5 5 6 5 5 5 5 5 6 5 5 5 6 6 6 5 5 5 6 5 5 5 5 6 5 5 5 5 6 5 5 6 5 5 5 5 5 5 5 5 5 6 6 5 5 5 5 5 5 5 5 5 6 5 5 5 5 5 5 5 5 6 6 5 5 5 5 5 5 5 5 5 5 5 5 5 6 5 5 5 5 5 5 5 5 5 5 6 5 5 6 5 5 5 5 6 5 5 5 5 5 5 5 5 5 5 5 5 5 5 5 5 5 5 5 5 5 5 5 5 5 5 5 5 5 5 5 5 5 5 5 5 5 5 5 5 5 5 5 5 5 6 5 5 5 5 5 5 5 5 5 5 5 5 5 5 5 5 5 5 5 5 5 5 5 5 5 5 5 5 5 5 5 5 5 5 5 5 5 5 6 5 6 5 5 5 5 6 5 6 5 5 5 5 5 5 5 5 5 5 5 5 5 5 5 5 5 5 5 5 5 5 5 5 5 5 5 6 5 5 6 5 5 5 5 5 5 5 5 5 5 5 6 5 6 5 5 6 5 6 5 5 6 6 5 5 5 5 6 5 5 6 5 5 5 5 5 5 5 5 5 5 5 6 6 5 6 5 6 5 5 6 6 5 5 5 5 5 5 5 5 5 5 5 6 5 5 5 5 5 5 5 5 5 5 5 5 5 5 5 5 5 5 5 5 6 5 5 5 6 5 5 5 5 6 5 5 6 6 5 5 6 5 6 5 5 5 5 6 5 6 5 5 6 5 5 5 6 5 5 6 5 5 5 5 5 6 5 5 5 5 5 5 5 5 5 5 5 5 5 5 5 5 6 5 6 5 6 5 6 5 6 5 6 5 6 5 6 5 5 5 5 5 5 5 5 5 5 5 6 5 5 5 5 5 5 5 5 5 5 5 5 5 5 6 5 5 5 5 5 5 5 5 5 5 5 5 5 5 5 5 5 5 5 5 5 5 5 5 5 5 5 5 5 5 5 5 5 5 5 5 5 6 5 5 5 5 5 5 5 5 5 6 5 5 5 5 5 5 6 5 5 5 5 5 5 5 5 5 5 5 5 5 5 5 5 5 5 5 5 6 5 5 5 5 5 5 6 6 5 5 5 5 5 5 5 5 5 6 5 5 5 5 5 5 5 5 5 5 5 5 5 5 5 5 5 5 5 5 5 5 6 5 5 6 5 5 5 5 6 5 5 5 5 5 5 5 5 5 5 5 5 5 5 5 5 5 6 5 5 5 5 5 5 5 5 5 5 5 5 5 5 5 5 6 5 6 5 5 5 6 5 6 5 5 5 5 5 6 5 5 5 5 6 5 5 6 6 5 5 5 5 5 5 5 5 5 5 5 5 5 5 5 5 5 5 6 5 5 5 5 5 5 5 5 5 5 5 5 5 5 5 5 5 5 6 5 6 5 5 5 5 5 5 5 6 5 5 5 5 5 5 5 6 5 5 5 5 6 5 5 5 5 5 5 5 5 5 5 5 5 6 5 5 5 5 6 5 5 6 5 5 5 5 5 5 5 5 5 5 5 5 5 6 5 5 5 5 5 5 5 6 5 5 5 5 6 6 5 6 5 5 5 6 5 5 5 6 5 5 5 5 5 5 5 5 5 5 5 5 5 5 6 6 6 5 5 6 6 5 5 5 5 5 6 5 5 5 5 5 5 5 5 5 5 5 5 5 6 6 5 6 5 5 6 5 5 5 5 5 6 5 5 5 5 5 6 5 5 5 5 5 5 6 6 5 5 6 5 5 6 5 6 5 5 5 5 5 6 6 5 5 6 6 5 5 5 5 5 5 5 5 6 5 5 5 5 5 5 6 5 6 6 5 5 5 6 5 5 6 5 6 5 5 5 5 5 5 5 5 6 5 5 5 5 5 6 5 5 6 5 5 6 5 5 6 5 6 5 6 5 5 5 5 5 6 5 6 5 5 5 5 5 5 5 5 6 5 6 5 5 5 6 5 5 5 5 5 5 5 5 6 5 5 5 5 6 5 5 5 5 5 5 5 5 5 5 6 5 5 5 6 6 5 5 6 5 5 5 5 5 5 5 5 5 5 5 5 5 5 6 5 5 5 5 5 5 5 6 5 5 5 5 5 5 5 5 5 5 5 5 5 5 5 5 5 5 5 5 6 5 5 6 6 6 5 5 6 5 5 6 5 5 5 5 5 5 5 5 5 5 5 5 5 5 5 5 5 5 5 5 5 5 5 5 5 5 5 5 5 5 5 5 5 5 5 5 5 5 5 5 6 5 6 5 5 5 5 5 5 5 5 5 5 5 5 5 5 5 5 5 5 5 5 5 5 6 5 6 5 6 5 5 5 5 5 5 5 5 5 6 5 6 5 5 6 5 5 5 5 5 5 5 6 5 5 5 5 5 5 5 5 5 5 5 5 6 5 5 5 5 5 5 5 5 5 5 5 5 5 5 5 5 5 5 6 5 5 5 5 5 5 6 6 5 6 5 5 5 5 5 5 6 5 5 6 5 5 5 6 5 5 5 5 5 5 6 5 5 5 6 5 5 5 5 5 5 5 6 5 5 5 5 6 5 5 5 5 5 5 5 6 5 5 5 5 6 5 5 6 5 5 6 5 5 6 5 6 5 5 5 5 5 5 5 5 5 5 6 6 5 5 6 5 5 5 5 5 5 6 5 5 5 5 5 5 5 6 5 5 6 5 5 5 5 5 5 5 5 6 5 5 5 5 6 5 6 5 6 5 5 6 5 5 5 5 5 5 6 5 5 5 5 5 5 6 5 5 5 5 6 5 5 5 5 5 5 5 5 5 5 5 5 5 5 5 5 5 5 5 5 5 5 5 5 5 5 5 5 5 5 5 5 5 5 5 5 6 5 5 5 6 5 5 5 5 5 5 5 5 5 5 5 5 5 5 5 5 5 5 5 5 5 5 5 5 5 5 5 5 5 5 5 5 5 5 6 5 5 5 5 6 5 5 5 5 5 5 5 5 5 5 5 5 5 5 5 5 5 6 5 5 5 5 5 5 5 5 5 5 5 5 5 5 5 5 5 6 5 5 5 5 5 5 5 5 5 5 5 5 5 5 5 5 5 5 5 5 5 5 5 5 5 5 5 5 5 5 5 5 5 5 5 5 5 5 5 5 5 5 5 5 5 5 5 5 5 5 5 5 5 5 5 5 5 5 5 5 5 5 5 6 5 5 5 5 5 5 5 5 5 5 5 5 5 5 5 5 5 5 5 5 5 6 5 5 5 5 5 5 5 5 5 5 6 6 5 5 5 5 5 5 5 5 5 5 5 5 5 5 5 5 5 5 5 5 5 5 5 5 5 5 5 5 5 5 5 5 5 5 5 5 5 5 5 5 5 5 5 5 5 5 5 5 5 5 5 5 5 5 5 5 5 5 5 5 5 5 5 5 6 5 5 5 5 5 5 6 5 5 5 5 5 5 5 5 5 5 5 5 5 5 5 5 5 5 5 5 5 5 5 5 5 5 5 5 5 5 5 5 5 5 5 5 5 5 5 5 5 5 5 5 5 5 5 5 5 5 5 5 5 5 5 5 5 5 5 6 5 5 5 5 5 5 5 5 5 5 5 5 5 5 5 5 5 5 6 5 5 5 5 5 5 5 5 5 6 5 5 5 5 5 5 5 5 5 5 5 5 5 5 5 5 6 6 5 5 6 5 5 6 5 5 5 6 5 5 5 5 5 5 5 5 5 5 5 5 5 5 5 5 5 5 5 5 5 5 5 6 5 5 5 5 5 5 5 5 5 5 5 5 5 6 5 5 5 5 5 5 5 5 5 5 5 5 5 5 5 5 5 5 5 5 5 5 5 5 5 5 5 5 5 5 5 5 5 5 5 5 5 5 5 6 5 5 5 5 5 6 5 5 5 6 6 5 6 5 5 5 5 6 5 5 6 5 5 5 5 5 5 5 6 5 5 5 5 5 5 5 6 5 5 5 5 5 5 5 5 5 5 5 5 5 5 5 5 5 5 5 5 5 5 5 5 6 5 5 5 5 5 5 5 6 5 5 5 5 5 5 5 5 5 5 5 5 5 5 5 5 5 5 5 5 5 5 5 5 5 5 5 5 5 5 5 5 5 5 5 5 6 5 5 6 5 5 5 6 5 5 5 6 5 6 5 5 5 5 5 5 5 5 5 5 6 5 5 6 5 5 5 5 5 5 5 5 5 5 5 6 5 5 5 5 5 5 5 6 5 5 5 5 5 5 5 5 5 5 5 5 5 5 5 5 5 5 5 5 6 5 5 5 5 5 5 5 6 5 5 5 5 5 5 5 5 6 5 6 5 5 5 5 5 5 5 5 5 5 5 5 5 5 5 6 5 5 5 5 5 5 5 5 5 5 5 5 5 5 5 5 5 5 5 6 5 5 5 5 5 5 5 5 6 5 5 5 5 5 5 5 5 5 5 6 5 5 5 6 5 6 5 5 5 6 5 5 5 5 6 5 5 6 5 5 5 5 5 5 5 5 6 5 6 5 5 5 6 5 5 5 5 5 5 5 5 5 5 5 5 5 5 5 5 5 5 6 5 5 5 6 5 6 5 5 5 5 5 5 5 5 5 5 5 5 5 5 5 6 5 5 6 5 5 5 5 5 5 6 5 5 6 5 5 5 5 5 5 5 5 6 5 6 5 5 5 5 5 5 6 5 5 5 5 5 5 5 5 5 5 5 5 5 5 5 5 5 6 5 5 5 5 5 5 5 5 5 5 5 5 5 5 5 5 5 5 5 5 5 6 5 6 5 5 6 5 5 5 5 5 5 5 5 5 5 5 5 5 5 5 5 5 6 5 5 5 5 5 5 5 5 5 5 5 5 5 5 5 5 5 5 5 5 5 5 5 5 5 5 5 5 5 5 5 5 5 5 5 5 5 5 5 5 5 5 5 5 5 5 5 5 5 5 5 5 6 5 5 5 6 5 5 5 5 5 5 6 5 5 5 5 5 5 5 5 5 5 5 6 5 5 5 5 5 5 5 5 5 5 5 5 5 5 6 5 5 5 5 5 5 5 5 5 6 5 5 5 5 5 5 5 5 5 5 5 5 5 5 5 5 5 5 6 5 6 5 5 5 6 5 5 5 5 6 5 5 5 5 5 5 5 5 5 5 5 5 5 5 5 5 5 5 5 5 5 5 5 5 5 5 5 5 5 5 5 5 5 5 5 5 5 5 5 5 5 5 5 5 5 5 5 5 5 5 5 5 5 5 5 5 5 5 5 5 5 5 5 5 5 5 5 5 5 5 5 6 5 6 6 5 5 5 6 5 5 5 5 5 5 5 5 5 6 6 5 5 6 5 5 5 5 5 5 5 5 5 5 5 5 5 5 5 5 5 5 5 5 5 5 5 5 5 5 5 5 5 5 5 5 5 5 5 5 5 5 5 5 5 5 5 5 5 5 5 5 5 5 5 5 5 5 5 5 5 5 5 5 5 5 5 5 5 5 5 6 5 5 5 5 5 5 5 5 5 5 6 5 5 5 6 5 5 5 5 5 5 5 5 5 5 5 5 5 5 5 5 5 5 5 5 6 5 6 5 5 5 5 5 5 5 6 5 5 5 5 5 5 5 5 6 6 5 5 5 5 5 5 5 6 6 6 5 5 6 5 5 6 5 5 5 6 5 5 6 5 5 5 5 5 5 5 6 5 5 5 5 5 5 5 5 5 5 5 5 5 5 5 6 6 5 5 5 5 5 5 5 5 5 5 5 5 5 5 5 5 5 5 5 5 5 5 5 5 5 5 5 5 5 5 5 5 5 6 5 5 5 5 5 5 5 5 5 5 5 5 5 5 5 5 5 5 5 5 5 5 5 5 5 5 5 5 5 5 5 5 5 5 5 5 5 5 5 5 5 5 5 5 5 5 5 5 5 5 5 5 5 5 5 5 5 5 5 5 5 5 5 5 5 5 5 5 6 5 5 5 5 6 5 5 5 6 5 5 5 5 5 5 5 5 5 5 5 5 5 5 5 5 5 5 5 5 5 5 5 5 5 5 5 5 5 5 5 5 5 5 5 5 5 5 5 5 6 5 5 5 5 6 5 5 5 5 5 5 6 5 6 6 5 5 5 6 5 5 5 5 5 5 5 5 5 5 5 5 5 5 5 5 5 5 5 5 5 5 5 5 5 5 5 5 5 6 6 5 5 5 5 5 5 5 5 5 5 5 5 5 5 5 5 5 5 5 6 5 5 5 6 5 5 5 5 5 6 5 5 5 5 6 6 5 5 5 5 5 5 5 5 6 5 5 6 5 5 5 5 5 5 5 5 5 5 5 5 5 5 5 5 5 5 5 5 5 5 5 6 5 6 5 5 5 5 5 5 6 5 5 6 5 6 5 5 5 6 5 5 6 6 5 6 5 5 5 6 6 5 5 5 6 5 5 5 5 6 5 5 5 5 5 5 5 5 5 6 5 5 5 6 6 5 5 5 5 5 5 5 5 5 5 5 5 5 5 5 5 6 5 5 5 5 5 5 6 5 5 5 6 5 5 5 6 5 5 5 5 5 5 5 5 5 5 5 5 5 5 5 5 5 5 5 5 5 5 5 5 5 6 5 5 5 5 5 5 5 6 5 5 5 5 5 5 5 5 5 6 5 5 5 5 5 5 5 5 5 6 5 5 5 5 6 6 5 5 5 5 6 5 5 5 5 5 5 5 5 6 5 5 5 5 5 5 5 5 5 5 5 5 5 5 5 5 5 6 5 5 5 5 5 5 5 5 5 5 5 5 5 5 5 5 5 5 5 5 5 6 5 5 5 5 5 5 5 5 5 5 5 5 5 6 5 5 5 5 5 5 5 6 6 5 6 5 6 5 5 5 5 5 5 5 5 5 5 5 5 6 5 6 5 5 6 5 5 5 5 5 5 5 5 5 5 5 5 5 5 5 5 5 5 5 5 5 5 5 5 5 5 5 5 5 5 5 5 5 5 5 5 5 5 5 5 5 5 5 5 5 5 5 5 5 5 5 5 5 5 5 5 5 5 5 5 5 5 5 5 5 5 5 5 5 5 5 5 5 5 5 5 5 5 5 5 5 5 5 5 5 5 5 5 5 5 5 5 5 5 5 5 5 5 5 5 5 5 5 5 5 5 5 5 6 5 5 5 5 5 5 5 5 5 5 5 6 5 5 5 5 5 5 5 5 6 5 5 6 5 5 6 5 5 6 5 5 5 5 5 6 5 5 5 5 5 5 5 5 5 5 5 6 5 5 5 5 5 5 5 5 5 5 5 5 5 5 5 5 5 5 5 5 5 5 5 5 5 6 5 5 5 5 5 5 5 6 5 5 5 5 6 5 5 5 5 5 6 5 5 5 6 5 5 5 5 5 5 5 5 5 6 6 5 5 5 5 5 5 6 6 5 5 5 6 5 6 5 5 5 6 5 5 6 5 5 5 5 5 5 5 5 5 5 5 5 5 5 5 5 5 5 5 5 5 5 5 5 5 5 5 5 5 5 5 5 5 5 5 5 5 5 6 5 5 5 6 5 5 5 5 5 6 5 5 5 5 5 5 6 6 5 5 6 5 5 5 5 5 5 6 6 5 5 5 5 5 6 5 5 5 5 5 5 5 5 5 6 5 5 5 5 5 5 5 5 5 5 5 5 5 5 5 5 5 5 5 5 5 5 5 5 5 6 5 5 5 5 5 5 5 5 5 5 5 5 5 5 5 5 5 5 5 6 5 5 5 5 5 5 5 5 5 5 5 6 5 5 5 5 5 5 5 5 5 5 5 6 6 5 5 5 5 5 5 5 6 5 5 5 5 6 5 6 5 6 5 6 5 5 6 5 5 5 6 5 5 5 5 6 5 5 5 5 6 5 5 5 6 5 5 5 5 5 5 6 5 5 5 5 6 5 5 5 6 5 5 5 5 5 5 5 5 5 6 5 5 5 5 5 5 6 5 5 5 6 5 5 5 5 5 5 5 5 5 5 5 5 5 5 5 5 5 5 6 5 5 5 5 6 5 5 5 5 5 5 5 5 5 6 5 5 5 5 5 5 5 6 6 6 5 5 5 5 6 5 5 6 5 5 5 5 5 5 5 5 5 6 5 5 5 6 6 5 5 5 5 5 5 5 5 6 5 5 5 5 5 5 5 5 5 5 5 5 5 5 5 5 5 5 5 5 5 5 5 5 5 5 5 5 5 5 5 6 5 6 5 5 5 5 5 5 6 5 5 6 5 5 6 5 5 5 5 6 5 5 5 5 6 6 5 5 5 5 5 5 5 5 5 5 5 5 5 6 5 5 6 5 6 5 5 5 5 5 6 5 5 5 5 5 5 5 5 5 5 5 5 5 6 5 5 5 5 5 5 5 5 5 5 6 5 5 5 6 5 5 5 5 5 5 5 5 5 5 5 5 5 5 5 5 5 5 5 5 5 5 5 5 5 5 5 5 5 5 5 5 5 5 5 5 5 5 5 5 5 5 5 5 5 5 5 5 5 5 5 5 5 5 5 5 5 5 5 5 5 5 5 5 5 5 5 5 5 5 5 5 5 5 5 5 5 5 5 5 5 5 5 5 5 5 5 5 5 5 5 5 5 5 5 5 5 5 5 5 5 5 5 5 5 5 5 5 6 5 5 5 5 6 5 5 5 5 5 5 5 5 6 5 5 6 5 5 6 5 5 6 5 5 5 5 5 5 5 6 5 5 6 5 5 5 5 5 5 5 5 6 5 5 5 6 5 6 5 5 5 5 5 5 6 5 6 5 5 5 5 5 5 5 5 5 6 5 5 5 6 6 5 5 5 5 6 6 5 5 5 5 5 5 5 5 5 5 5 5 5 5 5 5 6 5 5 5 5 5 5 6 5 6 5 5 5 5 5 5 5 5 5 5 5 5 5 5 5 5 5 5 5 5 5 5 5 5 5 6 5 5 5 6 5 5 5 5 5 5 6 5 5 5 5 5 6 5 5 6 5 5 5 5 5 5 5 5 5 5 5 5 5 5 6 5 5 5 5 5 5 5 5 6 5 5 5 5 5 5 5 5 6 5 5 5 5 5 5 5 6 5 5 5 5 6 5 5 5 5 5 5 5 5 5 5 5 5 6 5 5 5 6 5 5 5 5 5 5 6 5 5 5 6 5 6 5 5 5 5 5 6 5 5 5 6 5 5 5 6 5 5 5 5 6 5 5 5 5 5 5 5 5 5 5 5 5 5 5 5 6 5 5 5 5 5 5 5 5 6 5 5 5 5 5 5 5 5 5 5 5 5 6 5 6 5 5 5 5 5 5 5 5 5 5 5 6 5 5 6 5 5 5 5 5 5 5 5 5 5 6 5 5 5 6 5 5 5 5 5 5 6 5 5 5 5 5 5 5 5 5 5 5 5 5 5 5 5 5 5 5 5 5 5 5 5 5 6 5 5 5 5 5 5 5 5 5 5 5 5 5 5 5 5 5 5 5 5 5 6 5 6 6 5 5 5 5 6 5 5 6 5 6 5 5 5 5 6 5 6 5 5 5 5 5 5 5 5 5 5 5 5 5 6 5 6 5 5 5 5 5 5 5 5 5 5 5 5 5 5 5 5 5 5 5 5 5 5 5 5 5 5 5 5 5 5 5 5 5 5 5 5 5 5 5 5 5 5 5 5 5 5 5 5 5 5 5 6 6 5 5 5 5 5 5 5 5 5 5 5 5 5 5 5 5 5 5 5 5 6 5 5 5 5 5 5 5 5 5 5 5 5 5 5 5 5 5 5 5 5 5 5 5 6 5 5 5 6 5 5 5 5 5 5 5 5 5 5 5 5 5 5 5 5 5 5 5 5 5 5 5 5 5 5 5 5 5 5 5 5 5 5 5 5 5 5 5 5 5 5 5 5 5 5 5 5 5 5 5 5 5 5 5 5 5 5 5 5 5 5 5 5 5 5 5 5 5 5 5 5 5 5 5 5 5 5 5 5 5 5 5 5 5 5 5 5 5 5 6 5 5 5 5 5 5 5 5 5 6 5 5 5 5 5 5 5 5 5 5 5 5 5 5 5 5 6 5 5 5 5 6 5 5 5 5 5 6 5 5 5 5 5 5 5 5 5 5 5 5 5 5 5 5 5 5 5 6 5 5 5 6 5 5 5 5 5 5 5 6 5 5 5 5 5 6 5 5 5 5 5 5 6 5 5 5 5 5 5 5 5 5 5 5 5 6 5 5 5 5 6 5 5 5 6 5 5 5 6 6 5 5 5 5 5 5 5 5 5 5 5 5 5 5 5 5 6 5 5 5 6 5 5 5 5 5 5 5 5 5 5 5 5 5 5 5 5 5 6 5 5 5 5 5 5 5 5 5 5 5 5 5 5 5 5 5 5 5 5 5 5 5 5 5 5 5 5 5 5 5 5 5 5 5 5 5 5 5 5 5 5 5 6 5 6 5 6 5 6 5 5 5 5 5 5 5 5 5 5 5 5 5 6 5 5 5 6 5 6 5 6 6 5 5 5 5 5 5 5 5 5 5 5 5 5 5 5 5 5 5 5 5 5 5 5 5 5 5 5 5 5 5 5 5 5 5 5 5 5 5 5 5 5 5 5 5 5 5 5 5 5 5 5 5 5 5 5 5 5 5 5 5 5 5 5 5 5 5 5 5 6 5 5 6 5 5 5 5 6 5 6 5 5 5 5 5 5 5 5 5 6 5 5 5 5 5 5 5 5 5 5 5 5 5 5 5 5 5 5 5 5 5 5 5 6 5 5 5 5 5 5 6 5 6 5 5 5 5 5 5 5 6 5 5 5 5 5 5 5 6 5 5 5 5 5 5 5 5 5 5 5 5 5 5 5 5 5 5 5 5 5 5 6 5 6 5 6 5 5 6 5 5 5 5 5 6 5 5 5 6 5 5 6 5 5 5 5 5 5 5 5 5 5 5 5 5 5 5 5 5 5 5 5 5 5 5 5 5 5 5 5 5 5 5 5 5 5 5 5 5 5 5 5 5 5 5 5 5 5 5 5 5 5 5 5 5 6 5 5 5 5 5 5 5 6 6 5 5 5 5 5 6 5 5 5 5 5 6 5 5 5 5 5 6 5 5 5 5 5 5 5 5 5 5 5 5 5 5 5 5 5 5 5 5 5 5 5 5 5 6 5 5 5 5 5 5 5 5 5 5 5 5 5 5 5 5 5 5 5 5 5 5 5 5 5 5 5 5 5 5 5 5 5 5 5 5 5 5 5 5 5 5 5 5 5 5 5 5 5 6 5 5 6 5 5 5 5 5 5 5 5 5 5 5 6 5 5 5 5 5 5 5 5 5 5 5 5 5 5 5 5 5 5 5 5 5 5 5 5 5 5 5 5 5 5 5 5 5 5 5 5 5 5 5 5 5 5 5 5 5 5 5 5 6 5 5 5 5 5 5 5 5 5 6 5 5 5 5 6 5 5 5 5 5 5 5 5 6 5 5 6 5 5 5 5 5 6 5 5 5 5 5 5 6 5 5 5 5 5 6 5 5 5 5 5 5 5 5 5 5 5 5 5 5 5 6 5 5 5 6 5 5 5 5 5 5 5 5 6 5 5 5 5 5 5 5 5 5 5 5 5 5 5 5 5 5 5 5 5 5 5 5 5 5 5 5 5 5 5 5 5 5 5 5 5 5 5 5 5 5 6 5 5 5 5 5 5 5 5 6 5 5 5 5 5 5 5 5 5 5 5 5 6 5 5 5 5 5 5 5 6 5 6 5 6 6 5 5 5 5 5 5 6 5 5 5 6 5 5 5 5 5 5 5 5 5 5 6 5 5 6 5 6 5 5 5 5 6 5 5 5 5 5 5 6 5 5 5 5 5 5 5 6 5 6 5 5 6 6 5 5 6 6 5 5 5 5 6 6 5 5 6 5 5 5 5 5 6 5 5 5 5 5 5 5 5 5 5 5 5 5 5 5 5 5 5 5 5 5 5 5 6 5 5 5 5 5 5 5 5 5 5 5 5 5 5 5 6 5 5 5 5 5 5 5 5 5 5 6 5 5 6 5 5 6 5 5 5 6 5 5 5 6 5 5 5 5 5 5 5 5 5 5 5 5 5 5 5 5 5 5 5 5 5 5 6 5 5 6 5 5 5 5 5 5 5 6 5 5 5 5 6 5 5 5 5 5 5 5 5 5 5 6 5 5 5 5 5 5 5 5 5 5 5 5 5 5 5 5 5 5 5 5 5 5 6 5 5 6 5 5 5 5 5 6 5 5 5 6 5 5 5 5 5 5 5 5 5 5 5 5 5 5 5 5 5 5 5 5 6 5 5 5 5 5 5 5 5 5 5 5 5 6 5 5 5 5 5 5 5 5 6 5 5 5 5 6 5 5 6 5 6 5 5 5 5 6 5 5 5 5 6 5 5 5 5 5 5 5 5 5 5 5 5 5 5 5 5 5 5 5 5 5 5 5 5 6 5 5 6 5 5 6 5 5 5 5 5 5 5 5 5 5 5 5 5 5 6 6 5 5 5 5 5 5 5 5 5 5 5 6 5 5 5 5 6 5 5 5 5 6 5 5 6 5 6 5 5 5 6 5 5 5 5 5 6 6 5 5 5 6 6 5 5 5 6 5 5 5 5 5 5 5 5 5 6 6 5 5 5 5 5 5 5 5 5 5 5 5 5 5 5 6 5 5 5 5 5 6 5 5 5 5 5 6 5 5 5 5 6 5 6 5 5 5 5 5 5 5 5 5 5 5 5 5 5 5 5 5 5 5 5 6 6 5 5 5 5 5 6 5 5 5 5 5 5 5 5 5 5 5 5 5 5 5 5 5 5 5 5 5 5 5 5 5 5 5 5 5 5 5 5 5 5 5 5 5 6 5 5 5 6 5 5 5 5 5 5 5 5 5 5 5 6 5 5 5 5 5 5 5 5 5 5 5 6 5 5 5 5 5 5 5 5 5 5 5 5 5 5 5 5 5 5 5 5 5 5 5 5 5 5 5 5 5 5 5 5 5 5 5 5 6 6 5 5 5 5 5 5 5 5 5 5 6 5 5 5 5 6 5 5 5 5 5 5 5 5 5 5 5 5 5 5 5 5 5 5 5 5 5 5 5 5 5 5 5 5 5 5 5 5 5 5 5 5 6 5 5 5 5 5 5 5 5 5 6 5 6 5 5 5 5 5 5 6 5 5 6 5 5 5 5 5 5 6 5 5 6 5 6 5 5 5 5 6 5 5 5 5 5 5 5 5 5 5 5 5 5 5 6 6 5 5 5 5 5 6 5 5 6 5 5 6 5 5 5 6 6 5 6 5 5 5 6 5 5 5 5 5 5 5 5 5 6 5 5 5 5 6 5 5 5 5 5 5 5 5 5 5 5 5 5 6 5 5 5 5 5 5 5 5 5 5 5 5 5 5 5 5 6 5 6 6 5 5 5 5 5 5 6 5 5 6 5 5 6 6 5 5 5 6 5 5 5 5 5 5 5 5 5 5 5 5 5 5 5 5 5 5 5 5 5 5 5 5 5 5 6 5 5 5 5 5 5 5 5 5 5 5 5 5 6 5 5 5 5 5 6 5 5 5 5 5 6 5 5 6 5 5 6 6 5 5 6 5 5 6 6 6 6 5 5 5 5 6 5 5 5 5 5 5 5 5 5 5 5 5 5 5 5 5 5 5 5 5 5 5 5 6 5 5 5 5 5 6 5 5 5 5 6 5 5 5 5 5 6 5 5 5 6 5 6 5 5 6 5 5 5 6 5 5 5 5 6 5 5 6 6 5 5 5 5 5 5 5 5 5 6 6 5 5 6 6 5 5 5 5 6 5 5 5 5 5 5 5 5 5 5 5 5 5 5 6 5 5 5 6 5 5 5 5 5 5 5 5 5 5 5 6 6 6 5 5 6 5 5 5 5 5 5 5 5 5 5 5 6 5 5 5 6 5 5 6 5 5 5 5 6 5 5 5 5 5 5 5 5 5 5 6 5 6 6 5 6 5 5 5 5 6 5 5 5 5 5 5 5 5 5 5 5 6 5 5 6 5 5 5 6 5 5 5 5 6 5 5 5 5 5 5 5 5 5 5 5 5 5 5 5 5 5 6 5 5 5 5 5 5 5 5 5 5 5 6 5 5 5 5 5 5 5 5 5 5 5 5 5 5 5 5 5 5 5 5 5 5 5 5 5 5 5 5 5 5 5 5 5 5 5 5 5 5 5 5 5 5 5 5 5 5 5 5 5 5 5 5 5 5 5 5 5 5 5 5 5 5 5 5 5 5 6 5 5 5 5 5 5 5 6 5 5 6 5 5 5 5 5 6 6 5 5 5 5 5 5 5 5 5 5 5 5 5 5 5 6 5 5 5 5 5 5 6 5 5 5 5 6 6 5 5 5 5 5 5 5 5 5 5 5 5 5 5 5 5 5 5 5 5 5 5 5 5 6 6 5 5 5 5 6 5 5 6 5 5 5 5 6 5 5 5 5 6 5 5 5 5 5 5 5 5 5 5 5 5 5 5 5 5 5 5 5 5 5 5 5 5 5 5 5 6 5 5 5 5 5 5 5 5 5 6 5 5 5 5 6 5 5 5 6 5 5 5 5 5 5 5 5 5 5 5 5 6 6 5 5 5 5 5 5 5 5 6 5 5 5 6 5 5 5 6 5 5 5 5 5 5 5 5 5 5 5 5 5 5 5 5 6 5 5 5 5 5 5 6 5 5 5 5 5 5 5 5 5 5 5 5 5 5 5 5 5 5 5 5 5 5 5 5 6 5 6 5 5 6 5 5 5 6 5 5 5 5 5 5 5 5 5 6 5 5 6 5 5 5 6 5 5 5 5 5 5 5 5 5 5 5 5 5 5 5 5 5 5 5 5 5 5 5 5 5 5 5 5 5 5 5 5 5 5 5 5 5 5 5 5 5 5 5 6 5 5 5 5 5 5 5 5 5 6 5 5 5 6 5 5 5 5 5 5 5 6 5 5 5 5 5 5 5 6 5 5 6 5 5 5 5 5 5 5 5 5 6 5 5 6 5 5 5 5 5 6 5 5 5 5 5 5 5 5 5 5 5 5 5 6 5 5 5 5 5 5 5 5 5 6 5 6 5 5 5 5 5 5 5 5 5 5 6 5 6 5 5 5 5 6 6 5 5 5 5 5 5 5 5 5 5 5 5 5 5 5 5 5 5 5 5 5 6 6 5 5 6 5 5 6 5 5 5 6 5 5 5 6 5 5 6 6 5 5 5 6 5 5 5 6 5 5 5 5 5 5 6 5 5 5 5 5 5 6 5 5 5 5 5 5 5 6 5 5 6 5 6 5 5 5 5 5 5 6 5 5 5 5 5 5 5 5 5 5 5 5 5 5 5 5 5 5 5 5 5 5 5 5 5 6 5 5 5 5 5 5 5 5 5 6 5 5 5 5 5 6 5 5 5 5 5 5 5 5 5 5 5 5 5 5 5 5 5 5 5 5 5 5 5 5 5 5 5 5 6 5 5 5 5 5 6 5 5 5 5 5 5 5 5 5 5 5 5 6 5 5 6 5 5 5 5 5 5 5 5 5 6 5 6 5 5 6 5 5 5 5 5 5 6 5 5 5 5 5 6 5 5 5 5 6 5 6 5 5 6 5 5 5 5 5 5 5 5 6 6 5 5 5 5 5 5 5 5 5 5 5 5 5 5 5 5 5 5 5 5 5 5 5 5 5 6 5 5 5 5 5 5 6 5 5 5 5 5 5 5 5 6 5 5 5 5 5 5 5 5 5 5 5 5 5 5 6 5 5 5 5 5 5 5 5 5 5 5 5 5 5 5 5 5 5 5 5 5 5 5 5 5 5 5 6 6 5 6 5 5 5 5 5 5 5 5 5 5 5 5 5 5 5 5 5 5 5 5 5 5 5 5 5 5 5 5 5 5 5 5 5 6 5 5 5 5 5 6 5 5 5 6 5 5 5 5 5 6 6 6 5 5 5 5 5 6 5 5 6 6 5 5 5 5 5 5 6 5 5 6 5 5 5 5 5 5 5 5 5 5 5 5 5 5 5 5 5 5 5 5 6 5 5 5 6 5 5 5 5 5 5 5 6 5 5 5 5 5 5 5 5 5 6 5 5 5 5 6 5 5 5 5 5 5 5 5 5 5 5 5 5 5 5 5 5 5 5 5 5 5 5 6 5 5 5 5 5 5 5 5 5 5 5 5 5 5 6 6 6 5 5 6 5 5 5 5 5 5 5 5 5 5 6 5 6 5 5 5 5 5 5 5 5 5 5 5 6 5 5 5 6 5 5 6 5 5 6 5 5 5 5 5 6 5 5 5 6 6 5 5 5 6 6 5 5 5 5 5 5 5 6 5 5 5 5 5 5 5 5 5 5 5 5 5 5 5 6 5 6 5 5 5 5 6 5 5 5 5 5 5 5 5 5 5 6 5 5 5 5 5 6 5 5 5 5 5 6 5 5 5 5 5 5 5 5 5 5 5 5 5 5 5 5 5 5 6 5 5 5 6 5 6 5 5 6 5 5 5 5 5 5 5 6 5 5 5 5 6 5 5 5 5 5 5 5 6 5 5 5 5 5 6 6 5 5 5 5 5 5 5 5 5 5 5 5 5 5 5 5 5 5 5 6 5 5 5 5 5 5 5 5 5 6 5 5 5 5 5 5 5 5 5 5 5 5 5 5 5 5 5 5 6 5 6 5 5 5 5 6 6 5 5 5 5 6 5 5 6 5 5 5 5 5 5 5 6 5 5 6 5 5 5 5 5 5 5 5 5 5 5 5 5 5 5 5 6 5 5 6 5 6 5 5 6 5 5 6 6 5 5 6 5 6 5 5 5 5 5 5 5 6 5 5 5 5 5 5 5 5 5 5 5 5 5 5 5 5 5 5 5 5 5 5 5 5 5 5 5 5 5 5 5 5 5 5 5 5 5 5 5 5 5 5 5 5 5 5 5 6 5 5 6 5 5 5 5 5 6 5 6 5 5 5 5 5 5 5 5 5 5 5 5 5 5 5 5 5 5 5 5 5 5 5 5 5 5 5 6 5 5 5 5 5 5 5 5 5 5 5 5 5 6 5 5 5 5 6 5 5 5 6 6 5 5 5 6 5 5 5 5 5 5 6 5 5 6 5 6 5 5 5 5 5 5 5 5 5 5 5 5 5 5 5 5 5 5 5 5 5 5 5 6 5 6 5 5 5 6 5 5 5 5 5 6 5 5 5 5 5 5 5 5 6 5 5 5 6 5 6 5 5 5 6 5 5 5 5 5 5 5 6 5 5 6 5 5 5 6 5 6 5 5 6 5 5 5 5 5 5 5 5 5 5 6 5 5 5 5 5 5 6 5 6 5 5 5 5 5 6 5 5 5 5 5 5 5 5 5 6 5 5 5 5 5 5 5 5 6 5 5 6 5 6 5 6 5 5 5 5 5 6 5 5 5 5 5 5 5 5 5 5 6 5 5 5 6 5 5 5 5 5 5 6 5 5 5 5 5 5 6 5 5 5 5 5 5 6 5 5 5 5 6 5 5 5 5 6 5 5 5 5 5 5 5 5 5 5 5 5 5 5 5 5 5 5 6 5 5 6 5 5 5 6 5 6 5 6 5 5 5 5 5 5 5 6 5 5 5 5 5 5 5 5 6 5 5 5 5 6 5 5 5 5 5 5 6 5 5 5 6 5 5 5 5 6 5 5 5 5 6 5 5 5 5 5 5 5 5 5 5 5 5 5 5 5 5 5 5 5 5 5 5 5 5 5 6 5 5 5 5 6 5 5 5 5 5 5 5 5 5 5 5 5 5 5 5 5 5 5 5 5 5 5 5 5 5 5 5 5 5 5 5 5 5 5 5 5 5 5 5 5 5 5 5 6 5 5 5 5 5 5 5 5 5 5 5 5 5 5 5 5 5 5 5 5 5 5 5 5 5 5 5 5 5 5 5 5 5 5 
</DataArray>
<DataArray type="Float64" Name="stress" NumberOfComponents="9" format="ascii">
-3508.947342397325 3384.543282980223 0 3384.543282980223 30.386060359810703 0 0 0 0 1774.9950271118869 630.01862904614973 0 630.01862904614973 -455.02882766681432 0 0 0 0 -3.8361679179587611 8.9216014570782534 0 8.9216014570782534 -11.053650257863296 0 0 0 0 -4.3985293593796086 326.32827346814884 0 326.32827346814884 -221.85298906836397 0 0 0 0 783.88924485073949 653.47082811035216 0 653.47082811035216 1.2120101788314059 0 0 0 0 -679.72994930231653 90.912225319087156 0 90.912225319087156 297.68370960072207 0 0 0 0 758.58192007062462 -247.29847463732222 0 -247.29847463732222 -130.98699676852266 0 0 0 0 426.5918332397996 308.36126520431208 0 308.36126520431208 58.852781544013851 0 0 0 0 -89.766269208666927 352.92733672963732 0 352.92733672963732 57.721125254152867 0 0 0 0 944.8606958594246 947.20284194489432 0 947.20284194489432 -37.689918779360596 0 0 0 0 -10.304392307830454 21.795536593525796 0 21.795536593525796 -28.182021331351734 0 0 0 0 -13.57358287057437 27.349012931968915 0 27.349012931968915 -33.236676945552404 0 0 0 0 -1354.1089112493355 608.56643387344229 0 608.56643387344229 -209.91535719720196 0 0 0 0 491.0782410614338 966.16501005217287 0 966.16501005217287 -10.51451649836963 0 0 0 0 -476.44676153126056 -363.5718302096866 0 -363.5718302096866 138.06992856502438 0 0 0 0 -3296.0281426391957 -391.79613472948404 0 -391.79613472948404 372.54648816975532 0 0 0 0 -1194.7721504176297 808.9631647655151 0 808.9631647655151 -70.949955511881853 0 0 0 0 -3590.3916837395664 -358.45202011269794 0 -358.45202011269794 322.43640658009099 0 0 0 0 -898.39529850671897 824.57382003532621 0 824.57382003532621 -1.9548394023440778 0 0 0 0 -1.8474361558550001 7.9741678116566277 0 7.9741678116566277 -1.3737041389522346 0 0 0 0 3037.6239257108891 252.04947439955868 0 252.04947439955868 -291.3138709559571 0 0 0 0 1822.9462130464235 636.15776075416943 0 636.15776075416943 0.35123682927219885 0 0 0 0 1367.9003936588342 164.33237903926056 0 164.33237903926056 -25.865735250219586 0 0 0 0 742.12346450876794 587.98314053757349 0 587.98314053757349 74.787065820926728 0 0 0 0 1639.2910539502336 433.41779957378094 0 433.41779957378094 253.04669035334882 0 0 0 0 -168.98421389960276 314.25281247808744 0 314.25281247808744 82.289620742172701 0 0 0 0 412.21345144038787 617.71301520942507 0 617.71301520942507 -0.043331740258558647 0 0 0 0 442.02029573135223 187.28557651764277 0 187.28557651764277 -196.15730060986243 0 0 0 0 89.825494591568713 640.10648390076676 0 640.10648390076676 -120.85971512655669 0 0 0 0 -609.54476610424172 376.28501870802575 0 376.28501870802575 -78.766066434276581 0 0 0 0 111.75131258393958 177.16280671583081 0 177.16280671583081 -842.08158215956064 0 0 0 0 818.42677987096977 281.78197828761768 0 281.78197828761768 -131.55765210447134 0 0 0 0 503.329421030503 674.26210982104385 0 674.26210982104385 -242.96949356544064 0 0 0 0 638.90000247603166 1135.0647712755599 0 1135.0647712755599 -98.142589458243947 0 0 0 0 653.61099211598048 998.31180038012099 0 998.31180038012099 -1113.8665597028303 0 0 0 0 -51.069126306654653 57.488218002989015 0 57.488218002989015 315.01319289021194 0 0 0 0 2.7095966503142108 5.4385693976286404 0 5.4385693976286404 4.907291351962499 0 0 0 0 141.58229427239348 482.60231289553485 0 482.60231289553485 1251.5493424100569 0 0 0 0 2522.7964791108607 348.31773725877429 0 348.31773725877429 -221.92305883761583 0 0 0 0 -5.0613516975250867 27.475776303658748 0 27.475776303658748 -7.2100980158230072 0 0 0 0 1624.5546414169803 532.19537278019561 0 532.19537278019561 -358.37388816013117 0 0 0 0 1197.2374055926648 565.34530851513955 0 565.34530851513955 462.36867140661343 0 0 0 0 1172.557603795678 484.25679382044473 0 484.25679382044473 262.2728193564617 0 0 0 0 -7.6832480336660396 46.233851320765538 0 46.233851320765538 -21.200526861156789 0 0 0 0 1170.4138406641141 -448.36634732514904 0 -448.36634732514904 -148.01068317504541 0 0 0 0 2297.3518046336249 325.3626953739149 0 325.3626953739149 -69.520813931470911 0 0 0 0 453.05284625341665 598.22727258870873 0 598.22727258870873 487.44085097261996 0 0 0 0 551.44243188370456 141.96016302209318 0 141.96016302209318 116.45908064750256 0 0 0 0 1293.7199626219954 889.85159239952918 0 889.85159239952918 -84.816770756877304 0 0 0 0 455.1677940395748 1150.3111901657539 0 1150.3111901657539 859.15255542716477 0 0 0 0 768.86961267947481 918.85749403014779 0 918.85749403014779 690.87152679380961 0 0 0 0 937.25270033489505 715.49944649096869 0 715.49944649096869 -171.17080288338184 0 0 0 0 179.17146310277167 1064.6174491002021 0 1064.6174491002021 1039.6774609349559 0 0 0 0 -12.616745279463487 3.4050207218462418 0 3.4050207218462418 -3.1065224421093092 0 0 0 0 388.99913552643557 -205.65260064272297 0 -205.65260064272297 -570.38461382925016 0 0 0 0 459.1404933060403 214.55985364342632 0 214.55985364342632 311.97072070720606 0 0 0 0 -423.2280553642704 413.53103165515859 0 413.53103165515859 1028.5576687139401 0 0 0 0 755.80915623213514 924.08542266451695 0 924.08542266451695 207.9874112681573 0 0 0 0 15.680057442652469 66.21196373723069 0 66.21196373723069 -80.408795662340708 0 0 0 0 -91.124305071123672 191.66052559811396 0 191.66052559811396 77.758154375012964 0 0 0 0 -55.974286625656532 61.155032604787266 0 61.155032604787266 284.18075673584826 0 0 0 0 96.815596153646766 360.2746750560691 0 360.2746750560691 -326.90374414750841 0 0 0 0 43.19402862410405 19.059127160704008 0 19.059127160704008 8.8640698774223665 0 0 0 0 -73.342454925899801 79.648824660973332 0 79.648824660973332 -119.44594860094367 0 0 0 0 19.968068666472391 355.98533624443007 0 355.98533624443007 17.63039162880159 0 0 0 0 1322.2880289611021 62.679105919931317 0 62.679105919931317 29.10722823481774 0 0 0 0 -9.2759134414612632 62.350049760194338 0 62.350049760194338 -37.328949428605313 0 0 0 0 2119.4281904469972 500.35015168089012 0 500.35015168089012 -420.34672451153165 0 0 0 0 1216.6390090781788 269.37891030605533 0 269.37891030605533 -70.538248701654084 0 0 0 0 440.57474209706197 -356.67481916040924 0 -356.67481916040924 -61.849324924187385 0 0 0 0 1514.6971113179025 -175.89076583784481 0 -175.89076583784481 -344.67171261142357 0 0 0 0 -10.059980747303079 69.965940563775618 0 69.965940563775618 -45.378008351735275 0 0 0 0 1851.6309936207836 320.3368151520699 0 320.3368151520699 -370.42949136074458 0 0 0 0 -2534.4369201495283 374.3041927830418 0 374.3041927830418 287.84421393880621 0 0 0 0 -448.55076249563717 325.77298202743623 0 325.77298202743623 -711.11431076418012 0 0 0 0 -1803.9604504350655 281.93817127995271 0 281.93817127995271 238.00405175669584 0 0 0 0 -7.2938377056890857 11.106749724640224 0 11.106749724640224 -8.5865584317482444 0 0 0 0 496.90078549516329 771.26846502021363 0 771.26846502021363 -606.13274765374808 0 0 0 0 1177.7302369375029 415.7000844168706 0 415.7000844168706 -429.84026569366688 0 0 0 0 699.1202500116633 275.74013857104001 0 275.74013857104001 135.57563078364183 0 0 0 0 578.52986854997289 60.663534137645911 0 60.663534137645911 -108.834030424714 0 0 0 0 0.43076021244633012 187.23637078143656 0 187.23637078143656 309.01861745296628 0 0 0 0 577.48935088964936 40.284727359685348 0 40.284727359685348 -476.05179710728771 0 0 0 0 -3.8515463525175448 3.59174497350363 0 3.59174497350363 -0.9857545347537382 0 0 0 0 698.91684512712527 358.38000040786574 0 358.38000040786574 -624.92716560637564 0 0 0 0 702.25058182812063 398.16485002601257 0 398.16485002601257 -327.23618619857371 0 0 0 0 759.81149788705807 206.08676843614376 0 206.08676843614376 225.84208763886272 0 0 0 0 920.66467452375218 678.10807022108202 0 678.10807022108202 -84.714433495872072 0 0 0 0 266.8904758601202 277.42422361119679 0 277.42422361119679 242.34874602673517 0 0 0 0 1.6957274926668122 601.43219346619162 0 601.43219346619162 182.61126002244418 0 0 0 0 -943.78026033247443 -299.40878639470611 0 -299.40878639470611 125.03224375488935 0 0 0 0 -2899.8737567987373 -5.0038250501629591 0 -5.0038250501629591 516.55613480998727 0 0 0 0 -1182.3766159863735 81.865369758466841 0 81.865369758466841 -237.34735220228322 0 0 0 0 -768.66913563613343 761.22813799379037 0 761.22813799379037 296.68414219016267 0 0 0 0 -13.049896505668784 24.232874240687011 0 24.232874240687011 -25.817615234315667 0 0 0 0 58.86202132141625 -3.5759838157027843 0 -3.5759838157027843 30.724384381377604 0 0 0 0 -106.62379446282284 139.544241622134 0 139.544241622134 274.72273188870167 0 0 0 0 -46.022092851567891 19.823413217373485 0 19.823413217373485 -6.9879286052753571 0 0 0 0 195.93625618443093 84.885245708978346 0 84.885245708978346 109.32177506362495 0 0 0 0 -46.190550711355172 186.59093387899156 0 186.59093387899156 -826.28856972402718 0 0 0 0 -202.60283352551778 175.42096918661264 0 175.42096918661264 -765.65989397352496 0 0 0 0 -32.600313347367774 81.796599883844465 0 81.796599883844465 -408.75251743436093 0 0 0 0 -122.53560782380737 415.30188413052019 0 415.30188413052019 -328.38596550142393 0 0 0 0 -155.31557149034415 496.20137656723091 0 496.20137656723091 -319.92511725300574 0 0 0 0 -84.656706478246633 661.52170489864147 0 661.52170489864147 0.34844764298759401 0 0 0 0 -96.25542728671644 553.77317386560026 0 553.77317386560026 -863.99877981224563 0 0 0 0 -96.273686478103627 451.29764401971624 0 451.29764401971624 -1123.3782007233349 0 0 0 0 5.3918635732425173 416.19879167954969 0 416.19879167954969 -1215.8506331077806 0 0 0 0 1.3946513043927098 4.7728443599883406 0 4.7728443599883406 -2.3675129198025786 0 0 0 0 43.806234047617181 331.49596789870702 0 331.49596789870702 628.41708014596952 0 0 0 0 4.9097930810144419 5.7569708422662131 0 5.7569708422662131 -2.8904610826054693 0 0 0 0 -241.55788880395266 41.756968645371671 0 41.756968645371671 -3.8806486407920602 0 0 0 0 159.20540997990611 190.72265900433558 0 190.72265900433558 0.26069482885941397 0 0 0 0 61.018015982786892 102.8760889468831 0 102.8760889468831 164.47504822011979 0 0 0 0 -188.89194913010579 -39.839294732664712 0 -39.839294732664712 -236.2532542290428 0 0 0 0 -278.5708756876993 129.06566287792521 0 129.06566287792521 -117.95746196809341 0 0 0 0 -165.94255626402446 -15.6636957877854 0 -15.6636957877854 -556.79302166578418 0 0 0 0 -15.128882756714972 7.5276393839546927 0 7.5276393839546927 -3.548846418475577 0 0 0 0 -66.664600451229489 436.32373994999216 0 436.32373994999216 -996.60803192250023 0 0 0 0 231.67199611705291 654.57159257900639 0 654.57159257900639 -2794.7085133563232 0 0 0 0 -915.90361539079458 1613.865047961357 0 1613.865047961357 26.58154660181026 0 0 0 0 -208.01241884962656 91.433489777606155 0 91.433489777606155 -1216.206517418434 0 0 0 0 143.80578895009967 90.591370428817754 0 90.591370428817754 275.92123691731831 0 0 0 0 197.66866788265907 123.57015870787291 0 123.57015870787291 282.38925553012814 0 0 0 0 -248.85247759456979 466.50606490477367 0 466.50606490477367 565.99025284670643 0 0 0 0 -721.51905035915843 1209.3353679182619 0 1209.3353679182619 -513.01541328049643 0 0 0 0 -4.8207064928283216 864.7761159047368 0 864.7761159047368 -1652.7990771610894 0 0 0 0 -3.5282661790552083 1452.34230650666 0 1452.34230650666 -1754.1648973274605 0 0 0 0 -78.607893116532068 7.9847648398681486 0 7.9847648398681486 -665.93996192142367 0 0 0 0 27.784663689424633 153.82180383666127 0 153.82180383666127 -79.789597028124263 0 0 0 0 -11.268136393395253 20.902653573502903 0 20.902653573502903 -7.1333096549424226 0 0 0 0 -21.000181321167474 14.433478468119574 0 14.433478468119574 -11.404856376175303 0 0 0 0 3.1127921920978281 5.8500807229582676 0 5.8500807229582676 3.8784759025768665 0 0 0 0 -59.750220576810534 165.83910543340608 0 165.83910543340608 36.286140717656963 0 0 0 0 -0.84834403833156102 63.435128305965918 0 63.435128305965918 56.468354469718179 0 0 0 0 -642.86140061085462 638.74738098274975 0 638.74738098274975 -2241.9683569918707 0 0 0 0 -79.264162656239932 49.917286174830224 0 49.917286174830224 -118.75157929808267 0 0 0 0 130.7947426380706 105.37770530061971 0 105.37770530061971 -137.81602611877315 0 0 0 0 -173.9167535476081 363.07843638894337 0 363.07843638894337 -303.89195365583873 0 0 0 0 -108.14496705727652 12.10589804648771 0 12.10589804648771 -212.51826923092449 0 0 0 0 23.756433170769014 16.17769889219926 0 16.17769889219926 66.144300442945678 0 0 0 0 235.12681710984907 -76.758719091943931 0 -76.758719091943931 -23.68128510878887 0 0 0 0 1.8589150016850908 87.724214499539812 0 87.724214499539812 -167.00642674241681 0 0 0 0 17.511765772946092 15.934602833727695 0 15.934602833727695 0.024883131402020808 0 0 0 0 26.191725350305205 -79.238535092270467 0 -79.238535092270467 -8.4999680333712604 0 0 0 0 48.493223847322952 -14.355063621902445 0 -14.355063621902445 -29.23290536046261 0 0 0 0 10.301194849889725 8.3229627655236982 0 8.3229627655236982 5.4865208057453856 0 0 0 0 12.898410798765525 5.4381580484517542 0 5.4381580484517542 -2.6437463042212812 0 0 0 0 100.71194107204792 -12.742375690162589 0 -12.742375690162589 -35.678968549407728 0 0 0 0 168.53446875404916 31.110727884457447 0 31.110727884457447 -19.559742556069978 0 0 0 0 3.1002977166790515 10.319468323490582 0 10.319468323490582 -21.95473402650714 0 0 0 0 27.115697088040179 54.948626589088235 0 54.948626589088235 23.574574356025551 0 0 0 0 -3.380041887772876 4.7762030763657322 0 4.7762030763657322 1.6872013012939817 0 0 0 0 83.060873986796651 7.845718754653717 0 7.845718754653717 -5.383418129873462 0 0 0 0 3.038971231543627 11.463650163228493 0 11.463650163228493 6.178014680583658 0 0 0 0 -25.864346592265065 6.378552005495294 0 6.378552005495294 31.930863841702376 0 0 0 0 -578.44544259051327 317.46222214556474 0 317.46222214556474 -136.77674913762894 0 0 0 0 -744.13926951069152 416.63885977383325 0 416.63885977383325 45.112633792065026 0 0 0 0 -53.471242141575203 34.725039085744356 0 34.725039085744356 23.225398944756307 0 0 0 0 -888.1494443892152 -196.91639356489031 0 -196.91639356489031 -41.560434105573222 0 0 0 0 -1169.095917005885 391.09967637686532 0 391.09967637686532 111.41266702149005 0 0 0 0 4.2200950611147405 8.246919266685353 0 8.246919266685353 6.5282977784071932 0 0 0 0 6.8925668732263148 6.8833337284740992 0 6.8833337284740992 0.0022320228163152933 0 0 0 0 1.0905682204880804 5.895863689281839 0 5.895863689281839 1.7145788707529874 0 0 0 0 16.377920591189131 1.9178645529511016 0 1.9178645529511016 -1.7041287242348062 0 0 0 0 -698.07522104111558 609.63895449691336 0 609.63895449691336 0.094578153884007948 0 0 0 0 -298.0735177653296 545.47997709154515 0 545.47997709154515 -94.926371585359448 0 0 0 0 -745.07431776371959 452.65777770979184 0 452.65777770979184 20.494274627519189 0 0 0 0 -512.1002081958286 626.3268493851574 0 626.3268493851574 -528.92925320370705 0 0 0 0 -1.4972671302531637 12.702473215608023 0 12.702473215608023 10.461631709099777 0 0 0 0 -558.72096288445027 688.69928588565745 0 688.69928588565745 -225.13149712680024 0 0 0 0 -18.251617591595277 18.841679743374698 0 18.841679743374698 -115.29312260319421 0 0 0 0 4.9920043633392197 17.179865419704583 0 17.179865419704583 -21.670310637113289 0 0 0 0 6.3665554439296699 12.211458655380142 0 12.211458655380142 -10.93360116518852 0 0 0 0 7.5069439013339263 13.478984126747065 0 13.478984126747065 -11.23410448292617 0 0 0 0 -4.8006654268610873 10.593272196638281 0 10.593272196638281 -26.079040578129934 0 0 0 0 -2.4607041821461166 13.927610922276585 0 13.927610922276585 12.755532035368958 0 0 0 0 -13.767319412407232 36.343646256944339 0 36.343646256944339 -31.523151625191531 0 0 0 0 70.043948120612185 -131.59437486919342 0 -131.59437486919342 -83.393678377364267 0 0 0 0 -240.05052101165347 -72.05774889382883 0 -72.05774889382883 170.16277519357391 0 0 0 0 -0.59498875517624583 7.6460745533945556 0 7.6460745533945556 4.1091542457571677 0 0 0 0 453.10765701439232 240.81492537746817 0 240.81492537746817 -106.45377661455132 0 0 0 0 -959.83354452723142 -139.23075533377414 0 -139.23075533377414 422.35783184788306 0 0 0 0 -334.31655368940847 1457.4687806040965 0 1457.4687806040965 -1047.3639442921776 0 0 0 0 -236.82352655620343 445.61133981654712 0 445.61133981654712 891.39307132297836 0 0 0 0 -926.57294217848175 436.82875033339224 0 436.82875033339224 1764.9117273630691 0 0 0 0 -636.42672087660321 790.28138163053154 0 790.28138163053154 1172.3276200985711 0 0 0 0 -0.76561708663842865 3.0329295743346734 0 3.0329295743346734 3.8753435984235125 0 0 0 0 -1770.5747684635353 581.89191009376009 0 581.89191009376009 1212.3046289753547 0 0 0 0 803.02048980784457 908.1495068288059 0 908.1495068288059 983.7879886262017 0 0 0 0 554.6758503546007 1001.2695747279213 0 1001.2695747279213 1017.3228297423339 0 0 0 0 662.109690003781 141.22932477160066 0 141.22932477160066 67.947938013592648 0 0 0 0 56.164574282855085 37.079774366640322 0 37.079774366640322 8.8258790163644676 0 0 0 0 -37.129673651867847 27.005086350875345 0 27.005086350875345 -0.79980487040103299 0 0 0 0 187.26094124076189 -4.6386645549500827 0 -4.6386645549500827 772.45314831327414 0 0 0 0 -242.91718810753082 438.38992014990072 0 438.38992014990072 1346.9355688081851 0 0 0 0 -576.86858370540722 345.7602840610125 0 345.7602840610125 -75.140300150167604 0 0 0 0 -356.07382635021349 45.819444218243007 0 45.819444218243007 -13.525676201024908 0 0 0 0 -638.13910420001048 656.87593164232385 0 656.87593164232385 -332.91801072053931 0 0 0 0 0.88353426435230631 2.1091841657095642 0 2.1091841657095642 2.0797969080456369 0 0 0 0 86.269732262997422 275.36989784323669 0 275.36989784323669 -475.13299490726786 0 0 0 0 960.2377712453017 174.12366324396498 0 174.12366324396498 -746.13347055242048 0 0 0 0 97.820231220772257 394.80177913126681 0 394.80177913126681 -234.85037498391466 0 0 0 0 -655.03718293491693 152.47348917469208 0 152.47348917469208 1840.5186813707987 0 0 0 0 426.73394398503297 2.1091895647041383 0 2.1091895647041383 -495.69054390047677 0 0 0 0 27.854570149567621 35.092518346890046 0 35.092518346890046 11.586062884183889 0 0 0 0 -23.016204220947515 27.244108391501484 0 27.244108391501484 4.3557773421890857 0 0 0 0 -17.125123828300275 192.41591647454334 0 192.41591647454334 14.493455377720238 0 0 0 0 -215.25568657065014 287.005390538965 0 287.005390538965 -275.23514628597331 0 0 0 0 -709.70366957162332 -107.60769117751624 0 -107.60769117751624 157.65637134525605 0 0 0 0 -45.838618626612515 -6.9601869780790366 0 -6.9601869780790366 69.682435529306531 0 0 0 0 -18.464175990071453 -18.956050571781816 0 -18.956050571781816 -1657.9661626052111 0 0 0 0 -219.74532730251667 906.70942997049133 0 906.70942997049133 -1129.1925694847378 0 0 0 0 -12.547401661761512 2.7513998634232166 0 2.7513998634232166 -1.1722496878006723 0 0 0 0 -99.811341600783635 1126.9584089212294 0 1126.9584089212294 -1098.2298894204832 0 0 0 0 75.474257917696377 56.694432311880519 0 56.694432311880519 -1334.0962724232359 0 0 0 0 -85.016933832521318 802.91657229366683 0 802.91657229366683 526.85623614311044 0 0 0 0 -1138.3470923810492 487.13706025167994 0 487.13706025167994 220.31136297527701 0 0 0 0 204.15268354635919 936.48352215557679 0 936.48352215557679 358.61162905506717 0 0 0 0 -192.05357155771344 776.83610190512627 0 776.83610190512627 537.37828219254152 0 0 0 0 -400.07664630471118 1134.738226066791 0 1134.738226066791 2261.6208203289279 0 0 0 0 -136.73703034180653 -193.11810471805074 0 -193.11810471805074 2086.9571232548042 0 0 0 0 12.319314094078408 6.6747249454147379 0 6.6747249454147379 6.0973196611035689 0 0 0 0 -350.08735424002953 -463.79803117733536 0 -463.79803117733536 3487.4198307123152 0 0 0 0 440.49392717714363 1190.4174028646812 0 1190.4174028646812 702.01876931497827 0 0 0 0 -825.43900516223948 606.38038710548426 0 606.38038710548426 451.79359544842737 0 0 0 0 857.6190243260171 -82.064973069043845 0 -82.064973069043845 656.22804300379357 0 0 0 0 -164.61016375033068 631.18797761789756 0 631.18797761789756 272.39041860285215 0 0 0 0 -47.84864264035059 -100.52131212568929 0 -100.52131212568929 592.36364669587056 0 0 0 0 -234.44425369013334 234.08371236216044 0 234.08371236216044 830.98184319335996 0 0 0 0 -81.47124804854684 346.41969828494621 0 346.41969828494621 144.421628191536 0 0 0 0 16.421621763554867 57.829460967608611 0 57.829460967608611 321.22784256942396 0 0 0 0 66.565586143231485 368.85058986747026 0 368.85058986747026 386.15333105965965 0 0 0 0 100.98233968055865 113.65882038095879 0 113.65882038095879 350.10783063813869 0 0 0 0 272.42029520321375 127.46418763788097 0 127.46418763788097 1260.1267132442408 0 0 0 0 297.87612176501261 718.84699364157859 0 718.84699364157859 906.5580662436405 0 0 0 0 -175.30078790869447 634.21640995310736 0 634.21640995310736 1263.8499029047407 0 0 0 0 -190.49899170995923 378.09085263133602 0 378.09085263133602 1227.859495254932 0 0 0 0 85.263145082957635 574.952566544609 0 574.952566544609 321.04518447435112 0 0 0 0 74.852711066894699 317.94283470909431 0 317.94283470909431 -338.02141274455789 0 0 0 0 300.09639615980268 354.73026137044508 0 354.73026137044508 393.13500308958464 0 0 0 0 258.91750410109671 606.00180325851034 0 606.00180325851034 -703.54412386720651 0 0 0 0 407.17746903390798 294.3502597410552 0 294.3502597410552 301.09039584811762 0 0 0 0 517.38032004107299 365.24576135679308 0 365.24576135679308 -337.34473080185126 0 0 0 0 744.47457860332361 443.02842962613431 0 443.02842962613431 200.39387051017547 0 0 0 0 297.39366264371347 253.40034806837502 0 253.40034806837502 269.85734532211791 0 0 0 0 443.31960350909139 671.19083792033416 0 671.19083792033416 1030.2998062250263 0 0 0 0 527.14284459943156 400.19781199187128 0 400.19781199187128 -91.60860023983696 0 0 0 0 199.85978381340101 201.94647593563423 0 201.94647593563423 -171.24916488441886 0 0 0 0 -17.009862049468211 301.20598209803575 0 301.20598209803575 84.373820937340497 0 0 0 0 234.85502789702696 482.09116415219705 0 482.09116415219705 210.46134215329948 0 0 0 0 -41.294569160476385 154.12425371589779 0 154.12425371589779 774.74018142592467 0 0 0 0 -7.2139020546383108 11.848040626980946 0 11.848040626980946 690.99371151499508 0 0 0 0 110.19135151602222 -21.93892008921739 0 -21.93892008921739 630.56196870218264 0 0 0 0 5.6223352781808842 4.1777946270686357 0 4.1777946270686357 3.5831302610353362 0 0 0 0 352.3506468353371 411.72383773044294 0 411.72383773044294 -399.87742536120641 0 0 0 0 88.860229908823385 -152.81173986720387 0 -152.81173986720387 1951.7345752409383 0 0 0 0 -26.827767225418938 14.204485546273645 0 14.204485546273645 87.254295036560507 0 0 0 0 15.487517850629104 11.366218098432284 0 11.366218098432284 9.8402977735408967 0 0 0 0 79.292162747995462 -285.92460647905682 0 -285.92460647905682 793.15107108900702 0 0 0 0 -196.32866998573809 313.51698103289527 0 313.51698103289527 -116.10511236524326 0 0 0 0 135.26059888923305 53.542007467158555 0 53.542007467158555 26.708728592922853 0 0 0 0 711.91990150848869 730.10052655902109 0 730.10052655902109 397.41975521788117 0 0 0 0 853.81191393390327 377.21912688537122 0 377.21912688537122 519.08560077126458 0 0 0 0 102.87076359927596 516.90531689556519 0 516.90531689556519 924.8984389755642 0 0 0 0 791.25790844410221 220.50571664946619 0 220.50571664946619 52.500942575796216 0 0 0 0 4.9216230998281958 2.772407918958578 0 2.772407918958578 -2.023536672381141 0 0 0 0 -2.8217261543127279 1.9810684573836852 0 1.9810684573836852 0.23074481598415275 0 0 0 0 1.5184655150073638 2.3341265619850446 0 2.3341265619850446 -0.9036311659648959 0 0 0 0 0.91815531734786759 5.5492231819566769 0 5.5492231819566769 -2.995032663253383 0 0 0 0 18.315202080913878 288.27956766505849 0 288.27956766505849 -559.3459874643595 0 0 0 0 37.937126940210874 183.04070887824491 0 183.04070887824491 -511.07353454561962 0 0 0 0 113.84683930094616 342.91245309958867 0 342.91245309958867 -309.7115653000219 0 0 0 0 281.63391798191515 269.47606555137463 0 269.47606555137463 -295.70271031206357 0 0 0 0 521.63542756084644 212.81584892234969 0 212.81584892234969 -372.96939613464201 0 0 0 0 236.20576198856361 64.597350158266636 0 64.597350158266636 -449.2716793538857 0 0 0 0 101.36634512656656 -55.106161856220751 0 -55.106161856220751 -861.91708343062783 0 0 0 0 366.03768880630378 268.11277808115847 0 268.11277808115847 -577.67266089413897 0 0 0 0 651.73935152592458 243.32447437954397 0 243.32447437954397 -374.0647937154863 0 0 0 0 441.35898863628972 73.901214213052299 0 73.901214213052299 -356.4075210794208 0 0 0 0 452.67222600728564 110.91852632512018 0 110.91852632512018 -317.35393857548843 0 0 0 0 441.48739793553978 151.45190518410891 0 151.45190518410891 -403.69608935317956 0 0 0 0 417.86904365857845 88.682332256737936 0 88.682332256737936 -551.98253075893444 0 0 0 0 598.88189037967095 107.13984173450808 0 107.13984173450808 -64.849151241811342 0 0 0 0 674.35069842285247 702.00340649313102 0 702.00340649313102 115.93745286566264 0 0 0 0 475.92550879655755 462.36843931923795 0 462.36843931923795 797.45588603832584 0 0 0 0 430.19791046992759 847.58379869991222 0 847.58379869991222 667.58323227299843 0 0 0 0 529.78986715355131 438.90323751295364 0 438.90323751295364 -388.95882573159179 0 0 0 0 379.68347308180455 630.96412489756767 0 630.96412489756767 566.81117354529852 0 0 0 0 440.7620326346223 488.49846850280301 0 488.49846850280301 877.43055660627579 0 0 0 0 563.03034125674094 569.5225538540999 0 569.5225538540999 393.18030460283626 0 0 0 0 609.31771368990303 424.33559251738916 0 424.33559251738916 476.12529488119617 0 0 0 0 1.6616858600778954 3.7356882089033263 0 3.7356882089033263 7.3073024046967134 0 0 0 0 853.05535915872679 596.27514166210312 0 596.27514166210312 230.25899606579333 0 0 0 0 525.63368518539937 833.70476338863955 0 833.70476338863955 846.84445425091053 0 0 0 0 -331.41929308403633 19.80415847995755 0 19.80415847995755 585.65236602085133 0 0 0 0 -353.9773921035885 109.93559017790903 0 109.93559017790903 531.71230324817589 0 0 0 0 -254.09801562720531 23.991999073001352 0 23.991999073001352 38.487168328181724 0 0 0 0 -310.09717266856751 167.44805280117725 0 167.44805280117725 3.1004119181161514 0 0 0 0 -298.72432510812359 122.13834255498659 0 122.13834255498659 144.25607385748299 0 0 0 0 -343.64462727389764 192.38165869305521 0 192.38165869305521 116.21465534082017 0 0 0 0 -352.88281721169187 401.39887707968592 0 401.39887707968592 363.01937581713719 0 0 0 0 -366.40194320094997 463.08090741618253 0 463.08090741618253 96.630056310095824 0 0 0 0 -361.61772402950737 195.43075186098213 0 195.43075186098213 176.75783505364961 0 0 0 0 -248.80866807239363 396.800294247696 0 396.800294247696 284.44330030345009 0 0 0 0 -249.49561458232347 608.03969335804868 0 608.03969335804868 975.01939355285867 0 0 0 0 17.886918965571112 610.34042216328612 0 610.34042216328612 43.128156602251693 0 0 0 0 -5.7925232606503414 252.82417651471769 0 252.82417651471769 -142.49203253768792 0 0 0 0 -522.06604382289515 429.00672833694625 0 429.00672833694625 -17.357137282699114 0 0 0 0 -10.044289782425039 350.76998245438153 0 350.76998245438153 -162.25888589731585 0 0 0 0 -948.42791758016733 49.355315493101443 0 49.355315493101443 -398.76477089631953 0 0 0 0 -18.542352177893918 309.95797333452356 0 309.95797333452356 -345.17583315615775 0 0 0 0 -279.32026760757435 623.81479804548871 0 623.81479804548871 -275.03363357320541 0 0 0 0 -980.83810526024308 802.90780892218504 0 802.90780892218504 -300.50460238060623 0 0 0 0 -271.67567734296244 561.78537364007207 0 561.78537364007207 -36.101061630703043 0 0 0 0 -327.63118885909353 443.33589447809209 0 443.33589447809209 14.421145248317771 0 0 0 0 -272.53488285351341 507.2735942585241 0 507.2735942585241 -185.32128967257449 0 0 0 0 139.40871782522299 254.30956507486917 0 254.30956507486917 -211.58763695122616 0 0 0 0 -179.70459894186206 430.89754593688849 0 430.89754593688849 -123.43993668896292 0 0 0 0 -313.18842286417021 375.67705109623012 0 375.67705109623012 -146.22157938168675 0 0 0 0 3.6129353214977868 6.3540137393297584 0 6.3540137393297584 4.54890202353522 0 0 0 0 -463.64661418170726 264.48335886686982 0 264.48335886686982 -35.845810558559606 0 0 0 0 -368.8192412978533 230.60479509929428 0 230.60479509929428 102.29407692897075 0 0 0 0 -368.93676433573421 221.8670698490846 0 221.8670698490846 -95.129156413502642 0 0 0 0 -388.58175092829333 233.24529119834187 0 233.24529119834187 -227.7872169403563 0 0 0 0 -411.08047958071984 182.20386301810504 0 182.20386301810504 3.3114075442281319 0 0 0 0 -353.90883678600949 71.542465751124837 0 71.542465751124837 52.656181558239041 0 0 0 0 -352.23305825027819 223.85278993252632 0 223.85278993252632 13.9274206062546 0 0 0 0 -363.43371919118727 181.85828132846291 0 181.85828132846291 -14.713972394238226 0 0 0 0 -405.90937754242623 123.46477946157393 0 123.46477946157393 1.3471406881976691 0 0 0 0 -361.129241239978 171.22863642031007 0 171.22863642031007 33.974251669540536 0 0 0 0 -283.79964335304976 229.05511428281898 0 229.05511428281898 -99.1916795736106 0 0 0 0 -512.96204864070751 258.96598429675214 0 258.96598429675214 -13.377560296750744 0 0 0 0 363.0157912230934 334.77431446509581 0 334.77431446509581 -51.907255918071314 0 0 0 0 -316.7821044397424 16.191552190422954 0 16.191552190422954 49.381332210090477 0 0 0 0 -541.5535229115394 105.67733024166228 0 105.67733024166228 108.36318625113927 0 0 0 0 -512.9863766596136 -251.26847647452087 0 -251.26847647452087 -436.7777944830159 0 0 0 0 1421.7341405801708 298.08801474283973 0 298.08801474283973 -288.70667661643529 0 0 0 0 774.37309905572329 826.32659324068663 0 826.32659324068663 -676.43029627900978 0 0 0 0 -506.34973026294028 985.40932660641556 0 985.40932660641556 143.06999820747296 0 0 0 0 453.38343014815473 136.41431131365243 0 136.41431131365243 854.41957008944883 0 0 0 0 -213.91682435750408 363.63571673572733 0 363.63571673572733 718.4623927831708 0 0 0 0 -3.2192133376156562 836.32494891524038 0 836.32494891524038 1242.2036224299227 0 0 0 0 -431.11925358751614 15.366798908784403 0 15.366798908784403 624.66402125503919 0 0 0 0 -46.880271996662486 335.04050202062353 0 335.04050202062353 593.30970214938861 0 0 0 0 -1292.7855212634458 -125.40936247583886 0 -125.40936247583886 481.90561827062265 0 0 0 0 -88.262704080843832 -175.41266991797602 0 -175.41266991797602 137.28981133023626 0 0 0 0 -680.13987567937875 625.21151264912169 0 625.21151264912169 -481.58334829915839 0 0 0 0 -220.57581157579261 -363.82103607449244 0 -363.82103607449244 -494.84866124833934 0 0 0 0 -98.423394004756119 -54.685028045219951 0 -54.685028045219951 148.88340561845689 0 0 0 0 -9.8991424935356633 -1.8309846782057662 0 -1.8309846782057662 -0.19847363271762053 0 0 0 0 -196.55845575933927 172.27282411285705 0 172.27282411285705 -131.18465560999499 0 0 0 0 -29.001247670343673 -0.30132036980472776 0 -0.30132036980472776 7.2804118924363959 0 0 0 0 -63.463798917131498 -67.019679310811625 0 -67.019679310811625 -78.943651804118417 0 0 0 0 -10.385644490048094 3.9737158611947336 0 3.9737158611947336 7.6710060329289718 0 0 0 0 -202.27589544301736 13.783906761003891 0 13.783906761003891 139.51092270869412 0 0 0 0 329.34889652678976 -349.8530642286496 0 -349.8530642286496 493.80640408308682 0 0 0 0 -186.45375688492641 -188.37489362751148 0 -188.37489362751148 635.54078375906101 0 0 0 0 594.81047107906488 -537.25097821210511 0 -537.25097821210511 306.38376436276303 0 0 0 0 -441.19536382641672 501.33719952853062 0 501.33719952853062 11.068674790294608 0 0 0 0 45.057839260945912 82.597161335688725 0 82.597161335688725 -374.29541182122921 0 0 0 0 -1260.6201896845159 -715.15287214537966 0 -715.15287214537966 560.7994272979704 0 0 0 0 -48.42294076210203 -5.8621878226096271 0 -5.8621878226096271 5.0862923485119476 0 0 0 0 -428.61459155794728 13.727747247972729 0 13.727747247972729 525.55084210592031 0 0 0 0 -108.8492264422548 -1.4578195401227276 0 -1.4578195401227276 50.598346972772561 0 0 0 0 -128.25986982319591 97.7039808469126 0 97.7039808469126 -76.458418061287375 0 0 0 0 -6.7354201021766045 11.144099084002846 0 11.144099084002846 24.962908294785848 0 0 0 0 -256.13484875535141 152.62952667415448 0 152.62952667415448 -49.843486491445219 0 0 0 0 -238.24253946232784 157.98118096580583 0 157.98118096580583 -63.42741714353906 0 0 0 0 -235.36389705773036 123.12264497747674 0 123.12264497747674 -23.774976238506497 0 0 0 0 -280.12054587205057 159.49472074208825 0 159.49472074208825 -36.416886794148013 0 0 0 0 -286.84970413285191 127.11817325311131 0 127.11817325311131 18.143518304059398 0 0 0 0 -231.72097548466991 90.301252383142128 0 90.301252383142128 24.584769073771895 0 0 0 0 3.6670973958544977 8.3488337963016193 0 8.3488337963016193 18.00278682125753 0 0 0 0 -231.05064445195978 144.67804647881337 0 144.67804647881337 -92.179409481701441 0 0 0 0 -380.95601849367813 31.157553464388911 0 31.157553464388911 310.24014960686327 0 0 0 0 -286.61515269454321 180.49911204718956 0 180.49911204718956 -42.095352090589586 0 0 0 0 -268.92810233954515 158.45101686914859 0 158.45101686914859 -46.214611466282804 0 0 0 0 341.72425346868113 236.08068712311797 0 236.08068712311797 300.19039275846444 0 0 0 0 626.71444536728814 386.23330530414023 0 386.23330530414023 198.25790507605416 0 0 0 0 -0.76813736222305806 -0.054233086500637739 0 -0.054233086500637739 2.3387765499563216 0 0 0 0 379.04641534245457 -0.30024224506632891 0 -0.30024224506632891 -276.13223820735584 0 0 0 0 483.30327440024121 513.63273237666726 0 513.63273237666726 413.47554768349801 0 0 0 0 564.12194653115148 491.34132794721518 0 491.34132794721518 330.48940155223681 0 0 0 0 214.72889602294163 201.4460962329249 0 201.4460962329249 249.69064384578087 0 0 0 0 314.3330468222066 462.4240365654673 0 462.4240365654673 428.66376138389751 0 0 0 0 -79.845816685061436 12.422264331922634 0 12.422264331922634 -24.713530871551484 0 0 0 0 -41.791697369175381 -34.66206495690858 0 -34.66206495690858 -7.3464736249197813 0 0 0 0 -49.176242519439256 -7.2387942123386892 0 -7.2387942123386892 -19.092942033976215 0 0 0 0 -77.309351313073421 -15.944784120460099 0 -15.944784120460099 -9.5253277042356785 0 0 0 0 20.548686387206544 79.639194637391483 0 79.639194637391483 35.462475169806567 0 0 0 0 42.737643952725193 153.25310334751157 0 153.25310334751157 53.562120951959514 0 0 0 0 -34.90737291314872 16.600686666402908 0 16.600686666402908 327.08723213837948 0 0 0 0 -19.682394525210839 98.902582245027588 0 98.902582245027588 62.001902679279738 0 0 0 0 25.750061708313297 72.529838504986401 0 72.529838504986401 -5.1746755695930915 0 0 0 0 -34.485623355831194 105.21775012907892 0 105.21775012907892 219.24150967906462 0 0 0 0 -30.537132913847017 -14.666529915546562 0 -14.666529915546562 27.947478593363485 0 0 0 0 -3.1551751462580455 -0.53416737716498375 0 -0.53416737716498375 5.5407206631545307 0 0 0 0 -43.180144707122508 -0.73509663382981216 0 -0.73509663382981216 4.3525835312664425 0 0 0 0 13.963115188481709 3.6750653328554961 0 3.6750653328554961 2.3520148169351738 0 0 0 0 -38.87177236189018 5.0600144802301656 0 5.0600144802301656 25.134894585760776 0 0 0 0 -36.654254453048452 20.46024185358533 0 20.46024185358533 25.613445903973144 0 0 0 0 -19.823647602519486 52.97614761179284 0 52.97614761179284 58.976001257178723 0 0 0 0 31.329325210354 314.14159812180696 0 314.14159812180696 183.84688379485306 0 0 0 0 -171.19789886224316 249.67305342303007 0 249.67305342303007 30.005496009993294 0 0 0 0 -9.0491376382362887 0.94106357142510433 0 0.94106357142510433 4.3834139397653189 0 0 0 0 26.889680657800596 40.251260423996001 0 40.251260423996001 40.273669947345581 0 0 0 0 389.39935209401301 35.174501109002449 0 35.174501109002449 99.347194879264862 0 0 0 0 286.26533717990969 142.47043874976225 0 142.47043874976225 15.927497306547593 0 0 0 0 226.55661907646572 -84.57560365369136 0 -84.57560365369136 -12.937950795923825 0 0 0 0 653.74285033230262 -100.9446802515231 0 -100.9446802515231 -88.468995665520197 0 0 0 0 784.80222542499905 289.98756591136043 0 289.98756591136043 98.870159208818222 0 0 0 0 1430.9069390252043 530.36747143530738 0 530.36747143530738 -103.49976383593457 0 0 0 0 1019.1659288651572 45.32680147443898 0 45.32680147443898 -154.04336627286102 0 0 0 0 134.39160900295246 -0.58117278527060989 0 -0.58117278527060989 -1.1732133197920476 0 0 0 0 425.03039889832144 746.02246676278446 0 746.02246676278446 1116.2311455793215 0 0 0 0 1017.9203873552524 791.81807699869933 0 791.81807699869933 605.04820974555332 0 0 0 0 587.94069613458123 547.72320721986034 0 547.72320721986034 496.57259632511705 0 0 0 0 240.28446168667142 472.25936578760593 0 472.25936578760593 795.51024852990668 0 0 0 0 607.17956152957049 656.27841321484448 0 656.27841321484448 352.24276622171601 0 0 0 0 471.68483686685067 669.20111460604676 0 669.20111460604676 414.80935527621477 0 0 0 0 507.72335919852048 540.47911505697994 0 540.47911505697994 384.04867684435158 0 0 0 0 573.7671087525523 641.65985875735532 0 641.65985875735532 346.06720328624942 0 0 0 0 640.51437475538114 604.77520423301758 0 604.77520423301758 344.7456625420964 0 0 0 0 425.66075862419621 421.86313381002765 0 421.86313381002765 225.49648939986946 0 0 0 0 65.834964081965154 28.701414977946115 0 28.701414977946115 -175.49389139923733 0 0 0 0 -656.6075540007987 674.7816418070297 0 674.7816418070297 -131.24046945034206 0 0 0 0 -456.2872162413114 263.23287834921939 0 263.23287834921939 -137.54987139848527 0 0 0 0 -116.43427371335565 29.115096366193029 0 29.115096366193029 -280.9660634061147 0 0 0 0 -451.90630885089899 527.85062460144047 0 527.85062460144047 -482.71233603046858 0 0 0 0 155.56585837010061 590.14008075651509 0 590.14008075651509 -732.00386780455528 0 0 0 0 -24.826375326068955 386.4803985771141 0 386.4803985771141 -718.5935093161329 0 0 0 0 48.220020831329748 214.1431777500984 0 214.1431777500984 -653.05345845438569 0 0 0 0 -333.79539632947126 247.84004864908638 0 247.84004864908638 -654.16478929406549 0 0 0 0 -0.078153620430384763 404.91089962027036 0 404.91089962027036 -329.9458739263282 0 0 0 0 -128.14724422991276 688.28421048312885 0 688.28421048312885 -513.6353330774291 0 0 0 0 581.0478972971614 485.79525040350927 0 485.79525040350927 -530.24448484293362 0 0 0 0 18.546856842753186 318.97235833424565 0 318.97235833424565 345.88388336564094 0 0 0 0 96.034951888417709 179.09656421554973 0 179.09656421554973 -74.329224123961467 0 0 0 0 -0.057907789887394756 325.29213868255829 0 325.29213868255829 316.75374666690914 0 0 0 0 209.88819191184666 222.79000451801494 0 222.79000451801494 310.65458983705321 0 0 0 0 -6.6281322901730846 7.8674377485527316 0 7.8674377485527316 -4.5183951223431791 0 0 0 0 320.1321695807128 535.03614168394415 0 535.03614168394415 274.57179713653568 0 0 0 0 655.67163247262943 865.1551601144929 0 865.1551601144929 -124.21943612472387 0 0 0 0 149.44075310050175 182.60197268485172 0 182.60197268485172 455.96166664097109 0 0 0 0 -1265.1107919713249 956.36344242448467 0 956.36344242448467 232.11464775328932 0 0 0 0 -5.247503076561145 4.8219765695975241 0 4.8219765695975241 -1.2479006058391633 0 0 0 0 -718.86193844307854 600.42760252827793 0 600.42760252827793 531.19312364303187 0 0 0 0 -1226.9779555371051 -12.331654187388381 0 -12.331654187388381 113.51484176203667 0 0 0 0 1011.0041455680057 1028.1292125516766 0 1028.1292125516766 1205.3097299929068 0 0 0 0 2655.3358574694284 -434.9000642808096 0 -434.9000642808096 -1140.7474895236592 0 0 0 0 17.101880580852566 6.8822162863834535 0 6.8822162863834535 2.7689471115818947 0 0 0 0 290.20848807394214 565.54009885156847 0 565.54009885156847 813.91753724317095 0 0 0 0 1670.5730741483858 1095.5755379340335 0 1095.5755379340335 235.60938797181734 0 0 0 0 725.94694413905381 471.76677542425023 0 471.76677542425023 -187.33787089096404 0 0 0 0 640.5905171502236 392.98836159590428 0 392.98836159590428 -169.03204721986549 0 0 0 0 893.69382441209018 -7.2331266819674056 0 -7.2331266819674056 -322.6413856072686 0 0 0 0 -10.169376184809806 72.000328543132923 0 72.000328543132923 -58.228599464190012 0 0 0 0 -118.77447371103335 265.69811819090683 0 265.69811819090683 173.13092055060588 0 0 0 0 -67.545109319748008 70.554736411788326 0 70.554736411788326 -234.89858125417959 0 0 0 0 -65.677469109035883 -39.654198230155089 0 -39.654198230155089 180.29155901900958 0 0 0 0 21.75506951623538 360.8811761377292 0 360.8811761377292 61.005067549776868 0 0 0 0 417.53362042913795 568.90058583537757 0 568.90058583537757 121.61259752949172 0 0 0 0 -551.97506406500179 406.6577883335558 0 406.6577883335558 -66.550302461771935 0 0 0 0 -8.7701647790672723 169.81359599926509 0 169.81359599926509 -272.28487678253441 0 0 0 0 -81.135409740294563 459.02107282634825 0 459.02107282634825 -82.99356811931284 0 0 0 0 4.1414775002073299 7.0622937213423995 0 7.0622937213423995 5.6113115152771798 0 0 0 0 -558.90489677209553 388.93714665499283 0 388.93714665499283 -159.59240060226875 0 0 0 0 627.00133468470449 252.03625445901343 0 252.03625445901343 -268.1913048640854 0 0 0 0 81.315926630941249 192.41097477854964 0 192.41097477854964 -118.43676472704101 0 0 0 0 967.65390497260523 204.44313863592834 0 204.44313863592834 -219.71886667045692 0 0 0 0 1.8996537691011639 3.1035608593415418 0 3.1035608593415418 2.7453859479167591 0 0 0 0 -450.09503507129557 126.11661546712276 0 126.11661546712276 -76.549277627651463 0 0 0 0 1015.5743224219877 166.51725712070402 0 166.51725712070402 -83.37349998512218 0 0 0 0 757.10888835544756 383.05402240588592 0 383.05402240588592 -182.36187050650187 0 0 0 0 762.73050881333256 458.57281039454392 0 458.57281039454392 -14.678033404386952 0 0 0 0 578.99853232715395 224.59806005605788 0 224.59806005605788 -387.09689977195376 0 0 0 0 -9.8906196360398937 73.442010464733045 0 73.442010464733045 -76.947785132370939 0 0 0 0 323.59147934539942 -133.02566935939103 0 -133.02566935939103 -241.38817687179835 0 0 0 0 342.21603908180259 189.48677710424454 0 189.48677710424454 125.92381234774075 0 0 0 0 277.98379516321438 281.66969729361153 0 281.66969729361153 -1.0425504270097008 0 0 0 0 317.51941179668938 103.47430898484163 0 103.47430898484163 -26.446546814448084 0 0 0 0 414.2232094271385 -20.299756610886107 0 -20.299756610886107 -148.36387416027719 0 0 0 0 -10.977966565726341 79.111588583655632 0 79.111588583655632 -88.010531801297986 0 0 0 0 33.805121868115236 14.1829398518842 0 14.1829398518842 -21.53983887588295 0 0 0 0 -693.7549513834565 512.3937380894713 0 512.3937380894713 128.9198120575893 0 0 0 0 -83.261356533956132 680.30823755019082 0 680.30823755019082 166.80974479162978 0 0 0 0 545.79445028192276 249.04892502519215 0 249.04892502519215 -103.94174452646985 0 0 0 0 69.991886068310123 115.70414705842995 0 115.70414705842995 -44.732327391655417 0 0 0 0 92.016180530503334 781.79370987645598 0 781.79370987645598 603.5271087547153 0 0 0 0 362.41476446358138 523.22380402906856 0 523.22380402906856 155.38118234711874 0 0 0 0 -562.95518394593819 -9.9029338972868572 0 -9.9029338972868572 289.76004695214215 0 0 0 0 -2.2903465994549492 2.0423200615724113 0 2.0423200615724113 2.4060792978143013 0 0 0 0 1349.510170845298 1295.8694528127819 0 1295.8694528127819 -94.604251133016078 0 0 0 0 299.31901290827955 445.6679927727746 0 445.6679927727746 -221.58209824393998 0 0 0 0 -28.33706845118374 45.836823392367734 0 45.836823392367734 -52.739846776354909 0 0 0 0 27.272195746991201 155.3974783174981 0 155.3974783174981 -13.449859647051198 0 0 0 0 30.147607512488321 149.61246430827669 0 149.61246430827669 -1.8115136620326666 0 0 0 0 218.55448603675177 322.19078953942517 0 322.19078953942517 23.443278215279861 0 0 0 0 69.979811641009292 57.512387186838168 0 57.512387186838168 -33.856658445394714 0 0 0 0 108.55403316211596 77.249408626619697 0 77.249408626619697 -39.027120970589749 0 0 0 0 -15.954277261610827 54.257617120058597 0 54.257617120058597 2.3397969675592094 0 0 0 0 -18.715582893643983 59.957605402340967 0 59.957605402340967 -66.255998354808114 0 0 0 0 368.08325183354827 283.51986963267154 0 283.51986963267154 -14.450087885095854 0 0 0 0 -0.70932345701294253 119.70739740430872 0 119.70739740430872 42.767527033363876 0 0 0 0 -20.69991753467184 59.826002477118891 0 59.826002477118891 -6.0453167797459173 0 0 0 0 36.326366097127902 79.332437563050917 0 79.332437563050917 5.4128897394693922 0 0 0 0 19.137014685671602 55.006830640499174 0 55.006830640499174 8.8447037288678985 0 0 0 0 6.895530450012302 -20.724441985782505 0 -20.724441985782505 -41.849266228993656 0 0 0 0 -12.747345506338377 14.030719823015374 0 14.030719823015374 -17.239118057400447 0 0 0 0 22.53971985734097 80.698377065329623 0 80.698377065329623 24.962869390466949 0 0 0 0 -9.2384426877106307 56.230285512610862 0 56.230285512610862 44.207129280855042 0 0 0 0 2.6272188868606463 37.205594741961249 0 37.205594741961249 48.658239767457417 0 0 0 0 -4.945893524301141 8.7618526555304612 0 8.7618526555304612 -13.410996952936699 0 0 0 0 -40.749837245326489 8.6131069025504985 0 8.6131069025504985 6.7280186686039087 0 0 0 0 119.18485861245426 10.443663675330754 0 10.443663675330754 -49.463469945338147 0 0 0 0 109.77854888392903 -80.026385874996777 0 -80.026385874996777 20.783984715642873 0 0 0 0 -78.638156532746507 -30.954718889592186 0 -30.954718889592186 35.829919659699044 0 0 0 0 -76.547499103515293 62.001285013277084 0 62.001285013277084 -51.312348453313462 0 0 0 0 -45.119351810470107 -3.7718241494048925 0 -3.7718241494048925 -20.155785801718594 0 0 0 0 -48.771972216905851 1.1334026426029595 0 1.1334026426029595 20.821748636895791 0 0 0 0 -1.7033816734589209 -1.4969588585708209 0 -1.4969588585708209 -7.4141065374303992 0 0 0 0 0.063787848019330795 -1.3378079301743355 0 -1.3378079301743355 -2.4054593776136812 0 0 0 0 -39.413360163933248 316.97625516348489 0 316.97625516348489 -461.46690566106463 0 0 0 0 -149.81754662506864 126.44057394994888 0 126.44057394994888 -524.16594892700959 0 0 0 0 77.058662281066063 263.92255964827928 0 263.92255964827928 -121.08031786747597 0 0 0 0 0.18808617218746804 194.73944269281856 0 194.73944269281856 -1295.5081055763294 0 0 0 0 -276.04587557196464 554.67174747833542 0 554.67174747833542 -569.31615868101653 0 0 0 0 -40.65781914209947 -60.127138454365195 0 -60.127138454365195 -1031.8480269993315 0 0 0 0 -82.875215874490095 569.32353576270361 0 569.32353576270361 -1119.6251659600821 0 0 0 0 -32.406012155261124 370.2038103289342 0 370.2038103289342 -737.24849988376081 0 0 0 0 -5.3018447109027989 3.0399018566458835 0 3.0399018566458835 -2.0672763776343004 0 0 0 0 -215.92663020754117 190.39583482405578 0 190.39583482405578 -106.61871295362653 0 0 0 0 -37.399264385385322 -124.59595517911657 0 -124.59595517911657 -236.00641590815212 0 0 0 0 24.247998323757201 -187.7229935259893 0 -187.7229935259893 80.639152331601508 0 0 0 0 3.9199859782606268 1.1047800299320443 0 1.1047800299320443 -6.4390346068398117 0 0 0 0 -0.55274063340038992 15.141220366964262 0 15.141220366964262 -18.341246961499564 0 0 0 0 -55.780353245849255 174.64031615197018 0 174.64031615197018 -330.23871001891166 0 0 0 0 -18.1205729789217 10.132119901642 0 10.132119901642 206.95022828117726 0 0 0 0 3.1485847890481296 -1.0924302202034255 0 -1.0924302202034255 -2.7786102255872294 0 0 0 0 2.4051167662109947 24.331250490042294 0 24.331250490042294 50.680271641562285 0 0 0 0 -20.361542060840293 29.174893056660949 0 29.174893056660949 54.670726070609817 0 0 0 0 -9.1471166426308628 53.990385529752075 0 53.990385529752075 85.286458527945797 0 0 0 0 16.079209544615878 69.799776572859628 0 69.799776572859628 16.907664573831426 0 0 0 0 -0.012481670652050525 102.78262362075839 0 102.78262362075839 88.228625538460619 0 0 0 0 0.073852410379913636 102.72823419904307 0 102.72823419904307 -49.579090584193182 0 0 0 0 -16.383424249856034 75.904866048513213 0 75.904866048513213 16.717488707903385 0 0 0 0 23.619730363810959 84.927073652672334 0 84.927073652672334 -42.064483038695471 0 0 0 0 12.847639783314662 92.93347512769833 0 92.93347512769833 -111.03566943572514 0 0 0 0 8.0593133593647508 57.185757328370528 0 57.185757328370528 -46.634051547519448 0 0 0 0 8.8152389909519115 61.163664202438667 0 61.163664202438667 -83.860180542425951 0 0 0 0 27.068333193121362 37.836868053953367 0 37.836868053953367 -30.361625253757666 0 0 0 0 40.440929942611547 70.310715333280314 0 70.310715333280314 -80.867385935576749 0 0 0 0 16.341054404008901 41.249118957905011 0 41.249118957905011 -91.345067840769843 0 0 0 0 12.649137242116012 55.901711134212064 0 55.901711134212064 -113.36942549894593 0 0 0 0 21.404429482310661 41.318039251424125 0 41.318039251424125 -103.09797028073808 0 0 0 0 37.398099190715584 41.764408074013772 0 41.764408074013772 -102.86629807809368 0 0 0 0 11.17213319953953 36.731495314892413 0 36.731495314892413 -101.74782149353268 0 0 0 0 12.661246014334324 4.5716576779668969 0 4.5716576779668969 -1.3882295280962182 0 0 0 0 9.9500164392520674 11.643342757937717 0 11.643342757937717 -67.94523442990976 0 0 0 0 16.478483793108978 2.8232571985135451 0 2.8232571985135451 -0.25975107381285056 0 0 0 0 -36.388709271457628 60.205991850927603 0 60.205991850927603 -43.656461646201933 0 0 0 0 16.776700084898039 -41.528803079179852 0 -41.528803079179852 -336.88548983070723 0 0 0 0 14.084288714249851 101.88970756255003 0 101.88970756255003 -154.86130107885765 0 0 0 0 36.078076779274852 27.488047269518574 0 27.488047269518574 -154.16648916980012 0 0 0 0 19.400215310510248 6.4546261873983894 0 6.4546261873983894 -106.82238277843135 0 0 0 0 9.3336018142290413 6.8892338610221486 0 6.8892338610221486 -103.58683875811403 0 0 0 0 -2.4108885787698 2.0212226093496639 0 2.0212226093496639 2.5581216333995229 0 0 0 0 -14.702363263801089 8.6915666969016456 0 8.6915666969016456 12.858795489621116 0 0 0 0 -3.6892128883625901 -0.054211691748633939 0 -0.054211691748633939 2.6306011501309143 0 0 0 0 0.094440834058332257 4.9950942875839246 0 4.9950942875839246 2.6342439636755444 0 0 0 0 -0.018608700964250602 13.28338779031219 0 13.28338779031219 -12.179116983530548 0 0 0 0 3.8557478251823341 -0.33595523683629835 0 -0.33595523683629835 -1.5304958294209641 0 0 0 0 -20.21837801131187 90.828355905847275 0 90.828355905847275 586.49808633724751 0 0 0 0 -15.557289079384645 148.87161429754451 0 148.87161429754451 -8.46709700705469 0 0 0 0 -30.447172714048065 14.843625548293858 0 14.843625548293858 246.01188894731968 0 0 0 0 0.11068026320384661 12.686290517876653 0 12.686290517876653 1.145713456098747 0 0 0 0 5.8126274143889987 2.5967233481995038 0 2.5967233481995038 -1.1529264919189757 0 0 0 0 -23.94062640426273 24.247986381395094 0 24.247986381395094 -2.8717703825441276 0 0 0 0 -5.3586392901769386 4.8806269794089161 0 4.8806269794089161 0.59291565399774981 0 0 0 0 -73.316543483451824 33.276695187216319 0 33.276695187216319 23.128295890612208 0 0 0 0 -20.447472751824534 40.493283785543099 0 40.493283785543099 -24.010761505511255 0 0 0 0 -310.78700572000525 52.975751856025454 0 52.975751856025454 35.33195893098673 0 0 0 0 83.698787172450466 164.31887100424524 0 164.31887100424524 -307.40384842013736 0 0 0 0 -4.176497747641065 1.2086814217262258 0 1.2086814217262258 0.94651120081324791 0 0 0 0 -18.860730771901217 132.24525885546666 0 132.24525885546666 104.78466973458853 0 0 0 0 61.134721127091325 16.798821995624166 0 16.798821995624166 -4.6167143174407101 0 0 0 0 -93.825588469262584 223.55903081957877 0 223.55903081957877 -195.83337584032233 0 0 0 0 59.527779172603914 229.89732969045144 0 229.89732969045144 -338.80063008727666 0 0 0 0 0.30044621197157539 235.09253999976681 0 235.09253999976681 -289.01932146155013 0 0 0 0 -229.88861584725237 -130.25901998962127 0 -130.25901998962127 -214.81833565377019 0 0 0 0 -39.724900250483188 135.14496337962282 0 135.14496337962282 128.2275511721964 0 0 0 0 -74.092948067438556 133.86848376220041 0 133.86848376220041 453.2455731710329 0 0 0 0 0.17313277360148049 3.8203262407857821 0 3.8203262407857821 0.74060597064161726 0 0 0 0 115.50778299800004 156.87368532473374 0 156.87368532473374 282.0501514997577 0 0 0 0 -290.68582697991224 108.83626301021104 0 108.83626301021104 1063.3803329502075 0 0 0 0 0.53800146245913538 0.090641369801147675 0 0.090641369801147675 0.15314547118454058 0 0 0 0 269.28935385504792 366.9306856839944 0 366.9306856839944 -318.28557183725934 0 0 0 0 308.50218507686805 193.91634209897893 0 193.91634209897893 -814.62591831745658 0 0 0 0 -81.307091585273156 7.4091534053075065 0 7.4091534053075065 -190.38375282335619 0 0 0 0 139.936424140702 196.48184501410287 0 196.48184501410287 -266.92442175548786 0 0 0 0 -126.86691375341616 60.289983663984458 0 60.289983663984458 388.94305045396459 0 0 0 0 -28.296081951368251 255.37933918934868 0 255.37933918934868 -81.255590249958914 0 0 0 0 -35.058313568282756 304.50846394298424 0 304.50846394298424 -413.4656870670442 0 0 0 0 -39.618335413804743 275.91797458384826 0 275.91797458384826 -497.47167470879504 0 0 0 0 -103.70874450501287 -71.193158850946929 0 -71.193158850946929 381.97007375905923 0 0 0 0 -1.6022742723276053 3.266574147086601 0 3.266574147086601 -1.1998441253108183 0 0 0 0 -117.77270338294329 167.22717040445423 0 167.22717040445423 -481.63952620537748 0 0 0 0 28.236945144463135 60.702060186579274 0 60.702060186579274 16.780882205358331 0 0 0 0 -74.53175748148351 200.84838197835779 0 200.84838197835779 56.327014396116283 0 0 0 0 18.827064866341971 34.571164239698192 0 34.571164239698192 117.79004385243024 0 0 0 0 -27.888037875049122 22.942630036046797 0 22.942630036046797 25.101876608440847 0 0 0 0 -1.5283178098907229 63.542701604790636 0 63.542701604790636 -22.311595316299645 0 0 0 0 28.314007488785137 98.514124401821618 0 98.514124401821618 -30.555176133299028 0 0 0 0 22.697174841006927 83.327931004778293 0 83.327931004778293 -1.9972290835466993 0 0 0 0 40.587813610763988 128.99199475932801 0 128.99199475932801 46.751713958568416 0 0 0 0 9.3743705831330431 83.320829647023118 0 83.320829647023118 19.332474892942734 0 0 0 0 -312.57467794325203 47.548083117089845 0 47.548083117089845 108.34345785968617 0 0 0 0 -437.28177366300952 354.52883055562415 0 354.52883055562415 -159.73851908428333 0 0 0 0 -26.89115804360398 52.216623442065 0 52.216623442065 6.1742756260439933 0 0 0 0 -508.25167596491519 285.43181868691681 0 285.43181868691681 -48.00809790805215 0 0 0 0 113.28580094125209 85.216386084654914 0 85.216386084654914 41.304966362138657 0 0 0 0 1.0745187893568868 3.7822328220582051 0 3.7822328220582051 -3.467407914439903 0 0 0 0 165.50594817659294 103.49770984253155 0 103.49770984253155 42.045407540226734 0 0 0 0 -85.415614335433929 52.195436382166008 0 52.195436382166008 -9.3153446548094507 0 0 0 0 0.33491730791723739 6.287369006737471 0 6.287369006737471 1.2275393604425862 0 0 0 0 -129.00418758902379 191.2015422131808 0 191.2015422131808 17.822080451158399 0 0 0 0 7.7034736296388786 112.34147050094005 0 112.34147050094005 -82.856776871128886 0 0 0 0 -111.48861564326216 210.28925135083591 0 210.28925135083591 -244.10924586649708 0 0 0 0 -46.105863996236423 35.69793814842555 0 35.69793814842555 -5.5402823827949135 0 0 0 0 89.471352227890748 -53.869519833417144 0 -53.869519833417144 -72.152557101653656 0 0 0 0 -30.390178490192739 94.053855223066876 0 94.053855223066876 -54.507008811960986 0 0 0 0 4.7586903652661334 48.821948864622641 0 48.821948864622641 -48.674649186869402 0 0 0 0 21.467958619448325 48.205384480560156 0 48.205384480560156 -39.184913157873922 0 0 0 0 53.93808377784444 134.64667855496918 0 134.64667855496918 -125.23782328345487 0 0 0 0 -97.893151490541641 243.35989502691882 0 243.35989502691882 -163.58149595415534 0 0 0 0 -8.9637524166319054 92.440047538967519 0 92.440047538967519 -45.199582887278666 0 0 0 0 -121.09990193121484 103.52081469179757 0 103.52081469179757 -15.56395745885311 0 0 0 0 -129.15267995155591 84.842196241304919 0 84.842196241304919 -5.1732065329852048 0 0 0 0 -7.6293166217074031 20.101864192558423 0 20.101864192558423 -47.976569131909855 0 0 0 0 -16.249980907436111 261.98022044879326 0 261.98022044879326 -134.40985132032074 0 0 0 0 104.30099422291096 61.288289007159619 0 61.288289007159619 -270.5041110173479 0 0 0 0 121.12665987909713 162.19452804411776 0 162.19452804411776 -319.5896668198111 0 0 0 0 -91.87514310833285 114.4626907369784 0 114.4626907369784 -274.10848999628797 0 0 0 0 -65.160464577747916 175.62124333803149 0 175.62124333803149 -358.99139473793912 0 0 0 0 -335.4252388990717 201.10755872332084 0 201.10755872332084 -361.02271004763315 0 0 0 0 -99.520674205370597 229.68196578908828 0 229.68196578908828 -283.5051057128876 0 0 0 0 -165.03429248477914 402.70724834157227 0 402.70724834157227 -445.38154673231475 0 0 0 0 2.3118444835417904 76.315482640151458 0 76.315482640151458 -17.596135565596342 0 0 0 0 -68.366158543867641 335.37352154108521 0 335.37352154108521 -537.37584071556921 0 0 0 0 35.320784734817153 17.139526604456336 0 17.139526604456336 4.1176938030420587 0 0 0 0 -336.60616476667201 294.68952027317232 0 294.68952027317232 -309.55264693615027 0 0 0 0 -197.24908812552167 316.13326579905697 0 316.13326579905697 -337.7729380451201 0 0 0 0 -152.17446085537085 261.181035765876 0 261.181035765876 -282.91713527526008 0 0 0 0 -102.02359237598284 373.13883919102227 0 373.13883919102227 -406.84619310678681 0 0 0 0 -4.6573928388534114 199.18040280806599 0 199.18040280806599 -367.9722944865498 0 0 0 0 -76.758072846321738 190.09060013008639 0 190.09060013008639 -558.43237673386466 0 0 0 0 -87.070550328178797 193.37208336769254 0 193.37208336769254 -388.91006228938841 0 0 0 0 24.036223819828592 -110.36211628329329 0 -110.36211628329329 -58.350315925817995 0 0 0 0 -104.69660063655465 87.055740258496371 0 87.055740258496371 20.870148499976494 0 0 0 0 -122.48814147069788 197.12623206074932 0 197.12623206074932 -315.09167513756256 0 0 0 0 18.132786156638758 62.028272811279749 0 62.028272811279749 -307.50767498435744 0 0 0 0 -88.107579188916134 263.99137459156918 0 263.99137459156918 -256.13359517441131 0 0 0 0 10.135759598786535 24.282342183201763 0 24.282342183201763 140.33729579507781 0 0 0 0 159.18144181884418 -78.703299901644641 0 -78.703299901644641 -88.544141527425381 0 0 0 0 20.261969713958592 117.48836241699786 0 117.48836241699786 -156.46958089039254 0 0 0 0 -5.1482887232414214 69.88198050052597 0 69.88198050052597 -59.135546038756729 0 0 0 0 43.888160066678353 27.658208533298108 0 27.658208533298108 -51.920308300328827 0 0 0 0 -53.219159487016441 69.643845312013582 0 69.643845312013582 -43.01978190652153 0 0 0 0 -27.25700249397778 74.862695924392028 0 74.862695924392028 -76.730941370180517 0 0 0 0 -72.208381004835246 80.340247448439186 0 80.340247448439186 -69.018115823426342 0 0 0 0 -23.466292164032154 42.849616937773376 0 42.849616937773376 -16.999597702971087 0 0 0 0 32.584013677291153 3.6674832326835372 0 3.6674832326835372 -11.616923969425459 0 0 0 0 2.9998884123724281 5.6316112120003083 0 5.6316112120003083 -5.1120039209198751 0 0 0 0 207.24645528591645 112.59996924112784 0 112.59996924112784 23.959208028405556 0 0 0 0 -20.606159772076353 66.830822792973777 0 66.830822792973777 -78.052517369025736 0 0 0 0 -12.664863230718765 106.12837964544815 0 106.12837964544815 -21.693496947737003 0 0 0 0 -260.14644170418615 310.13358990888082 0 310.13358990888082 18.326621697415248 0 0 0 0 -181.51012978158542 6.0574309643961897 0 6.0574309643961897 -60.583905481165857 0 0 0 0 -14.763500350374933 53.704130804696206 0 53.704130804696206 -38.519098730123204 0 0 0 0 41.036608575515857 49.223794560513852 0 49.223794560513852 -74.210796520477743 0 0 0 0 -80.012526010163128 84.775161729250613 0 84.775161729250613 -15.599845024225942 0 0 0 0 -86.726179906036123 126.18955258530332 0 126.18955258530332 -119.34892338663121 0 0 0 0 -27.872477196215186 61.398100288177375 0 61.398100288177375 -103.40828108072674 0 0 0 0 1.9449949556798636 65.090177962057226 0 65.090177962057226 -90.316055640739421 0 0 0 0 0.40950349241353479 23.871302014844616 0 23.871302014844616 -17.168971458886617 0 0 0 0 -350.68995794840157 24.335633523878641 0 24.335633523878641 -194.78607569745509 0 0 0 0 -6.3325114932085853 83.749458706412042 0 83.749458706412042 -76.955887275893474 0 0 0 0 6.5254403030266985 92.035649884663144 0 92.035649884663144 -111.43031640121626 0 0 0 0 36.809543807130467 121.00342186736543 0 121.00342186736543 -252.7119705375444 0 0 0 0 1.07151782576085 24.862787656925605 0 24.862787656925605 -20.760542870614163 0 0 0 0 19.200575465147267 63.080128363701078 0 63.080128363701078 -88.083047131494823 0 0 0 0 -4.4851469474670012 63.824391785536136 0 63.824391785536136 -57.522991064208327 0 0 0 0 81.338213910305058 157.97388185012278 0 157.97388185012278 -204.57496350284782 0 0 0 0 -4.6285632388910187 65.695579188203624 0 65.695579188203624 -72.667688932014073 0 0 0 0 -132.12385436095065 -33.998603167536203 0 -33.998603167536203 -125.13080257407273 0 0 0 0 -18.457189632461279 21.676375230802847 0 21.676375230802847 -15.747174667177461 0 0 0 0 44.609525854701701 6.9914903171656064 0 6.9914903171656064 -29.378393828267889 0 0 0 0 -94.524500282961526 160.42977116698603 0 160.42977116698603 -114.07705035129038 0 0 0 0 -341.22205714284792 28.366235988389235 0 28.366235988389235 -42.278435649641324 0 0 0 0 -13.090350275651229 50.017792097478861 0 50.017792097478861 -14.221801905450576 0 0 0 0 -124.31577058365929 87.72324417007394 0 87.72324417007394 12.788622746607871 0 0 0 0 -102.14177564902639 75.649220198545663 0 75.649220198545663 -36.320625102625854 0 0 0 0 -0.40700597594997134 24.019109088451359 0 24.019109088451359 -31.615204156556047 0 0 0 0 93.121631681977306 31.868938278694259 0 31.868938278694259 -34.294578183429621 0 0 0 0 48.014440514300077 82.998120004227985 0 82.998120004227985 -52.318997313494037 0 0 0 0 77.057610772011685 221.43488839302154 0 221.43488839302154 -24.341594642581185 0 0 0 0 172.11462899333128 124.00494273239019 0 124.00494273239019 -93.426778744338662 0 0 0 0 32.017403857687896 125.14602568884948 0 125.14602568884948 -204.76834748169495 0 0 0 0 0.15987435820045448 0.18408867898568815 0 0.18408867898568815 1.2677106504936262 0 0 0 0 -15.170824708453438 101.67833561802581 0 101.67833561802581 37.822655624186154 0 0 0 0 -95.952623321543797 89.559618353086989 0 89.559618353086989 -59.012943489004101 0 0 0 0 -10.929887106263777 92.58038095790107 0 92.58038095790107 -74.529001208153204 0 0 0 0 52.398632294323761 188.81929040478281 0 188.81929040478281 20.883220903357142 0 0 0 0 -88.39082961567874 157.49270131038338 0 157.49270131038338 4.3369987037731335 0 0 0 0 -21.042369687813334 130.71939356680377 0 130.71939356680377 -13.938089927716646 0 0 0 0 12.447931542061269 113.22272083108692 0 113.22272083108692 -23.937475128368533 0 0 0 0 141.25222440841026 140.65468305159447 0 140.65468305159447 -64.292413155490067 0 0 0 0 37.445779015979497 58.526715575382696 0 58.526715575382696 -99.078178660187405 0 0 0 0 -23.581703667659895 34.030095419349891 0 34.030095419349891 -49.817895860920544 0 0 0 0 -9.942167908680176 4.6119987492551431 0 4.6119987492551431 20.331879517724815 0 0 0 0 -12.810195776717393 38.355652987323587 0 38.355652987323587 -50.293993834699364 0 0 0 0 772.94388960128708 682.56704795385303 0 682.56704795385303 493.47608324576868 0 0 0 0 -232.83913445346843 73.896546871912506 0 73.896546871912506 262.44803283389047 0 0 0 0 69.259170908604574 -20.701086510507594 0 -20.701086510507594 -169.0819532606838 0 0 0 0 490.24728246002633 1013.1757106784062 0 1013.1757106784062 811.16222897762782 0 0 0 0 69.034280077161384 134.13418413644104 0 134.13418413644104 -115.21118130371178 0 0 0 0 60.714969898603158 106.78307553770719 0 106.78307553770719 -10.376133306133852 0 0 0 0 115.96753350421204 51.984247637145018 0 51.984247637145018 -95.135281100112479 0 0 0 0 121.8656371207253 75.686330919183092 0 75.686330919183092 -212.53086373815313 0 0 0 0 -11.468341082606713 21.132734219476511 0 21.132734219476511 -20.607073615853125 0 0 0 0 459.62616809285828 228.34049564618908 0 228.34049564618908 62.712606649700319 0 0 0 0 -111.14589948180947 -253.56874554802926 0 -253.56874554802926 -328.15545473045495 0 0 0 0 378.87622027624457 318.77997314084496 0 318.77997314084496 126.51059522075229 0 0 0 0 489.99623078170407 419.91525066437316 0 419.91525066437316 528.03714658715762 0 0 0 0 4.1612686796715934 1.8063355217380845 0 1.8063355217380845 -2.2072276572794465 0 0 0 0 371.22713859044597 223.27584946087154 0 223.27584946087154 202.63949202175718 0 0 0 0 165.35289463045774 287.69192640422261 0 287.69192640422261 230.13230750554067 0 0 0 0 343.44034267162351 251.80172310395574 0 251.80172310395574 390.88796231211745 0 0 0 0 404.67905605403939 161.62937447773584 0 161.62937447773584 454.35137561956435 0 0 0 0 717.52967265969528 373.16148903209796 0 373.16148903209796 467.89886665571248 0 0 0 0 279.13463383514318 665.7821589395171 0 665.7821589395171 821.75516090316523 0 0 0 0 62.619035491246905 230.4709659555956 0 230.4709659555956 605.48412663629279 0 0 0 0 3.5288362207211321 26.666874536778778 0 26.666874536778778 525.28529574297136 0 0 0 0 145.68333376693772 141.91748198967252 0 141.91748198967252 590.89572289880743 0 0 0 0 86.030785234004725 -106.31310686944926 0 -106.31310686944926 281.79894969634188 0 0 0 0 568.62467989748257 -73.747946269049862 0 -73.747946269049862 133.108463411103 0 0 0 0 146.92681152184377 347.26539582091209 0 347.26539582091209 -207.38835991342785 0 0 0 0 -313.66237798558723 336.30672306734778 0 336.30672306734778 271.21943126403494 0 0 0 0 225.5302977282372 9.2160624659027235 0 9.2160624659027235 363.51132860855432 0 0 0 0 137.95837182550167 255.33977965050144 0 255.33977965050144 63.305990807930357 0 0 0 0 147.98781996758771 162.41864754979179 0 162.41864754979179 398.69435331929708 0 0 0 0 -9.2015913469443262 4.282486603878354 0 4.282486603878354 -0.68441762523102057 0 0 0 0 -1002.7369194353232 -370.28936324499409 0 -370.28936324499409 0.50858413890819065 0 0 0 0 0.72484816641372163 794.18376585350779 0 794.18376585350779 -289.66012827058512 0 0 0 0 -1271.8001615917456 158.84200702574162 0 158.84200702574162 286.09448169681127 0 0 0 0 -655.28325557129574 352.87873002990091 0 352.87873002990091 284.49638011350203 0 0 0 0 -297.22406154117198 245.61368948341988 0 245.61368948341988 200.57068554546277 0 0 0 0 -509.61827489141433 -200.68750620978244 0 -200.68750620978244 -15.046525786834536 0 0 0 0 -400.39018361087074 167.93700229191745 0 167.93700229191745 135.04746932536364 0 0 0 0 -333.81122613539628 79.866303735256224 0 79.866303735256224 55.980231744120829 0 0 0 0 -331.86344972581719 281.38619615111384 0 281.38619615111384 223.45856138441013 0 0 0 0 -222.83730420144275 298.73148236776774 0 298.73148236776774 117.78111136803636 0 0 0 0 -226.07838976965286 312.29560853786825 0 312.29560853786825 129.4111307496496 0 0 0 0 -228.19665268418612 161.62813318973349 0 161.62813318973349 -48.527606822113739 0 0 0 0 -214.5706874312018 237.11655318878184 0 237.11655318878184 83.71761790826713 0 0 0 0 -94.374106280971318 236.17135315103951 0 236.17135315103951 294.16974727669731 0 0 0 0 -102.77183632360538 312.15562848972331 0 312.15562848972331 178.26801454323868 0 0 0 0 -119.15169963982771 368.34617281425744 0 368.34617281425744 141.52580892738479 0 0 0 0 -221.98070699216078 321.7834916823731 0 321.7834916823731 243.15055905617191 0 0 0 0 -170.90766236951458 402.17775512814114 0 402.17775512814114 171.6275552915904 0 0 0 0 224.2213157844817 195.98627673518786 0 195.98627673518786 156.74704183996073 0 0 0 0 -188.16725560525811 240.81488242274645 0 240.81488242274645 222.24789390858496 0 0 0 0 156.33351917672553 265.89129952041549 0 265.89129952041549 187.13808130088728 0 0 0 0 -4.9971453153333698 5.0532171137969328 0 5.0532171137969328 -7.3092449476720844 0 0 0 0 -226.23620446252608 169.51653809044456 0 169.51653809044456 188.31689636901137 0 0 0 0 -712.35557370601259 295.69744250863062 0 295.69744250863062 167.17217130726203 0 0 0 0 -297.51179414524086 527.10733393828377 0 527.10733393828377 63.223635696835117 0 0 0 0 -142.80748434597626 546.87147579796147 0 546.87147579796147 50.779607971286168 0 0 0 0 -710.32086980123131 822.07033586465695 0 822.07033586465695 -5.8448193382209865 0 0 0 0 -169.35264956386527 -68.251818072851165 0 -68.251818072851165 74.246658820746234 0 0 0 0 127.92952079483075 -0.76866687530855415 0 -0.76866687530855415 -72.503097487540799 0 0 0 0 48.131651480174526 31.595543718437966 0 31.595543718437966 17.243031348322489 0 0 0 0 0.50814507725107205 2.9414920982065951 0 2.9414920982065951 2.0633376273074617 0 0 0 0 193.27645192508498 288.73863765245915 0 288.73863765245915 -168.06492617122422 0 0 0 0 -83.514449467860686 278.81187415437307 0 278.81187415437307 -129.70433760542073 0 0 0 0 -170.98225063929567 406.51114856304775 0 406.51114856304775 0.62385399275808595 0 0 0 0 12.977953489462379 434.84337983840669 0 434.84337983840669 -20.101070540142246 0 0 0 0 -128.30718142873229 561.54316708235274 0 561.54316708235274 -132.6959033459716 0 0 0 0 380.06612490254338 569.72345425005915 0 569.72345425005915 -353.71362181621953 0 0 0 0 28.216352571747848 48.192134628119675 0 48.192134628119675 -60.311568051700306 0 0 0 0 25.378398880566237 108.70311628968921 0 108.70311628968921 -73.855680463850149 0 0 0 0 -82.909035545118968 90.814785908754857 0 90.814785908754857 -46.016335797656211 0 0 0 0 90.756068794798921 47.341256457169948 0 47.341256457169948 -93.04225186748954 0 0 0 0 45.248375592147426 30.730592778580188 0 30.730592778580188 17.17735412819674 0 0 0 0 102.59310469464981 112.95776932187437 0 112.95776932187437 19.752066207438475 0 0 0 0 -1317.4975088708306 226.40502782000112 0 226.40502782000112 -526.04391476577291 0 0 0 0 6.6317557229558588 1121.8110177743765 0 1121.8110177743765 -515.23250169775565 0 0 0 0 -68.284395486702124 127.71115411200481 0 127.71115411200481 -128.49613118766865 0 0 0 0 12.432965175390422 -0.40422827642339598 0 -0.40422827642339598 -9.9586156525399758 0 0 0 0 -63.643262492711074 924.92609314040601 0 924.92609314040601 -577.48435843746847 0 0 0 0 313.45629682454455 791.07348546769936 0 791.07348546769936 -715.798633488419 0 0 0 0 -97.346073597291252 308.48025135062926 0 308.48025135062926 -527.83037211913688 0 0 0 0 887.2407804155082 163.27204531774623 0 163.27204531774623 -603.0936455651572 0 0 0 0 164.35238836563076 -172.78187926053943 0 -172.78187926053943 240.17576142417965 0 0 0 0 17.401144812494749 87.106372652109712 0 87.106372652109712 -180.55695298600767 0 0 0 0 45.313096093101194 -72.346108309349802 0 -72.346108309349802 -54.656750503570947 0 0 0 0 72.190426734698121 83.878491622119327 0 83.878491622119327 -183.77910283736128 0 0 0 0 113.98997431695898 208.64705398262959 0 208.64705398262959 -43.701787334997789 0 0 0 0 53.081319186996552 326.15869050360197 0 326.15869050360197 582.26114422635146 0 0 0 0 10.387984308487091 -2.2929879227950209 0 -2.2929879227950209 0.71784158113985796 0 0 0 0 -557.47929478577862 -856.61836187044537 0 -856.61836187044537 210.43191180187569 0 0 0 0 549.6566663976555 366.55908672561782 0 366.55908672561782 -438.70866221633969 0 0 0 0 -12.641332136408892 18.792619106388884 0 18.792619106388884 -9.6821916792050615 0 0 0 0 -9.4092293812136631 6.5190380097992602 0 6.5190380097992602 18.948894007189665 0 0 0 0 -24.360734685054922 12.238697325305111 0 12.238697325305111 27.750253804420936 0 0 0 0 -13.056874499161495 15.429183261934668 0 15.429183261934668 37.993931873730617 0 0 0 0 -0.5998994261099142 13.857131215248955 0 13.857131215248955 -2.0485725645557977 0 0 0 0 46.175764350773534 183.90853237030387 0 183.90853237030387 586.12584675807739 0 0 0 0 -49.579398250458325 -37.860384837980746 0 -37.860384837980746 -0.017582499305717647 0 0 0 0 -1.3411573526127256 0.51655207017560301 0 0.51655207017560301 3.2128368093649442 0 0 0 0 -2.4848581715033617 11.781174452026868 0 11.781174452026868 -4.6718464728279514 0 0 0 0 -63.363439761364134 -9.3762542477707029 0 -9.3762542477707029 34.883903752139304 0 0 0 0 297.76941522679408 376.54581336736737 0 376.54581336736737 -82.775035720318556 0 0 0 0 272.16451103545478 248.02224405748893 0 248.02224405748893 174.79169123992324 0 0 0 0 -52.790965229563881 21.018855854170397 0 21.018855854170397 43.441392852910212 0 0 0 0 -41.238213648197416 26.395173280980089 0 26.395173280980089 39.906636733881896 0 0 0 0 -21.502641955368745 25.59222233039327 0 25.59222233039327 33.09203131205868 0 0 0 0 -37.382116502310964 12.853052587001002 0 12.853052587001002 32.238674488238757 0 0 0 0 -1.1879804668569705 36.602239307663694 0 36.602239307663694 30.149156574530934 0 0 0 0 -12.325848547094211 21.761009124966222 0 21.761009124966222 39.696590097591979 0 0 0 0 -15.046361445442017 36.364238351852691 0 36.364238351852691 70.284676089941058 0 0 0 0 16.531047138694703 74.920199236768894 0 74.920199236768894 45.025072753036511 0 0 0 0 9.2389717577025294 -51.883693649266206 0 -51.883693649266206 31.680209130410276 0 0 0 0 -7.4782824931802168 21.154109360655241 0 21.154109360655241 8.3449153110285579 0 0 0 0 -46.799120130206575 65.289780161816452 0 65.289780161816452 44.96278225320458 0 0 0 0 24.339372892427491 84.156347755189927 0 84.156347755189927 -7.3392339121055556 0 0 0 0 33.647071943918576 44.388017168175224 0 44.388017168175224 39.755868624015591 0 0 0 0 26.575086318249305 66.048979060222791 0 66.048979060222791 -24.331627538063913 0 0 0 0 -8.7968211879646958 26.69089945076017 0 26.69089945076017 5.6837873439848465 0 0 0 0 41.612862738678814 89.665649198177562 0 89.665649198177562 -5.7641298655944411 0 0 0 0 -157.71695824073686 11.940512967346876 0 11.940512967346876 76.496290978830075 0 0 0 0 42.140717636667404 42.479332544780846 0 42.479332544780846 27.029679468049238 0 0 0 0 -198.61329105746699 111.45837709368789 0 111.45837709368789 30.398318134990404 0 0 0 0 26.352853491858241 138.80133679579808 0 138.80133679579808 49.168456118990434 0 0 0 0 -170.9676365461346 110.96200200857857 0 110.96200200857857 25.957159543977468 0 0 0 0 -201.00345618530991 109.73984912846208 0 109.73984912846208 46.478949301832472 0 0 0 0 60.612173583183903 166.9258119572587 0 166.9258119572587 105.22758603097463 0 0 0 0 613.23818063409999 206.43094859010307 0 206.43094859010307 16.645912468258757 0 0 0 0 -64.747491494839778 15.922208409465384 0 15.922208409465384 173.25648765165533 0 0 0 0 207.76149791214266 73.605420864590997 0 73.605420864590997 -103.53080639080144 0 0 0 0 28.438366722128194 154.79535655549716 0 154.79535655549716 -193.06315293152147 0 0 0 0 118.88860447809566 9.218894708348671 0 9.218894708348671 -147.47526784439833 0 0 0 0 23.65284834305109 8.9637638698424951 0 8.9637638698424951 3.2524668601204496 0 0 0 0 127.74915662221611 72.277081778876891 0 72.277081778876891 -160.60795461073394 0 0 0 0 9.4207217919475568 -0.53161334974436159 0 -0.53161334974436159 -2.3615636586673574 0 0 0 0 59.236857774609234 -89.964415840848233 0 -89.964415840848233 -7.102737642966531 0 0 0 0 30.071731829721244 15.007147263462628 0 15.007147263462628 1.197121845374582 0 0 0 0 -36.999866827427468 115.8325501351901 0 115.8325501351901 -48.896235376101686 0 0 0 0 -79.632126737269573 56.375421345735958 0 56.375421345735958 18.217677284672391 0 0 0 0 -72.286745293413333 113.40499701123554 0 113.40499701123554 10.110831233585486 0 0 0 0 -47.519539690794772 30.178879919032624 0 30.178879919032624 37.706312200936736 0 0 0 0 -34.892714855959639 35.51034598100523 0 35.51034598100523 36.597988513545715 0 0 0 0 6.8581894291564822 65.440934657453909 0 65.440934657453909 63.927978667421485 0 0 0 0 -17.883287043757974 15.057961366783957 0 15.057961366783957 -2.5397254586975464 0 0 0 0 -25.825877231227423 55.794211973791789 0 55.794211973791789 -49.751050451290212 0 0 0 0 17.21458757048822 44.676226098526968 0 44.676226098526968 80.489810751925688 0 0 0 0 30.426671627385076 52.18588714809448 0 52.18588714809448 40.130841685917858 0 0 0 0 0.61801087953361389 0.59242449734935576 0 0.59242449734935576 -4.411745798362162 0 0 0 0 34.378233753923269 25.563694823180413 0 25.563694823180413 -90.452828663866967 0 0 0 0 341.05332348035881 191.90554471341602 0 191.90554471341602 -951.68697398360018 0 0 0 0 6.8458203881153281 -5.6595771055135771 0 -5.6595771055135771 -7.8013104716822426 0 0 0 0 24.201424080444667 -6.665698482650896 0 -6.665698482650896 -29.94509812186152 0 0 0 0 172.19612089259317 -270.01107250157656 0 -270.01107250157656 -614.40630222198524 0 0 0 0 -273.24219631457527 -354.40813656442333 0 -354.40813656442333 -470.5291794258228 0 0 0 0 -0.03135600512223391 -0.3025819113470618 0 -0.3025819113470618 0.44203994722018081 0 0 0 0 8.9341184137866492 10.795538533426249 0 10.795538533426249 -14.103763391490688 0 0 0 0 9.3081973212538287 15.717945167139987 0 15.717945167139987 14.135402162501123 0 0 0 0 5.4909014666664007 26.162761757124827 0 26.162761757124827 22.951557788037462 0 0 0 0 14.626123471767642 31.966414075723151 0 31.966414075723151 17.16944345421507 0 0 0 0 19.253977064217906 28.628294779702628 0 28.628294779702628 14.025257007015171 0 0 0 0 -7.0803749179467559 22.884783088549739 0 22.884783088549739 22.521861716631975 0 0 0 0 45.709625707371742 54.565433763054898 0 54.565433763054898 3.7688839993716101 0 0 0 0 -1.0921721280319616 32.00230579599156 0 32.00230579599156 44.467663784045726 0 0 0 0 5.3666800996870734 19.095718808792299 0 19.095718808792299 42.374066947002575 0 0 0 0 12.561954311880982 16.041016598697752 0 16.041016598697752 32.163234899635427 0 0 0 0 10.713031330669764 19.549832388198411 0 19.549832388198411 26.06506375677418 0 0 0 0 -1.3620063366543036 27.816960947937332 0 27.816960947937332 31.353314883483108 0 0 0 0 -13.901589235611027 25.136214004072826 0 25.136214004072826 32.018372758189798 0 0 0 0 -0.90502481978910509 17.594799038284691 0 17.594799038284691 23.860934695112519 0 0 0 0 -18.020916606106766 9.9157546678306971 0 9.9157546678306971 24.969790764473146 0 0 0 0 1.9200305174308596 30.924814685822639 0 30.924814685822639 28.640037955861771 0 0 0 0 -7.903569512462127 20.970749722066103 0 20.970749722066103 32.442021113267401 0 0 0 0 510.25728583661839 260.2447757147238 0 260.2447757147238 -205.67274679752882 0 0 0 0 -195.67466780380346 537.45731838052598 0 537.45731838052598 397.80472841731535 0 0 0 0 -214.59629335653153 -171.69566302619205 0 -171.69566302619205 523.29914175755403 0 0 0 0 899.33783163240878 -16.788057306832343 0 -16.788057306832343 -891.29903168320016 0 0 0 0 518.94318437937181 -482.75871447369718 0 -482.75871447369718 -484.01138630924106 0 0 0 0 334.29162645012548 765.68234484795903 0 765.68234484795903 -924.1748939809404 0 0 0 0 -141.65980100900924 -317.83927359066729 0 -317.83927359066729 1322.7688256554502 0 0 0 0 -239.73066595476848 640.28731060555947 0 640.28731060555947 503.0243602575938 0 0 0 0 11.903418661150596 1.283433953993935 0 1.283433953993935 0.29633566383981247 0 0 0 0 457.79059505731857 -123.91007595066185 0 -123.91007595066185 -771.23961036890978 0 0 0 0 473.18950421017507 68.119454069950734 0 68.119454069950734 -361.52287939514645 0 0 0 0 -119.99926589471579 -78.673344311966503 0 -78.673344311966503 605.72426245746828 0 0 0 0 32.699714070395657 10.162010729650689 0 10.162010729650689 3.5379373385100052 0 0 0 0 159.23229481599992 422.08863724647381 0 422.08863724647381 -672.03563785141159 0 0 0 0 -188.17226611888327 235.75611458961066 0 235.75611458961066 -163.90188108650909 0 0 0 0 182.25902899194625 8.1705052227716806 0 8.1705052227716806 -372.37594221328618 0 0 0 0 -475.65629896897008 324.26292414203999 0 324.26292414203999 352.81714099401142 0 0 0 0 105.01043120789109 454.88886270872899 0 454.88886270872899 -299.10151365345519 0 0 0 0 4.034557212334505 0.59397394807076864 0 0.59397394807076864 -0.50888271460136991 0 0 0 0 329.78175874620501 -308.59618654783844 0 -308.59618654783844 -110.19248996987517 0 0 0 0 164.52553978418291 161.96709548016952 0 161.96709548016952 -131.14945078937308 0 0 0 0 53.364573387072596 201.99448632948042 0 201.99448632948042 121.69042903311492 0 0 0 0 51.413184577774302 24.142895679609424 0 24.142895679609424 -1.9084184221430007 0 0 0 0 -1.4883553990221117 272.18923606319731 0 272.18923606319731 31.982642854803998 0 0 0 0 -54.928713312027867 263.66191715920479 0 263.66191715920479 -102.51523072108102 0 0 0 0 -45.354121389279271 66.65322172903825 0 66.65322172903825 -98.964657139906194 0 0 0 0 -1013.6200053466309 -66.459807129716864 0 -66.459807129716864 243.46849290001046 0 0 0 0 361.65045447453303 79.700346728734985 0 79.700346728734985 -478.10068105241044 0 0 0 0 59.9810352280183 43.124951034105834 0 43.124951034105834 -65.768525871143538 0 0 0 0 -58.863363478638348 38.721792716914933 0 38.721792716914933 306.21303776280456 0 0 0 0 -57.315076954515234 45.750042979126491 0 45.750042979126491 -31.04778524027159 0 0 0 0 167.38652319718312 263.06156099427926 0 263.06156099427926 24.553364538109236 0 0 0 0 -109.88322205533041 276.69143901513962 0 276.69143901513962 355.67256306015042 0 0 0 0 628.30208177688473 356.80266413481149 0 356.80266413481149 -151.16806717676445 0 0 0 0 515.4272109556432 -276.9844108870916 0 -276.9844108870916 -278.23980770768685 0 0 0 0 858.57701294386789 593.72178437434923 0 593.72178437434923 141.557260165755 0 0 0 0 282.52196997788269 15.632691389575484 0 15.632691389575484 347.48411474704517 0 0 0 0 -9.0292864781136331 19.031584669132926 0 19.031584669132926 0.55243506824101019 0 0 0 0 1259.674927771408 299.59155706362617 0 299.59155706362617 -110.54663963567873 0 0 0 0 812.31544586691598 279.8425472201634 0 279.8425472201634 158.71598313017603 0 0 0 0 10.665442923374286 7.430078602186903 0 7.430078602186903 -14.091582005876994 0 0 0 0 280.17558996462321 266.60247921798145 0 266.60247921798145 19.49261907021355 0 0 0 0 259.50731290703698 344.28632718118024 0 344.28632718118024 160.58273227889731 0 0 0 0 903.61868790248991 381.44334703186178 0 381.44334703186178 -22.623596972385712 0 0 0 0 -222.1140904964559 393.34446259593824 0 393.34446259593824 143.22877014413098 0 0 0 0 278.87538652071089 379.15445695756353 0 379.15445695756353 -109.62852762238617 0 0 0 0 305.74495039285102 394.0149827835121 0 394.0149827835121 101.01037901893505 0 0 0 0 1.7384504788433901 1.7394988929163731 0 1.7394988929163731 -3.9387584378535934 0 0 0 0 -228.86150948292106 532.55570255729799 0 532.55570255729799 -146.50000645419641 0 0 0 0 -6.8296008655088372 46.627309914303623 0 46.627309914303623 203.46050572245076 0 0 0 0 -0.46337511695865885 1.780859159695737 0 1.780859159695737 1.609679433526054 0 0 0 0 -66.474111927178456 82.432249756413512 0 82.432249756413512 -423.52087785324511 0 0 0 0 -92.042513610911556 376.7846070669766 0 376.7846070669766 -482.9848998489615 0 0 0 0 -909.44448556599673 338.87252547286334 0 338.87252547286334 -194.41672339125216 0 0 0 0 -108.56450919245253 362.32439274526678 0 362.32439274526678 37.23509063720121 0 0 0 0 -49.62284914337215 -1.1300117937062168 0 -1.1300117937062168 -26.333584438998514 0 0 0 0 283.49029482099286 -6.0584964358786237 0 -6.0584964358786237 -277.01321335892862 0 0 0 0 -76.389776402851567 214.56471852445975 0 214.56471852445975 -208.88834851513093 0 0 0 0 -408.5629872908612 63.61740521417596 0 63.61740521417596 -127.0667051953933 0 0 0 0 -98.076948288216954 43.871580055922095 0 43.871580055922095 63.673700622568504 0 0 0 0 -1.4248102507344527 0.89765408319267692 0 0.89765408319267692 -1.0132017731694134 0 0 0 0 -14.024699590227101 -280.66374685008486 0 -280.66374685008486 -423.99159829215205 0 0 0 0 -41.271785816003103 -329.33650099630904 0 -329.33650099630904 -15.02015876272344 0 0 0 0 -37.499354156374466 60.705963590229658 0 60.705963590229658 38.393223514562123 0 0 0 0 -0.24227253237040713 -5.9275851045749732 0 -5.9275851045749732 50.213180897708298 0 0 0 0 -29.832378218008671 77.038668797220453 0 77.038668797220453 32.920962171359861 0 0 0 0 -114.9087391338835 123.27416383798118 0 123.27416383798118 11.067958714978886 0 0 0 0 -97.485848410869949 59.916110327787464 0 59.916110327787464 59.133843921197695 0 0 0 0 10.806844950566301 81.99942985157395 0 81.99942985157395 -23.996566323563457 0 0 0 0 -30.878086321870796 89.670597772463225 0 89.670597772463225 -9.3380699556073523 0 0 0 0 3.4624447530550242 125.09057392532941 0 125.09057392532941 -62.021071551222121 0 0 0 0 -174.38755798072089 123.10111896002491 0 123.10111896002491 22.116793826680805 0 0 0 0 -104.37554917101806 235.99037876982038 0 235.99037876982038 -171.99376258494158 0 0 0 0 -177.39583580878389 176.10844975436339 0 176.10844975436339 -194.19999106580508 0 0 0 0 -318.32698395747957 405.74100613993278 0 405.74100613993278 -411.04705147373897 0 0 0 0 -285.89863613140187 121.22224804457073 0 121.22224804457073 -349.39627921865031 0 0 0 0 -94.223382735848645 243.73325066960842 0 243.73325066960842 -311.97458965342958 0 0 0 0 -56.221277162752813 32.557216864450311 0 32.557216864450311 -236.82658642402384 0 0 0 0 170.37811112395138 108.26829686621932 0 108.26829686621932 -363.84828247799305 0 0 0 0 105.9501829611836 229.24231485489872 0 229.24231485489872 -559.5778683074459 0 0 0 0 252.1988816538942 301.03193464808464 0 301.03193464808464 -761.76687995356042 0 0 0 0 3.4334797414048808 550.20195743300428 0 550.20195743300428 -708.00328857646673 0 0 0 0 46.0040435663837 24.313774848152917 0 24.313774848152917 9.9300496301612782 0 0 0 0 355.034271965691 512.24629561304755 0 512.24629561304755 -41.869441948718304 0 0 0 0 8.4822258974672877 -367.51334155809491 0 -367.51334155809491 -205.01649244569126 0 0 0 0 1.3486350702317509 0.43731571565297145 0 0.43731571565297145 -1.0876459392991933 0 0 0 0 9.2456887667679837 3.5212089590789617 0 3.5212089590789617 0.90808557696722403 0 0 0 0 -151.76567906296987 -255.67186163604492 0 -255.67186163604492 -284.07442458024525 0 0 0 0 -105.07309169920336 340.82470827949874 0 340.82470827949874 128.07542369637395 0 0 0 0 -124.78665984352119 -109.6395791722025 0 -109.6395791722025 -1.628881730575813 0 0 0 0 459.10095996691962 966.51511484567163 0 966.51511484567163 194.17401718356996 0 0 0 0 -352.78100229517077 147.63053063301777 0 147.63053063301777 596.89957618765766 0 0 0 0 -198.51447562724934 330.57106297936116 0 330.57106297936116 188.96552863082616 0 0 0 0 -308.20366512230248 297.16542258844129 0 297.16542258844129 372.39674569715862 0 0 0 0 -72.579872098809574 131.01002268417506 0 131.01002268417506 186.63609079546586 0 0 0 0 260.85953430367226 16.392277986102272 0 16.392277986102272 83.095048919189139 0 0 0 0 -99.195674538656021 93.432393976923777 0 93.432393976923777 180.24441002309322 0 0 0 0 32.976463215338299 -87.453418346005492 0 -87.453418346005492 406.49199968641187 0 0 0 0 30.102750329315313 115.73253670467238 0 115.73253670467238 165.41239238044727 0 0 0 0 44.709425688604824 17.957428069494199 0 17.957428069494199 129.51967937569134 0 0 0 0 91.283612426515901 131.6051509486424 0 131.6051509486424 45.955253148564225 0 0 0 0 83.7361752082561 59.197403142175062 0 59.197403142175062 154.92150576872518 0 0 0 0 -8.8867495888116537 138.61870042389637 0 138.61870042389637 91.604766080068657 0 0 0 0 -19.889325931551866 104.50380455641425 0 104.50380455641425 93.493348355883427 0 0 0 0 -65.437968255690066 136.29195739080023 0 136.29195739080023 179.91715767911228 0 0 0 0 -79.685792061209213 181.10143897100352 0 181.10143897100352 50.11749715055339 0 0 0 0 -42.862495895358734 127.8912537362412 0 127.8912537362412 84.565571249375353 0 0 0 0 3.3973765820404651 32.976696590567713 0 32.976696590567713 7.8623178403932883 0 0 0 0 -4.528309765009908 123.31933631004358 0 123.31933631004358 -111.8621364581777 0 0 0 0 -35.315718639583793 106.08941161964322 0 106.08941161964322 -58.670236511796247 0 0 0 0 9.9066578003641297 5.4076417191191695 0 5.4076417191191695 -10.390210819334811 0 0 0 0 18.028409715974703 84.631918043582118 0 84.631918043582118 -50.039323935372522 0 0 0 0 -28.072218128712848 136.65153688444843 0 136.65153688444843 16.471892680157907 0 0 0 0 20.789454769430449 68.559299080865458 0 68.559299080865458 40.944815741677303 0 0 0 0 -6.156223115740147 6.9739489983262075 0 6.9739489983262075 12.895604173942985 0 0 0 0 133.28440361643152 -16.138544681751227 0 -16.138544681751227 -366.6390236520856 0 0 0 0 58.328083984015393 346.06340586306032 0 346.06340586306032 124.14184726402709 0 0 0 0 420.50420308957109 247.76440526225633 0 247.76440526225633 -258.38443082357117 0 0 0 0 -15.832987816400419 117.99463599385126 0 117.99463599385126 -66.545075224334141 0 0 0 0 -9.5910971928242361 236.19251438247011 0 236.19251438247011 10.91366026851756 0 0 0 0 -71.350064667145489 229.2490124731994 0 229.2490124731994 201.87908984019668 0 0 0 0 -73.801902662584325 99.778245952635189 0 99.778245952635189 -28.713306792531512 0 0 0 0 0.30120170545701797 30.785095311499546 0 30.785095311499546 18.236561650494338 0 0 0 0 21.425536986469524 19.135986443488946 0 19.135986443488946 70.296045054154092 0 0 0 0 -26.288456436464912 63.510538670660026 0 63.510538670660026 -34.208579933389046 0 0 0 0 -30.474810304105631 59.257542943982571 0 59.257542943982571 -9.5611379136498726 0 0 0 0 -5.7207419801788433 33.972776799038741 0 33.972776799038741 11.779407291566919 0 0 0 0 -149.16917190259846 267.70343553223574 0 267.70343553223574 311.78307778627095 0 0 0 0 63.128523415820382 -209.83394539693018 0 -209.83394539693018 -48.536682291327452 0 0 0 0 -75.675187920569442 147.43761195479601 0 147.43761195479601 81.638947654646472 0 0 0 0 -65.827843606231895 54.012085489329408 0 54.012085489329408 -23.697278379885638 0 0 0 0 17.65424643971734 49.147740892412813 0 49.147740892412813 -29.941415077187429 0 0 0 0 -13.777712644123739 50.471691140272583 0 50.471691140272583 24.840101518572112 0 0 0 0 -0.21363316357019357 30.920961966767209 0 30.920961966767209 -3.0857344957767054 0 0 0 0 -393.8282635238138 313.85827381142826 0 313.85827381142826 -45.884021518844747 0 0 0 0 94.416643896824098 119.75589551297344 0 119.75589551297344 -387.44111870776396 0 0 0 0 9.4752896378013247 61.010182212575273 0 61.010182212575273 81.614082213618531 0 0 0 0 157.62186729013411 20.424631290244179 0 20.424631290244179 -50.826262956783467 0 0 0 0 8.6559942785079755 26.17808465378485 0 26.17808465378485 27.153221832831591 0 0 0 0 -15.637562265008455 75.811969925847734 0 75.811969925847734 21.627995534358888 0 0 0 0 -8.2126063596369931 38.850084049094221 0 38.850084049094221 8.2796017989730899 0 0 0 0 -12.42723384633166 27.443978041826909 0 27.443978041826909 -22.397771081856988 0 0 0 0 -43.288081234248239 51.562718811437662 0 51.562718811437662 52.862406034812011 0 0 0 0 8.5543925834135734 63.156420512770637 0 63.156420512770637 31.015347434950854 0 0 0 0 0.80154310578498666 37.122829462563416 0 37.122829462563416 11.898501481339601 0 0 0 0 -2.2334667516934132 56.866070387048694 0 56.866070387048694 13.928270606309525 0 0 0 0 -63.981915778524126 69.329481934466457 0 69.329481934466457 45.158969963144045 0 0 0 0 41.550970165306353 69.945823591421686 0 69.945823591421686 -11.227161422757945 0 0 0 0 7.0638875181903131 54.556651473698821 0 54.556651473698821 -15.930330351624434 0 0 0 0 -13.54938268885661 34.054485816103643 0 34.054485816103643 -5.7311548689348939 0 0 0 0 287.45157604468113 41.763745521953297 0 41.763745521953297 -17.400292050372936 0 0 0 0 58.575915565772448 8.6816699064108889 0 8.6816699064108889 -17.082330893959806 0 0 0 0 -12.631393403979018 6.5147169846168254 0 6.5147169846168254 13.434970935705678 0 0 0 0 -133.1962182460702 57.841446012767847 0 57.841446012767847 20.192047122016334 0 0 0 0 8.0499893152191362 42.08712359576657 0 42.08712359576657 -3.6303115543141757 0 0 0 0 2.1205228809549652 11.620052066718799 0 11.620052066718799 2.9199650930270344 0 0 0 0 0.70867956058282289 19.236741201765653 0 19.236741201765653 -11.538962307373367 0 0 0 0 -28.129257554792275 132.88579086850132 0 132.88579086850132 36.866637185877607 0 0 0 0 -17.016641996982713 15.875847903494503 0 15.875847903494503 -1.1239300777874774 0 0 0 0 -38.864098754915176 79.410393861262946 0 79.410393861262946 -14.118524529908427 0 0 0 0 -31.062798273502267 120.81178703336809 0 120.81178703336809 37.395076656122001 0 0 0 0 -366.4280550210824 94.982210810317156 0 94.982210810317156 172.30553160501768 0 0 0 0 -925.45849329316115 -139.05378546921929 0 -139.05378546921929 199.42505788137987 0 0 0 0 47.458157997192757 60.853869151267588 0 60.853869151267588 -590.84506887040516 0 0 0 0 -8.873688490900804 3.4543982558881794 0 3.4543982558881794 -1.4361993577785519 0 0 0 0 45.491933027362393 61.869766840708962 0 61.869766840708962 -47.980445047417106 0 0 0 0 -152.35738232217409 249.97066403967483 0 249.97066403967483 -127.72155148506772 0 0 0 0 -66.052178233374434 178.39248662640375 0 178.39248662640375 -166.74641935854743 0 0 0 0 -117.91615462987829 364.24059987999362 0 364.24059987999362 68.45736539745576 0 0 0 0 121.09820124955877 499.2142912851491 0 499.2142912851491 -390.18990478630531 0 0 0 0 -57.648938836384332 107.8582178308327 0 107.8582178308327 38.080132314878597 0 0 0 0 47.462352804981336 31.493146276398228 0 31.493146276398228 13.475335869079732 0 0 0 0 30.599548690803886 36.783283358749742 0 36.783283358749742 -71.981508676886733 0 0 0 0 36.218214656152099 194.45472044385849 0 194.45472044385849 -76.917060680902978 0 0 0 0 -6.8311203400786269 4.7123731710369512 0 4.7123731710369512 5.0389120672549534 0 0 0 0 -183.34573235826247 431.53120086548233 0 431.53120086548233 -465.83669116275451 0 0 0 0 0.15588728708272015 -1.5481713580470498 0 -1.5481713580470498 -1.2297328994889303 0 0 0 0 -67.326760701209423 43.890643791852199 0 43.890643791852199 293.69711355878655 0 0 0 0 153.86378380913084 -23.330761107039393 0 -23.330761107039393 -140.89001261667727 0 0 0 0 -73.126492079049058 448.39654067433605 0 448.39654067433605 -88.801933094495894 0 0 0 0 3.196401548059967 2.3146169195214128 0 2.3146169195214128 2.0751047935954858 0 0 0 0 -264.26607236320706 231.66794420201677 0 231.66794420201677 203.58744588400532 0 0 0 0 -3.5927333440595248 -29.074037949109197 0 -29.074037949109197 53.410262775758383 0 0 0 0 163.69687399263057 224.25608170643818 0 224.25608170643818 72.913249412238656 0 0 0 0 192.71962199050176 241.18707899081255 0 241.18707899081255 48.886999754446151 0 0 0 0 260.78342757001519 177.10297471698686 0 177.10297471698686 30.043371589894377 0 0 0 0 147.54093865711184 204.15275065797687 0 204.15275065797687 110.69145936534915 0 0 0 0 111.64627595029015 251.96006451368794 0 251.96006451368794 66.554579018738877 0 0 0 0 157.59805447323015 326.99122926055861 0 326.99122926055861 83.653890761721414 0 0 0 0 180.10812420544244 -15.47968148957807 0 -15.47968148957807 -40.110268928225196 0 0 0 0 4.8749828667305728 35.402145565499282 0 35.402145565499282 -48.188880437002553 0 0 0 0 288.86427894177905 219.79667698813137 0 219.79667698813137 -14.012658514540817 0 0 0 0 360.89340854342299 258.36796276447058 0 258.36796276447058 -8.2558697573185782 0 0 0 0 -1.7359267120045843 88.442734188040959 0 88.442734188040959 123.97994991922405 0 0 0 0 194.0646244959662 167.70526752871137 0 167.70526752871137 -35.100523283388611 0 0 0 0 0.46111923814973466 0.035662937192853406 0 0.035662937192853406 -6.8858037183248655 0 0 0 0 74.280075702219619 33.219376497964731 0 33.219376497964731 -33.172093376027988 0 0 0 0 249.6230654877254 76.344656811221853 0 76.344656811221853 -36.343293920863289 0 0 0 0 14.063802839689814 36.587332099445547 0 36.587332099445547 -19.998502281369298 0 0 0 0 65.672237436578143 32.076896164377104 0 32.076896164377104 -29.116223140936199 0 0 0 0 2.5856377691970209 15.597676045668891 0 15.597676045668891 -16.25956201914429 0 0 0 0 65.07399296395306 32.504715266115454 0 32.504715266115454 10.343758817245543 0 0 0 0 55.377347098583414 46.362505070674388 0 46.362505070674388 -52.521162925932003 0 0 0 0 63.398843837690947 28.825941763228911 0 28.825941763228911 -29.707225258807739 0 0 0 0 51.878263266538852 42.136868836459143 0 42.136868836459143 -45.628262514652306 0 0 0 0 61.105593181058794 44.422854639944603 0 44.422854639944603 -46.943009958391485 0 0 0 0 -454.63720145290972 177.99197340284741 0 177.99197340284741 132.78324096149299 0 0 0 0 -25.823091983074846 -163.77116286802266 0 -163.77116286802266 -216.04659688238007 0 0 0 0 -6.5053128844790393 5.058592647277905 0 5.058592647277905 -3.6724419331967866 0 0 0 0 -458.30278232322598 215.41159771175262 0 215.41159771175262 104.6084032390927 0 0 0 0 297.75944827900094 -67.475440203590097 0 -67.475440203590097 -60.278837117626608 0 0 0 0 452.6703253716405 375.74097286015331 0 375.74097286015331 72.841883561979557 0 0 0 0 -694.80012800658005 682.65695516452615 0 682.65695516452615 449.46597514702808 0 0 0 0 48.270974651371944 47.574156536106102 0 47.574156536106102 -107.13694668714322 0 0 0 0 -635.11039773639641 -667.07603042944356 0 -667.07603042944356 -537.05666435935564 0 0 0 0 77.972227580903564 -29.363618999641858 0 -29.363618999641858 -12.520140795897532 0 0 0 0 10.540290802537299 3.1317485076119311 0 3.1317485076119311 -0.96447085507160679 0 0 0 0 83.322559824298878 54.78164957633561 0 54.78164957633561 -0.26064301125552447 0 0 0 0 65.832500911368697 10.62117850047148 0 10.62117850047148 -68.007000614303422 0 0 0 0 46.233644628572534 13.936835154120093 0 13.936835154120093 3.7232303788326919 0 0 0 0 90.010768017695227 13.503297470713051 0 13.503297470713051 -93.396301974426024 0 0 0 0 54.233708765248593 -13.501263560118332 0 -13.501263560118332 -45.455244488542121 0 0 0 0 66.118023683473439 -20.652385285282975 0 -20.652385285282975 -71.646869438798603 0 0 0 0 29.862449491003645 7.2936989909053409 0 7.2936989909053409 -39.371217218712445 0 0 0 0 33.758307360098115 -1.5104060533612937 0 -1.5104060533612937 -19.479525938832467 0 0 0 0 44.746663223239011 5.3655504603721909 0 5.3655504603721909 -60.207896168465311 0 0 0 0 4.5414990169117999 18.95438333097691 0 18.95438333097691 -27.227371326611031 0 0 0 0 36.98810152686201 25.801250848865493 0 25.801250848865493 -46.054579621376774 0 0 0 0 45.022484735265607 8.9313294747667555 0 8.9313294747667555 -53.492401163584361 0 0 0 0 51.610600000873092 23.834280190414802 0 23.834280190414802 -75.442356621986619 0 0 0 0 114.79367394471774 64.47806036818065 0 64.47806036818065 -21.331036175241934 0 0 0 0 52.121627734924601 12.666519312902096 0 12.666519312902096 -10.223098701914239 0 0 0 0 26.228048097402365 40.233860054164047 0 40.233860054164047 -32.81669019386792 0 0 0 0 10.529978997892208 22.983517571390962 0 22.983517571390962 -13.305573425726379 0 0 0 0 22.625444105713541 24.479343706696 0 24.479343706696 -11.672875441174256 0 0 0 0 32.991787179838553 20.330491327165703 0 20.330491327165703 -24.286367352456281 0 0 0 0 23.272287155807135 104.60645725655013 0 104.60645725655013 -148.67206472919497 0 0 0 0 -84.242321092307975 27.362616391497795 0 27.362616391497795 -57.216486490699026 0 0 0 0 92.901719361791038 176.91542633792596 0 176.91542633792596 -75.766065069252363 0 0 0 0 -73.182608774863183 50.945311981998202 0 50.945311981998202 -4.2960177104141621 0 0 0 0 -98.158582333984668 70.762494978401264 0 70.762494978401264 40.657741971612268 0 0 0 0 2.3087478057132103 91.535679876298673 0 91.535679876298673 11.246878040194133 0 0 0 0 -110.71720805937366 6.3253702942956807 0 6.3253702942956807 -66.078045105551155 0 0 0 0 -223.7783090758021 -73.488686877419241 0 -73.488686877419241 -64.932146385137003 0 0 0 0 -238.59193954232614 -42.401785218811483 0 -42.401785218811483 49.603053648306513 0 0 0 0 1.3980455327334056 3.7720474673469937 0 3.7720474673469937 1.6371490331082441 0 0 0 0 -152.17573102025199 175.35693915804461 0 175.35693915804461 43.471932510336046 0 0 0 0 -251.21765552463694 40.200494469085697 0 40.200494469085697 125.66753824243642 0 0 0 0 60.06104904980748 58.283247396218485 0 58.283247396218485 20.08146243473675 0 0 0 0 -114.6009382653283 27.814997309362298 0 27.814997309362298 -1.1452307522740739 0 0 0 0 -115.8285055349852 73.249838788159423 0 73.249838788159423 89.39919182198355 0 0 0 0 69.58127360832259 -7.089273146178698 0 -7.089273146178698 78.779215502516308 0 0 0 0 1.5226946397577876 -5.5480693732359256 0 -5.5480693732359256 -3.8680857451666455 0 0 0 0 387.49951665947447 292.38798338760535 0 292.38798338760535 -638.37400555976933 0 0 0 0 100.30544291190745 72.069343349606925 0 72.069343349606925 254.77439781305384 0 0 0 0 116.05848610815156 222.3177138878832 0 222.3177138878832 2.3900643612796557 0 0 0 0 131.20742161453018 161.56480403856199 0 161.56480403856199 145.36987953326025 0 0 0 0 3.9794864775903989 109.52260773361559 0 109.52260773361559 176.0548135635745 0 0 0 0 109.05007450691686 93.750842084979325 0 93.750842084979325 48.808754428413309 0 0 0 0 402.01670121335337 -300.9164972697746 0 -300.9164972697746 207.98933687090721 0 0 0 0 -32.219641283067176 130.85929603467298 0 130.85929603467298 225.15483052036507 0 0 0 0 519.09362352240714 158.69493546467811 0 158.69493546467811 -152.89779766483798 0 0 0 0 -55.065532405085833 -114.06988993420771 0 -114.06988993420771 -278.65128043996862 0 0 0 0 -279.32214919381659 254.25282807761351 0 254.25282807761351 -83.846223605524301 0 0 0 0 -7.9514415503261375 -3.6137627734193849 0 -3.6137627734193849 -7.5926731906497986 0 0 0 0 -25.761202500900254 26.917746124782298 0 26.917746124782298 -25.770972993942223 0 0 0 0 -35.683801458970947 197.46557453007421 0 197.46557453007421 -260.90716432936733 0 0 0 0 -96.51551719606141 342.34213803043156 0 342.34213803043156 -310.20747579419208 0 0 0 0 -49.789746916736476 3.2928203940973617 0 3.2928203940973617 -182.35040644434321 0 0 0 0 -0.11036221615925967 5.8217359290808872 0 5.8217359290808872 -12.577617227503833 0 0 0 0 -359.47365702255775 169.93257996661526 0 169.93257996661526 53.187932828993496 0 0 0 0 243.6788796423134 19.345459542293611 0 19.345459542293611 -84.802822634776476 0 0 0 0 106.82767613413307 -61.94979443372722 0 -61.94979443372722 19.187085386816761 0 0 0 0 3.7771910891659957 0.79070157917341533 0 0.79070157917341533 -5.0274023824244143 0 0 0 0 35.089015840131196 73.155232814534202 0 73.155232814534202 89.763512578407244 0 0 0 0 181.19265582173466 110.2748879083847 0 110.2748879083847 -8.4749251562470818 0 0 0 0 304.07367587602494 138.09995713929311 0 138.09995713929311 -8.2540461447579219 0 0 0 0 67.184756129703601 177.20108133969734 0 177.20108133969734 77.251425728236541 0 0 0 0 96.272138061091027 175.78201966852998 0 175.78201966852998 77.131049536428691 0 0 0 0 141.42233217578178 262.96534789466841 0 262.96534789466841 -30.6608863366273 0 0 0 0 -135.84547192985337 -50.068886214177837 0 -50.068886214177837 446.59826140027508 0 0 0 0 -663.48462834315978 99.763329617142404 0 99.763329617142404 335.18633974363183 0 0 0 0 0.85208519697575014 4.1669221673613777 0 4.1669221673613777 -3.6955114443243176 0 0 0 0 48.209028488417971 207.6722767908368 0 207.6722767908368 225.47126635942732 0 0 0 0 168.89370908542105 -314.11497399471438 0 -314.11497399471438 202.46830677577236 0 0 0 0 106.27047599693418 79.1546430240696 0 79.1546430240696 31.263320647748301 0 0 0 0 6.4818496493241078 22.381580920596733 0 22.381580920596733 9.3086289395251391 0 0 0 0 28.068177123937858 13.687673002143129 0 13.687673002143129 73.77270080181188 0 0 0 0 -131.90121867485959 167.244815669741 0 167.244815669741 141.73673547046565 0 0 0 0 -104.05226226140712 363.33785867580991 0 363.33785867580991 -14.161152633107577 0 0 0 0 -171.05063416750636 218.40468952750211 0 218.40468952750211 131.69166256970556 0 0 0 0 -8.7547783132879147 -0.37267978197498053 0 -0.37267978197498053 6.3879433602383351 0 0 0 0 293.26352770662925 199.02753706919032 0 199.02753706919032 130.17721993326882 0 0 0 0 -40.479059164063074 114.79290142750187 0 114.79290142750187 199.69760239780476 0 0 0 0 -63.245574507028323 263.32573905213394 0 263.32573905213394 105.99642242621348 0 0 0 0 -40.047246407848434 251.37002529891907 0 251.37002529891907 84.900526822365578 0 0 0 0 -161.81833463735165 423.07105295998923 0 423.07105295998923 -78.026269284448944 0 0 0 0 87.585605830528948 269.50582014558483 0 269.50582014558483 -369.75374194261553 0 0 0 0 -70.118863055904512 337.64261205175194 0 337.64261205175194 -304.47736527348138 0 0 0 0 32.397945551685552 22.9280566134655 0 22.9280566134655 -121.75258100595693 0 0 0 0 4.9190137343636593 8.2878280628895311 0 8.2878280628895311 3.2249791461267403 0 0 0 0 45.45613214943296 95.972835797696689 0 95.972835797696689 -316.49054668092049 0 0 0 0 -79.285299660173223 252.86102672021477 0 252.86102672021477 -12.534217110271584 0 0 0 0 39.079642833600815 39.630806126646661 0 39.630806126646661 20.983179682859955 0 0 0 0 -40.004021938031656 21.196781016526984 0 21.196781016526984 167.0440200586545 0 0 0 0 187.44063533950248 177.59367311307233 0 177.59367311307233 -94.249641361407612 0 0 0 0 206.86958172835693 30.816234452722142 0 30.816234452722142 18.211592775945974 0 0 0 0 -86.292738093896332 133.71751704800363 0 133.71751704800363 38.293866798171621 0 0 0 0 -17.724271487815713 10.911821839133154 0 10.911821839133154 55.317195245036487 0 0 0 0 -43.330237880045416 25.542208405711918 0 25.542208405711918 23.730699183231533 0 0 0 0 14.79442572311018 89.774722314877181 0 89.774722314877181 41.811364557753222 0 0 0 0 111.45922497894617 75.483281653538995 0 75.483281653538995 21.220048513619986 0 0 0 0 -49.42245017821088 23.344167409761596 0 23.344167409761596 25.228950138378064 0 0 0 0 -32.87881049868156 37.447423509798682 0 37.447423509798682 69.38549325693748 0 0 0 0 153.23429524333733 38.538010872516679 0 38.538010872516679 25.358293018697623 0 0 0 0 244.12848611414665 188.45806885050433 0 188.45806885050433 58.706557803377734 0 0 0 0 132.53477592662603 268.41812087212293 0 268.41812087212293 168.58875672160138 0 0 0 0 155.80135911682373 137.71556049186921 0 137.71556049186921 92.968332668117 0 0 0 0 130.79770999824541 169.69583473836633 0 169.69583473836633 158.05649468617548 0 0 0 0 169.15195449625753 192.8886325334438 0 192.8886325334438 59.466050287321195 0 0 0 0 27.805522722956084 236.35105658792259 0 236.35105658792259 86.512542798592222 0 0 0 0 -32.922565016982844 213.25087339327786 0 213.25087339327786 138.17224619508306 0 0 0 0 81.824535092113365 182.11609664756816 0 182.11609664756816 59.268136663038604 0 0 0 0 -77.165898083436332 252.44314973867949 0 252.44314973867949 98.320105906772369 0 0 0 0 -103.62213227375469 182.02787217487321 0 182.02787217487321 278.7633598799099 0 0 0 0 -8.3856100815853836 27.603389096499853 0 27.603389096499853 7.1718493196093736 0 0 0 0 16.739509790320881 238.17275532558324 0 238.17275532558324 -163.87819950406765 0 0 0 0 -19.30477504916783 112.7169003278964 0 112.7169003278964 32.536889153101782 0 0 0 0 -102.51680553044571 132.73539436330748 0 132.73539436330748 152.77256822836625 0 0 0 0 -38.498314018987003 251.30707342281949 0 251.30707342281949 136.97847653202621 0 0 0 0 10.555300379783148 225.69467038422701 0 225.69467038422701 63.420593119605883 0 0 0 0 -31.361713018362934 311.22329011123605 0 311.22329011123605 -56.322071656347788 0 0 0 0 12.382041850116366 188.85335915659434 0 188.85335915659434 4.3844207231727523 0 0 0 0 13.807978251414841 116.22018763575916 0 116.22018763575916 31.837217311113054 0 0 0 0 39.439074871777848 201.18938430245771 0 201.18938430245771 3.1560023959356158 0 0 0 0 84.62518092271057 121.25602157278036 0 121.25602157278036 30.370389150203891 0 0 0 0 68.821465639164671 136.14379684129267 0 136.14379684129267 16.579369572643884 0 0 0 0 -59.579274915692444 102.98214431745571 0 102.98214431745571 50.290157837779283 0 0 0 0 128.13442311593826 161.25369154156238 0 161.25369154156238 -103.65612746807375 0 0 0 0 45.249789446563227 99.918774949606814 0 99.918774949606814 37.682832613371374 0 0 0 0 -6.1829090518003795 23.624312293474567 0 23.624312293474567 2.1349091799430315 0 0 0 0 75.959071239682089 48.204915739933597 0 48.204915739933597 22.616263607958899 0 0 0 0 21.371408290215186 166.33121985808975 0 166.33121985808975 144.6156315451617 0 0 0 0 21.932742345627048 118.43231786575399 0 118.43231786575399 82.790494721298273 0 0 0 0 63.426561703658081 121.92758592630412 0 121.92758592630412 104.10663732334433 0 0 0 0 14.134230846379069 156.96139146261567 0 156.96139146261567 87.748815171303249 0 0 0 0 37.784656287811231 124.98470874392706 0 124.98470874392706 7.5750187459907465 0 0 0 0 -43.983786867320305 156.23308686172027 0 156.23308686172027 -4.3364693630276179 0 0 0 0 88.117534945984517 124.03664050717001 0 124.03664050717001 -38.716640348967303 0 0 0 0 25.689904685248621 153.77997631484504 0 153.77997631484504 65.616774560520525 0 0 0 0 51.494931979439571 177.98839143923612 0 177.98839143923612 -101.12296286249659 0 0 0 0 0.81241654375111239 25.461729821209875 0 25.461729821209875 6.0744696610969644 0 0 0 0 13.674726497709344 151.6047175519399 0 151.6047175519399 -267.03068229046789 0 0 0 0 6.7971412938711637 -1.433929685582271 0 -1.433929685582271 -0.36555765592856715 0 0 0 0 -38.979418659830117 7.2190608259475653 0 7.2190608259475653 -174.15839452514234 0 0 0 0 -31.676901771116718 52.411230911129664 0 52.411230911129664 -19.078268678930726 0 0 0 0 78.786097394768149 242.22386387113067 0 242.22386387113067 -173.53967257480903 0 0 0 0 0.086770104999134387 224.37268026089251 0 224.37268026089251 415.57371212007024 0 0 0 0 127.78598675466492 154.28065777664938 0 154.28065777664938 -538.12275559782938 0 0 0 0 -39.210631072463002 140.68997121255506 0 140.68997121255506 3.9527007897636395 0 0 0 0 27.026219879713608 55.831131678115526 0 55.831131678115526 -88.565961979396434 0 0 0 0 -43.83592007367406 72.054901314079416 0 72.054901314079416 178.50056707094336 0 0 0 0 0.1187614631926408 118.15957337569398 0 118.15957337569398 44.043004629936149 0 0 0 0 68.556976669002324 98.916139813411064 0 98.916139813411064 13.561089868743693 0 0 0 0 30.300941211549798 51.539217418571752 0 51.539217418571752 299.37619093699868 0 0 0 0 34.961335672269342 106.36085109548549 0 106.36085109548549 180.87079062940654 0 0 0 0 -3.3195988452498568 63.937024114669839 0 63.937024114669839 197.76820084699648 0 0 0 0 29.55954132557963 181.07615990036675 0 181.07615990036675 126.23985736086252 0 0 0 0 66.304971370991552 94.173218049281786 0 94.173218049281786 -27.490749006418355 0 0 0 0 18.7160109232791 179.61885130911287 0 179.61885130911287 344.23017346262168 0 0 0 0 -13.420174697435868 150.35459942941952 0 150.35459942941952 333.80269495766879 0 0 0 0 -13.01545776110288 5.2840102942157898 0 5.2840102942157898 -3.6611172351952455 0 0 0 0 14.786172586100292 49.68326044413061 0 49.68326044413061 -137.35190035903906 0 0 0 0 4.4044865861942526 74.549118110641757 0 74.549118110641757 -96.306820609102942 0 0 0 0 30.679128278856297 32.317164262860615 0 32.317164262860615 -404.08010833690241 0 0 0 0 -7.0887328647329468 5.0461892160525323 0 5.0461892160525323 -2.4360261353726926 0 0 0 0 42.962076735202572 230.72379319473657 0 230.72379319473657 -118.56817634781783 0 0 0 0 28.631361796229612 116.1380383416672 0 116.1380383416672 -171.19943895265533 0 0 0 0 -0.090739959249245591 114.94051513646841 0 114.94051513646841 292.88321028707651 0 0 0 0 -3.5548577421404275 0.24598228968614677 0 0.24598228968614677 -0.075298670566148473 0 0 0 0 -25.619110249477671 192.25006336737169 0 192.25006336737169 438.10553971710033 0 0 0 0 -16.516390279692132 391.53907287839684 0 391.53907287839684 -296.1273557317254 0 0 0 0 89.87504919640196 12.436266263057178 0 12.436266263057178 -1093.5043450219837 0 0 0 0 -30.193339913676027 101.63326726542709 0 101.63326726542709 -264.86743767728512 0 0 0 0 -0.41488275684969267 130.62570602521737 0 130.62570602521737 -790.43783938183151 0 0 0 0 -71.885295863037754 458.70233342133633 0 458.70233342133633 -379.83639962138659 0 0 0 0 -34.690337201609509 194.52247479001835 0 194.52247479001835 -10.106038695477764 0 0 0 0 -88.88191479215493 394.81695354240651 0 394.81695354240651 42.186796491430869 0 0 0 0 -265.87110570478944 373.86912230459086 0 373.86912230459086 483.87311234971639 0 0 0 0 -117.86431324877776 250.67467974683314 0 250.67467974683314 286.80904124230437 0 0 0 0 3.9986258232020191 227.28497665924533 0 227.28497665924533 -14.572922563282191 0 0 0 0 62.800109525313019 236.79709751374503 0 236.79709751374503 -336.04202021293167 0 0 0 0 66.5947419021104 253.23561720092403 0 253.23561720092403 -12.233192765577769 0 0 0 0 3.9738557737291558 275.44460294949295 0 275.44460294949295 124.35535451275064 0 0 0 0 73.696378453154466 187.37619639808145 0 187.37619639808145 148.34848563543346 0 0 0 0 -65.723052521483623 320.81519361472056 0 320.81519361472056 22.345480095376843 0 0 0 0 -442.90304576841299 366.86786705012128 0 366.86786705012128 41.862482609525614 0 0 0 0 24.367452277132543 234.02806892506442 0 234.02806892506442 27.596607493695046 0 0 0 0 8.6535426272457698 230.86131619089974 0 230.86131619089974 28.891108451378386 0 0 0 0 51.003959035442676 159.50187604621988 0 159.50187604621988 35.012274871236514 0 0 0 0 -15.745837563702624 103.12076463725252 0 103.12076463725252 42.21312205270948 0 0 0 0 74.671561716111682 133.88808977272379 0 133.88808977272379 21.424643758306047 0 0 0 0 -21.243559271068179 110.12619249918099 0 110.12619249918099 39.718450421899519 0 0 0 0 -165.75341834328719 159.58313264827848 0 159.58313264827848 73.261334376951709 0 0 0 0 -141.84880002671707 179.20696427081498 0 179.20696427081498 12.400704558036523 0 0 0 0 51.76557752284134 123.51674934342054 0 123.51674934342054 30.870957947860006 0 0 0 0 133.94699909604606 109.30384138544332 0 109.30384138544332 -2.1822048055983032 0 0 0 0 70.070017379955971 124.10714879737134 0 124.10714879737134 12.271974737375331 0 0 0 0 39.381728590160492 71.85257847835237 0 71.85257847835237 -12.897903564393346 0 0 0 0 72.374341251743317 125.55123085076684 0 125.55123085076684 26.766015933217204 0 0 0 0 77.095716959847778 145.34459590485721 0 145.34459590485721 36.088089102493427 0 0 0 0 4.7948877474846086 128.42364123459447 0 128.42364123459447 102.06611219119623 0 0 0 0 52.73988225804078 71.886515017884449 0 71.886515017884449 41.594838963514121 0 0 0 0 43.789452484670619 90.363415327079565 0 90.363415327079565 266.37362007786214 0 0 0 0 213.11238192436758 199.62454021285487 0 199.62454021285487 65.721846501171967 0 0 0 0 45.240530322073027 90.21754051622338 0 90.21754051622338 16.494648687214749 0 0 0 0 -20.004665859495049 103.63906915541588 0 103.63906915541588 46.599617245610688 0 0 0 0 118.38182756681636 109.03595277941258 0 109.03595277941258 -27.379530576778052 0 0 0 0 28.635308410213554 142.89951572366917 0 142.89951572366917 -44.756309552129096 0 0 0 0 -2.6893182347703259 33.232836288357248 0 33.232836288357248 -23.001910307422804 0 0 0 0 47.376798053781386 101.09255504402881 0 101.09255504402881 24.116662738109881 0 0 0 0 6.9247378559812205 205.57050987897219 0 205.57050987897219 -12.975424903810563 0 0 0 0 -369.45980062821491 131.29968260183173 0 131.29968260183173 -283.5246893610589 0 0 0 0 -319.79339918753067 16.012724176130575 0 16.012724176130575 -348.71179021823826 0 0 0 0 -370.77724772018337 -83.84853417098725 0 -83.84853417098725 -165.46512713244158 0 0 0 0 -315.53649745392067 -147.49535606165625 0 -147.49535606165625 -516.3661044728758 0 0 0 0 -393.16051724732642 191.09195069171085 0 191.09195069171085 -509.75769297709115 0 0 0 0 -363.31631708479654 -20.968261816796939 0 -20.968261816796939 -1390.6812862158081 0 0 0 0 -862.46093696979187 930.77648627850783 0 930.77648627850783 -844.25969717411579 0 0 0 0 -331.11714170992673 99.926254473894232 0 99.926254473894232 -547.57541364758504 0 0 0 0 -320.11696390770339 236.23013784988626 0 236.23013784988626 -513.59534074980911 0 0 0 0 -265.28956815938182 241.24539787452028 0 241.24539787452028 -659.52808039662909 0 0 0 0 -308.30015706839913 175.82175517616884 0 175.82175517616884 -223.20236248376463 0 0 0 0 -237.26345401517972 197.2881497609371 0 197.2881497609371 -257.93170155336423 0 0 0 0 -234.00362568024161 173.74133377604423 0 173.74133377604423 -149.93509438950684 0 0 0 0 -354.17502906026129 66.596773999091852 0 66.596773999091852 -175.42838921357333 0 0 0 0 -350.36725092777124 54.139078395686084 0 54.139078395686084 -159.73363805100735 0 0 0 0 -478.43614035053724 111.17680340492495 0 111.17680340492495 -47.083638943988319 0 0 0 0 -493.37928961428156 38.636110455135707 0 38.636110455135707 88.742396403848716 0 0 0 0 -270.63686709150716 152.04016084958138 0 152.04016084958138 -90.534318346166401 0 0 0 0 -270.60590476480365 152.02134247790693 0 152.02134247790693 -142.26636021876317 0 0 0 0 -261.01078076537578 182.97143524098485 0 182.97143524098485 -122.70099269350214 0 0 0 0 -336.52234071415114 266.4418942525661 0 266.4418942525661 -92.42391733205659 0 0 0 0 -398.17964415278402 361.18665868377281 0 361.18665868377281 -127.86002389465898 0 0 0 0 -284.19523813822525 249.77804487924016 0 249.77804487924016 -100.54971413883015 0 0 0 0 -237.51488847096698 280.53873719364185 0 280.53873719364185 -162.96525553753668 0 0 0 0 -414.62996594048218 196.85653985038209 0 196.85653985038209 25.03774491574427 0 0 0 0 -707.18207677430473 272.22442925120953 0 272.22442925120953 6.8263472482656198 0 0 0 0 -798.4164927671336 172.97901149470249 0 172.97901149470249 166.55858387363855 0 0 0 0 -637.88773990663503 113.83012034172762 0 113.83012034172762 186.62065459511905 0 0 0 0 -774.34854510956939 -52.7116895147675 0 -52.7116895147675 241.29823094610805 0 0 0 0 -373.32540274535131 13.059433323762505 0 13.059433323762505 211.40843953928061 0 0 0 0 -606.803900137038 65.151883326535369 0 65.151883326535369 84.26042930464655 0 0 0 0 -513.57209119964682 -121.57334306595408 0 -121.57334306595408 200.15338527667819 0 0 0 0 -365.03345863619506 -133.98587799533945 0 -133.98587799533945 110.66405580561559 0 0 0 0 -432.25251784268812 -31.352560535520709 0 -31.352560535520709 -31.166547346785364 0 0 0 0 -431.01928605805915 -26.43822711262635 0 -26.43822711262635 -44.966633857020156 0 0 0 0 -524.93119263303561 61.755921415908205 0 61.755921415908205 -35.965215440900465 0 0 0 0 -375.20733047272813 -13.549696226929179 0 -13.549696226929179 -92.810174837846034 0 0 0 0 -228.79015831879951 -60.72556011159628 0 -60.72556011159628 -85.104846663839041 0 0 0 0 -318.14604531727855 -7.5618429950132651 0 -7.5618429950132651 319.26617850324959 0 0 0 0 119.5203034368742 290.1524350271261 0 290.1524350271261 312.17226146503259 0 0 0 0 -219.31561576437343 -73.355738864703881 0 -73.355738864703881 209.1062410601769 0 0 0 0 96.737730706579896 248.21847469100797 0 248.21847469100797 445.85492486055796 0 0 0 0 228.17875640000784 37.292819856737196 0 37.292819856737196 414.86681001401269 0 0 0 0 623.16392068640926 737.72393904548153 0 737.72393904548153 693.06229547876274 0 0 0 0 -7.7292902802446157 6.4694083356402743 0 6.4694083356402743 8.5480211640625399 0 0 0 0 -27.958650034020955 31.841889873293763 0 31.841889873293763 -23.793957427879565 0 0 0 0 166.66294586008917 1390.9667074887416 0 1390.9667074887416 44.056493272802982 0 0 0 0 -132.53887069526536 85.58004556942501 0 85.58004556942501 811.52266249199772 0 0 0 0 13.800718943339234 125.39734361450701 0 125.39734361450701 487.92044872054345 0 0 0 0 85.010447891108925 368.19458387149439 0 368.19458387149439 528.90465150711907 0 0 0 0 139.38679768317525 593.37430480145395 0 593.37430480145395 634.6523493835922 0 0 0 0 448.34788057449805 631.01906593264539 0 631.01906593264539 -28.447652942279092 0 0 0 0 163.95737765598096 519.11734007471318 0 519.11734007471318 179.57292904523183 0 0 0 0 267.86260944521928 560.36791443280549 0 560.36791443280549 -273.67222985543538 0 0 0 0 275.40049082777477 389.1789816357516 0 389.1789816357516 -157.63408331537823 0 0 0 0 -185.41123111748311 163.1230611095873 0 163.1230611095873 -65.816558890661213 0 0 0 0 -49.294110574403021 366.62505588139152 0 366.62505588139152 32.411001338949518 0 0 0 0 1.0701236443164817 47.221128392383548 0 47.221128392383548 -36.058520805502894 0 0 0 0 -60.226915955601726 502.75249411377445 0 502.75249411377445 2368.3453763383759 0 0 0 0 24.997226922361648 12.276246305114453 0 12.276246305114453 1.0479327911815233 0 0 0 0 82.07937380164185 581.10196680610557 0 581.10196680610557 1356.3431713568098 0 0 0 0 -513.27731384716753 15.840050613938729 0 15.840050613938729 146.07873503904688 0 0 0 0 -32.541121952523 10.963454513991682 0 10.963454513991682 0.95674482227141411 0 0 0 0 -535.3593281495414 160.6515070058158 0 160.6515070058158 139.38782077495932 0 0 0 0 8.0740708902449114 260.41415326610877 0 260.41415326610877 -601.01185781627464 0 0 0 0 -1.0099093509628716 6.2475647202652524 0 6.2475647202652524 0.19946405805831624 0 0 0 0 703.86903400006122 604.6431590658849 0 604.6431590658849 1804.8495478137704 0 0 0 0 925.83059891151788 875.66911004599206 0 875.66911004599206 776.79308687685352 0 0 0 0 175.8780960963777 126.70556672128805 0 126.70556672128805 -1534.272434013099 0 0 0 0 -1.9629144675665344 5.7743496181251395 0 5.7743496181251395 -0.053898872345007121 0 0 0 0 444.4505841157079 691.52844804795313 0 691.52844804795313 1788.1841809174148 0 0 0 0 133.15875776223766 375.47029784731615 0 375.47029784731615 -103.30470991404457 0 0 0 0 -19.109477742746719 19.048218439388435 0 19.048218439388435 -13.645535550531589 0 0 0 0 149.23550231194349 320.04430093027702 0 320.04430093027702 87.432697161256783 0 0 0 0 264.4284389243403 356.49853984581694 0 356.49853984581694 -125.12560327453275 0 0 0 0 201.45507919257579 136.88667927586152 0 136.88667927586152 -191.40479780961084 0 0 0 0 168.98110685034362 -60.872779991147667 0 -60.872779991147667 -1290.0829154358739 0 0 0 0 398.67977938788556 378.53466264165081 0 378.53466264165081 -575.92350855021323 0 0 0 0 394.3746081117315 325.37928902519434 0 325.37928902519434 -789.58717354167175 0 0 0 0 349.13063057048566 370.10180451793804 0 370.10180451793804 -742.58975419796343 0 0 0 0 485.5337794965717 208.52589187270644 0 208.52589187270644 -551.49971009250658 0 0 0 0 554.81443034373206 312.35823236026431 0 312.35823236026431 -1021.8940146585146 0 0 0 0 12.439702655170549 388.89832358610693 0 388.89832358610693 -453.14236982770262 0 0 0 0 305.95177302573575 239.25316746382009 0 239.25316746382009 -719.32745167584198 0 0 0 0 -1083.134940840986 165.57694160553092 0 165.57694160553092 -377.19049544634271 0 0 0 0 -198.48129704711209 270.43207082971878 0 270.43207082971878 -365.98871791154397 0 0 0 0 428.3721080951309 493.7560045262851 0 493.7560045262851 -832.40766685109656 0 0 0 0 423.50072382268627 474.79514473835684 0 474.79514473835684 -741.06354670813471 0 0 0 0 27.681369983713466 720.26917641694627 0 720.26917641694627 -562.35051608090771 0 0 0 0 539.97775221392658 -24.755489140861755 0 -24.755489140861755 -354.77903961514585 0 0 0 0 834.31491596226624 145.55845427391068 0 145.55845427391068 -1280.10557135727 0 0 0 0 -246.68365199023901 1095.3545330600307 0 1095.3545330600307 -1254.2533254562654 0 0 0 0 -3.0949540897945109 5.9289993316122427 0 5.9289993316122427 -11.276345998208676 0 0 0 0 -1334.9130882119698 254.12851595733014 0 254.12851595733014 88.737291070294646 0 0 0 0 360.78269014068064 284.58814141422317 0 284.58814141422317 37.439369270933639 0 0 0 0 860.83133239208109 335.79670805228261 0 335.79670805228261 19.636489226837512 0 0 0 0 -30.708525072452176 218.76103825997339 0 218.76103825997339 -84.695553657549908 0 0 0 0 565.40000666791821 487.23926711109652 0 487.23926711109652 -31.64888474598456 0 0 0 0 -7.4179038649140985 15.783846331383181 0 15.783846331383181 -27.815617304216342 0 0 0 0 -501.10131415071373 185.30388787929837 0 185.30388787929837 15.835782784426746 0 0 0 0 -138.35441492626978 55.52088194706991 0 55.52088194706991 -74.752786430157101 0 0 0 0 242.5255548844525 228.37821619687497 0 228.37821619687497 -135.54047306255598 0 0 0 0 248.07274420271642 272.83937434262202 0 272.83937434262202 -400.50075688588095 0 0 0 0 445.22317853263667 269.82026448993474 0 269.82026448993474 -531.92976772559996 0 0 0 0 347.74847177439005 245.89535298932469 0 245.89535298932469 157.76136146198223 0 0 0 0 415.90222834608721 433.36311195395137 0 433.36311195395137 194.81082497739135 0 0 0 0 451.03640411989181 369.87686728748486 0 369.87686728748486 40.431739735459814 0 0 0 0 338.46683589810345 335.39776399643779 0 335.39776399643779 -155.35586576260675 0 0 0 0 185.46607190286159 234.46366115612091 0 234.46366115612091 25.349637051749596 0 0 0 0 126.30981646755026 344.75627247809553 0 344.75627247809553 114.0171470944706 0 0 0 0 303.4420449447789 334.32035176139016 0 334.32035176139016 91.561255300357516 0 0 0 0 194.57163603098888 385.50772436731859 0 385.50772436731859 205.35115731527367 0 0 0 0 281.08881385574932 335.90895402768092 0 335.90895402768092 206.76279307078585 0 0 0 0 574.05851229158725 468.41788077625824 0 468.41788077625824 119.83057193952118 0 0 0 0 359.74389283689743 440.56786168182907 0 440.56786168182907 131.37911120754143 0 0 0 0 498.76856270762801 336.64173476393262 0 336.64173476393262 189.4681955712058 0 0 0 0 381.66413768169878 448.69222797117436 0 448.69222797117436 258.96944376065358 0 0 0 0 -116.74176306805202 64.094681294959855 0 64.094681294959855 101.22701983921979 0 0 0 0 -19.921733060809714 27.528184105195368 0 27.528184105195368 -33.787955167056808 0 0 0 0 -6.1637746249500864 5.1320805816916053 0 5.1320805816916053 1.766652602643271 0 0 0 0 365.10138987271785 382.39151973374464 0 382.39151973374464 291.44451797168313 0 0 0 0 200.54729968230185 180.29325580103375 0 180.29325580103375 72.564649847334749 0 0 0 0 375.03631103977386 410.5648124414638 0 410.5648124414638 176.71127942791554 0 0 0 0 377.30445016776503 324.58128581041638 0 324.58128581041638 378.72704324727783 0 0 0 0 320.08593174342241 429.80555106953216 0 429.80555106953216 230.029526305785 0 0 0 0 279.30205541267969 332.89786558302103 0 332.89786558302103 231.02758318429915 0 0 0 0 -259.05800834937509 186.19614032369509 0 186.19614032369509 -10.928963165056757 0 0 0 0 6.3659643336754925 104.78033133105936 0 104.78033133105936 -88.489845468429621 0 0 0 0 -21.292404019603055 69.241632161298526 0 69.241632161298526 67.854103262979152 0 0 0 0 -87.305427581950426 182.69664854052985 0 182.69664854052985 -115.85683813672324 0 0 0 0 175.82009174105224 69.819237524582832 0 69.819237524582832 -47.581809307881485 0 0 0 0 -56.50500506476601 50.159489838796958 0 50.159489838796958 54.686590901582917 0 0 0 0 -13.570108664300967 23.710189763815684 0 23.710189763815684 -34.535844694109592 0 0 0 0 176.07237159949364 66.199402555889264 0 66.199402555889264 -63.774054426526163 0 0 0 0 8.1876624628648926 0.15790139523331526 0 0.15790139523331526 -8.8089177809610693 0 0 0 0 57.141908658850298 15.876466799570608 0 15.876466799570608 -11.375484567973785 0 0 0 0 159.83602536650869 81.840742678824654 0 81.840742678824654 18.396471391794876 0 0 0 0 33.233882735032239 72.166378564897968 0 72.166378564897968 84.74313421697434 0 0 0 0 168.72006844124371 157.08048862203441 0 157.08048862203441 105.78626775489647 0 0 0 0 120.78664267834756 87.869205752322387 0 87.869205752322387 65.543215303198394 0 0 0 0 115.11017410819295 100.05682971556007 0 100.05682971556007 70.129181398977835 0 0 0 0 -26.19543939950745 66.273089643287221 0 66.273089643287221 103.54602824500296 0 0 0 0 32.030915007174599 61.408880649408374 0 61.408880649408374 58.412190221277342 0 0 0 0 -1.0528390035779012 -1.7555004493028719 0 -1.7555004493028719 42.840577792203703 0 0 0 0 -26.889491498034317 82.845752459774161 0 82.845752459774161 106.80246606085257 0 0 0 0 -5.9822467243684514 69.560453049966327 0 69.560453049966327 114.95880112021496 0 0 0 0 -27.575526718021138 103.40891492983701 0 103.40891492983701 213.20075961582074 0 0 0 0 152.79541974259882 269.18148203507099 0 269.18148203507099 165.23568657215469 0 0 0 0 -145.22303758928319 200.12991503038847 0 200.12991503038847 152.07196877541719 0 0 0 0 178.98270213939213 308.4468816064383 0 308.4468816064383 -213.11933838888194 0 0 0 0 -3.6057447078529599 3.7408756965840748 0 3.7408756965840748 -3.8265238223257487 0 0 0 0 -1260.4738667035817 128.07097348996967 0 128.07097348996967 246.23755528777053 0 0 0 0 -26.777020030976928 13.051354788707158 0 13.051354788707158 137.59843475223715 0 0 0 0 -988.62035204626409 602.46974848131072 0 602.46974848131072 528.87895015389131 0 0 0 0 -732.39380235392741 215.84812791843706 0 215.84812791843706 -81.669177947951539 0 0 0 0 -480.01560808877184 585.5100036562726 0 585.5100036562726 462.10021344836059 0 0 0 0 -46.158779371612887 50.408696067566204 0 50.408696067566204 -53.747108420635165 0 0 0 0 2.2213848872911015 3.5095573406223246 0 3.5095573406223246 -10.282477049023569 0 0 0 0 -1017.190088972804 738.38903130801054 0 738.38903130801054 174.82152031867827 0 0 0 0 619.48503307493229 -110.00069676100429 0 -110.00069676100429 154.89906026837434 0 0 0 0 -534.7645130069177 269.69536267714739 0 269.69536267714739 630.00102296609748 0 0 0 0 -347.62810475652805 365.92808244605339 0 365.92808244605339 -5.1053712406437626 0 0 0 0 -352.40229382061443 417.36374982029008 0 417.36374982029008 -488.09994101554003 0 0 0 0 -397.64424420533169 584.07915143558023 0 584.07915143558023 -566.18147328238683 0 0 0 0 414.42547670250497 500.68340151237135 0 500.68340151237135 -505.31839311588828 0 0 0 0 -414.57516769496942 167.69796131138037 0 167.69796131138037 -707.65346087359217 0 0 0 0 -938.91711942522215 290.19509874297188 0 290.19509874297188 -162.53479123239595 0 0 0 0 -588.27170313921852 669.49186035276739 0 669.49186035276739 -275.39659408346949 0 0 0 0 -175.77033354615196 297.35039848765865 0 297.35039848765865 -139.98118026387078 0 0 0 0 -564.61263687296196 519.35761876281185 0 519.35761876281185 -160.8308955484045 0 0 0 0 -625.41519692272914 475.32986687313081 0 475.32986687313081 -174.30400658918032 0 0 0 0 -626.27301264786911 465.66806238122035 0 465.66806238122035 -85.835294455775497 0 0 0 0 -589.72283097318314 470.18870645076743 0 470.18870645076743 -183.73511076929947 0 0 0 0 -532.15930365553959 367.35661650662882 0 367.35661650662882 -189.56812458287368 0 0 0 0 -570.90592204535551 568.37729971377235 0 568.37729971377235 -390.02605169235773 0 0 0 0 -471.55444460004219 412.70787552834128 0 412.70787552834128 -197.2755105134836 0 0 0 0 -596.29909895983565 505.68318245229494 0 505.68318245229494 -166.40393435749121 0 0 0 0 -261.9801311589099 267.41011313022926 0 267.41011313022926 -97.275454880125096 0 0 0 0 -269.97717019906122 248.92195828088165 0 248.92195828088165 -127.24865104778735 0 0 0 0 -350.67755348832179 366.85238728904136 0 366.85238728904136 -293.34180554729699 0 0 0 0 -455.61447415862267 355.62138444435141 0 355.62138444435141 -144.2509926203154 0 0 0 0 -417.66880808819224 394.2334036151276 0 394.2334036151276 -178.6947177058546 0 0 0 0 -456.67085296671576 429.12237996154226 0 429.12237996154226 -174.94994012861008 0 0 0 0 -377.70230221188467 503.37302691162995 0 503.37302691162995 -165.98780867817175 0 0 0 0 -381.16031724588902 476.96895661877159 0 476.96895661877159 -121.96985379723901 0 0 0 0 -405.37544829989565 435.46089238245111 0 435.46089238245111 -40.856902403278468 0 0 0 0 -385.86694962934416 484.96909777546261 0 484.96909777546261 -96.10585390301685 0 0 0 0 -444.89167806191654 637.76618992749241 0 637.76618992749241 -70.996731121259018 0 0 0 0 -51.767163001163738 52.914979516037 0 52.914979516037 -49.716781264925928 0 0 0 0 -412.01248822495108 421.61079676108852 0 421.61079676108852 -311.65975137435771 0 0 0 0 -267.00581475198487 567.97855516832215 0 567.97855516832215 -236.17239434672933 0 0 0 0 -474.95604880007886 742.04363804285208 0 742.04363804285208 -363.64260974718127 0 0 0 0 -528.99043672308471 467.88958427024409 0 467.88958427024409 -357.35216801587376 0 0 0 0 -914.42876820806123 878.099714642045 0 878.099714642045 -191.17691946942068 0 0 0 0 -18.611025300021396 6.6613827857091827 0 6.6613827857091827 17.117580352055864 0 0 0 0 -59.78328786352904 1128.5881581015249 0 1128.5881581015249 -508.06788149349086 0 0 0 0 2692.052883235272 1088.1396348225808 0 1088.1396348225808 -760.71633910771016 0 0 0 0 -465.56541439368084 395.82989349234049 0 395.82989349234049 -298.61768944498544 0 0 0 0 -681.57044678805141 449.68511261399181 0 449.68511261399181 -225.80147854633833 0 0 0 0 -530.24897785894791 249.2297769122415 0 249.2297769122415 -427.8233393251503 0 0 0 0 -615.12866321335537 393.03109994172701 0 393.03109994172701 -140.20484831432623 0 0 0 0 -348.34838307542395 556.57759704795353 0 556.57759704795353 -185.92089875056354 0 0 0 0 -54.13356928139148 52.613356825853216 0 52.613356825853216 -45.30764217414518 0 0 0 0 -210.99385319667044 347.84275365505982 0 347.84275365505982 -385.50860328355884 0 0 0 0 -201.9984454616415 171.06206571848452 0 171.06206571848452 172.18528843534477 0 0 0 0 93.47077382645648 182.45153656345883 0 182.45153656345883 -132.75922611090573 0 0 0 0 -456.94906212898786 382.25908495076874 0 382.25908495076874 77.795085159377777 0 0 0 0 -1.6946341708012254 5.9480850002309147 0 5.9480850002309147 -5.0623046520806412 0 0 0 0 243.89718642767548 299.04509804910413 0 299.04509804910413 86.106952527821704 0 0 0 0 59.1054134027072 339.40312870500202 0 339.40312870500202 93.429064236619524 0 0 0 0 91.515727869931197 220.38396538168126 0 220.38396538168126 94.53285663405768 0 0 0 0 271.83158654176304 387.40152280482744 0 387.40152280482744 33.432941621715145 0 0 0 0 129.00416954240291 13.214503854174836 0 13.214503854174836 162.02676422820196 0 0 0 0 707.84599247095571 607.6559924963758 0 607.6559924963758 -104.82799147219339 0 0 0 0 -107.28997971269382 130.1433417926346 0 130.1433417926346 94.641788046660807 0 0 0 0 -379.67102350816617 375.00569036087882 0 375.00569036087882 -123.72491873755644 0 0 0 0 -0.69914306196388587 3.1359076323630219 0 3.1359076323630219 -2.2637208807496449 0 0 0 0 -203.01293686809368 344.86250840013963 0 344.86250840013963 -67.933017671580728 0 0 0 0 1140.0463021667883 707.70035376195301 0 707.70035376195301 -397.27811565117372 0 0 0 0 -342.25883734605668 487.65929420146495 0 487.65929420146495 555.04594988988538 0 0 0 0 -0.89844045181181009 19.003946203625201 0 19.003946203625201 -6.9846163595329074 0 0 0 0 -46.086937656452974 56.829486528740368 0 56.829486528740368 -50.739041024273781 0 0 0 0 -42.716246807403877 305.43678044254568 0 305.43678044254568 33.004744998081122 0 0 0 0 24.98210224349441 230.09794103280649 0 230.09794103280649 -138.20745227114205 0 0 0 0 -104.04150578137251 128.86771393549938 0 128.86771393549938 13.509717810177335 0 0 0 0 -366.99325383015469 372.11496991717019 0 372.11496991717019 192.88359525138526 0 0 0 0 -53.511585362783471 52.693262320887229 0 52.693262320887229 -46.464663017427625 0 0 0 0 62.407076675013968 173.42281097432715 0 173.42281097432715 -135.54279812736422 0 0 0 0 65.571661257208689 215.90916379027294 0 215.90916379027294 159.96915799309681 0 0 0 0 -75.632481680204364 68.677145217012367 0 68.677145217012367 511.84307882356734 0 0 0 0 6.3970763063916003 2.4184344919499381 0 2.4184344919499381 0.47502700268094777 0 0 0 0 1.4736151457835227 2.4299309630158348 0 2.4299309630158348 0.93877389379950671 0 0 0 0 71.607635109207877 83.40590623891876 0 83.40590623891876 485.41261525300797 0 0 0 0 168.15268548758672 348.20649523242446 0 348.20649523242446 48.053309070193791 0 0 0 0 98.886020156574887 143.93323238168887 0 143.93323238168887 198.39476274122353 0 0 0 0 134.49714484653759 452.45710494836203 0 452.45710494836203 345.19087196420514 0 0 0 0 44.820162803156563 324.58042372311138 0 324.58042372311138 -635.07944815725295 0 0 0 0 -123.07412687331635 229.80854737869777 0 229.80854737869777 1088.2931936117238 0 0 0 0 50.63959246145896 275.04660245218292 0 275.04660245218292 168.58811051700505 0 0 0 0 -14.770201983012157 252.63590613506858 0 252.63590613506858 168.66402320645247 0 0 0 0 37.710250319009901 207.82648034145313 0 207.82648034145313 -128.72928406498977 0 0 0 0 281.21289057328977 -258.1502977234104 0 -258.1502977234104 -334.10691072919144 0 0 0 0 -504.78235722628961 137.64469758688574 0 137.64469758688574 -101.37021449318127 0 0 0 0 392.90144115821749 1192.3216545570976 0 1192.3216545570976 -53.99219870196066 0 0 0 0 65.080806566094907 363.07705157706005 0 363.07705157706005 -325.36613774704165 0 0 0 0 270.89175939085817 155.46115041525263 0 155.46115041525263 -275.44406512652495 0 0 0 0 180.73540815845945 230.46976353597165 0 230.46976353597165 -214.8101700086554 0 0 0 0 144.69577563239818 314.34940499192999 0 314.34940499192999 -202.15655854826036 0 0 0 0 -53.43103310912511 283.28988080718591 0 283.28988080718591 96.593148740277684 0 0 0 0 119.57454522994522 243.34570761088435 0 243.34570761088435 -117.76816755788241 0 0 0 0 108.92915024626291 288.83680998339696 0 288.83680998339696 28.623776974543034 0 0 0 0 141.28092919593837 214.49690943232781 0 214.49690943232781 -171.5159853541918 0 0 0 0 107.83977951361067 287.41579418663241 0 287.41579418663241 -163.16452480374573 0 0 0 0 141.12290157927237 154.7204756930696 0 154.7204756930696 -161.52749827889511 0 0 0 0 -123.85932018620861 234.50255525047032 0 234.50255525047032 -38.597919746585831 0 0 0 0 50.594125121597607 20.620151966567501 0 20.620151966567501 1.5210730220187969 0 0 0 0 111.42857121660654 291.25393973643986 0 291.25393973643986 -133.94385803138357 0 0 0 0 114.15777405126342 111.04161586059365 0 111.04161586059365 67.139032660227414 0 0 0 0 616.3944656975209 -315.85358831958064 0 -315.85358831958064 -25.725717487502152 0 0 0 0 -53.668500733018391 145.80847718286168 0 145.80847718286168 135.58850983567754 0 0 0 0 117.80099583344216 290.10998376185142 0 290.10998376185142 -136.88969731744874 0 0 0 0 402.17492258876155 84.284823413820959 0 84.284823413820959 125.59455719714242 0 0 0 0 256.30562276908313 178.54817331468803 0 178.54817331468803 145.88604105145532 0 0 0 0 300.43578697315388 227.33567857194703 0 227.33567857194703 111.12955548393984 0 0 0 0 35.750141885633639 265.92127944644415 0 265.92127944644415 342.05405392094372 0 0 0 0 704.76012663437723 279.16333036890319 0 279.16333036890319 -222.96265651896465 0 0 0 0 32.774958288970119 67.505849589434746 0 67.505849589434746 41.722721989572278 0 0 0 0 122.59852744868294 125.71542257290457 0 125.71542257290457 50.353595560010945 0 0 0 0 75.205475474856684 79.746137910490461 0 79.746137910490461 51.509095015856097 0 0 0 0 27.341662685640586 117.71341601951644 0 117.71341601951644 51.556597759397846 0 0 0 0 113.06674102584657 72.475194550886442 0 72.475194550886442 38.081237072540716 0 0 0 0 138.45921741490747 67.497040324849877 0 67.497040324849877 39.047731923631545 0 0 0 0 57.078213863556833 27.541225603282044 0 27.541225603282044 -9.1135876772722284 0 0 0 0 46.407706546946429 71.061754881762681 0 71.061754881762681 -222.69005648328584 0 0 0 0 -716.51728685825628 -373.90111337623966 0 -373.90111337623966 246.63183298705371 0 0 0 0 27.900945161913896 42.677250679514209 0 42.677250679514209 -3.2714208338179276 0 0 0 0 136.00299546537542 194.68379282947035 0 194.68379282947035 97.306021906784736 0 0 0 0 161.51077542668645 81.656007860947284 0 81.656007860947284 29.483121757119079 0 0 0 0 -7.1654726457605804 5.815386286690952 0 5.815386286690952 -2.744815302884632 0 0 0 0 -595.92313075769903 240.33794753321968 0 240.33794753321968 780.69692727006623 0 0 0 0 15.633716257936634 -4.0222695577622147 0 -4.0222695577622147 -8.6152495832083815 0 0 0 0 112.64655794396094 -157.84252685211504 0 -157.84252685211504 -340.95518050687679 0 0 0 0 985.33099076144026 -362.4749138668376 0 -362.4749138668376 -656.01384941519063 0 0 0 0 783.50566859010632 1385.239425572413 0 1385.239425572413 608.20399162773538 0 0 0 0 1310.2896495645427 989.31009025242884 0 989.31009025242884 -137.77406780079764 0 0 0 0 -938.05349040044143 518.39281591855433 0 518.39281591855433 475.45444172807765 0 0 0 0 -836.57457303108094 -810.15482143412737 0 -810.15482143412737 34.707497958486783 0 0 0 0 621.22150202947159 -73.781751251024616 0 -73.781751251024616 -346.34013941611192 0 0 0 0 622.54171389149724 616.58279685157595 0 616.58279685157595 109.7198290492106 0 0 0 0 854.93002638044391 112.79254428333275 0 112.79254428333275 -280.1332478601289 0 0 0 0 -301.12351170365719 -444.10135646993098 0 -444.10135646993098 1242.1665488445869 0 0 0 0 655.51432582501002 526.53294056281084 0 526.53294056281084 124.24214793260944 0 0 0 0 1045.2529699299594 -21.938473095197878 0 -21.938473095197878 -269.25923160504732 0 0 0 0 70.694331286693341 250.06935832321869 0 250.06935832321869 -63.193073212714808 0 0 0 0 124.31719009699138 105.90000605699572 0 105.90000605699572 50.933888073533346 0 0 0 0 907.93974347631411 427.60985974847517 0 427.60985974847517 -621.86498895411478 0 0 0 0 210.56843999878038 92.489529055976163 0 92.489529055976163 -3.872597041690824 0 0 0 0 76.298544606215728 176.90013434579123 0 176.90013434579123 -13.709254416560725 0 0 0 0 -315.14570320919302 572.60532789926003 0 572.60532789926003 121.11324670527497 0 0 0 0 131.17976393161851 121.05597994992701 0 121.05597994992701 62.703238666950014 0 0 0 0 249.27585449935577 123.89192851947882 0 123.89192851947882 -19.08969826840621 0 0 0 0 183.12996694741742 189.11810867300028 0 189.11810867300028 35.485192100204586 0 0 0 0 -8.245013668458828 61.103044671462911 0 61.103044671462911 28.392857679760148 0 0 0 0 174.54334277147063 89.50437373139448 0 89.50437373139448 29.492165464904247 0 0 0 0 30.879395583932393 0.47675210117486699 0 0.47675210117486699 -16.411960814189428 0 0 0 0 274.87545499773114 162.26559735541196 0 162.26559735541196 17.012728928231809 0 0 0 0 232.22164067045378 125.88903840407875 0 125.88903840407875 22.6420208144973 0 0 0 0 -2.5588408951241917 24.533161222715073 0 24.533161222715073 7.0028657987402596 0 0 0 0 118.13873278755636 162.27112762615798 0 162.27112762615798 56.736525562284861 0 0 0 0 258.88986497103178 154.35590076126573 0 154.35590076126573 56.737612549216884 0 0 0 0 325.48205005048385 196.22595714212264 0 196.22595714212264 46.266002753840439 0 0 0 0 -49.148148352829594 200.97945198253922 0 200.97945198253922 -172.69704340998666 0 0 0 0 -67.113778132168591 211.25283444864482 0 211.25283444864482 -157.32765015286517 0 0 0 0 -113.18816085359867 183.94936640630749 0 183.94936640630749 -158.6897857000975 0 0 0 0 -116.6753877844294 199.12334692720449 0 199.12334692720449 -184.53718300336311 0 0 0 0 -107.56778496626407 221.34735806086343 0 221.34735806086343 -108.79148796536776 0 0 0 0 -101.12543696682405 186.65043395844154 0 186.65043395844154 -200.69278780607391 0 0 0 0 -49.106418997431319 188.3945451824448 0 188.3945451824448 -171.22395490297521 0 0 0 0 -79.688026098951013 203.85056821937548 0 203.85056821937548 -119.13182704518314 0 0 0 0 -41.935033421830667 213.55057215916977 0 213.55057215916977 -166.83298177827271 0 0 0 0 -79.472109832510114 210.02911145755328 0 210.02911145755328 -153.05604037188877 0 0 0 0 1820.3138892902298 348.24922720526592 0 348.24922720526592 317.50412348223472 0 0 0 0 29.829198380170855 46.905030026002834 0 46.905030026002834 -59.831428088433732 0 0 0 0 -99.381685330632536 242.8381987187081 0 242.8381987187081 -108.86614931914119 0 0 0 0 209.80564775499806 371.86450456363627 0 371.86450456363627 -148.63062855339558 0 0 0 0 -162.80304096788859 228.14830637791741 0 228.14830637791741 -126.05372910179051 0 0 0 0 -89.513852889148438 168.75183769027583 0 168.75183769027583 -109.99430821069049 0 0 0 0 56.37497626269851 122.758923538486 0 122.758923538486 -103.42204451800728 0 0 0 0 -413.54573366207205 144.76450095076405 0 144.76450095076405 220.63552289879408 0 0 0 0 -4.4329491420867271 104.97876163595186 0 104.97876163595186 -92.287330182762233 0 0 0 0 37.449570478344675 57.400187399715506 0 57.400187399715506 -11.449815787091215 0 0 0 0 278.78609166351453 116.40591049921613 0 116.40591049921613 -270.76325333925888 0 0 0 0 -245.93916585579063 -114.88301006918573 0 -114.88301006918573 189.58763303432761 0 0 0 0 -38.586305894106772 147.71854640380752 0 147.71854640380752 387.38431310098395 0 0 0 0 459.32658868009275 -292.74460874122678 0 -292.74460874122678 191.09001431694924 0 0 0 0 40.96998190773229 161.35455960586114 0 161.35455960586114 -139.91309341318629 0 0 0 0 16.468923055097967 11.83618047911569 0 11.83618047911569 1.4112441993604392 0 0 0 0 13.010732016373368 -78.731703832023413 0 -78.731703832023413 170.52710271361093 0 0 0 0 7.8524526952023734 125.35870404838886 0 125.35870404838886 19.391331525809427 0 0 0 0 68.38682077627891 62.110144663510596 0 62.110144663510596 -60.623145817269915 0 0 0 0 -8.9539558945289173 126.36670224809745 0 126.36670224809745 -20.555646627314502 0 0 0 0 23.885244961962599 24.853938449635393 0 24.853938449635393 39.470928687871719 0 0 0 0 17.74555213615804 135.05890773795508 0 135.05890773795508 -128.16177529456468 0 0 0 0 -59.444275182004276 186.66055637518483 0 186.66055637518483 -101.4209035637956 0 0 0 0 20.571366205087543 135.08022155260261 0 135.08022155260261 -102.05678473490786 0 0 0 0 -12.715217558239601 128.11152873500981 0 128.11152873500981 -92.225779486603415 0 0 0 0 -53.719614414869284 167.04614357022359 0 167.04614357022359 -160.20348295416511 0 0 0 0 -34.567892098517859 189.45774111228789 0 189.45774111228789 -134.52970204457358 0 0 0 0 -137.78019432781366 204.44619802549551 0 204.44619802549551 -131.18984960018383 0 0 0 0 -138.48301087031177 203.36631301045782 0 203.36631301045782 -122.07360393293266 0 0 0 0 -67.231723298213183 169.71488868951985 0 169.71488868951985 -137.07174587212936 0 0 0 0 -116.17781976325205 230.06150256463246 0 230.06150256463246 -137.15206962898947 0 0 0 0 -5.8527928817347856 103.21019639378028 0 103.21019639378028 -69.20838699187982 0 0 0 0 -15.310049370218621 191.53799188618652 0 191.53799188618652 -178.27103823302548 0 0 0 0 -147.9259578320125 186.95701828569156 0 186.95701828569156 -120.33565615233692 0 0 0 0 -116.12442033853222 209.00944037792908 0 209.00944037792908 -165.0607056320265 0 0 0 0 20.69184514506378 -11.9060636318668 0 -11.9060636318668 54.838102558719584 0 0 0 0 76.849682466091508 30.911073718907971 0 30.911073718907971 -190.73866124854999 0 0 0 0 -22.468297577233976 26.617318880766618 0 26.617318880766618 8.5729558253259377 0 0 0 0 118.12668907462103 82.811863364354366 0 82.811863364354366 151.53500158260891 0 0 0 0 112.49748575358171 281.51672153704067 0 281.51672153704067 280.45526520965723 0 0 0 0 59.860317142440181 79.380769434781541 0 79.380769434781541 153.19170993343715 0 0 0 0 232.05965385999934 296.76774290717276 0 296.76774290717276 132.31046709154361 0 0 0 0 41.381467258273915 78.455655320888241 0 78.455655320888241 118.26259369763039 0 0 0 0 16.594148997550342 11.857007227756823 0 11.857007227756823 14.316292777230132 0 0 0 0 44.867401789015275 98.587141715101893 0 98.587141715101893 177.5421551308585 0 0 0 0 -5.2818508025738993 92.842802913088235 0 92.842802913088235 177.62633406629519 0 0 0 0 7.4849091508098713 52.725428160931656 0 52.725428160931656 57.022297297721359 0 0 0 0 93.342233560215391 4.2705128121500593 0 4.2705128121500593 -7.7474059637384016 0 0 0 0 1.4159304710265133 27.327052952409531 0 27.327052952409531 109.36540060038843 0 0 0 0 70.890470797014132 80.736311843213912 0 80.736311843213912 34.14588989381798 0 0 0 0 22.194125809877733 110.24418576659207 0 110.24418576659207 -80.450295093870636 0 0 0 0 66.515207332338832 15.754849367554584 0 15.754849367554584 -65.486554990006084 0 0 0 0 134.24726763682884 38.396099283946825 0 38.396099283946825 12.815050222665036 0 0 0 0 33.933682202410594 71.606253342380228 0 71.606253342380228 29.947207419879327 0 0 0 0 -159.5046723563828 57.638009459931709 0 57.638009459931709 42.882767741066345 0 0 0 0 23.729807684287898 29.993035096624837 0 29.993035096624837 26.178624104071709 0 0 0 0 -84.371099844116543 -0.73755368032834667 0 -0.73755368032834667 19.629277950672986 0 0 0 0 -158.71118705312608 -19.118019108082123 0 -19.118019108082123 42.075231383199934 0 0 0 0 246.55872868701044 39.015832369190321 0 39.015832369190321 -100.67110313146986 0 0 0 0 -366.62285891098145 283.30580124978223 0 283.30580124978223 78.46192974504811 0 0 0 0 114.90877108370074 85.422102912156021 0 85.422102912156021 28.697835538123542 0 0 0 0 -79.84625127522304 233.31667722172642 0 233.31667722172642 15.622701264634088 0 0 0 0 202.16604311317496 -14.503389742352738 0 -14.503389742352738 51.711041820512037 0 0 0 0 -2.6365976972665521 152.41545689968552 0 152.41545689968552 -2.7458459815898095 0 0 0 0 49.140891458730039 78.42021031530021 0 78.42021031530021 32.104131838814283 0 0 0 0 67.174391809058847 56.369534043405082 0 56.369534043405082 50.164756413956098 0 0 0 0 1.9302532672627422 73.122779736680968 0 73.122779736680968 30.561959265889527 0 0 0 0 21.396683695995279 56.904544365189025 0 56.904544365189025 43.519846224325505 0 0 0 0 2.8998558770088962 99.04610314147719 0 99.04610314147719 91.079764686650705 0 0 0 0 45.064589217588946 92.625097868233752 0 92.625097868233752 39.862164618913084 0 0 0 0 42.166406296020583 103.89379337022766 0 103.89379337022766 60.543607630413447 0 0 0 0 -35.916844828876492 138.44138991663385 0 138.44138991663385 147.83030058945587 0 0 0 0 70.233256918870467 66.644084611539483 0 66.644084611539483 49.302056480920371 0 0 0 0 14.266565696413181 27.796602928267642 0 27.796602928267642 20.99270937545738 0 0 0 0 33.469787689478835 363.49244431642728 0 363.49244431642728 -859.90605840914941 0 0 0 0 47.93206656925031 212.64291897763724 0 212.64291897763724 -327.2170282511579 0 0 0 0 95.609403075551811 95.937817668585353 0 95.937817668585353 51.35791450076259 0 0 0 0 13.397855220215263 25.417418689722741 0 25.417418689722741 14.00098766741052 0 0 0 0 -374.89961132696772 561.97390477268345 0 561.97390477268345 -274.68140911549199 0 0 0 0 -128.74031420186657 111.56611685456664 0 111.56611685456664 -440.71112577660824 0 0 0 0 -276.47858546431962 625.19017355140386 0 625.19017355140386 -379.42387616456836 0 0 0 0 212.51786531254766 426.02318816421757 0 426.02318816421757 -151.21965365637152 0 0 0 0 -592.74380166360788 824.89654811639775 0 824.89654811639775 -375.34759002453939 0 0 0 0 -153.85865825138171 391.67245727857517 0 391.67245727857517 -146.83536509993064 0 0 0 0 -215.63747183134183 529.92204365792713 0 529.92204365792713 82.789405688396073 0 0 0 0 62.24034197988658 90.735811264918084 0 90.735811264918084 -65.908461422412074 0 0 0 0 -201.89027274936961 399.82016596947142 0 399.82016596947142 -15.031187518645311 0 0 0 0 -194.33820986963474 550.48924371470821 0 550.48924371470821 -170.85700438567437 0 0 0 0 152.3794757580763 256.64570102353719 0 256.64570102353719 154.66675230621695 0 0 0 0 -238.74304742496315 464.52780991870168 0 464.52780991870168 -0.72166085593926255 0 0 0 0 90.2965017846482 104.56750133716614 0 104.56750133716614 67.63359838437006 0 0 0 0 -39.429071642316558 163.66358885492264 0 163.66358885492264 4.9866316158659174 0 0 0 0 132.03568941532285 235.92808200883337 0 235.92808200883337 208.19316126793183 0 0 0 0 44.934926888830248 104.31946355853253 0 104.31946355853253 85.144716589119469 0 0 0 0 131.84620935184284 166.19686985357203 0 166.19686985357203 103.68709736132405 0 0 0 0 28.184520104030526 166.66371011981391 0 166.66371011981391 126.66766092144962 0 0 0 0 48.460587606379704 177.07680046820951 0 177.07680046820951 119.22689724891643 0 0 0 0 121.86336063872659 195.26250702107609 0 195.26250702107609 96.624220236242763 0 0 0 0 175.40241357657942 216.31300867320806 0 216.31300867320806 138.90647293465918 0 0 0 0 178.26939980991301 227.54107521960032 0 227.54107521960032 107.95044320421584 0 0 0 0 147.73142033054637 253.43770153645232 0 253.43770153645232 148.87814804255686 0 0 0 0 147.45069487066939 235.6347809437666 0 235.6347809437666 183.95026246761518 0 0 0 0 -12.185113210412965 87.147797503934271 0 87.147797503934271 247.07185133720213 0 0 0 0 -53.126152368840849 43.349191988745588 0 43.349191988745588 17.062859916579328 0 0 0 0 -0.41186387351626763 55.465553185127646 0 55.465553185127646 19.704231371259084 0 0 0 0 32.503468885086477 125.76002468231309 0 125.76002468231309 28.613120790629182 0 0 0 0 17.214909251653886 35.520733801215869 0 35.520733801215869 34.42369475586262 0 0 0 0 60.60460054929473 137.76564992196214 0 137.76564992196214 97.037270390112383 0 0 0 0 -5.5482287992824553 63.426054132145715 0 63.426054132145715 62.76614386175217 0 0 0 0 -48.507381538976915 171.61576779567622 0 171.61576779567622 69.072548146104964 0 0 0 0 301.92239152415641 224.33433532882191 0 224.33433532882191 73.233251627712889 0 0 0 0 179.03418176222567 194.02264323989101 0 194.02264323989101 66.307731997665542 0 0 0 0 -42.441004363372379 -0.084422155799696696 0 -0.084422155799696696 18.896886788470404 0 0 0 0 14.663856808951593 15.372128801940008 0 15.372128801940008 -3.3786575452481884 0 0 0 0 16.452319035874098 26.677284950015746 0 26.677284950015746 -0.02375983228921541 0 0 0 0 5.4033146551865041 21.707041900250928 0 21.707041900250928 -0.036243227374455955 0 0 0 0 -335.17979769326121 414.43090801409107 0 414.43090801409107 -138.15705163979146 0 0 0 0 -301.34021441729055 333.68109170656135 0 333.68109170656135 -329.93212375308576 0 0 0 0 1.1932175403501795 23.345697027434511 0 23.345697027434511 1.2720545727216575 0 0 0 0 47.863643577547919 40.696465204089691 0 40.696465204089691 10.547113578286371 0 0 0 0 28.186076800782757 24.258009102122742 0 24.258009102122742 0.4144358323464985 0 0 0 0 -17.528568538733907 15.989315068162384 0 15.989315068162384 9.1739879059648928 0 0 0 0 330.98997701672488 66.692465497311787 0 66.692465497311787 -21.320751585286416 0 0 0 0 342.7168559749166 98.410609721643254 0 98.410609721643254 -56.847716028423747 0 0 0 0 408.67029162729159 -0.75892781163929612 0 -0.75892781163929612 -54.195937561098617 0 0 0 0 357.47930605405418 -16.343124358234491 0 -16.343124358234491 -7.9956933319772361 0 0 0 0 484.43240232115204 -2.5063795623100305 0 -2.5063795623100305 -94.415545010215283 0 0 0 0 391.81510747283846 91.483350584378513 0 91.483350584378513 -143.92340862942365 0 0 0 0 273.17058503879525 153.16504105275999 0 153.16504105275999 -103.20103684025526 0 0 0 0 304.87190586834186 105.45359876277325 0 105.45359876277325 -77.150469019234151 0 0 0 0 -41.870047881442588 192.70296478682212 0 192.70296478682212 -47.691773238452697 0 0 0 0 321.59607745437825 207.7069185406508 0 207.7069185406508 -139.96973570423415 0 0 0 0 178.8165740567747 279.70742292657633 0 279.70742292657633 -152.45495919237874 0 0 0 0 60.88815411862015 476.73304241320511 0 476.73304241320511 -332.78587459889241 0 0 0 0 169.53709727349633 225.0747131204771 0 225.0747131204771 -330.2364174793131 0 0 0 0 401.56534817015927 197.81586164789314 0 197.81586164789314 -240.76471262911218 0 0 0 0 679.03307492762542 33.251681194413322 0 33.251681194413322 -220.66116916009923 0 0 0 0 595.18285715294769 239.40796162666084 0 239.40796162666084 -381.86095303210095 0 0 0 0 439.69107491948307 359.22247174753375 0 359.22247174753375 -340.67445528182725 0 0 0 0 281.79234056249697 109.42245383879344 0 109.42245383879344 -151.07966015377315 0 0 0 0 817.97405903627805 212.00940978030849 0 212.00940978030849 -174.73352437387803 0 0 0 0 250.45240397096495 338.33308611200846 0 338.33308611200846 259.63146565319039 0 0 0 0 696.34368831130269 -29.996982369222678 0 -29.996982369222678 59.442748483808828 0 0 0 0 888.78281884134049 15.246355028408288 0 15.246355028408288 -8.1859031348139979 0 0 0 0 642.32523997916724 49.285195136595576 0 49.285195136595576 -105.43891699079904 0 0 0 0 947.49402313819155 -163.87650906829367 0 -163.87650906829367 -57.657431376050226 0 0 0 0 1209.6549757090688 -119.47086557981675 0 -119.47086557981675 -104.18496041442268 0 0 0 0 508.34891750378301 -167.85061687551206 0 -167.85061687551206 192.59693675114977 0 0 0 0 821.49894800216862 -543.059013183969 0 -543.059013183969 430.65037828175991 0 0 0 0 711.67669269720591 -197.516510775401 0 -197.516510775401 -43.975521423577447 0 0 0 0 730.40133491369488 51.036549475909851 0 51.036549475909851 -237.18414431990823 0 0 0 0 570.55675384920323 32.855744333046459 0 32.855744333046459 -176.74382299513672 0 0 0 0 431.10963837994495 201.03043173583865 0 201.03043173583865 -269.01454788281262 0 0 0 0 509.0275347581337 -21.022353305350407 0 -21.022353305350407 -137.98785470573785 0 0 0 0 22.147906865525641 20.109275387922111 0 20.109275387922111 5.8889805822626045 0 0 0 0 452.98485300009997 -133.77657505456864 0 -133.77657505456864 65.706160111316422 0 0 0 0 508.16262816255016 -159.4131600780035 0 -159.4131600780035 31.529313060716959 0 0 0 0 31.994042308964708 -33.983583214827377 0 -33.983583214827377 -362.4679918235488 0 0 0 0 -311.39932699341443 507.9249679884233 0 507.9249679884233 -644.94043304497609 0 0 0 0 -100.87474858132919 438.24792046234506 0 438.24792046234506 -735.06465554612078 0 0 0 0 -289.51818285667105 359.61586012707266 0 359.61586012707266 -637.39840623059126 0 0 0 0 40.176273913210025 -364.39117637452728 0 -364.39117637452728 -996.13516103788061 0 0 0 0 -332.39402589009842 345.87671227989631 0 345.87671227989631 -813.5675327756162 0 0 0 0 5.9956510154694982 8.3231724109427461 0 8.3231724109427461 -8.8796300232875467 0 0 0 0 -958.0579105059951 260.19118173811512 0 260.19118173811512 213.68349789864442 0 0 0 0 -380.83869198133107 98.06149478638963 0 98.06149478638963 -210.19773912589153 0 0 0 0 -2.3089401405367056 0.095408670197933532 0 0.095408670197933532 8.732246571578429 0 0 0 0 213.66352548716532 383.57380264961103 0 383.57380264961103 -34.507735191888059 0 0 0 0 -19.481651852071082 -1.0417072861255292 0 -1.0417072861255292 20.230989554882399 0 0 0 0 216.57149335404279 24.54513674638531 0 24.54513674638531 471.78996807528893 0 0 0 0 -8.0908983537374297 8.1181380414927844 0 8.1181380414927844 18.525756656599697 0 0 0 0 -2.2900640794759966 1.0140196296051727 0 1.0140196296051727 6.9139230060245609 0 0 0 0 -4.4589522071764804 14.672756503219716 0 14.672756503219716 21.482459613413084 0 0 0 0 1.222661997016985 9.1403582603670657 0 9.1403582603670657 10.846943644835846 0 0 0 0 6.6318252563252997 5.3029289845076448 0 5.3029289845076448 -1.368093511577257 0 0 0 0 16.563746375974006 15.425716558989734 0 15.425716558989734 9.2217926924058702 0 0 0 0 5.2266485146537889 8.9067480247467756 0 8.9067480247467756 6.0673881987604545 0 0 0 0 111.74654714624921 -158.28126206350134 0 -158.28126206350134 231.40024680626084 0 0 0 0 187.92613541365972 -156.71894069362588 0 -156.71894069362588 -719.50778447391349 0 0 0 0 -202.72144611568365 -135.47916933332453 0 -135.47916933332453 -180.37859998666681 0 0 0 0 -484.96537877368974 -465.45503027185623 0 -465.45503027185623 -538.24960950901732 0 0 0 0 -663.10953690009774 69.371746870507195 0 69.371746870507195 -421.15571770549286 0 0 0 0 -116.69819748551527 -450.03658023715252 0 -450.03658023715252 -56.537497097193409 0 0 0 0 87.152639765263302 -191.53093361394713 0 -191.53093361394713 -330.45581605333064 0 0 0 0 209.30092417172273 81.913484850156237 0 81.913484850156237 35.962496351770824 0 0 0 0 -2.2025796365217047 3.4574501290517929 0 3.4574501290517929 2.6495970368487178 0 0 0 0 -84.438884043862345 553.15064943497055 0 553.15064943497055 -350.41453857769375 0 0 0 0 -6.8086463224171894 199.61865814737394 0 199.61865814737394 -551.96425792000082 0 0 0 0 301.65225056256168 530.41839931450158 0 530.41839931450158 317.68265498594337 0 0 0 0 288.45459129524534 -63.066835110170359 0 -63.066835110170359 287.5318738505448 0 0 0 0 -2.4797995557007084 2.0760354460035799 0 2.0760354460035799 1.2790456977049871 0 0 0 0 0.17106870619960546 0.22864456785211473 0 0.22864456785211473 1.0577091503926255 0 0 0 0 276.23714827559888 725.64579616340779 0 725.64579616340779 170.89638765363634 0 0 0 0 487.3828465311235 509.81243372929748 0 509.81243372929748 227.78221075127112 0 0 0 0 885.0692729902803 713.20571373102939 0 713.20571373102939 -34.654205245140474 0 0 0 0 545.61933557403972 568.10624310406274 0 568.10624310406274 241.90341153996997 0 0 0 0 572.85726839974814 859.01347622113462 0 859.01347622113462 -95.504005855676951 0 0 0 0 -70.94828704628253 634.72027073223944 0 634.72027073223944 -172.82727488994715 0 0 0 0 12.316546433546364 5.9355514115934511 0 5.9355514115934511 -1.2173001704060766 0 0 0 0 1532.7637985653855 -766.23299597984442 0 -766.23299597984442 195.67913299357679 0 0 0 0 920.77322995475697 586.66178671571106 0 586.66178671571106 538.28145792540454 0 0 0 0 1782.5398571666447 -143.69616349045828 0 -143.69616349045828 -79.161535560491757 0 0 0 0 404.08469863217033 44.413847313408041 0 44.413847313408041 182.54335957911462 0 0 0 0 411.4475386566628 17.577244722400792 0 17.577244722400792 538.67824366648495 0 0 0 0 1066.064669804844 202.10829265006578 0 202.10829265006578 133.76665261668677 0 0 0 0 390.98962273327925 224.4213895875655 0 224.4213895875655 142.6080500441376 0 0 0 0 328.09981167939986 303.33546445564571 0 303.33546445564571 224.50704428323661 0 0 0 0 366.51256587244279 354.44416734841798 0 354.44416734841798 212.18408176872981 0 0 0 0 479.10808963236923 426.01441168694146 0 426.01441168694146 226.16359148430638 0 0 0 0 382.27947275859333 298.96455874198728 0 298.96455874198728 155.86955960311025 0 0 0 0 601.01651958313596 394.57570405112347 0 394.57570405112347 188.22568457672605 0 0 0 0 463.86215802069637 401.2487178392621 0 401.2487178392621 379.77203960707629 0 0 0 0 577.57875824221992 378.5125773529362 0 378.5125773529362 243.00948070045706 0 0 0 0 433.2435594370545 466.1165811048304 0 466.1165811048304 256.28737710585119 0 0 0 0 496.59836036579509 403.20137133183744 0 403.20137133183744 255.03038005975816 0 0 0 0 589.78580727943336 464.12352121653385 0 464.12352121653385 208.23041969400947 0 0 0 0 513.66330683516208 433.39206594776988 0 433.39206594776988 195.91350885135762 0 0 0 0 574.9049613194511 425.22692565509351 0 425.22692565509351 170.38757129112309 0 0 0 0 586.15980580383621 436.85890214433311 0 436.85890214433311 125.02943965296436 0 0 0 0 -2.9795376169385577 3.7761375384901399 0 3.7761375384901399 -4.129526016201595 0 0 0 0 430.59014991312506 43.513486849646142 0 43.513486849646142 323.87763641872152 0 0 0 0 577.41849514247588 403.35722135916149 0 403.35722135916149 175.42840094659186 0 0 0 0 -201.35043979731563 362.75383961051557 0 362.75383961051557 14.43314511988865 0 0 0 0 -126.47359319465431 281.69604031809649 0 281.69604031809649 -7.1439103328612532 0 0 0 0 47.448445402577384 95.494636465128821 0 95.494636465128821 106.49657854433852 0 0 0 0 114.28690076962255 68.144849383341665 0 68.144849383341665 75.185495041668219 0 0 0 0 102.59798169930582 187.53893512771356 0 187.53893512771356 99.003633372087279 0 0 0 0 102.94130646033474 121.90119741457816 0 121.90119741457816 43.321059233900513 0 0 0 0 -346.30645455004196 352.32970518382172 0 352.32970518382172 92.209533866211132 0 0 0 0 -165.57364081022388 479.17497414970057 0 479.17497414970057 100.85269872369827 0 0 0 0 -64.630826837208588 258.53595403957297 0 258.53595403957297 175.59359560044686 0 0 0 0 111.35219703739494 437.99279885682881 0 437.99279885682881 352.7982890184503 0 0 0 0 357.71623474588159 214.34431648380269 0 214.34431648380269 238.53737950661161 0 0 0 0 -21.863675063374103 109.80641717968683 0 109.80641717968683 392.01412594303019 0 0 0 0 -194.57663549143035 236.45360931437972 0 236.45360931437972 251.49276363045465 0 0 0 0 -33.526900570143425 320.87073017075863 0 320.87073017075863 207.08222913632926 0 0 0 0 83.729074335846235 139.24338604833974 0 139.24338604833974 127.40935781834014 0 0 0 0 -123.64495017838635 236.08109993804101 0 236.08109993804101 144.54579625546467 0 0 0 0 385.25784174990258 230.773228136135 0 230.773228136135 167.19461722490087 0 0 0 0 86.186189403189928 110.50393418431122 0 110.50393418431122 257.3853770291571 0 0 0 0 191.18704045709092 129.14990661846605 0 129.14990661846605 154.20840108633274 0 0 0 0 40.762487576750573 172.1384797822684 0 172.1384797822684 236.73193320063729 0 0 0 0 31.552248502688599 128.57771995072835 0 128.57771995072835 128.7197755470188 0 0 0 0 -144.63909570546093 85.053778804376634 0 85.053778804376634 166.55706555553479 0 0 0 0 -182.65176171759958 187.75471379052487 0 187.75471379052487 48.058144470240222 0 0 0 0 -257.8055883943598 134.53210770510486 0 134.53210770510486 114.13088446921211 0 0 0 0 -455.15627641419997 288.11294247997284 0 288.11294247997284 106.09832425703644 0 0 0 0 59.839223299452257 113.41010755827566 0 113.41010755827566 66.250079992829825 0 0 0 0 -2.0685328780982672 75.89900405039225 0 75.89900405039225 -10.743233111573772 0 0 0 0 -345.43695972397836 169.16063540937466 0 169.16063540937466 134.63470712872004 0 0 0 0 65.081754480728463 117.97901973409826 0 117.97901973409826 76.142447566867389 0 0 0 0 139.67160454798977 77.227150161350437 0 77.227150161350437 -6.7175835561766348 0 0 0 0 -75.420199403542938 282.30562179145909 0 282.30562179145909 21.730248115323775 0 0 0 0 -291.7438862507006 -150.03888738933711 0 -150.03888738933711 -97.011545079807547 0 0 0 0 -34.132709322978826 60.321537022238772 0 60.321537022238772 113.24325631421743 0 0 0 0 47.761411448788834 49.483445774927077 0 49.483445774927077 53.577977039916419 0 0 0 0 34.466154345028812 45.660477937105355 0 45.660477937105355 52.711590045523465 0 0 0 0 -683.13321480383638 584.99374961771946 0 584.99374961771946 -35.895082668725991 0 0 0 0 311.99902659918371 -0.76784607875697475 0 -0.76784607875697475 -146.45396326133414 0 0 0 0 84.985781566134648 91.056411894065974 0 91.056411894065974 95.984785196986735 0 0 0 0 -47.053426464803579 304.27055709770684 0 304.27055709770684 7.7938146111555398 0 0 0 0 -100.09973023638304 333.25987909536343 0 333.25987909536343 -2.2331890694063077 0 0 0 0 -99.534724966943031 267.32934119738638 0 267.32934119738638 30.387229494401254 0 0 0 0 -43.056933267284982 13.030083335711652 0 13.030083335711652 46.969756232491363 0 0 0 0 -23.218383509094565 853.20475241453823 0 853.20475241453823 4.7468664908042228 0 0 0 0 581.83984903899909 409.17077903238805 0 409.17077903238805 -153.99325378233516 0 0 0 0 -70.278506619419204 496.40954750491107 0 496.40954750491107 -151.42977273907491 0 0 0 0 4.8485231710956214 783.27025925929024 0 783.27025925929024 -148.26554588112413 0 0 0 0 -557.20035799945254 779.10257044757782 0 779.10257044757782 1.4873662107220298 0 0 0 0 -474.1537934477019 620.58837274950747 0 620.58837274950747 -165.72758430947124 0 0 0 0 -792.05787551995854 625.56986821619648 0 625.56986821619648 30.927195445796315 0 0 0 0 -3.4535191014262274 5.8055112314323551 0 5.8055112314323551 -4.4432328303745834 0 0 0 0 -2031.8991899549919 18.10769418443806 0 18.10769418443806 219.42696412569057 0 0 0 0 1210.585621023085 734.47583964101432 0 734.47583964101432 -75.215862885122533 0 0 0 0 466.499665686355 186.07910393079374 0 186.07910393079374 253.21521913475954 0 0 0 0 -581.92246695982976 46.707351627263506 0 46.707351627263506 -62.277771206617217 0 0 0 0 -639.50278138055728 261.3319100349313 0 261.3319100349313 88.350477676437777 0 0 0 0 -9.1338630331974588 16.662349280922168 0 16.662349280922168 -13.274133623635585 0 0 0 0 -873.51302077311448 40.05024568551994 0 40.05024568551994 130.42729161229181 0 0 0 0 -435.91465233068811 337.36232637396142 0 337.36232637396142 73.960210566608566 0 0 0 0 -281.56492734568383 287.90628175663505 0 287.90628175663505 92.154580385644749 0 0 0 0 97.361298660385046 234.96402588455018 0 234.96402588455018 9.7013505661989257 0 0 0 0 20.823303888260853 139.0728719275229 0 139.0728719275229 71.70565334375533 0 0 0 0 40.036908341255184 205.20604745558217 0 205.20604745558217 72.989988509324576 0 0 0 0 -230.81265745532255 72.538175326215651 0 72.538175326215651 166.12689321655853 0 0 0 0 -197.43293228297989 161.21429831951127 0 161.21429831951127 160.81733963847182 0 0 0 0 133.23404066464354 90.850970776328325 0 90.850970776328325 118.64740922991223 0 0 0 0 -185.18785723698966 93.79835897691828 0 93.79835897691828 211.53727931263074 0 0 0 0 -693.05878663318981 169.03166624034679 0 169.03166624034679 236.76561176920632 0 0 0 0 -511.07897598028649 165.95893916684872 0 165.95893916684872 105.58835144883142 0 0 0 0 -509.93843738873693 180.46096692189485 0 180.46096692189485 223.35689865254949 0 0 0 0 -481.40016508641929 236.83287809457784 0 236.83287809457784 148.09256803838707 0 0 0 0 -450.53675494514209 111.95014721112352 0 111.95014721112352 145.04679788944213 0 0 0 0 -367.92707922247246 139.67908335656011 0 139.67908335656011 148.54979808979567 0 0 0 0 -201.541583534643 251.34534301244253 0 251.34534301244253 -196.28351478577861 0 0 0 0 -702.28597313193313 372.29813042768251 0 372.29813042768251 6.9698399623571277 0 0 0 0 -536.31587849782954 763.04368059642525 0 763.04368059642525 689.336841529087 0 0 0 0 -2.9391789848146388 1.2763473602761728 0 1.2763473602761728 0.63432985899279704 0 0 0 0 -497.41898548664176 679.60295236724846 0 679.60295236724846 -3.7406017995272123 0 0 0 0 -141.00488700243659 252.55308863582377 0 252.55308863582377 -462.78625204725881 0 0 0 0 -50.223549772324986 -14.082446277428176 0 -14.082446277428176 40.764990035856499 0 0 0 0 391.10928252962185 42.64566026830876 0 42.64566026830876 238.68553121023524 0 0 0 0 -216.15663233777741 158.67666422107618 0 158.67666422107618 333.16032204507167 0 0 0 0 -253.33595760999742 1.1054932480883508 0 1.1054932480883508 588.12011453666639 0 0 0 0 -706.84260263975193 -18.90181233600282 0 -18.90181233600282 -488.13115631647543 0 0 0 0 -575.87730468296104 303.78941439712781 0 303.78941439712781 305.87130820004745 0 0 0 0 -289.50142236343481 -109.73323605643843 0 -109.73323605643843 67.466860784768642 0 0 0 0 -1490.6230738539962 126.7489795486016 0 126.7489795486016 237.63847599613689 0 0 0 0 -835.17792396361256 816.4079827111882 0 816.4079827111882 -9.550636871301549 0 0 0 0 -237.01446801960992 391.06738657137896 0 391.06738657137896 -127.05566083648122 0 0 0 0 -881.07109834869334 876.40138536383802 0 876.40138536383802 -237.39709567411091 0 0 0 0 1.7365442217031628 -1.7796251486505943 0 -1.7796251486505943 -1.5915065445369658 0 0 0 0 -43.555448653265557 174.36631778870617 0 174.36631778870617 -361.21268710126765 0 0 0 0 -242.71661723099351 340.85071380339309 0 340.85071380339309 -280.03446736153171 0 0 0 0 59.25357614771201 350.99926020974044 0 350.99926020974044 -461.9205214452918 0 0 0 0 -111.62939526479386 217.26156848704602 0 217.26156848704602 -166.3456971492943 0 0 0 0 -12.712812253273817 2.7224942474041232 0 2.7224942474041232 -4.049572040509549 0 0 0 0 -485.96000655661919 123.35336376734404 0 123.35336376734404 440.89161157455783 0 0 0 0 -116.20107618215843 26.210734413814521 0 26.210734413814521 213.16954902527726 0 0 0 0 359.62794286026474 -68.702459197768121 0 -68.702459197768121 247.19173625025633 0 0 0 0 -151.38982038245013 8.5382541684882653 0 8.5382541684882653 259.56801053832078 0 0 0 0 -986.36962792673148 581.45515160698653 0 581.45515160698653 165.49646649700935 0 0 0 0 -817.76680078521167 555.13692884719921 0 555.13692884719921 127.9398202628297 0 0 0 0 -762.64309137417513 291.55968533752502 0 291.55968533752502 361.29318634220544 0 0 0 0 214.64395337866154 77.690548133521588 0 77.690548133521588 -15.342846489275757 0 0 0 0 64.529055933242489 262.12718258079167 0 262.12718258079167 4.0789657419609284 0 0 0 0 -6.4249608842583257 171.47321435447702 0 171.47321435447702 -107.86250042630127 0 0 0 0 40.900035737278813 217.21362162766673 0 217.21362162766673 -14.303015759502212 0 0 0 0 -83.883349290130354 330.78017934868626 0 330.78017934868626 -11.179654192543239 0 0 0 0 -102.08710617518955 286.31763345688887 0 286.31763345688887 -14.0524801806067 0 0 0 0 -46.727061150881127 287.83057361825013 0 287.83057361825013 -256.5454923988982 0 0 0 0 -49.597139203571714 265.2451516391011 0 265.2451516391011 -265.91557980573816 0 0 0 0 -46.886510162252307 331.73672249341303 0 331.73672249341303 -292.54473168223558 0 0 0 0 -31.266642083748593 384.13819661458001 0 384.13819661458001 -534.19383193752219 0 0 0 0 -96.145296078713727 191.4406388271309 0 191.4406388271309 -582.95507740982066 0 0 0 0 -22.06529305559252 327.67406717573317 0 327.67406717573317 -696.60443667193613 0 0 0 0 -100.86130907463667 130.6121372145185 0 130.6121372145185 -698.98691542888264 0 0 0 0 -135.64322570865625 370.07849621949572 0 370.07849621949572 -230.04684513635038 0 0 0 0 -27.075152583263844 225.90072493176922 0 225.90072493176922 -307.7652762368416 0 0 0 0 -19.554880909923668 302.29827632599063 0 302.29827632599063 -40.580099728955247 0 0 0 0 52.755501817860932 762.58672731639854 0 762.58672731639854 -866.43259982937161 0 0 0 0 -16.184007580319303 636.4921641157207 0 636.4921641157207 -123.30615290239803 0 0 0 0 118.67439319617006 312.05913449677428 0 312.05913449677428 619.69675562230077 0 0 0 0 584.92802337533067 14.862657731391664 0 14.862657731391664 49.424784065420681 0 0 0 0 256.71064430902334 20.711948271789879 0 20.711948271789879 90.507069741679516 0 0 0 0 349.81845326296013 601.35315022658415 0 601.35315022658415 564.17186875086975 0 0 0 0 4.6490870991280531 5.2993857208824 0 5.2993857208824 -8.1856194640211442 0 0 0 0 76.586607706036375 22.082340037055246 0 22.082340037055246 -69.101761602104489 0 0 0 0 713.05557596582548 236.6372521009248 0 236.6372521009248 -57.064240916377457 0 0 0 0 457.44068192931081 157.23542898361575 0 157.23542898361575 118.06136512946432 0 0 0 0 -16.556673287137006 29.162908258498621 0 29.162908258498621 -28.796692439054389 0 0 0 0 229.42657220428009 122.58779745324136 0 122.58779745324136 78.104676452579952 0 0 0 0 410.04990424301104 223.81313704259264 0 223.81313704259264 -63.264008012421982 0 0 0 0 444.45910197783815 195.2729437397993 0 195.2729437397993 11.085089578456973 0 0 0 0 359.2048402759101 114.27120612462204 0 114.27120612462204 85.319056425260897 0 0 0 0 630.01569266243132 223.18815307448904 0 223.18815307448904 25.277204023124796 0 0 0 0 -11.069430395082566 22.6984997045193 0 22.6984997045193 -23.429800529909382 0 0 0 0 382.19302837091163 222.89657052283474 0 222.89657052283474 122.93478077332793 0 0 0 0 496.51455374649959 248.98793424880114 0 248.98793424880114 101.95780073355309 0 0 0 0 212.34543394773209 205.69140574629773 0 205.69140574629773 149.12848460410532 0 0 0 0 383.84463856658476 216.41211138956714 0 216.41211138956714 138.39336905896653 0 0 0 0 194.66132262608153 169.09615502291945 0 169.09615502291945 89.424841514177388 0 0 0 0 2.3521093450544868 180.10032349301673 0 180.10032349301673 125.2781416286798 0 0 0 0 -46.250342974597515 286.36876376336431 0 286.36876376336431 132.83188583430638 0 0 0 0 -11.253350702834723 276.86343848381875 0 276.86343848381875 -9.3149355267889291 0 0 0 0 69.315809653464385 260.33540152781507 0 260.33540152781507 180.03088887733793 0 0 0 0 90.550275878209504 272.28713817805738 0 272.28713817805738 117.84821435071717 0 0 0 0 194.34651637041316 202.66322245146057 0 202.66322245146057 180.77595842630035 0 0 0 0 208.71029851208732 222.28901469644188 0 222.28901469644188 149.27359694146526 0 0 0 0 159.77756238490929 294.61370129074612 0 294.61370129074612 97.869914127630182 0 0 0 0 189.90682189053405 205.06975184039675 0 205.06975184039675 209.37162710244229 0 0 0 0 204.34146481937569 228.17849676512537 0 228.17849676512537 181.3300629530786 0 0 0 0 205.16545495035098 154.52576759828389 0 154.52576759828389 209.36290385071061 0 0 0 0 209.77002798388185 189.99858558217875 0 189.99858558217875 240.89429503585416 0 0 0 0 208.80418583207825 180.52761072779595 0 180.52761072779595 181.48949613612604 0 0 0 0 327.00602430877734 173.25436249351787 0 173.25436249351787 124.76209289649705 0 0 0 0 704.61500822059224 349.59395976886049 0 349.59395976886049 156.72079068583662 0 0 0 0 215.917059797192 194.54926661238403 0 194.54926661238403 213.09126381801616 0 0 0 0 293.05590315601148 181.80530437418111 0 181.80530437418111 197.5372883502605 0 0 0 0 393.438482382453 282.07393357568799 0 282.07393357568799 212.29563179703655 0 0 0 0 228.84681810552502 175.25720944569184 0 175.25720944569184 212.96362810800019 0 0 0 0 206.63767054327036 252.65163279384888 0 252.65163279384888 238.98319341645174 0 0 0 0 370.92883672593598 305.993649126317 0 305.993649126317 291.01994979080155 0 0 0 0 183.58410744689536 311.22231228677083 0 311.22231228677083 153.10695929691065 0 0 0 0 391.6922182804592 273.17727394879603 0 273.17727394879603 156.66248964556326 0 0 0 0 169.29521073059732 195.26760672796263 0 195.26760672796263 206.23993963792691 0 0 0 0 250.12382776581762 184.84888552797247 0 184.84888552797247 100.07319058453504 0 0 0 0 186.72493271056737 217.059493972788 0 217.059493972788 -149.80188706565514 0 0 0 0 169.80996229840457 295.29766711633783 0 295.29766711633783 47.078475304662788 0 0 0 0 79.480799548258801 333.80847993644784 0 333.80847993644784 -8.2146053728047264 0 0 0 0 224.57762280673705 420.79630478810304 0 420.79630478810304 -216.66129684512907 0 0 0 0 219.79392535897205 194.0988800925843 0 194.0988800925843 72.090958726493227 0 0 0 0 273.59590728851617 360.58656975156191 0 360.58656975156191 287.16538741612726 0 0 0 0 237.71421759915575 85.061362724387436 0 85.061362724387436 322.8477741659317 0 0 0 0 186.79073099347261 157.09854330106828 0 157.09854330106828 240.6957373831483 0 0 0 0 181.90174344504339 298.9716442677709 0 298.9716442677709 180.98857402481008 0 0 0 0 205.33231460846582 228.24265401877892 0 228.24265401877892 1.4937938339699031 0 0 0 0 185.7119809642063 359.55194917280187 0 359.55194917280187 -94.528766641416951 0 0 0 0 172.54808265803877 263.99483470743689 0 263.99483470743689 29.664942583261109 0 0 0 0 395.45110367448069 154.88461855730179 0 154.88461855730179 4.9100383028580836 0 0 0 0 238.38804074982363 255.08319068920764 0 255.08319068920764 20.000852811235745 0 0 0 0 131.40563267558082 166.58255362997522 0 166.58255362997522 -67.092122279060277 0 0 0 0 126.34606736795138 384.96763997777356 0 384.96763997777356 -139.75833382180099 0 0 0 0 144.18720048101295 431.29488014928825 0 431.29488014928825 -257.47567813886417 0 0 0 0 220.70347786288767 312.44035938841262 0 312.44035938841262 -180.44387941688456 0 0 0 0 171.01463373730439 337.01824733596504 0 337.01824733596504 -225.3167116095492 0 0 0 0 250.35587159401621 504.86824497918496 0 504.86824497918496 -257.3420108722521 0 0 0 0 -28.978738318335672 401.51663965801799 0 401.51663965801799 -204.07897500902618 0 0 0 0 -7.4242060438605222 167.4917676401742 0 167.4917676401742 -320.55769489633894 0 0 0 0 -126.49694401906163 247.55106718853494 0 247.55106718853494 -160.13131945796613 0 0 0 0 -28.386886808046256 256.02065839297939 0 256.02065839297939 -498.53849061913479 0 0 0 0 48.238360885884916 53.430619813683059 0 53.430619813683059 -3.1891029985311281 0 0 0 0 -50.404106241658155 227.00922128178718 0 227.00922128178718 -487.27850648136155 0 0 0 0 38.385386553563876 38.451951302309681 0 38.451951302309681 -855.86894270091034 0 0 0 0 -27.552482959839836 -24.45578150071924 0 -24.45578150071924 -778.52921166332271 0 0 0 0 -81.199391383041984 341.69282693054947 0 341.69282693054947 170.43378032554665 0 0 0 0 41.767128646393452 50.888598162327852 0 50.888598162327852 -11.528309366702096 0 0 0 0 -219.66152382837754 63.489154775921634 0 63.489154775921634 -335.19058621618592 0 0 0 0 22.66155619924757 71.090748472699488 0 71.090748472699488 130.64483897632817 0 0 0 0 54.171348856533768 66.65803656634489 0 66.65803656634489 129.01528705444798 0 0 0 0 52.579559778465409 53.481601783689257 0 53.481601783689257 95.068868977767124 0 0 0 0 -23.352980160942025 111.05512791320143 0 111.05512791320143 89.494060082133728 0 0 0 0 35.814552714873649 74.921245885602872 0 74.921245885602872 86.282935216394662 0 0 0 0 25.840672115433371 71.167555751706615 0 71.167555751706615 20.212133833033608 0 0 0 0 35.725921428055699 60.810018028676495 0 60.810018028676495 75.801899612306443 0 0 0 0 239.05488744534523 -811.48019488414593 0 -811.48019488414593 -816.24292173430365 0 0 0 0 249.06396306975512 188.69421619330524 0 188.69421619330524 -583.0832908728371 0 0 0 0 277.78868359170502 1298.6940922562592 0 1298.6940922562592 868.80701392743504 0 0 0 0 -119.54466977411539 -311.28158153430377 0 -311.28158153430377 891.71907867782807 0 0 0 0 263.8188939919919 538.61980887405991 0 538.61980887405991 -637.34954233728058 0 0 0 0 5.734693735439663 10.447699289978578 0 10.447699289978578 12.052610552497008 0 0 0 0 230.63843200325209 638.59568535986182 0 638.59568535986182 -199.86635210840723 0 0 0 0 281.52838302515011 613.55247837222214 0 613.55247837222214 -320.31065714334363 0 0 0 0 261.4120092855992 454.19886055043571 0 454.19886055043571 -508.15720802296528 0 0 0 0 214.57928033444182 375.39505213148414 0 375.39505213148414 -271.52046936673651 0 0 0 0 183.45264369542201 331.80877180426978 0 331.80877180426978 -311.98999776451092 0 0 0 0 -395.60115214968027 359.44313591160335 0 359.44313591160335 -221.04565208228382 0 0 0 0 151.65617475518411 231.7114393414779 0 231.7114393414779 -623.30438147631412 0 0 0 0 -279.31972295527885 653.22013460508151 0 653.22013460508151 -177.08466280678067 0 0 0 0 25.386197957193602 27.12291289959493 0 27.12291289959493 24.360082824457102 0 0 0 0 8.9946289793549568 135.20780065065355 0 135.20780065065355 18.90865681951982 0 0 0 0 -23.779044969465758 163.62423719818253 0 163.62423719818253 -10.254296680144762 0 0 0 0 46.526584570781644 64.298216394407234 0 64.298216394407234 91.756101206710369 0 0 0 0 -226.868159528467 280.6669459198165 0 280.6669459198165 80.776029441163701 0 0 0 0 -103.76915781857861 -47.01182232040378 0 -47.01182232040378 236.88218984161722 0 0 0 0 223.84485022698209 44.204731936220924 0 44.204731936220924 40.424352376787283 0 0 0 0 -37.017442279913666 35.478227687803155 0 35.478227687803155 40.521407506299965 0 0 0 0 -66.776465942415598 123.54161529088378 0 123.54161529088378 157.52245772219612 0 0 0 0 -23.707832705549663 45.833958823866851 0 45.833958823866851 188.78949181229837 0 0 0 0 193.59861907251616 106.46931690285419 0 106.46931690285419 32.353527226197912 0 0 0 0 69.693860725256627 123.47799825549595 0 123.47799825549595 86.57409066261053 0 0 0 0 94.382670468152355 23.737332787659398 0 23.737332787659398 137.62853324993557 0 0 0 0 -101.40544019723166 124.70840672629129 0 124.70840672629129 132.23025065771071 0 0 0 0 -96.136079817627433 166.89661412805708 0 166.89661412805708 96.804847823426826 0 0 0 0 2.4689635012051312 94.716731710764265 0 94.716731710764265 142.10871577312079 0 0 0 0 73.793772479242762 79.229348052987916 0 79.229348052987916 138.61137041631719 0 0 0 0 -38.721186024969938 108.19603016475412 0 108.19603016475412 255.22944578775787 0 0 0 0 -54.11782063721239 119.1026430269194 0 119.1026430269194 71.058749774366788 0 0 0 0 -24.750427971290698 65.448811288904082 0 65.448811288904082 16.386641155580612 0 0 0 0 6.8665349028594846 51.968752675850752 0 51.968752675850752 19.027046918935596 0 0 0 0 -78.864869180179085 187.84735400566569 0 187.84735400566569 5.3660242348487373 0 0 0 0 -76.978920064517297 177.33852314726391 0 177.33852314726391 62.677348949218867 0 0 0 0 -58.049545466536074 160.25734167690098 0 160.25734167690098 77.32073033528286 0 0 0 0 -216.55107102643342 376.28227438989916 0 376.28227438989916 333.38331818868437 0 0 0 0 58.158956413239459 92.748600081410771 0 92.748600081410771 95.913836607663072 0 0 0 0 -52.944189238474792 51.670957963964611 0 51.670957963964611 119.02869647433909 0 0 0 0 -127.66373558136274 183.27639740672294 0 183.27639740672294 131.76278021624603 0 0 0 0 -33.891050580689011 66.999891795717303 0 66.999891795717303 26.419731945672218 0 0 0 0 -15.117701722034326 124.55454536629986 0 124.55454536629986 143.51285944613119 0 0 0 0 28.206832691426371 107.78632575187112 0 107.78632575187112 71.091187227910268 0 0 0 0 -3.6667932649403383 97.571554940085207 0 97.571554940085207 70.173045960829768 0 0 0 0 -31.142310342659584 90.961485684731088 0 90.961485684731088 79.483569552110566 0 0 0 0 -31.481944926176766 126.65369613036819 0 126.65369613036819 52.743800234255104 0 0 0 0 -1.4458653656378146 115.39945057737486 0 115.39945057737486 44.222244756652799 0 0 0 0 -65.552668747994176 195.74636515494058 0 195.74636515494058 30.509167556665489 0 0 0 0 -50.697772180505126 169.92762338891407 0 169.92762338891407 50.902626696944935 0 0 0 0 -45.151772883014928 185.93498891288618 0 185.93498891288618 43.738777262304211 0 0 0 0 -99.730566840869869 192.99890784512172 0 192.99890784512172 54.017675547103863 0 0 0 0 47.442184029819373 82.165379143690274 0 82.165379143690274 53.861950374038003 0 0 0 0 -109.45800674162456 123.55355223412334 0 123.55355223412334 33.769947677139044 0 0 0 0 -57.664746343216393 179.55631368115428 0 179.55631368115428 91.386368923587725 0 0 0 0 -80.370335251085635 111.39612093254254 0 111.39612093254254 89.131887978510349 0 0 0 0 -200.32518538783552 151.09901846492721 0 151.09901846492721 105.37929904993507 0 0 0 0 43.444643175591168 80.339765831760246 0 80.339765831760246 69.527034257497718 0 0 0 0 -129.33592861331272 161.30952426502881 0 161.30952426502881 82.606776233180426 0 0 0 0 -105.68154802544086 84.01716615190162 0 84.01716615190162 83.246164153977588 0 0 0 0 -93.708981617266545 106.0798958997475 0 106.0798958997475 117.50053111487068 0 0 0 0 -11.746050366334089 109.31916469900034 0 109.31916469900034 57.215381492525921 0 0 0 0 -11.787279467379676 109.53729747155467 0 109.53729747155467 64.570664446466253 0 0 0 0 34.743735739014461 84.430482231490672 0 84.430482231490672 80.257717015604442 0 0 0 0 -11.902595312099947 105.51426508243821 0 105.51426508243821 64.164954736886557 0 0 0 0 25.931072718383803 118.51440167628243 0 118.51440167628243 48.335810068259889 0 0 0 0 -142.83445240591391 90.314639866275684 0 90.314639866275684 110.96142094095558 0 0 0 0 -11.893270946287885 105.48946218363199 0 105.48946218363199 61.073971481848275 0 0 0 0 -8.3256833599261881 107.72648848481913 0 107.72648848481913 62.013288972724695 0 0 0 0 -12.224279858902264 113.68689975457346 0 113.68689975457346 60.162761188024888 0 0 0 0 -15.978903279547012 112.76464681076322 0 112.76464681076322 63.216674981635151 0 0 0 0 -15.088212299633597 108.53690559708048 0 108.53690559708048 61.950897708686171 0 0 0 0 -14.918425526388091 111.69249798930105 0 111.69249798930105 63.677646921805717 0 0 0 0 -32.391115289821755 95.784065949796059 0 95.784065949796059 88.68234935460805 0 0 0 0 -33.686258877978162 102.42004332597935 0 102.42004332597935 60.893809775967384 0 0 0 0 20.562218437353366 51.794659010550888 0 51.794659010550888 89.435466002727111 0 0 0 0 11.143339301399465 126.62926123723082 0 126.62926123723082 58.99543888408698 0 0 0 0 -95.902601372721165 113.03392241144684 0 113.03392241144684 92.433780230887351 0 0 0 0 -31.091163190919815 139.62987620567947 0 139.62987620567947 55.622201011952711 0 0 0 0 69.785106462864135 89.548798265418242 0 89.548798265418242 82.67322238820546 0 0 0 0 50.104797530349643 165.53885301270384 0 165.53885301270384 32.717727952753194 0 0 0 0 21.275731049651284 25.279129453977809 0 25.279129453977809 21.10531930692386 0 0 0 0 84.305428178195143 219.49007333671761 0 219.49007333671761 103.22859144351446 0 0 0 0 91.271519227450881 153.5525548945642 0 153.5525548945642 -161.74286308908631 0 0 0 0 -226.8766700897977 579.99787457221373 0 579.99787457221373 329.53456532665223 0 0 0 0 404.23971999603964 293.53408764288724 0 293.53408764288724 -101.13416568217508 0 0 0 0 301.61240205007198 38.3536996873936 0 38.3536996873936 -211.77296873706655 0 0 0 0 -395.92833474542567 142.32058012337257 0 142.32058012337257 110.81282225392999 0 0 0 0 -28.010460193754202 50.442453291077094 0 50.442453291077094 57.143757519862589 0 0 0 0 30.154529381859902 58.911820344184889 0 58.911820344184889 70.918001405036193 0 0 0 0 7.5962150523591845 103.05702387968722 0 103.05702387968722 65.04817301896037 0 0 0 0 1115.0290865759453 1734.1396990264248 0 1734.1396990264248 1149.2991807916333 0 0 0 0 1987.9576062291235 -492.64491777165313 0 -492.64491777165313 -975.82382794018304 0 0 0 0 183.64434582934337 596.62752795713095 0 596.62752795713095 1003.1320299345025 0 0 0 0 -41.360407048891538 15.393449530236303 0 15.393449530236303 64.107799570892269 0 0 0 0 -342.51252392209062 -682.86774428011267 0 -682.86774428011267 39.152711454975361 0 0 0 0 50.534178324327513 80.538059060051637 0 80.538059060051637 91.417351471780421 0 0 0 0 33.411167776227643 55.792218220151753 0 55.792218220151753 96.437671706471946 0 0 0 0 -27.800285571300265 112.36808556944015 0 112.36808556944015 69.11657714348803 0 0 0 0 -7.4994322206665629 100.69284829047774 0 100.69284829047774 59.164017426039209 0 0 0 0 -9.6916835878591883 108.32071495432319 0 108.32071495432319 56.410181833758543 0 0 0 0 427.04023481249169 377.74277934695419 0 377.74277934695419 252.32443932474598 0 0 0 0 117.68479456171917 139.80230604610915 0 139.80230604610915 424.61713617348869 0 0 0 0 138.2630269995534 188.02763624959334 0 188.02763624959334 93.875838869847939 0 0 0 0 526.49181264958679 275.73193411554166 0 275.73193411554166 347.53378010261804 0 0 0 0 514.73378602101002 144.87876383890398 0 144.87876383890398 376.37859592108725 0 0 0 0 525.57380391271727 430.97873259783955 0 430.97873259783955 502.5562110996616 0 0 0 0 1074.2298763515137 214.59416720932404 0 214.59416720932404 569.12172881825245 0 0 0 0 840.02473568991263 915.84402588907687 0 915.84402588907687 808.59959930737386 0 0 0 0 464.52758620253735 204.24972429573972 0 204.24972429573972 987.72504330144875 0 0 0 0 536.99418813284137 535.77211071915735 0 535.77211071915735 403.60217512129748 0 0 0 0 757.52073775801853 564.49580839440182 0 564.49580839440182 188.27540245038108 0 0 0 0 756.36397221981315 257.41070444555226 0 257.41070444555226 70.239219464659982 0 0 0 0 478.15344738211934 445.30158779652265 0 445.30158779652265 261.33014529295906 0 0 0 0 474.03008567563666 456.65212776404951 0 456.65212776404951 275.58537998682004 0 0 0 0 526.58656421948399 491.34697957181925 0 491.34697957181925 297.60493761784164 0 0 0 0 338.30873422590957 409.09498005711794 0 409.09498005711794 659.44893705668073 0 0 0 0 382.51102951211942 518.83733818920155 0 518.83733818920155 500.65300356708758 0 0 0 0 196.35005694290885 205.47766067120574 0 205.47766067120574 491.41446911120147 0 0 0 0 8.6189630544904503 107.35296435521741 0 107.35296435521741 291.65493114142373 0 0 0 0 250.34405963621248 391.14937445753458 0 391.14937445753458 380.42791448904609 0 0 0 0 271.51660370036188 301.9609210670269 0 301.9609210670269 260.88088034505199 0 0 0 0 297.2952295807554 356.84905515667197 0 356.84905515667197 305.83962125118705 0 0 0 0 212.8030499676388 212.13670480632572 0 212.13670480632572 193.28181426142328 0 0 0 0 113.72565277104877 218.17030031077229 0 218.17030031077229 285.36800357978791 0 0 0 0 126.16967205834953 278.22182345655165 0 278.22182345655165 373.35217284845567 0 0 0 0 49.439237067239446 121.5446344742395 0 121.5446344742395 219.4928569982585 0 0 0 0 -82.772166502152686 23.888694878012757 0 23.888694878012757 192.80004403009661 0 0 0 0 56.821036194458429 88.837534171561856 0 88.837534171561856 130.90908006409882 0 0 0 0 174.12009540232611 269.32603002827091 0 269.32603002827091 325.89928135919035 0 0 0 0 -36.830891329773294 -35.520880685646262 0 -35.520880685646262 230.40187093538043 0 0 0 0 43.879327741549787 -38.153021336969687 0 -38.153021336969687 -144.4901779963111 0 0 0 0 -19.568310403199575 -40.172873010407784 0 -40.172873010407784 -70.408663059581158 0 0 0 0 -132.90960772079416 129.72268716382678 0 129.72268716382678 -21.671972020420071 0 0 0 0 -25.124816391516418 14.785187207181053 0 14.785187207181053 -8.3190160739566039 0 0 0 0 -45.855943088194181 56.490702830975351 0 56.490702830975351 5.4552351140737301 0 0 0 0 70.019264905466116 129.54455843662436 0 129.54455843662436 -196.19712009899376 0 0 0 0 -12.392726671581256 19.24065111831959 0 19.24065111831959 -13.9376809058395 0 0 0 0 -73.215427982828942 1.5343007215544731 0 1.5343007215544731 82.501861132084741 0 0 0 0 -12.362548279373959 7.5157753809585017 0 7.5157753809585017 0.68062153893095001 0 0 0 0 -82.843271553356317 76.809665997381671 0 76.809665997381671 139.62319899557042 0 0 0 0 -24.527602021442362 40.413191542405116 0 40.413191542405116 162.22956306970445 0 0 0 0 -26.901267290770193 127.07300979045249 0 127.07300979045249 256.52434639749845 0 0 0 0 -22.191608403103601 113.48626780462655 0 113.48626780462655 226.79588188090565 0 0 0 0 51.927491209957225 88.137468015511331 0 88.137468015511331 176.8496712835331 0 0 0 0 -70.436052768585796 29.120491691250209 0 29.120491691250209 168.6629099057518 0 0 0 0 -136.66850182932831 49.484786453744164 0 49.484786453744164 170.84403384708639 0 0 0 0 -149.24897715546103 116.8322722929297 0 116.8322722929297 139.15863799263752 0 0 0 0 -134.55827350761683 114.41225175605359 0 114.41225175605359 87.528752344012901 0 0 0 0 -232.67038137061536 111.74195269059419 0 111.74195269059419 124.16064030906273 0 0 0 0 -131.17126259198994 114.170414063512 0 114.170414063512 105.0697688302098 0 0 0 0 -81.552728120237589 151.01930565909424 0 151.01930565909424 110.66155753884959 0 0 0 0 -74.827822297169376 53.358789476979901 0 53.358789476979901 7.6363169770964419 0 0 0 0 -67.639378599872458 31.015960060338003 0 31.015960060338003 -17.907747575173758 0 0 0 0 -20.161593606942915 83.412627352052368 0 83.412627352052368 8.1692624438728672 0 0 0 0 4.8054607038357062 92.884845851032878 0 92.884845851032878 11.654489931512217 0 0 0 0 15.742032088164706 147.01510292400053 0 147.01510292400053 37.898971784361493 0 0 0 0 7.5726231977278076 103.18989407988283 0 103.18989407988283 -5.8720063358487096 0 0 0 0 -40.371011642790108 131.89190147384215 0 131.89190147384215 85.286930211346771 0 0 0 0 -42.125919795096706 118.64088015888046 0 118.64088015888046 28.157135683926754 0 0 0 0 -18.987996175885201 162.73082690326555 0 162.73082690326555 47.740606108141947 0 0 0 0 -57.606126094095089 157.56122745331959 0 157.56122745331959 47.308405204443261 0 0 0 0 15.614327743969625 163.15968409699417 0 163.15968409699417 34.070489507706952 0 0 0 0 44.023344346380327 183.12394131581823 0 183.12394131581823 46.322589752497151 0 0 0 0 -28.883683851614478 191.98405230896606 0 191.98405230896606 61.635137571305677 0 0 0 0 -14.382702788359893 164.700046767186 0 164.700046767186 33.995735408796463 0 0 0 0 54.361595704423962 129.24653916705574 0 129.24653916705574 8.5995306726690615 0 0 0 0 85.661860680753307 130.49005918312469 0 130.49005918312469 20.94775584017043 0 0 0 0 92.51057095710712 132.32714091656089 0 132.32714091656089 3.9570476620720001 0 0 0 0 39.108888945535 161.48012047444172 0 161.48012047444172 43.911647318687756 0 0 0 0 54.250177084075403 190.37369795681298 0 190.37369795681298 87.737295391532825 0 0 0 0 103.53028741732123 163.56431376289402 0 163.56431376289402 37.235391427297145 0 0 0 0 156.79324969758454 135.06498227547854 0 135.06498227547854 18.299965565733146 0 0 0 0 105.02646511416242 169.55898106325185 0 169.55898106325185 58.145479661819991 0 0 0 0 95.420400019313092 198.47681983091752 0 198.47681983091752 149.41180951768183 0 0 0 0 175.12517476188805 147.95274811975105 0 147.95274811975105 43.927932357939426 0 0 0 0 182.805949037147 192.24737821445524 0 192.24737821445524 63.133274292922579 0 0 0 0 44.238316387272789 204.02843551988917 0 204.02843551988917 135.93008686776739 0 0 0 0 86.629289891614462 175.20760647782299 0 175.20760647782299 89.331312764847098 0 0 0 0 23.930552525896928 172.21912111137499 0 172.21912111137499 88.304690636461601 0 0 0 0 3.5674974398716586 187.99242906986183 0 187.99242906986183 91.087013496231521 0 0 0 0 48.512265618599486 174.00519510474987 0 174.00519510474987 45.646305808569196 0 0 0 0 1.7275965636363253 179.57434342794295 0 179.57434342794295 53.802700461579661 0 0 0 0 -42.842135497776326 157.35295694122033 0 157.35295694122033 91.943875311626471 0 0 0 0 -15.399793653137749 184.47887305931363 0 184.47887305931363 117.73412232537521 0 0 0 0 2.22040490352083 150.70479111598979 0 150.70479111598979 109.86204456102132 0 0 0 0 -59.129942770276102 149.98205609136494 0 149.98205609136494 157.80212222682894 0 0 0 0 -21.106975915958174 130.65271832783765 0 130.65271832783765 133.4111092491803 0 0 0 0 2.2998178404086502 157.72370467334986 0 157.72370467334986 166.56801759044174 0 0 0 0 -21.693865405124598 130.06474892444658 0 130.06474892444658 212.90646659350023 0 0 0 0 -86.96321861652541 85.925437028483429 0 85.925437028483429 173.40887630912039 0 0 0 0 -13.68919291180282 104.16722318832399 0 104.16722318832399 149.2370594565582 0 0 0 0 74.70250832648162 154.78395021367396 0 154.78395021367396 191.62121957262571 0 0 0 0 -14.096549091904308 93.081215192491072 0 93.081215192491072 205.85152845476296 0 0 0 0 58.861973018138087 152.10136035701726 0 152.10136035701726 187.9449922882377 0 0 0 0 149.63099478794175 195.28859110211852 0 195.28859110211852 242.91750603346736 0 0 0 0 107.84099130157483 113.27873828800148 0 113.27873828800148 190.83258923218818 0 0 0 0 54.89474237113609 172.41614787071012 0 172.41614787071012 259.71895978372777 0 0 0 0 53.945451934705488 161.57840201102226 0 161.57840201102226 151.0710923212464 0 0 0 0 168.39708596272612 204.63081096873975 0 204.63081096873975 143.8331216245715 0 0 0 0 173.55154680271517 180.49964335151526 0 180.49964335151526 202.54957330896286 0 0 0 0 600.01409841851273 230.98394373319752 0 230.98394373319752 68.822547512245364 0 0 0 0 3.5211477620323421 104.51328061323875 0 104.51328061323875 250.89144310507982 0 0 0 0 315.98827178960346 313.89854277233098 0 313.89854277233098 281.48953526078549 0 0 0 0 -4.8260399105652896 2.2942513932742514 0 2.2942513932742514 1.5397992129220484 0 0 0 0 189.1152508835512 132.43568294585566 0 132.43568294585566 342.26117307061577 0 0 0 0 331.48723415735003 202.01792744440172 0 202.01792744440172 184.26793466796516 0 0 0 0 190.74769060488325 226.46771085016371 0 226.46771085016371 180.53447624660475 0 0 0 0 175.66531485751329 226.14171979593812 0 226.14171979593812 210.49397030616819 0 0 0 0 126.77879210152605 117.27581483958784 0 117.27581483958784 187.00403019321675 0 0 0 0 249.52075600397256 241.08779902651668 0 241.08779902651668 176.24273735450697 0 0 0 0 -10.809318832613585 7.8894467264783898 0 7.8894467264783898 -2.322627651003927 0 0 0 0 435.15532299847109 267.23892495129257 0 267.23892495129257 116.12469216459431 0 0 0 0 208.86417110258117 284.02581393468608 0 284.02581393468608 228.09966041642474 0 0 0 0 210.53219054968213 286.57359016296687 0 286.57359016296687 229.93657962145517 0 0 0 0 242.15841494900815 306.29141924010764 0 306.29141924010764 181.60887008253485 0 0 0 0 -25.94517888745122 15.236737397315665 0 15.236737397315665 -8.0599851658625994 0 0 0 0 -12.269322114806087 13.176991364541081 0 13.176991364541081 -6.1398082964261107 0 0 0 0 269.41264029647573 276.800941006004 0 276.800941006004 126.19427119768807 0 0 0 0 -23.481439949021478 -1.9269398495052883 0 -1.9269398495052883 -5.4370457134937169 0 0 0 0 -45.923672357912437 1.7645204798500345 0 1.7645204798500345 -4.5535056567023275 0 0 0 0 -40.844164451198594 16.481417755545408 0 16.481417755545408 -7.1106615295720985 0 0 0 0 -1.5112705029858944 2.3853239801861505 0 2.3853239801861505 -3.3123933703684543 0 0 0 0 119.32097201501165 8.280112033484329 0 8.280112033484329 -9.1460655194241554 0 0 0 0 126.09263978851959 87.201034504876588 0 87.201034504876588 9.5016127462586155 0 0 0 0 -2.389968059415803 14.512137753312587 0 14.512137753312587 -10.401078075820578 0 0 0 0 -24.714650601140193 14.430957015920399 0 14.430957015920399 -20.316530919677461 0 0 0 0 3.5642617423261811 -0.31837691198266072 0 -0.31837691198266072 -2.5740770631448697 0 0 0 0 311.12213507527485 226.78805032387027 0 226.78805032387027 89.61923416890204 0 0 0 0 308.82107656230801 85.534325019252719 0 85.534325019252719 27.338590637460584 0 0 0 0 318.72693379296106 137.63170980699942 0 137.63170980699942 5.3758061850094236 0 0 0 0 191.17395126007614 50.499858821363887 0 50.499858821363887 0.79055965174484299 0 0 0 0 173.29240149591351 153.23272427383927 0 153.23272427383927 38.243710408307379 0 0 0 0 131.74522286399588 82.741011020236328 0 82.741011020236328 -19.032372506801039 0 0 0 0 53.811790664409386 52.966114462269729 0 52.966114462269729 -28.351054859609576 0 0 0 0 -134.2229589178969 -37.560997255564871 0 -37.560997255564871 58.976059545995668 0 0 0 0 -0.85056293273176209 1.0205136967505055 0 1.0205136967505055 -0.72797100440715212 0 0 0 0 5.8865953748536413 -1.5057988324551843 0 -1.5057988324551843 20.757661120054763 0 0 0 0 -14.785397354942489 8.9879195435363499 0 8.9879195435363499 -4.8233251561100303 0 0 0 0 10.579834777247015 9.5349593313549121 0 9.5349593313549121 -9.8122716069483431 0 0 0 0 4.2583216991770314 13.369620029247017 0 13.369620029247017 -8.115855875556008 0 0 0 0 14.821534461370902 3.3273024765876471 0 3.3273024765876471 -7.3606287422007881 0 0 0 0 6.4977985661971616 5.9271487378573511 0 5.9271487378573511 -3.2408127804810647 0 0 0 0 -10.092089662804938 4.4952655617807977 0 4.4952655617807977 -3.2872255360562121 0 0 0 0 -8.6877356222739763 10.002868937182939 0 10.002868937182939 -3.1760195869137533 0 0 0 0 7.09496422913071 8.9136861278529977 0 8.9136861278529977 -6.0856711119922693 0 0 0 0 5.6924036925993278 7.2029525796606322 0 7.2029525796606322 -3.6227214317332255 0 0 0 0 -1.8651175939157838 10.520079154259292 0 10.520079154259292 -3.0948281083838083 0 0 0 0 -3.8705565695709083 8.1654634439109941 0 8.1654634439109941 -0.88670828376052668 0 0 0 0 -12.747355504587176 0.41780393620865652 0 0.41780393620865652 -7.5868028399854666 0 0 0 0 -12.749599628277977 1.5215927685805184 0 1.5215927685805184 -6.5336431469477247 0 0 0 0 -14.524457467050524 -0.41194840781099629 0 -0.41194840781099629 -6.4065005259762984 0 0 0 0 -2.3371793263851828 4.1017030973168005 0 4.1017030973168005 -5.8106738457442475 0 0 0 0 -15.141927006057813 1.0958676572190598 0 1.0958676572190598 -3.9852764827228384 0 0 0 0 -4.5296998626251366 2.9570276833657374 0 2.9570276833657374 -3.9431511182167469 0 0 0 0 -2.320052047693224 3.1300925697976822 0 3.1300925697976822 2.3467399038034955 0 0 0 0 -2.2236192987948016 9.5655516905353579 0 9.5655516905353579 -5.5699924006621586 0 0 0 0 -280.79919808947307 164.92418472344434 0 164.92418472344434 -87.06060888448701 0 0 0 0 -4.2955875039151579 7.0226890261583321 0 7.0226890261583321 -3.8983242976973997 0 0 0 0 -5.1192796037794324 7.4881336599355564 0 7.4881336599355564 -2.859647066477919 0 0 0 0 -5.4418285867941449 6.6345164242084138 0 6.6345164242084138 -4.7380527571076527 0 0 0 0 0.094685332435005876 2.9174761602905619 0 2.9174761602905619 2.7969946130251628 0 0 0 0 -264.58247608126112 293.62040715972398 0 293.62040715972398 -52.657772036691313 0 0 0 0 -110.05279103711655 268.13245494597504 0 268.13245494597504 -259.40014455074561 0 0 0 0 -186.64112613371981 425.34799920356454 0 425.34799920356454 -320.54897342472032 0 0 0 0 -2.1035769896916463 6.1296064779526205 0 6.1296064779526205 -5.2765106862716493 0 0 0 0 -1.1813403028354514 3.7799522775167134 0 3.7799522775167134 -7.5755506945206434 0 0 0 0 -5.9225871023809304 2.5841406044673931 0 2.5841406044673931 -8.4649599714466603 0 0 0 0 -4.8455509395905096 6.3977821255811591 0 6.3977821255811591 -4.6145940507002194 0 0 0 0 163.31191524368478 -96.828023224814388 0 -96.828023224814388 -208.08624113101541 0 0 0 0 292.96612608287251 443.07106280254447 0 443.07106280254447 296.20868851665 0 0 0 0 -8.7665913407108746 116.0208067170679 0 116.0208067170679 195.96668998819223 0 0 0 0 14.297242247466642 30.33478915231305 0 30.33478915231305 1.2617036702296218 0 0 0 0 24.608419749711175 -64.172167185213766 0 -64.172167185213766 465.91988919914729 0 0 0 0 -90.390273150893336 -76.8770076771616 0 -76.8770076771616 500.5236248149231 0 0 0 0 -20.476488849759335 0.68917416225303896 0 0.68917416225303896 434.58677688206808 0 0 0 0 -113.25941703991339 -83.913766683588619 0 -83.913766683588619 498.51143491022231 0 0 0 0 -349.81507627827523 96.306232798582641 0 96.306232798582641 377.57316148085374 0 0 0 0 -252.65703813898654 128.44839505788332 0 128.44839505788332 383.51653700464522 0 0 0 0 -367.32271310448414 195.59046106654569 0 195.59046106654569 322.43297929569962 0 0 0 0 -197.3889332532417 72.564260946201102 0 72.564260946201102 213.09650623040216 0 0 0 0 -8.3304452003212646 -59.765543575242191 0 -59.765543575242191 515.90991220100841 0 0 0 0 -202.98568604653701 127.99034383165417 0 127.99034383165417 415.92776182174202 0 0 0 0 -159.16821129407617 190.0567893409243 0 190.0567893409243 178.4421339382834 0 0 0 0 -90.126832849768107 305.59375193659071 0 305.59375193659071 346.37163415609393 0 0 0 0 -206.47748136809241 401.40983778257214 0 401.40983778257214 148.89976664997812 0 0 0 0 6.7251823868118663 406.14236296072431 0 406.14236296072431 -111.94598076291732 0 0 0 0 -268.91492939001182 288.98301102360711 0 288.98301102360711 -52.543468820980706 0 0 0 0 -344.11973476910498 301.31829312160698 0 301.31829312160698 70.768944587587612 0 0 0 0 -492.95707545576442 240.94639056899905 0 240.94639056899905 106.49845014741004 0 0 0 0 -269.35259393461456 352.55572931182542 0 352.55572931182542 69.354726086763549 0 0 0 0 -360.66734588652253 155.6083842151711 0 155.6083842151711 280.22376318834722 0 0 0 0 -435.13331971858133 352.30553996080926 0 352.30553996080926 -71.768676611827686 0 0 0 0 -1178.1442304891825 244.2077570505935 0 244.2077570505935 132.24343575077364 0 0 0 0 -190.70282260068052 599.31435031046567 0 599.31435031046567 220.1343304291513 0 0 0 0 -1.6970037682740724 2.0285594559926068 0 2.0285594559926068 -1.4979576229339102 0 0 0 0 486.72257248872484 606.39109579493379 0 606.39109579493379 218.84722561332455 0 0 0 0 -1060.64813948753 40.465846833045362 0 40.465846833045362 345.90091719973134 0 0 0 0 -502.52447413557093 248.35789744245994 0 248.35789744245994 123.26866549378246 0 0 0 0 -32.094158260530094 -136.2753299518954 0 -136.2753299518954 -150.14140902878717 0 0 0 0 -617.63748759769078 121.18177858651325 0 121.18177858651325 79.042893845529761 0 0 0 0 -475.25105350678496 121.85316687969316 0 121.85316687969316 -46.597939318293356 0 0 0 0 -1.2628421170802397 0.0030526745431558311 0 0.0030526745431558311 0.90398329394292887 0 0 0 0 -77.830729232180602 -2.7824965745603549 0 -2.7824965745603549 -4.8532314822077751 0 0 0 0 311.69911818378023 439.64519192917214 0 439.64519192917214 560.54602413901011 0 0 0 0 480.40766919324233 342.39309974507341 0 342.39309974507341 317.92116090518539 0 0 0 0 716.90368414702243 445.1073082537041 0 445.1073082537041 115.73712166969199 0 0 0 0 -3.1300306520937511 3.0314776539670731 0 3.0314776539670731 1.4529291394197799 0 0 0 0 -5.8079130240079451 5.4896926429466575 0 5.4896926429466575 -3.1550323076679661 0 0 0 0 301.57555053339456 368.73349230430904 0 368.73349230430904 379.60964417879586 0 0 0 0 303.20271155751834 375.61469593080983 0 375.61469593080983 373.33896814555919 0 0 0 0 246.45705648966396 259.40744514289327 0 259.40744514289327 305.03732704563299 0 0 0 0 312.50577374629211 241.91828258203168 0 241.91828258203168 286.93964566756767 0 0 0 0 223.65378645570308 328.23947965851403 0 328.23947965851403 204.54509512851655 0 0 0 0 162.53541409898025 249.48324272943137 0 249.48324272943137 110.09572657542594 0 0 0 0 22.41923605777265 209.85373233294376 0 209.85373233294376 107.42537534709845 0 0 0 0 53.881271127225773 255.89965679249144 0 255.89965679249144 173.87685505117406 0 0 0 0 118.31103776762029 256.85266080845759 0 256.85266080845759 166.62036249556695 0 0 0 0 166.87582469190602 366.74198752284065 0 366.74198752284065 156.85779707448091 0 0 0 0 -435.05747731067822 69.841350791670266 0 69.841350791670266 176.26449856213003 0 0 0 0 -612.58818214725761 261.76398630388576 0 261.76398630388576 342.51316606948967 0 0 0 0 -298.58761372414301 320.13827698334353 0 320.13827698334353 352.78274772785153 0 0 0 0 -84.762303149342188 349.2889151777199 0 349.2889151777199 161.61381382528634 0 0 0 0 -147.26674998142698 232.54898243767821 0 232.54898243767821 379.41459961113287 0 0 0 0 -166.6914906325037 175.04061709911912 0 175.04061709911912 339.55331640055374 0 0 0 0 -108.7570339332342 134.66647426532654 0 134.66647426532654 367.45803718780371 0 0 0 0 40.008461599012662 157.3037264421182 0 157.3037264421182 63.350379818642978 0 0 0 0 -21.110316336613323 163.09869810631426 0 163.09869810631426 182.00805189590028 0 0 0 0 -15.914774640536052 127.44143868428364 0 127.44143868428364 76.886487983898405 0 0 0 0 51.220131582405884 200.70433297916315 0 200.70433297916315 91.073701474088011 0 0 0 0 -53.737662347611888 45.009358700789761 0 45.009358700789761 -15.240821247170629 0 0 0 0 -65.848255570201246 44.621365878111959 0 44.621365878111959 -14.432714528950804 0 0 0 0 -357.3142142552897 174.18948917296075 0 174.18948917296075 235.28257468691845 0 0 0 0 3.0900745057369932 60.891159615202923 0 60.891159615202923 -95.334114829325699 0 0 0 0 -38.43300527412066 27.833473641461751 0 27.833473641461751 50.506447961553931 0 0 0 0 50.38421325404488 138.60336771194852 0 138.60336771194852 68.070962505536954 0 0 0 0 123.94910274293215 167.76867765770294 0 167.76867765770294 86.263016467673879 0 0 0 0 -48.57172366388113 141.64414914167855 0 141.64414914167855 115.18118386832066 0 0 0 0 88.220157108829881 206.71761205929943 0 206.71761205929943 162.8513422110409 0 0 0 0 230.16034711573684 199.75754682852721 0 199.75754682852721 153.76573682963499 0 0 0 0 27.044431205198634 134.38229744214914 0 134.38229744214914 169.74390335151111 0 0 0 0 157.46612653970988 156.72100747642435 0 156.72100747642435 152.34877649928967 0 0 0 0 137.55584499480028 218.89843524024036 0 218.89843524024036 257.71213943470502 0 0 0 0 299.64734032686101 232.34199647625792 0 232.34199647625792 236.85943781147944 0 0 0 0 190.51092965266434 265.05372186341265 0 265.05372186341265 328.98766782376333 0 0 0 0 169.42675766143293 193.5172617570297 0 193.5172617570297 227.7584271892265 0 0 0 0 142.00410978242871 247.74595715427131 0 247.74595715427131 278.86842854082352 0 0 0 0 274.52818645088701 362.95638879109174 0 362.95638879109174 393.16856780662783 0 0 0 0 311.2475359326636 195.10278263981309 0 195.10278263981309 345.95951305652852 0 0 0 0 210.53836657818329 287.59293210474152 0 287.59293210474152 323.94796497188509 0 0 0 0 119.49111003760481 176.27750094381918 0 176.27750094381918 194.0878522168241 0 0 0 0 74.088142156222602 184.14551744176424 0 184.14551744176424 209.93970627558883 0 0 0 0 60.905009521521606 111.55635187274129 0 111.55635187274129 167.90814138653514 0 0 0 0 14.944409641364473 143.4689119097311 0 143.4689119097311 146.7965052440959 0 0 0 0 76.026914226182271 191.94433493741963 0 191.94433493741963 250.72967272555252 0 0 0 0 -23.86437187478441 68.478228874508204 0 68.478228874508204 125.59806238269084 0 0 0 0 -49.066198666725541 94.628056533503695 0 94.628056533503695 96.115832626601332 0 0 0 0 -23.541491489188047 61.234381839036359 0 61.234381839036359 136.35626542751561 0 0 0 0 -23.692782756319502 115.50402483140351 0 115.50402483140351 174.23175070134312 0 0 0 0 26.326748340889026 95.398966665388798 0 95.398966665388798 174.2489783049823 0 0 0 0 -86.689808554925548 69.587465711410914 0 69.587465711410914 166.05946790230519 0 0 0 0 -22.740999788800309 64.553372446252069 0 64.553372446252069 119.98043535102624 0 0 0 0 -74.081653652589011 52.872511994417437 0 52.872511994417437 58.944753063318785 0 0 0 0 -87.192763680810458 44.458417105153785 0 44.458417105153785 131.78824184530094 0 0 0 0 -57.889062651309359 22.451490253934026 0 22.451490253934026 -78.188894606864778 0 0 0 0 -127.60217737908533 67.268171241332311 0 67.268171241332311 55.088274040128454 0 0 0 0 -108.10036405181745 29.958227737319248 0 29.958227737319248 58.502636730634549 0 0 0 0 -47.969175441452535 29.844361202340224 0 29.844361202340224 44.461256321679684 0 0 0 0 -23.83505596590112 96.401737130217953 0 96.401737130217953 51.642806053190725 0 0 0 0 -97.880369532562327 83.652601522160694 0 83.652601522160694 53.801536998458687 0 0 0 0 -93.158322028077237 -170.38878999147346 0 -170.38878999147346 -142.74119350696128 0 0 0 0 -15.975785138924863 11.935959636679002 0 11.935959636679002 7.7557160469655742 0 0 0 0 -157.56653716171422 -32.383372266525839 0 -32.383372266525839 259.21829897354473 0 0 0 0 38.920648604871531 241.87912458882784 0 241.87912458882784 97.566754808009136 0 0 0 0 -72.893132774560286 52.178185202786196 0 52.178185202786196 -14.154002930382362 0 0 0 0 113.8836200050664 58.341753035876536 0 58.341753035876536 -189.38496092276182 0 0 0 0 79.13059703091858 163.82946641833405 0 163.82946641833405 -196.7239664344379 0 0 0 0 44.727426927627675 31.344304666483367 0 31.344304666483367 107.69524650226231 0 0 0 0 2.8135505237492566 3.3037448075315865 0 3.3037448075315865 -9.7375106164009253 0 0 0 0 95.561423882623785 174.99061762887868 0 174.99061762887868 -356.11619725950004 0 0 0 0 133.52447809397199 19.316408784554369 0 19.316408784554369 -277.74343365717505 0 0 0 0 -129.61574955664764 300.08932599337641 0 300.08932599337641 -218.94414990177029 0 0 0 0 18.705153434162639 108.93108727619983 0 108.93108727619983 -75.694553113266011 0 0 0 0 176.07473473701248 88.466700008633779 0 88.466700008633779 14.324761701893294 0 0 0 0 -11.72923055962228 13.32609720040162 0 13.32609720040162 -7.8274974319448916 0 0 0 0 28.499532940605604 105.77272212546995 0 105.77272212546995 -137.00065995493787 0 0 0 0 -2.5446138690330002 5.7469653704463326 0 5.7469653704463326 1.1413378144933404 0 0 0 0 109.90852967191313 178.99487158899137 0 178.99487158899137 207.59780692667118 0 0 0 0 318.52878894371679 222.05841393934679 0 222.05841393934679 0.22208873275667429 0 0 0 0 -5.9370393460994819 14.673446340020746 0 14.673446340020746 -17.141321810333466 0 0 0 0 336.18953234340734 112.65330594286206 0 112.65330594286206 13.657061827975667 0 0 0 0 13.548360508662881 43.989871773432242 0 43.989871773432242 92.750268970085017 0 0 0 0 -1.5110382215092955 2.623356988476246 0 2.623356988476246 1.3000442720711618 0 0 0 0 -5.035798103183879 10.212736342559765 0 10.212736342559765 -1.3012661547691096 0 0 0 0 -6.8398269102104905 4.5827331935912525 0 4.5827331935912525 -0.77941954716226292 0 0 0 0 -4.8058970524743927 -2.9249068103999889 0 -2.9249068103999889 -15.221264164021704 0 0 0 0 -2.8154825890674005 4.1479833447101839 0 4.1479833447101839 1.6826170267088116 0 0 0 0 -149.53089634139178 -40.175370024629956 0 -40.175370024629956 211.5326672441588 0 0 0 0 -13.423955390563052 9.535660627382498 0 9.535660627382498 8.2364463393312235 0 0 0 0 -10.44368130859948 10.519923497748096 0 10.519923497748096 10.058129276876571 0 0 0 0 -13.858505106451048 2.6344316177592191 0 2.6344316177592191 19.158907272896613 0 0 0 0 -14.968106664717197 7.286069079709705 0 7.286069079709705 0.064202365210803691 0 0 0 0 -39.024829262896674 26.658540177464602 0 26.658540177464602 -52.859271853187238 0 0 0 0 0.6264675852106194 0.21537085499454633 0 0.21537085499454633 -1.4025614984348067 0 0 0 0 -40.112541072681779 32.331595166178886 0 32.331595166178886 -24.386286980123259 0 0 0 0 -51.490947341633728 59.572122699813917 0 59.572122699813917 -60.478219806882407 0 0 0 0 -80.707157182183437 48.095731252811674 0 48.095731252811674 -0.2185902774144779 0 0 0 0 -8.8170637554606088 2.7801186601236907 0 2.7801186601236907 1.409860605738686 0 0 0 0 -48.216828819175134 45.272867127059726 0 45.272867127059726 -44.818232054502005 0 0 0 0 7.539426889114111 6.7401666708610719 0 6.7401666708610719 6.5919105427383329 0 0 0 0 6.3380609673986328 -83.084461569655105 0 -83.084461569655105 21.742343699959747 0 0 0 0 -16.662397766059485 3.9930985297004042 0 3.9930985297004042 8.5221931405601481 0 0 0 0 2.5333079267820722 -169.0479847100105 0 -169.0479847100105 -367.72119813291647 0 0 0 0 -312.23192649492921 156.35619068198866 0 156.35619068198866 84.001352042512735 0 0 0 0 53.986069140424661 185.45715914978064 0 185.45715914978064 -281.36921447416535 0 0 0 0 53.187156088402844 176.40788385741325 0 176.40788385741325 -108.82047336483083 0 0 0 0 35.559116325684954 4.3806175091467594 0 4.3806175091467594 -199.77495285685291 0 0 0 0 -19.039684907074843 26.305585110749234 0 26.305585110749234 -77.407479088462424 0 0 0 0 45.610413430582412 42.138415912691926 0 42.138415912691926 -93.495765270650736 0 0 0 0 -41.820252210799168 42.001190549436643 0 42.001190549436643 -9.0796918357404053 0 0 0 0 -49.392354455450914 64.535919923775509 0 64.535919923775509 -48.61907081278332 0 0 0 0 -30.544746254291141 10.59452678978343 0 10.59452678978343 -4.4580965970206421 0 0 0 0 -141.89128016354516 35.131250784426811 0 35.131250784426811 16.561504534925916 0 0 0 0 -328.74933891479304 126.38583402390941 0 126.38583402390941 1.9311297927633859 0 0 0 0 -8.813358029587107 58.503943477724533 0 58.503943477724533 -71.830232436826918 0 0 0 0 -19.627169398758639 1.3178662292785361 0 1.3178662292785361 8.0615684907209868 0 0 0 0 -82.988537305689533 -40.838409622112522 0 -40.838409622112522 32.536763386175153 0 0 0 0 7.1621542607445008 10.810697246286509 0 10.810697246286509 -14.053490125967073 0 0 0 0 -77.901403181524074 -23.474454685994715 0 -23.474454685994715 33.928262460613041 0 0 0 0 -3.931241432953442 2.5255252909457226 0 2.5255252909457226 1.1661028494053483 0 0 0 0 -266.7640893955795 270.5124571383385 0 270.5124571383385 -245.73312899465964 0 0 0 0 -82.84619391943852 61.615994974970818 0 61.615994974970818 -9.5990165419570985 0 0 0 0 -361.04956899966419 231.82658448517577 0 231.82658448517577 -0.069613964500604197 0 0 0 0 -150.03434584844945 268.27600214885751 0 268.27600214885751 -227.8495802439611 0 0 0 0 -211.18814136354922 240.92367710483813 0 240.92367710483813 -232.24852816636758 0 0 0 0 -215.3594468617448 446.63073195450124 0 446.63073195450124 -0.36015260679363881 0 0 0 0 -213.25569545210897 330.85208876904903 0 330.85208876904903 -229.85455825149256 0 0 0 0 -77.297261677580536 322.43006284651347 0 322.43006284651347 -237.94804570682027 0 0 0 0 -75.86215893159897 374.51367686599042 0 374.51367686599042 -477.50189678474271 0 0 0 0 -80.141259927549982 107.68764230053057 0 107.68764230053057 -175.09849212781228 0 0 0 0 -156.65133386795787 269.91942688215931 0 269.91942688215931 -214.36746398759715 0 0 0 0 -163.74058479929226 148.32325539549129 0 148.32325539549129 72.76815104567504 0 0 0 0 -75.725397166029921 28.881033896678446 0 28.881033896678446 -3.9130697547212492 0 0 0 0 -105.83477329349626 138.38797927333144 0 138.38797927333144 -205.14216753411165 0 0 0 0 4.3476072734270019 57.467316099791788 0 57.467316099791788 13.850971929736261 0 0 0 0 -9.3007467333651448 78.343516877197544 0 78.343516877197544 43.099976454708667 0 0 0 0 5.6181935443373732 62.224728046272503 0 62.224728046272503 25.089145426623872 0 0 0 0 4.5835049930674359 64.448268905191071 0 64.448268905191071 20.667492274747929 0 0 0 0 1.6937770702641295 62.392267220487838 0 62.392267220487838 -7.2149805897281141 0 0 0 0 9.6574177159432253 42.345220413297085 0 42.345220413297085 15.707719130668121 0 0 0 0 20.544179267679283 14.038203123782296 0 14.038203123782296 -54.31915402723007 0 0 0 0 1.5512524771002063 63.647423122274631 0 63.647423122274631 29.926688897787244 0 0 0 0 20.075719582435113 66.60815388872652 0 66.60815388872652 -28.676926229418314 0 0 0 0 54.985016275112685 34.924081295423093 0 34.924081295423093 -165.03624218298319 0 0 0 0 9.5337083762228367 42.034686247139604 0 42.034686247139604 4.4984252889399698 0 0 0 0 64.961254046999557 117.03825114974461 0 117.03825114974461 -158.12413267145166 0 0 0 0 7.6500306413500043 42.02353548105765 0 42.02353548105765 6.174862306630672 0 0 0 0 42.433467398823268 65.755520944290765 0 65.755520944290765 -83.708739458204946 0 0 0 0 28.139919378351351 72.497578469789005 0 72.497578469789005 -1.9153315619242903 0 0 0 0 -12.786648384327577 60.334000063328858 0 60.334000063328858 -1.7069949901269865 0 0 0 0 2.2375324465979451 65.983683294848689 0 65.983683294848689 -12.710408257637958 0 0 0 0 0.66394540490887266 95.651501941672905 0 95.651501941672905 56.107692107427283 0 0 0 0 -2.6377834784858578 120.91071722985362 0 120.91071722985362 -1.4860085915424861 0 0 0 0 67.025277829653021 66.348678045867473 0 66.348678045867473 25.995738592124383 0 0 0 0 8.8057133587603857 137.59275231220818 0 137.59275231220818 15.902872369224497 0 0 0 0 7.2990580493924426 99.780550049623344 0 99.780550049623344 43.446107866730017 0 0 0 0 -5.2452702721466267 120.12864814016575 0 120.12864814016575 69.223324309219606 0 0 0 0 -1.5238163087073744 54.553431609953378 0 54.553431609953378 -23.517947902802305 0 0 0 0 15.61163939719836 110.76111784622844 0 110.76111784622844 67.192864117605495 0 0 0 0 -0.43503726327435288 112.08473417663481 0 112.08473417663481 97.298733646211986 0 0 0 0 9.7116470762089193 88.444195051833958 0 88.444195051833958 100.5766194852622 0 0 0 0 -8.3271605933314277 116.41764314378088 0 116.41764314378088 71.270163438788586 0 0 0 0 3.9694370663801237 112.29673959682987 0 112.29673959682987 60.279703116015298 0 0 0 0 -6.1340955302439397 107.78695297325612 0 107.78695297325612 67.863956895424053 0 0 0 0 -69.862934500353731 75.307350873568794 0 75.307350873568794 104.71369128365041 0 0 0 0 -5.6590278020385085 108.27709908662655 0 108.27709908662655 56.994731265876908 0 0 0 0 -7.8496068677068251 116.40522397315362 0 116.40522397315362 62.233883030443394 0 0 0 0 25.442233135626147 20.578260227783709 0 20.578260227783709 13.380400315807037 0 0 0 0 -23.32238050268279 95.157643056874804 0 95.157643056874804 79.343213264073711 0 0 0 0 -49.797853485889618 44.641339975446151 0 44.641339975446151 14.82166977220956 0 0 0 0 -22.027779473921328 95.027729401354009 0 95.027729401354009 65.328173221205361 0 0 0 0 5.0432880974538765 52.35866392372948 0 52.35866392372948 80.270173067210891 0 0 0 0 2.9452401731859936 89.537785623382661 0 89.537785623382661 106.22553002607856 0 0 0 0 -20.640557871373858 101.3595921422384 0 101.3595921422384 148.72737131379108 0 0 0 0 -100.23854548947929 59.596937778165739 0 59.596937778165739 131.20462143751502 0 0 0 0 -77.12801706836035 63.660806207830319 0 63.660806207830319 115.47152710550836 0 0 0 0 -113.52087505826785 86.259029324050061 0 86.259029324050061 95.779279716822202 0 0 0 0 -67.470424307488429 79.324919470942405 0 79.324919470942405 96.56791587976295 0 0 0 0 -90.215453722754319 46.840467650719802 0 46.840467650719802 54.098165016941493 0 0 0 0 -111.90916511477553 37.704650981242594 0 37.704650981242594 120.17338079682304 0 0 0 0 -16.342607407423515 57.426486061251097 0 57.426486061251097 -22.954240867957857 0 0 0 0 -74.807026926071799 28.105811375410291 0 28.105811375410291 14.528340076250117 0 0 0 0 -121.53884973926324 12.183564974468027 0 12.183564974468027 50.897054545931951 0 0 0 0 1.2049978814502538 112.19088741998712 0 112.19088741998712 130.230735746969 0 0 0 0 -95.814962024487613 180.47527865183656 0 180.47527865183656 282.39267666743399 0 0 0 0 -16.917568840173772 73.819115588099521 0 73.819115588099521 72.306832790840417 0 0 0 0 -10.935207774331502 83.325793956282723 0 83.325793956282723 368.07731407284155 0 0 0 0 14.714990421489347 82.331694377382519 0 82.331694377382519 367.27686310419813 0 0 0 0 -146.03857982125555 134.29088963671529 0 134.29088963671529 120.78041886078427 0 0 0 0 -0.44397473854658642 3.9180604295323462 0 3.9180604295323462 1.6748071596950851 0 0 0 0 -241.10717126308737 264.03196552097506 0 264.03196552097506 53.104352057576762 0 0 0 0 -219.98460307493224 80.599489180225646 0 80.599489180225646 145.91713068110403 0 0 0 0 -103.78469562966529 249.97212260389642 0 249.97212260389642 96.779717451747274 0 0 0 0 -58.807843044065521 169.34873538925603 0 169.34873538925603 82.374041291324829 0 0 0 0 -48.668506242305739 108.22350123450451 0 108.22350123450451 241.30694242218306 0 0 0 0 -23.286729369137902 115.58555394061841 0 115.58555394061841 6.5200385596399428 0 0 0 0 -36.676852767057426 207.52376799372723 0 207.52376799372723 19.445523165100894 0 0 0 0 75.622642560549139 147.36077390604623 0 147.36077390604623 48.91193128208397 0 0 0 0 -1.3729528003749749 44.365121355089656 0 44.365121355089656 62.234444256586187 0 0 0 0 -1.8516277054532111 68.441484578317613 0 68.441484578317613 25.45701662907959 0 0 0 0 -32.215652453945509 61.246419937083004 0 61.246419937083004 5.6866874060817167 0 0 0 0 9.8243876496362645 60.040448957581248 0 60.040448957581248 230.32748990360415 0 0 0 0 -51.281103157030884 22.145883217774099 0 22.145883217774099 296.56182602490298 0 0 0 0 -14.893316446246899 82.138255517464131 0 82.138255517464131 52.108578033992671 0 0 0 0 -6.0056037304801677 4.4804645103283463 0 4.4804645103283463 7.4811563876138969 0 0 0 0 -9.9859897471324075 15.626654691528529 0 15.626654691528529 15.663653630890622 0 0 0 0 -3.7404972691001603 66.974743388687784 0 66.974743388687784 167.68283215173869 0 0 0 0 -2.1220674453489252 0.56384351184163961 0 0.56384351184163961 2.5348186031097271 0 0 0 0 -52.38965950183001 -197.29076871263624 0 -197.29076871263624 221.85577259582351 0 0 0 0 -18.512676748352533 93.179836701354361 0 93.179836701354361 96.070030766684795 0 0 0 0 0.88769712053495198 5.7109509220020982 0 5.7109509220020982 7.3077418651333801 0 0 0 0 4.8718997278226794 3.0283374561584679 0 3.0283374561584679 -7.2227826060307052 0 0 0 0 11.213534368693217 14.848560479993466 0 14.848560479993466 -7.5281358713837108 0 0 0 0 35.613993748396751 -82.978005670105631 0 -82.978005670105631 122.37034214002779 0 0 0 0 1.5804743209157621 6.2629317656665364 0 6.2629317656665364 3.7471300209573712 0 0 0 0 -429.12477810196469 243.36218918156555 0 243.36218918156555 54.890230904275086 0 0 0 0 -367.42637158521393 -18.779936677769001 0 -18.779936677769001 179.94450556607444 0 0 0 0 43.368711789515146 -105.70869034418138 0 -105.70869034418138 -355.80079314780596 0 0 0 0 -321.90373437089966 334.62510876682791 0 334.62510876682791 127.03116207539279 0 0 0 0 -208.78958450019127 317.94727128411614 0 317.94727128411614 -207.81445269823234 0 0 0 0 172.99241763842474 -97.663505057957082 0 -97.663505057957082 -161.54628695211431 0 0 0 0 -40.180997587376623 96.160118266496283 0 96.160118266496283 32.02615805665846 0 0 0 0 -221.51152512630142 421.15576829602651 0 421.15576829602651 -254.14778273826232 0 0 0 0 -24.320165871078643 194.85940031714563 0 194.85940031714563 -159.89950188560761 0 0 0 0 64.947867654260335 1.8365277199918637 0 1.8365277199918637 -680.67233477124319 0 0 0 0 -286.93234076669978 247.21009625813167 0 247.21009625813167 288.15934973267576 0 0 0 0 -2.1906082777534266 5.8430432134032912 0 5.8430432134032912 -5.9588097769973558 0 0 0 0 52.957311974416371 73.046074968733592 0 73.046074968733592 -176.94093176293245 0 0 0 0 66.278011664762744 209.34598102675227 0 209.34598102675227 105.26860813406893 0 0 0 0 152.76428213399595 193.38253114332383 0 193.38253114332383 107.87367135864042 0 0 0 0 -2.7686451502909222 300.85327986026823 0 300.85327986026823 -0.13723333114467096 0 0 0 0 -376.15847264887816 352.12662406044183 0 352.12662406044183 132.28333344667044 0 0 0 0 85.861564685734265 98.15985502237163 0 98.15985502237163 223.14346801693318 0 0 0 0 489.36033872830012 157.31554538063938 0 157.31554538063938 -30.244831855423399 0 0 0 0 203.05002642907129 268.30626916918118 0 268.30626916918118 107.75026406740653 0 0 0 0 -37.394010321730093 100.94771095299438 0 100.94771095299438 34.73927115908009 0 0 0 0 -43.216638295467419 44.991431995260427 0 44.991431995260427 24.774485244677635 0 0 0 0 -32.674750059675716 -0.60716430993488757 0 -0.60716430993488757 23.332725077532814 0 0 0 0 -395.58905677277289 67.350243955486803 0 67.350243955486803 64.639406756235985 0 0 0 0 -378.81610065679706 212.24304076237604 0 212.24304076237604 241.17807578889915 0 0 0 0 -504.34536174085497 -181.93896658865924 0 -181.93896658865924 -23.046260642790003 0 0 0 0 -689.78367035740303 118.01361967779667 0 118.01361967779667 213.20761233835219 0 0 0 0 -0.12509812796955799 2.3124786158568327 0 2.3124786158568327 -2.7775019484707286 0 0 0 0 1.581903183418035 7.0846805712935748 0 7.0846805712935748 0.0055029129289323464 0 0 0 0 -0.052111248482106021 4.552270669479185 0 4.552270669479185 0.81399387551937252 0 0 0 0 -2.5760164003371813 -2.0694033688737363 0 -2.0694033688737363 1.9524271336516676 0 0 0 0 -6.10870590632112 7.6608594713325147 0 7.6608594713325147 -0.0020037499180802542 0 0 0 0 -8.9981172154530213 7.9714855650381651 0 7.9714855650381651 1.9197888561757281 0 0 0 0 -2.5800185597397345 5.1409687467645426 0 5.1409687467645426 -3.7543312135983342 0 0 0 0 -7.0050901650356536 6.0978414757701103 0 6.0978414757701103 1.2899599383417808 0 0 0 0 193.40503004207494 122.33210706186946 0 122.33210706186946 60.226071494951611 0 0 0 0 210.47624086389851 129.33523178051473 0 129.33523178051473 1.3781595043838024e-05 0 0 0 0 1.9839634114878208 3.8414138944208389 0 3.8414138944208389 -2.0544234222325031 0 0 0 0 128.74379093496373 73.724595215950103 0 73.724595215950103 51.719046341437206 0 0 0 0 1.9905432453648544 3.2377814557953002 0 3.2377814557953002 -3.4971270341527543 0 0 0 0 49.354428670596462 116.84585335684824 0 116.84585335684824 174.85794047993841 0 0 0 0 84.458726613427643 15.157993294778862 0 15.157993294778862 -22.774766948808974 0 0 0 0 3.1274752019189691 2.4033004115044605 0 2.4033004115044605 -1.8105746506771538 0 0 0 0 0.13081137742568849 2.1902663988740159 0 2.1902663988740159 -1.0524996838884704 0 0 0 0 -2.0538028656906135 2.9607220023426635 0 2.9607220023426635 -0.37034761987160891 0 0 0 0 2.6743158789191064 1.042963353081376 0 1.042963353081376 -0.4457761639328055 0 0 0 0 0.66756820606860856 2.7405128308892017 0 2.7405128308892017 -0.93162772535288241 0 0 0 0 6.7287113585007319 -26.51557120684447 0 -26.51557120684447 26.053386765386676 0 0 0 0 55.028573058286383 0.56110500953218434 0 0.56110500953218434 25.874459967278881 0 0 0 0 1.8647400716192912 1.82247006683275 0 1.82247006683275 1.3878072302557598 0 0 0 0 0.65427763609680767 4.6728653434171576 0 4.6728653434171576 -1.9414234482828761 0 0 0 0 14.247778696157184 -14.691340015779133 0 -14.691340015779133 -20.161006142938277 0 0 0 0 -9.1142100028064306 4.1315822807518998 0 4.1315822807518998 -21.022391580088879 0 0 0 0 0.50852362628233649 2.5981272315636943 0 2.5981272315636943 1.1808602611937999 0 0 0 0 7.5640061152785165 77.903942338147317 0 77.903942338147317 16.203327470138902 0 0 0 0 54.190560357661866 68.252551457269874 0 68.252551457269874 -99.125966581632383 0 0 0 0 35.570151044494651 -21.390200902846118 0 -21.390200902846118 -72.857527158208541 0 0 0 0 13.515292685629447 128.00135703472188 0 128.00135703472188 -56.102484528702917 0 0 0 0 89.021705254575863 30.084874251377187 0 30.084874251377187 -46.469287143248948 0 0 0 0 93.436132240482607 96.317288614325662 0 96.317288614325662 58.798194392293226 0 0 0 0 135.13940747805054 -9.9649260198893899 0 -9.9649260198893899 -11.692229627515189 0 0 0 0 50.212604529944656 -117.71519528125646 0 -117.71519528125646 74.343594619800569 0 0 0 0 264.99593793857457 41.131716737465467 0 41.131716737465467 -2.4717205723682127 0 0 0 0 250.77165560469621 97.673979252373101 0 97.673979252373101 153.32272816967452 0 0 0 0 206.53806437268531 164.98504494036752 0 164.98504494036752 99.423065117822262 0 0 0 0 153.35496711012001 150.74066029359528 0 150.74066029359528 32.703213539884018 0 0 0 0 -2.9742731245455616 175.77163882216701 0 175.77163882216701 147.72181609687686 0 0 0 0 131.88874404786964 199.38443736604677 0 199.38443736604677 151.66074248045334 0 0 0 0 144.25761504969813 212.90530548971856 0 212.90530548971856 166.44046126349713 0 0 0 0 195.89265698620147 163.17696957434237 0 163.17696957434237 142.54843614069978 0 0 0 0 197.30630839658852 166.32407626567874 0 166.32407626567874 143.19032082616468 0 0 0 0 196.57833415547066 411.23013938523945 0 411.23013938523945 342.25335475589964 0 0 0 0 2.6215419796265991 1.3582645590109905 0 1.3582645590109905 -1.8474821810393678 0 0 0 0 556.91962413470901 168.39897501259111 0 168.39897501259111 47.77289286852465 0 0 0 0 -1.1045490655118879 0.86416331879948416 0 0.86416331879948416 1.2815889887586991 0 0 0 0 496.47037778720869 246.35318452433421 0 246.35318452433421 209.42279387277085 0 0 0 0 138.63650395603645 171.14573079966613 0 171.14573079966613 228.36653250880772 0 0 0 0 265.05497819543962 137.67187368957093 0 137.67187368957093 261.99071054816886 0 0 0 0 268.58065755980533 117.26806025934638 0 117.26806025934638 171.54230811470188 0 0 0 0 282.57287171274902 155.2350410371655 0 155.2350410371655 68.754269437078619 0 0 0 0 266.75715735002177 161.81748465908458 0 161.81748465908458 48.249107761992491 0 0 0 0 391.66902148023291 104.15236350242049 0 104.15236350242049 103.16059230672545 0 0 0 0 262.48498560475127 171.73886655239039 0 171.73886655239039 98.74950073911441 0 0 0 0 260.75054810147503 182.5022465348593 0 182.5022465348593 54.173235089379887 0 0 0 0 242.55268619983053 158.11359614758476 0 158.11359614758476 68.868801366246771 0 0 0 0 235.90917822545646 184.56954958925417 0 184.56954958925417 0.10864029741787817 0 0 0 0 166.54101045879054 216.83052055417284 0 216.83052055417284 73.32141715286707 0 0 0 0 187.37383051875941 250.25266317248679 0 250.25266317248679 121.44443927443353 0 0 0 0 214.45983951051312 327.40953003066534 0 327.40953003066534 86.432118319615256 0 0 0 0 186.7851589906154 270.9961451501531 0 270.9961451501531 -0.058465088513912633 0 0 0 0 91.593539044120234 253.03663253088598 0 253.03663253088598 122.03677259860888 0 0 0 0 182.85290783139453 192.55217834234281 0 192.55217834234281 -165.18024683529802 0 0 0 0 -266.19034156999442 20.423246554615616 0 20.423246554615616 -109.64114572831022 0 0 0 0 22.231552504825231 232.22530098740754 0 232.22530098740754 -0.083829812137992121 0 0 0 0 202.8671576590894 352.60058809552993 0 352.60058809552993 80.381957818157389 0 0 0 0 188.38574640629173 137.52614800963306 0 137.52614800963306 -420.64782697126793 0 0 0 0 105.4304063787722 259.74028622482001 0 259.74028622482001 638.50873996838345 0 0 0 0 18.365996204131079 588.83254073467833 0 588.83254073467833 -24.076220441173064 0 0 0 0 428.92261474293264 371.36559494500398 0 371.36559494500398 70.737734966876815 0 0 0 0 180.9684000848074 555.39038707596046 0 555.39038707596046 642.36111308426189 0 0 0 0 399.20360976033862 381.01594452659992 0 381.01594452659992 323.49379995247 0 0 0 0 4.0285488397197451 6.5882605840404977 0 6.5882605840404977 -4.5653336375258391 0 0 0 0 -29.33862496542497 42.931930255668703 0 42.931930255668703 546.93173731221759 0 0 0 0 -96.646640151084284 407.85822034134617 0 407.85822034134617 737.96944093240745 0 0 0 0 71.32435909075275 251.34373065756517 0 251.34373065756517 178.42422174870444 0 0 0 0 96.061047123156641 267.32816260054824 0 267.32816260054824 146.06128366547637 0 0 0 0 105.03616532283331 312.60187651527667 0 312.60187651527667 136.35468676856544 0 0 0 0 64.98210778527482 305.99866221629782 0 305.99866221629782 141.35480993747478 0 0 0 0 37.2192329252739 21.391850088410138 0 21.391850088410138 -26.592962906855973 0 0 0 0 2.1014045277493096 229.19626284162223 0 229.19626284162223 300.24587350218644 0 0 0 0 -50.546138050204718 121.82006106924382 0 121.82006106924382 105.22978481078826 0 0 0 0 20.279293416362634 64.073681186018803 0 64.073681186018803 -38.817852532170946 0 0 0 0 0.37699033164244611 128.82773684573476 0 128.82773684573476 -195.17697974009207 0 0 0 0 -73.850488860438645 86.155261540079664 0 86.155261540079664 -21.070299940736732 0 0 0 0 52.742475870950329 64.21579893285525 0 64.21579893285525 -8.1124684157621232 0 0 0 0 -9.9803508571994826 86.97618649481592 0 86.97618649481592 -14.782525275593798 0 0 0 0 14.045998354750736 73.527761214369093 0 73.527761214369093 -29.519712778754183 0 0 0 0 -0.37396862057357794 47.272581120552786 0 47.272581120552786 -27.691793246001907 0 0 0 0 8.9213769740312046 22.178274989319107 0 22.178274989319107 -24.22306407688302 0 0 0 0 13.3214229592796 21.471269684921666 0 21.471269684921666 7.5229716350516469 0 0 0 0 -75.993400371517055 72.953409288020339 0 72.953409288020339 -181.66177827421052 0 0 0 0 3.4334417420214116 44.369969087090539 0 44.369969087090539 1.4440085247786172 0 0 0 0 35.256844605957667 2.848316316245473 0 2.848316316245473 -203.8977388957137 0 0 0 0 10.176157167898996 7.6333036607178144 0 7.6333036607178144 -12.157101979231868 0 0 0 0 -49.391643059302623 32.353946786970482 0 32.353946786970482 -10.746038264362141 0 0 0 0 31.720458031120586 11.384612599554629 0 11.384612599554629 -60.072511749033936 0 0 0 0 -17.109692869702734 32.148756523666407 0 32.148756523666407 -28.855220541565302 0 0 0 0 -33.064054104168463 53.890476313739782 0 53.890476313739782 -49.010730707639595 0 0 0 0 66.835741818777024 181.23361865039624 0 181.23361865039624 -246.31400370548363 0 0 0 0 -4.6264989536866779 58.939591729576932 0 58.939591729576932 -139.63966664817417 0 0 0 0 28.317110199267866 11.389384778563397 0 11.389384778563397 -5.252707218624554 0 0 0 0 -36.913403215505241 72.507745841576252 0 72.507745841576252 84.331387202961196 0 0 0 0 2.1081852948518645 285.17722733537084 0 285.17722733537084 -25.681652406841749 0 0 0 0 -6.1978509913725413 6.3508278406403988 0 6.3508278406403988 1.5911326009560867 0 0 0 0 -25.62604583431893 31.522280696874645 0 31.522280696874645 -34.174203476495222 0 0 0 0 -9.9662626531353453 39.04671294180298 0 39.04671294180298 -50.648085451735824 0 0 0 0 -46.290880803071786 29.15096760498227 0 29.15096760498227 42.382705838608672 0 0 0 0 94.025857987103564 69.838980632519451 0 69.838980632519451 69.65468864448485 0 0 0 0 -4.3119361309700253 50.810761264780012 0 50.810761264780012 -20.669650365394773 0 0 0 0 -12.474168274886324 43.226911285804817 0 43.226911285804817 -27.49198946657998 0 0 0 0 -14.028871909351437 49.411067126384296 0 49.411067126384296 -26.464334562515432 0 0 0 0 -1.5518239990688016 49.125124013793538 0 49.125124013793538 -36.541538197918271 0 0 0 0 -10.373138926865277 33.851650345836092 0 33.851650345836092 -59.211027703032073 0 0 0 0 -15.283745537234608 54.460987253572966 0 54.460987253572966 -36.088407482548064 0 0 0 0 -15.838180529322301 79.628031155477743 0 79.628031155477743 -105.0106780466449 0 0 0 0 17.688005154155118 73.967154446453193 0 73.967154446453193 -75.37874996744884 0 0 0 0 -50.49195819488159 131.62885418018777 0 131.62885418018777 -55.141444897297333 0 0 0 0 -18.286382642644885 52.514905497551297 0 52.514905497551297 -33.321001394089016 0 0 0 0 63.032475037978656 78.382311282213777 0 78.382311282213777 -88.773173290010163 0 0 0 0 -20.659607719309861 99.984667559225272 0 99.984667559225272 76.464629123518534 0 0 0 0 94.845901020729798 52.571949776138354 0 52.571949776138354 -23.932067886021031 0 0 0 0 31.881872095828289 38.59620603740477 0 38.59620603740477 3.0910155961564669 0 0 0 0 -2.8168766066783064 59.671156812069967 0 59.671156812069967 -48.573404082024354 0 0 0 0 -1.5921953754132119 50.11922717235575 0 50.11922717235575 -28.272861341945827 0 0 0 0 16.322634673540222 50.979845900193041 0 50.979845900193041 -10.620912998650489 0 0 0 0 124.11343567802032 386.28850895175128 0 386.28850895175128 302.52109023620142 0 0 0 0 248.69877064807224 529.27533150117961 0 529.27533150117961 99.346564130595652 0 0 0 0 395.35381621062152 462.27567217379692 0 462.27567217379692 -107.58143969121738 0 0 0 0 184.9462674997485 59.132537472278273 0 59.132537472278273 -62.655490568096866 0 0 0 0 -380.65321780672457 84.393066186734359 0 84.393066186734359 26.29989576934895 0 0 0 0 -279.70584103657893 547.97875182992721 0 547.97875182992721 264.07799862944739 0 0 0 0 32.465704261677217 87.093091490597232 0 87.093091490597232 65.228668997050676 0 0 0 0 31.526504449377171 487.5759741841357 0 487.5759741841357 51.983819326080265 0 0 0 0 60.289493501379184 -29.369798521121993 0 -29.369798521121993 -302.9890950742556 0 0 0 0 35.083707179659591 145.05647677495276 0 145.05647677495276 -15.087411462829181 0 0 0 0 347.30373142538701 289.8489282700466 0 289.8489282700466 -339.62005929026054 0 0 0 0 10.46484511443952 9.0966591610702494 0 9.0966591610702494 -52.778065358352762 0 0 0 0 188.33059337091981 232.39989303478797 0 232.39989303478797 -236.74924698334689 0 0 0 0 -21.20758739925077 127.01566670901957 0 127.01566670901957 293.14049379556673 0 0 0 0 22.453038759911266 138.70129946938141 0 138.70129946938141 -26.793888248355817 0 0 0 0 18.393473624731996 225.32161255218671 0 225.32161255218671 45.798693938413635 0 0 0 0 -1.2591593558324305 80.281109072370825 0 80.281109072370825 5.8980196293410216 0 0 0 0 -14.235468799601222 72.476937865932996 0 72.476937865932996 65.490348749939585 0 0 0 0 107.55660685801922 85.448816154443193 0 85.448816154443193 -216.15828234306537 0 0 0 0 1.386011469985533 98.169173649072036 0 98.169173649072036 -153.17552678186075 0 0 0 0 20.151896127234423 73.135195651474803 0 73.135195651474803 7.1377073398782187 0 0 0 0 22.970706061355017 42.674626934342513 0 42.674626934342513 -41.425264654218182 0 0 0 0 14.026830684500908 68.816625700167606 0 68.816625700167606 -77.52596912466106 0 0 0 0 -10.022218642465305 103.57125131650537 0 103.57125131650537 -131.02706840017345 0 0 0 0 9.4019052566862911 4.9670444400832992 0 4.9670444400832992 -44.266248907615591 0 0 0 0 -10.515937798497326 61.875146121687862 0 61.875146121687862 -31.433950242196929 0 0 0 0 -9.8510629007864736 59.64438051294519 0 59.64438051294519 -128.75221196144412 0 0 0 0 -0.5326157844081294 1.8992864334720707 0 1.8992864334720707 -4.1329188767481355 0 0 0 0 42.396830930878423 68.969090006852639 0 68.969090006852639 -305.41747617507644 0 0 0 0 48.013930317767517 192.14948746476148 0 192.14948746476148 -173.86998666237923 0 0 0 0 -101.83263896966673 123.65327290835558 0 123.65327290835558 97.136662634817185 0 0 0 0 197.32327524109132 441.22975041378231 0 441.22975041378231 -63.894196992077923 0 0 0 0 200.66635331250473 435.65363291736867 0 435.65363291736867 -55.711152324365685 0 0 0 0 279.77712529708879 292.8503795623983 0 292.8503795623983 -0.52587134235363919 0 0 0 0 134.39743962447301 353.85932369956208 0 353.85932369956208 -17.542203050310491 0 0 0 0 302.72913307085128 473.89212673569637 0 473.89212673569637 -5.5345999620767543 0 0 0 0 224.80067879037051 205.59326169923588 0 205.59326169923588 88.079423722971114 0 0 0 0 167.8566594827862 77.948566606588429 0 77.948566606588429 6.1569479271711316 0 0 0 0 365.25997715388803 66.593115923868027 0 66.593115923868027 -140.7361289444234 0 0 0 0 164.78757177519265 -148.66965274801441 0 -148.66965274801441 -314.58651982445735 0 0 0 0 10.682611430999195 2.2495418762819668 0 2.2495418762819668 1.8666675162990494 0 0 0 0 537.58098868254274 221.00331357543473 0 221.00331357543473 -57.855880251130657 0 0 0 0 224.74575299030585 596.09293896798044 0 596.09293896798044 519.9475629887238 0 0 0 0 603.516270290389 479.99917102226755 0 479.99917102226755 96.49731334936223 0 0 0 0 -89.601874304850071 281.39746214248589 0 281.39746214248589 135.18369301657367 0 0 0 0 -92.436811346238756 311.32091886465787 0 311.32091886465787 284.309904036636 0 0 0 0 114.27929751831107 324.56571942147275 0 324.56571942147275 -66.105498585817259 0 0 0 0 129.2299880354858 305.67846940828531 0 305.67846940828531 -97.918448153446661 0 0 0 0 181.31129193620473 415.80660607342725 0 415.80660607342725 -31.266074654100521 0 0 0 0 -650.01570143582376 346.73374154014891 0 346.73374154014891 47.124072306964081 0 0 0 0 -275.96111023428602 295.14984555914998 0 295.14984555914998 72.903216810867889 0 0 0 0 -335.1559217201293 179.31357869116619 0 179.31357869116619 -134.79025722513325 0 0 0 0 -610.93325755795013 105.88459495939605 0 105.88459495939605 -6.9847824801254319 0 0 0 0 -270.24160293338718 128.77086582618358 0 128.77086582618358 11.361977261676657 0 0 0 0 -330.24859432071116 273.15745384822367 0 273.15745384822367 17.723230117757339 0 0 0 0 -261.11740602856298 -17.110880362364696 0 -17.110880362364696 228.74159543905262 0 0 0 0 -538.69700611414737 185.62587356953009 0 185.62587356953009 118.05956410500221 0 0 0 0 -300.09036295337091 136.33180509745034 0 136.33180509745034 16.183252893068129 0 0 0 0 34.798915660927378 -103.68974368987256 0 -103.68974368987256 4.7711338868248276 0 0 0 0 -135.85206865207874 -289.27746922985534 0 -289.27746922985534 403.51834947398311 0 0 0 0 -404.81443865647088 53.731088871340035 0 53.731088871340035 124.86756840088492 0 0 0 0 -218.61381133608165 150.42334461078372 0 150.42334461078372 710.95220587601943 0 0 0 0 -255.67262254637899 -43.147460634325398 0 -43.147460634325398 189.82686114936951 0 0 0 0 -146.7996826815106 -73.257883672398748 0 -73.257883672398748 68.918978852205328 0 0 0 0 -211.18265649878413 -28.471753168762007 0 -28.471753168762007 38.117206579176127 0 0 0 0 -47.332162706852614 62.50943029748305 0 62.50943029748305 53.242816679907264 0 0 0 0 36.262711574148852 20.17184511917003 0 20.17184511917003 -69.707307071617834 0 0 0 0 -134.80808893910398 86.288482562064019 0 86.288482562064019 -86.445750782353571 0 0 0 0 -0.70821825744747002 -1.1660727130033877 0 -1.1660727130033877 -0.69373063512443878 0 0 0 0 -179.00915442156247 348.74288957053795 0 348.74288957053795 1591.1680004112422 0 0 0 0 426.25845973350079 697.39091827841185 0 697.39091827841185 565.38837885081011 0 0 0 0 544.71160173206408 -273.10690692284697 0 -273.10690692284697 221.7872074531042 0 0 0 0 307.45679514001768 -93.28681710915771 0 -93.28681710915771 -374.46064664582082 0 0 0 0 -154.15621355015901 -127.32012563329044 0 -127.32012563329044 209.02369961467775 0 0 0 0 -458.60428024980683 126.64973941206699 0 126.64973941206699 432.69008889519864 0 0 0 0 -124.59426932588758 206.8303330061317 0 206.8303330061317 -310.14991967900232 0 0 0 0 -7.0404730856414943 2.0422271509518737 0 2.0422271509518737 -0.5296574858365215 0 0 0 0 -221.3467300392258 133.74949284184913 0 133.74949284184913 0.02195560080872383 0 0 0 0 -55.827858640643171 107.06594972657695 0 107.06594972657695 -167.148674311582 0 0 0 0 -278.35237719035104 212.96614401758052 0 212.96614401758052 -101.97783313471882 0 0 0 0 -31.443603012168751 13.958413142710924 0 13.958413142710924 -15.493531495885691 0 0 0 0 -40.886763349797548 38.21040897234343 0 38.21040897234343 -72.84300851661601 0 0 0 0 -22.073287557652634 2.8047427562619305 0 2.8047427562619305 -0.38270288746026182 0 0 0 0 -76.032353638301174 53.165705603687456 0 53.165705603687456 -24.400048815121409 0 0 0 0 -62.423431591083499 33.314613981114235 0 33.314613981114235 -0.14350825924339006 0 0 0 0 -46.084272163043352 27.558553083137667 0 27.558553083137667 -22.429496121385455 0 0 0 0 -45.271020253767801 19.856074265489042 0 19.856074265489042 -3.2466178767499514 0 0 0 0 -45.278600441062736 18.141118719642691 0 18.141118719642691 0.033841882417618763 0 0 0 0 -36.827966867237379 2.0497093313306323 0 2.0497093313306323 1.5520862899915251 0 0 0 0 -42.89359514888929 10.474471096480556 0 10.474471096480556 -9.6133689732523635 0 0 0 0 -45.565489574135427 10.986779121078143 0 10.986779121078143 -8.283074203907745 0 0 0 0 -45.55620029483174 12.379225177603615 0 12.379225177603615 5.4103099381609354 0 0 0 0 18.699689128037363 6.9051160293291929 0 6.9051160293291929 -9.6516219328900661 0 0 0 0 -48.504611552385512 21.676980990022912 0 21.676980990022912 15.261718335183836 0 0 0 0 -17.075423878914251 14.376564307584573 0 14.376564307584573 10.018996320806679 0 0 0 0 0.64995247380284127 38.461594121254166 0 38.461594121254166 0.63862696505930217 0 0 0 0 1461.582589045116 -139.35841999080731 0 -139.35841999080731 -1233.5073832471971 0 0 0 0 24.39294668386492 9.5958933342062664 0 9.5958933342062664 -12.335321982245659 0 0 0 0 1.3587515430689283 -2.4051951144610797 0 -2.4051951144610797 0.49988581734669424 0 0 0 0 -43.623646082734922 17.933406650816323 0 17.933406650816323 -1.7397177744642249 0 0 0 0 -5.9581326528241334 14.18344467652787 0 14.18344467652787 0.0037180451181484386 0 0 0 0 684.85749707756486 433.14109901548818 0 433.14109901548818 102.09415737268864 0 0 0 0 -5.5160645593423396 14.082791370921768 0 14.082791370921768 -0.42635827022604644 0 0 0 0 -0.75845221978583766 1.8735289109540929 0 1.8735289109540929 3.1490255646611445 0 0 0 0 621.49341279635701 -12.306260631448822 0 -12.306260631448822 7.3532108344370499 0 0 0 0 390.19352596544195 314.76463365845848 0 314.76463365845848 55.769262614689069 0 0 0 0 224.12565377082137 271.24397547271292 0 271.24397547271292 157.53183728721342 0 0 0 0 67.334498482690833 -113.83673261171498 0 -113.83673261171498 80.667700577396317 0 0 0 0 81.63741261944827 21.75626580469509 0 21.75626580469509 -2.4467061650368613 0 0 0 0 51.253147475113565 4.1394215348532271 0 4.1394215348532271 -80.467773070617113 0 0 0 0 31.696195310640178 -48.452399175352184 0 -48.452399175352184 -39.285413575089478 0 0 0 0 1.9467443856215425 3.8864335782256205 0 3.8864335782256205 3.0615847758992345 0 0 0 0 -8.4928625010143151 172.4106229454701 0 172.4106229454701 -107.1574779659386 0 0 0 0 -85.791113430948826 327.75756153218026 0 327.75756153218026 -589.98333453090163 0 0 0 0 -48.691943741556315 174.12113311010035 0 174.12113311010035 -46.778093175918912 0 0 0 0 -325.29094066476682 340.88495546524064 0 340.88495546524064 46.557329228773597 0 0 0 0 -314.82816329504567 380.60479956521885 0 380.60479956521885 196.41697022749577 0 0 0 0 -99.976574922423424 135.60770922286611 0 135.60770922286611 66.013582811996457 0 0 0 0 -121.68400849502359 269.32145288048923 0 269.32145288048923 -110.80844421645452 0 0 0 0 1709.999370239595 -555.95836011713254 0 -555.95836011713254 -708.44381415623138 0 0 0 0 1626.2741871556136 568.02353685400158 0 568.02353685400158 -498.44486641018739 0 0 0 0 6.6282586168279121 11.040250838689747 0 11.040250838689747 18.444798210779538 0 0 0 0 -1.239454436038848 -2.080607273347713 0 -2.080607273347713 4.4486163205245361 0 0 0 0 -838.37537245399653 232.73092493759759 0 232.73092493759759 79.199070450151339 0 0 0 0 1581.7762503430458 174.82967705683768 0 174.82967705683768 91.042149549874011 0 0 0 0 -627.29196469460476 72.671866789220076 0 72.671866789220076 -71.358645542291924 0 0 0 0 -468.42877287972442 220.4490123893338 0 220.4490123893338 -1.6424801073953859 0 0 0 0 -163.18275206020553 198.5935352769302 0 198.5935352769302 -15.80133373796707 0 0 0 0 -495.22763523890535 38.617815180536127 0 38.617815180536127 88.109472070267657 0 0 0 0 -577.1219231340765 245.62146554873107 0 245.62146554873107 -101.65374518741737 0 0 0 0 -676.1812510759155 -4.7132280485820957 0 -4.7132280485820957 132.54098877034266 0 0 0 0 -766.65432650554612 93.213647027259867 0 93.213647027259867 348.99404251441592 0 0 0 0 -9.948418481032121 3.2197199384386295 0 3.2197199384386295 2.3488184303093931 0 0 0 0 -528.20212209296733 24.311542290030047 0 24.311542290030047 -55.720693655148352 0 0 0 0 -613.95449130451743 199.40767363604391 0 199.40767363604391 271.07627052930184 0 0 0 0 -448.42798609549936 199.83594244433334 0 199.83594244433334 189.8520300789387 0 0 0 0 -574.84872151244053 107.13603336471715 0 107.13603336471715 228.62256342151522 0 0 0 0 -554.03766147687202 331.24410444906971 0 331.24410444906971 498.48242761247093 0 0 0 0 125.35116497606941 76.49990688573962 0 76.49990688573962 -60.934004651586292 0 0 0 0 680.63704675120789 -799.95067766308784 0 -799.95067766308784 -18.80944876059948 0 0 0 0 -2.1053566624764244 556.19863894064838 0 556.19863894064838 493.53782388754189 0 0 0 0 15.025326659828607 80.588570171365475 0 80.588570171365475 27.974594730344791 0 0 0 0 1.6328186551492063 3.9085981358555699 0 3.9085981358555699 5.9797675369474064 0 0 0 0 -284.6182476421439 866.53953077242409 0 866.53953077242409 -702.41443651120062 0 0 0 0 -270.27940342277293 -162.0361749435142 0 -162.0361749435142 529.17273753526388 0 0 0 0 -152.47995421411906 940.12521439034026 0 940.12521439034026 -0.15412819621269591 0 0 0 0 1365.7842675818029 940.55847782421915 0 940.55847782421915 -0.20137561029696371 0 0 0 0 490.61623207503726 399.88598709040161 0 399.88598709040161 4.2938671047159005 0 0 0 0 2151.9464433314715 1060.7182810449958 0 1060.7182810449958 -65.729487965891167 0 0 0 0 327.27995748307148 551.7982583536359 0 551.7982583536359 630.71060660850981 0 0 0 0 723.24949030297648 1496.828515644971 0 1496.828515644971 2044.8957622441958 0 0 0 0 767.12207993030461 1013.5443287092057 0 1013.5443287092057 589.980678858381 0 0 0 0 639.01344063584474 644.87035936263783 0 644.87035936263783 152.775496352755 0 0 0 0 606.94056156146689 525.9229080639343 0 525.9229080639343 0.68593074691307265 0 0 0 0 457.91098029370914 490.16959156944358 0 490.16959156944358 352.60102301769075 0 0 0 0 343.53470599809589 248.12520557639823 0 248.12520557639823 201.73406262052595 0 0 0 0 59.715731049782704 12.431882241267772 0 12.431882241267772 -1.46185032882887 0 0 0 0 372.96255273776478 295.25297477649292 0 295.25297477649292 98.287686232547458 0 0 0 0 -275.206576596589 737.09112149171415 0 737.09112149171415 -539.35642004093097 0 0 0 0 38.124411723823869 536.14674384052341 0 536.14674384052341 -1023.788609785146 0 0 0 0 -307.01570500423259 403.44566855858284 0 403.44566855858284 99.596553288087762 0 0 0 0 -331.7219612948611 498.61996241973975 0 498.61996241973975 97.782282993357512 0 0 0 0 -248.62632061951444 192.49923365619907 0 192.49923365619907 925.20516846289684 0 0 0 0 285.31965604739889 861.47797535312384 0 861.47797535312384 1715.8127187261271 0 0 0 0 272.36720684497413 685.97228109028219 0 685.97228109028219 -76.889274049717642 0 0 0 0 -520.03274243325905 165.79513760517875 0 165.79513760517875 -397.30224701482803 0 0 0 0 1587.9673176316428 221.53318658252101 0 221.53318658252101 -2764.021087502224 0 0 0 0 24.026998337417638 6.3213863078059944 0 6.3213863078059944 -0.93518252289691439 0 0 0 0 2198.3873182821189 1224.2500313581186 0 1224.2500313581186 -1521.0491390027528 0 0 0 0 2160.4989159634479 1067.05791361109 0 1067.05791361109 -1913.9133791086497 0 0 0 0 11.036972775599679 11.06034810417416 0 11.06034810417416 9.4504021118323465 0 0 0 0 23.425250239118213 46.970374668555451 0 46.970374668555451 227.20852070648107 0 0 0 0 -128.40825584949198 495.36073418417072 0 495.36073418417072 1914.8310092104257 0 0 0 0 -1544.6445245595824 1033.8159154349123 0 1033.8159154349123 1068.663921488871 0 0 0 0 -1363.0689290844612 2068.5532767554005 0 2068.5532767554005 -436.70327305828687 0 0 0 0 16.26400538379049 24.26403173724831 0 24.26403173724831 27.171661556612321 0 0 0 0 597.07407698869065 743.79678134502319 0 743.79678134502319 532.70689602256607 0 0 0 0 400.75102741352748 536.20187909425294 0 536.20187909425294 347.49224372803292 0 0 0 0 438.09458218674445 763.16212026194626 0 763.16212026194626 537.76221791036369 0 0 0 0 1269.7688246158796 1428.4383751547721 0 1428.4383751547721 1067.6039229738381 0 0 0 0 1645.5978403595218 -147.88732603399694 0 -147.88732603399694 488.79540413151699 0 0 0 0 503.26088248092128 95.878175242818543 0 95.878175242818543 276.95539564522915 0 0 0 0 882.95481809450212 469.41514704507063 0 469.41514704507063 167.68795023678103 0 0 0 0 359.42617838752631 203.40917313429236 0 203.40917313429236 99.982430859206943 0 0 0 0 388.81778937518538 251.18687713271356 0 251.18687713271356 71.28200255394222 0 0 0 0 237.94257023234968 64.533283831726294 0 64.533283831726294 93.848687076551869 0 0 0 0 99.656047336393385 53.293553375915508 0 53.293553375915508 -20.788949391546339 0 0 0 0 200.3045489586948 181.10569790774025 0 181.10569790774025 -43.624829087777471 0 0 0 0 351.24314887664514 49.061225305595144 0 49.061225305595144 40.652691033290466 0 0 0 0 494.84148003822338 406.31328577202657 0 406.31328577202657 364.16557512842701 0 0 0 0 524.61832475519941 75.933582986328929 0 75.933582986328929 224.19152507092804 0 0 0 0 73.506059684397769 143.79414095359971 0 143.79414095359971 294.87526658714341 0 0 0 0 -62.457650744079729 69.038516080414411 0 69.038516080414411 263.24624465036322 0 0 0 0 -324.00310107993573 466.66865380123636 0 466.66865380123636 304.23411856500024 0 0 0 0 -395.05875459801609 309.6960910268208 0 309.6960910268208 246.69438088586321 0 0 0 0 -363.41140383493621 219.2823161391716 0 219.2823161391716 501.4587239499233 0 0 0 0 -286.51515041958555 250.59091715783143 0 250.59091715783143 118.2276280791848 0 0 0 0 -125.85450533256517 105.07985395062133 0 105.07985395062133 15.665209678496467 0 0 0 0 -349.9402605874202 122.68849586368378 0 122.68849586368378 199.17709050117992 0 0 0 0 42.256600313536183 220.12632218550425 0 220.12632218550425 108.4413003755908 0 0 0 0 42.307083626408712 69.647143830865389 0 69.647143830865389 133.69176519426401 0 0 0 0 96.982618568872567 20.719792247487931 0 20.719792247487931 -257.07946551709028 0 0 0 0 -37.687571451446274 202.40036160795717 0 202.40036160795717 -86.457360261469148 0 0 0 0 -94.469707260082942 125.18631738598924 0 125.18631738598924 -51.550726745801512 0 0 0 0 -94.756987855081661 116.76649362405806 0 116.76649362405806 -291.91609631368192 0 0 0 0 -290.44612618186511 165.45870848649065 0 165.45870848649065 -303.40055448732164 0 0 0 0 -376.39697339873237 100.12612235264896 0 100.12612235264896 -88.411906210880261 0 0 0 0 -321.75083608074056 255.34200908191269 0 255.34200908191269 -95.314667851125705 0 0 0 0 -37.830592229583999 -66.126000302581815 0 -66.126000302581815 -281.83496811194345 0 0 0 0 -133.26579517846403 -142.61892235543564 0 -142.61892235543564 -342.7056036638096 0 0 0 0 -154.52417103203334 -10.517120627577242 0 -10.517120627577242 -845.11392684897874 0 0 0 0 -420.25942377577303 -456.5100913028582 0 -456.5100913028582 67.337285373767372 0 0 0 0 -688.40891421464039 205.81776224100031 0 205.81776224100031 -518.15755634242669 0 0 0 0 -305.7845321851637 230.16563962849614 0 230.16563962849614 -558.11571391759207 0 0 0 0 -9.7273673302261159 -2.5987568347482011 0 -2.5987568347482011 -514.01468359085266 0 0 0 0 -8.9216755942034069 19.410028094687732 0 19.410028094687732 -216.58503504755208 0 0 0 0 -3.0546402370673604 -131.58128168759868 0 -131.58128168759868 -259.59938228827377 0 0 0 0 76.350910045453929 -86.609065446886234 0 -86.609065446886234 -256.98184522226802 0 0 0 0 -36.789140951164882 -104.67362797647365 0 -104.67362797647365 -177.6279523371777 0 0 0 0 -154.95657890435541 1.0705533439249848 0 1.0705533439249848 -113.89123974950053 0 0 0 0 -50.079236378602218 -133.02705630178389 0 -133.02705630178389 -232.62992876948556 0 0 0 0 75.966217630511295 49.161259018676319 0 49.161259018676319 -26.695197186324307 0 0 0 0 51.416834314833977 -99.331588057189947 0 -99.331588057189947 -182.91045287114684 0 0 0 0 -13.239462690304208 -53.49347629071417 0 -53.49347629071417 -164.31382055404538 0 0 0 0 -16.835276350357162 -60.16945988318912 0 -60.16945988318912 -175.39755666880228 0 0 0 0 34.446818676238763 -29.230670390032174 0 -29.230670390032174 -271.73682383791311 0 0 0 0 146.55866105029418 -84.221220889572578 0 -84.221220889572578 -401.57083693247114 0 0 0 0 97.835769454795809 -39.829357417751453 0 -39.829357417751453 -124.99491457099793 0 0 0 0 145.99451620741092 -116.59523678032201 0 -116.59523678032201 -204.09163684738451 0 0 0 0 178.80862672617877 -16.7916490206444 0 -16.7916490206444 -62.648840509180445 0 0 0 0 234.03678619922721 -30.810265490596066 0 -30.810265490596066 -141.8739085389243 0 0 0 0 195.33941711930675 -41.65293412101164 0 -41.65293412101164 -189.69084624620882 0 0 0 0 234.84266792783455 12.10410067383782 0 12.10410067383782 -164.89163394997013 0 0 0 0 73.8143362844894 -73.019866358187755 0 -73.019866358187755 -125.70601432773401 0 0 0 0 372.92070953192888 33.488931836109259 0 33.488931836109259 -71.650054371595616 0 0 0 0 397.99192653844602 218.94578211817861 0 218.94578211817861 9.3562935463269241 0 0 0 0 209.70417719118996 56.94532202091068 0 56.94532202091068 -11.927084961615037 0 0 0 0 262.12893604430428 83.628261302568717 0 83.628261302568717 -123.49135084301815 0 0 0 0 241.66508977217018 27.967392681006459 0 27.967392681006459 -148.72739762128913 0 0 0 0 202.87645096899359 104.0979464854754 0 104.0979464854754 48.280831311909424 0 0 0 0 258.49433291397872 95.234265522754868 0 95.234265522754868 -49.603664238762576 0 0 0 0 157.18402734342089 0.09038041703752242 0 0.09038041703752242 -251.35715454121237 0 0 0 0 101.8201988923247 11.538253113394603 0 11.538253113394603 -126.78433735186991 0 0 0 0 91.6084339368972 17.158851776563097 0 17.158851776563097 -574.39571036270354 0 0 0 0 26.164194040524308 -103.11554405443894 0 -103.11554405443894 -276.54580993448326 0 0 0 0 -23.351974372999393 85.231536999242962 0 85.231536999242962 -229.25849404964538 0 0 0 0 18.689861483231653 -122.25115891604219 0 -122.25115891604219 -518.6115037855925 0 0 0 0 110.82344760307751 147.90758135709621 0 147.90758135709621 -310.46886636804265 0 0 0 0 196.82828657155187 124.40804642653893 0 124.40804642653893 -304.13614422595128 0 0 0 0 132.82679864097736 15.215700771092088 0 15.215700771092088 -198.80837767352932 0 0 0 0 177.40977385359292 112.67325064598845 0 112.67325064598845 -132.70989573310362 0 0 0 0 -0.70415191581196268 15.171342765257577 0 15.171342765257577 -55.036846788672847 0 0 0 0 312.14246860064304 336.25937425046141 0 336.25937425046141 34.334689526906004 0 0 0 0 125.14256887358351 93.543356965150451 0 93.543356965150451 -73.935676741384668 0 0 0 0 313.53424027613937 512.06711359623205 0 512.06711359623205 536.40947937962483 0 0 0 0 219.13997526291314 279.87282605953806 0 279.87282605953806 88.962588040652918 0 0 0 0 298.3926261056622 253.26820610253344 0 253.26820610253344 95.89967511134455 0 0 0 0 511.02297920558703 523.48197866063492 0 523.48197866063492 321.08994549387717 0 0 0 0 -237.61515981269622 161.55811160576559 0 161.55811160576559 47.747309351108925 0 0 0 0 14.965854474372463 -12.148486323843827 0 -12.148486323843827 -149.73564226661983 0 0 0 0 14.829445300589986 73.707514435933476 0 73.707514435933476 -29.366322740796306 0 0 0 0 -79.451090058035334 -25.709745688716794 0 -25.709745688716794 323.13408661235007 0 0 0 0 6.8872497626303648 12.692100440331849 0 12.692100440331849 13.428410660530744 0 0 0 0 65.358550494049268 -6.9712683238903992 0 -6.9712683238903992 62.684792738960823 0 0 0 0 541.98155676275201 -60.254361982828414 0 -60.254361982828414 -366.82857457258797 0 0 0 0 58.649147438177351 14.288085229904027 0 14.288085229904027 47.94985688032466 0 0 0 0 -734.32111063517641 313.01255121261784 0 313.01255121261784 66.645783259678865 0 0 0 0 10.797860332690979 20.148629343400771 0 20.148629343400771 21.873845652073612 0 0 0 0 -499.93465952530369 267.83773932941403 0 267.83773932941403 -116.38285673302016 0 0 0 0 16.636632433914883 84.116159038962081 0 84.116159038962081 3.9926146632249697 0 0 0 0 -52.366100192779868 247.81482174757912 0 247.81482174757912 403.77663222173578 0 0 0 0 13.361720979790334 54.018997329238118 0 54.018997329238118 -4.1610561974230222 0 0 0 0 -143.48660624382319 202.48665690286725 0 202.48665690286725 21.499600483846734 0 0 0 0 -318.6870533936235 260.71124655565654 0 260.71124655565654 116.10494081189972 0 0 0 0 -214.69317536727976 133.03232585990554 0 133.03232585990554 71.243280747657991 0 0 0 0 -425.91123539036198 265.88070613935997 0 265.88070613935997 193.39198430833721 0 0 0 0 -359.87733767361351 225.85663169376494 0 225.85663169376494 124.30170749062381 0 0 0 0 -456.29275548513397 241.30411895735597 0 241.30411895735597 73.223345316160703 0 0 0 0 -416.89619640694582 137.58450344594894 0 137.58450344594894 -62.084376290818909 0 0 0 0 -444.10630433062033 179.96241446757631 0 179.96241446757631 130.30151250815106 0 0 0 0 -381.86555108210632 136.11778189049619 0 136.11778189049619 -115.54874358794768 0 0 0 0 -373.394627218815 163.09954503886183 0 163.09954503886183 -323.40408702404238 0 0 0 0 -490.69908956113795 142.98195980236051 0 142.98195980236051 -61.733019032661105 0 0 0 0 -553.19950401567621 106.56954371719621 0 106.56954371719621 -329.90180765772675 0 0 0 0 -501.43152557054418 234.72705744384439 0 234.72705744384439 -225.16994380639517 0 0 0 0 -449.22959059360437 99.65032840782078 0 99.65032840782078 -332.02871250065436 0 0 0 0 -616.52998542360729 116.82928511305363 0 116.82928511305363 -249.26652396705322 0 0 0 0 -232.89912389722303 167.12485312485296 0 167.12485312485296 -121.41139254545851 0 0 0 0 -333.17480864901154 173.16568915269454 0 173.16568915269454 -100.32339505273558 0 0 0 0 -345.13811412158248 187.35695312543248 0 187.35695312543248 68.321208186021522 0 0 0 0 -368.89540394140931 285.59923425644229 0 285.59923425644229 -264.47578913652978 0 0 0 0 -684.53747279983509 551.00950111225393 0 551.00950111225393 -323.83432743200683 0 0 0 0 -324.09506449538276 142.17082025187119 0 142.17082025187119 -99.623250013581128 0 0 0 0 -199.0887517821684 391.12108366894245 0 391.12108366894245 -536.44013591627299 0 0 0 0 -479.44285360889262 328.70701483692392 0 328.70701483692392 -96.060485746129416 0 0 0 0 -407.28943011104639 454.46756635276688 0 454.46756635276688 -362.92245324290707 0 0 0 0 -257.55535195018456 303.19306698973378 0 303.19306698973378 -402.96464258199876 0 0 0 0 11.750732000238486 18.88357402798087 0 18.88357402798087 6.0931684357319682 0 0 0 0 -465.6234567884967 485.22474193407106 0 485.22474193407106 -414.2907790185418 0 0 0 0 -463.12366531302177 675.73413609515228 0 675.73413609515228 -804.97363119607326 0 0 0 0 1.1926570143226058 -1.1083097828292736 0 -1.1083097828292736 -0.93113357128859775 0 0 0 0 -458.29237079358427 795.34069981961511 0 795.34069981961511 -1948.346480572829 0 0 0 0 -684.21175454573677 -192.97381953131935 0 -192.97381953131935 -1130.7683952191146 0 0 0 0 -515.53769116653712 107.97867990126542 0 107.97867990126542 -571.96173071535304 0 0 0 0 -377.52661284350324 138.96160159929423 0 138.96160159929423 -1275.062380703399 0 0 0 0 -649.66924942965852 53.197393957118038 0 53.197393957118038 -587.58111340180039 0 0 0 0 -358.07801931560971 297.39990543964086 0 297.39990543964086 -596.35883970306895 0 0 0 0 -395.38881297138869 90.03217680711532 0 90.03217680711532 -637.117654594942 0 0 0 0 -316.08333511545788 263.49204492880381 0 263.49204492880381 -569.07256799130118 0 0 0 0 -313.6396040446125 282.78847729184781 0 282.78847729184781 -284.1211375323619 0 0 0 0 -389.32534013781697 158.06867509434232 0 158.06867509434232 -324.89698007480183 0 0 0 0 -313.82587098528165 290.21411807337427 0 290.21411807337427 -510.72425819933414 0 0 0 0 13.150951447928207 13.482240664191949 0 13.482240664191949 -26.918263838250994 0 0 0 0 14.000497788329994 37.806777662530749 0 37.806777662530749 9.906265997007722 0 0 0 0 3.0800797144543708 44.974900464825168 0 44.974900464825168 5.4931115676567472 0 0 0 0 -445.63231282964261 7.8411480280046817 0 7.8411480280046817 111.32749945047908 0 0 0 0 -274.52672259043902 531.64949826301745 0 531.64949826301745 -798.17742230711156 0 0 0 0 -3.0779181631297661 4.3958635705131712 0 4.3958635705131712 13.854736484599215 0 0 0 0 -135.99236272219423 304.12692068875913 0 304.12692068875913 -452.58744239860243 0 0 0 0 21.439611095915403 106.71820765323383 0 106.71820765323383 -72.697634549127372 0 0 0 0 -547.21778761828318 108.39943098902586 0 108.39943098902586 53.587415612768382 0 0 0 0 310.85675681954035 87.222741979507191 0 87.222741979507191 -229.27868425627821 0 0 0 0 4.1107751897837375 10.049976818113615 0 10.049976818113615 0.78622198204840288 0 0 0 0 15.795424872569951 32.492746816136709 0 32.492746816136709 62.508996877441746 0 0 0 0 194.80669205903177 12.762165572459708 0 12.762165572459708 -97.462821256107418 0 0 0 0 -100.63627922765409 42.649362000611291 0 42.649362000611291 116.50922380707198 0 0 0 0 572.48650183833888 146.39451869947516 0 146.39451869947516 -129.58504779564464 0 0 0 0 288.3267910463328 93.860417666827743 0 93.860417666827743 -174.78291895219263 0 0 0 0 62.822102482784743 124.29907069254392 0 124.29907069254392 -40.452185086297305 0 0 0 0 44.91244845908659 212.22120073705355 0 212.22120073705355 12.992349402036098 0 0 0 0 334.91073304797465 78.989770600646693 0 78.989770600646693 -410.54364865117486 0 0 0 0 5.7841065986734979 36.572740019771068 0 36.572740019771068 -26.550497311045675 0 0 0 0 252.8207629878616 191.29051648449143 0 191.29051648449143 -409.66892281749642 0 0 0 0 490.03808856123942 242.86266114113232 0 242.86266114113232 -410.3739939079158 0 0 0 0 488.6032307746209 90.560549575678124 0 90.560549575678124 -916.54974966443115 0 0 0 0 172.231755610439 1365.8352976617664 0 1365.8352976617664 -1670.6268371158576 0 0 0 0 481.60094266642682 197.89901870874706 0 197.89901870874706 -516.76034155629168 0 0 0 0 441.43263089204265 677.44620510145865 0 677.44620510145865 -39.675750901404854 0 0 0 0 864.87989516022208 508.36344058811346 0 508.36344058811346 -887.72013570261515 0 0 0 0 644.61753325207974 712.18577739824423 0 712.18577739824423 -83.484035923243937 0 0 0 0 -1042.3058239436014 689.54427218735952 0 689.54427218735952 -146.22523961158777 0 0 0 0 -43.017236082734598 67.222262749691254 0 67.222262749691254 -87.567926411822555 0 0 0 0 -187.40656448493246 9.029133357739056 0 9.029133357739056 -1295.3690773800392 0 0 0 0 28.59488478106276 -3.4297031506564437 0 -3.4297031506564437 -72.014023114814975 0 0 0 0 -44.938183916127173 151.32310187837848 0 151.32310187837848 -54.690996788064005 0 0 0 0 -630.31854008271694 337.59004835265273 0 337.59004835265273 -236.88914163273239 0 0 0 0 36.607324415899313 21.282701770612384 0 21.282701770612384 -102.61596591493898 0 0 0 0 -592.37948953612067 470.63202342505974 0 470.63202342505974 14.799619454250205 0 0 0 0 8.1092631507358419 72.400655832253236 0 72.400655832253236 30.24000181475003 0 0 0 0 8.7224015777464956 85.404140396251023 0 85.404140396251023 -41.494450164682348 0 0 0 0 18.099275334396225 74.337046308613935 0 74.337046308613935 -28.438758670521565 0 0 0 0 -3.1933852036812311 59.290592233272847 0 59.290592233272847 -27.225606076689651 0 0 0 0 5.2638543700792049 60.386915238589779 0 60.386915238589779 2.84683985864487 0 0 0 0 -1.6757036701383186 76.281926747902617 0 76.281926747902617 -95.605410996184219 0 0 0 0 -19.452721662833937 73.142007404141623 0 73.142007404141623 -89.923231939343168 0 0 0 0 4.0584881696486264 75.499671146907531 0 75.499671146907531 -114.43387511695983 0 0 0 0 -18.202413950319169 52.748984162561101 0 52.748984162561101 -104.48624296282833 0 0 0 0 -25.813405452907318 52.038640655695417 0 52.038640655695417 -58.524319031803316 0 0 0 0 -1.7688238472983357 70.230691808552365 0 70.230691808552365 -88.103723120049835 0 0 0 0 12.032317626428267 69.483006953936638 0 69.483006953936638 -65.90875276132283 0 0 0 0 2.8663288498501061 55.729587784485375 0 55.729587784485375 -79.374325430937461 0 0 0 0 3.0700659862195607 53.991801537786159 0 53.991801537786159 -42.140646079142243 0 0 0 0 396.10579893943031 630.00671326251211 0 630.00671326251211 345.24504312980082 0 0 0 0 0.38759859474521363 73.937910809456298 0 73.937910809456298 -46.149115139105561 0 0 0 0 -31.900773473694642 47.087581981852026 0 47.087581981852026 -51.913129236980602 0 0 0 0 161.28784428600193 693.5776451746982 0 693.5776451746982 767.20327547521981 0 0 0 0 296.60001612631459 354.5611667564151 0 354.5611667564151 368.84941555687169 0 0 0 0 22.785437172969978 533.45521683185052 0 533.45521683185052 373.48685130611375 0 0 0 0 3.3436150555971835 376.77524048935726 0 376.77524048935726 -152.94089256278221 0 0 0 0 -80.457573797611985 681.88503689716663 0 681.88503689716663 269.95538830483463 0 0 0 0 21.314345780370786 653.28430311197553 0 653.28430311197553 270.03070924992323 0 0 0 0 226.89436580795154 593.0632212732354 0 593.0632212732354 203.64537892850603 0 0 0 0 498.04581745339965 503.44160854570146 0 503.44160854570146 722.73333832873777 0 0 0 0 29.888529952309909 710.56068563455904 0 710.56068563455904 526.53816055756624 0 0 0 0 -94.331864781284821 735.37588707945054 0 735.37588707945054 1014.2245336175479 0 0 0 0 162.20035076976637 776.48269979189763 0 776.48269979189763 518.35802018868503 0 0 0 0 -263.5138458579022 1073.2316201130773 0 1073.2316201130773 908.09491348742699 0 0 0 0 -136.71482954584644 916.05625370641474 0 916.05625370641474 437.8966371554734 0 0 0 0 -623.97767691811896 955.39813207379768 0 955.39813207379768 1167.3759565039202 0 0 0 0 961.86237796815294 389.26946059422943 0 389.26946059422943 98.895570088509885 0 0 0 0 1080.274602751404 996.55194213707205 0 996.55194213707205 -181.77479668945807 0 0 0 0 -88.368517355265794 203.00970148960323 0 203.00970148960323 1134.3801176277566 0 0 0 0 -582.13140480031143 277.13143351782333 0 277.13143351782333 1289.270073860954 0 0 0 0 -800.65456083830213 653.95462547740181 0 653.95462547740181 1281.8780832079581 0 0 0 0 -189.75131450820481 634.82406739796306 0 634.82406739796306 1094.6292167404629 0 0 0 0 20.21384665891145 1.3311054535760078 0 1.3311054535760078 -32.718310337675206 0 0 0 0 -1108.3660161036387 1604.9327885746272 0 1604.9327885746272 1229.6242907208357 0 0 0 0 -24.645946230782101 58.705946616334359 0 58.705946616334359 -89.198912863033911 0 0 0 0 360.2871996298054 899.67458143826207 0 899.67458143826207 620.36671279730047 0 0 0 0 -36.62834420537493 56.562892982756821 0 56.562892982756821 -56.235461237324827 0 0 0 0 97.052883419251884 79.966998696076189 0 79.966998696076189 -224.8802959141467 0 0 0 0 80.819887483761704 19.074549672843204 0 19.074549672843204 -77.031237920848071 0 0 0 0 228.60158794408926 -48.816363180107146 0 -48.816363180107146 -503.31633795372909 0 0 0 0 94.488293567697838 24.425304310309002 0 24.425304310309002 -184.67591993627138 0 0 0 0 62.651690591436306 18.065351022557522 0 18.065351022557522 -70.85650937313676 0 0 0 0 113.46448037042865 31.009245992834622 0 31.009245992834622 -110.3237523386415 0 0 0 0 -327.67428568915057 -139.60390481942522 0 -139.60390481942522 326.85271973229828 0 0 0 0 97.586703492511788 18.18365132480568 0 18.18365132480568 -27.171559052850434 0 0 0 0 21.958553836135053 22.048868025733888 0 22.048868025733888 -16.017904000592694 0 0 0 0 98.119944084552117 107.72929192130687 0 107.72929192130687 -145.58991774391507 0 0 0 0 137.47031700578373 75.142889978737003 0 75.142889978737003 -142.27647392606013 0 0 0 0 113.04615772045145 19.463519379025996 0 19.463519379025996 -20.59780640874326 0 0 0 0 -72.305073638621252 122.19425718487037 0 122.19425718487037 -72.155232083257943 0 0 0 0 66.473177582213708 81.515467005040534 0 81.515467005040534 -68.059912697283096 0 0 0 0 -20.696927866185433 238.44773971980976 0 238.44773971980976 -157.57304221203958 0 0 0 0 257.71619031704904 -43.099678777805821 0 -43.099678777805821 -127.64571028399223 0 0 0 0 761.16037210120703 442.59592971162783 0 442.59592971162783 -549.04357543995138 0 0 0 0 -1186.2891153147211 917.46768949186662 0 917.46768949186662 -301.19892537864507 0 0 0 0 -11.044073180135484 25.723816832180731 0 25.723816832180731 0.45000693694623806 0 0 0 0 286.75584105464804 29.871917102398584 0 29.871917102398584 -234.11513913122872 0 0 0 0 63.167604931164448 54.894192074496203 0 54.894192074496203 -22.761117764008141 0 0 0 0 85.253200013015885 99.455741483012389 0 99.455741483012389 -21.022119858909718 0 0 0 0 46.540760387008049 205.74030864136148 0 205.74030864136148 151.65069331242557 0 0 0 0 11.610144472555305 4.7510429714427289 0 4.7510429714427289 -13.011887214138852 0 0 0 0 86.982878595968941 -1.2321367275544617 0 -1.2321367275544617 -100.69194199723279 0 0 0 0 145.03673943270405 14.646549381308432 0 14.646549381308432 -143.0896066848145 0 0 0 0 159.79093173841829 -21.878691993653774 0 -21.878691993653774 -108.03175592697153 0 0 0 0 -3.229569229631668 57.359581752316757 0 57.359581752316757 -87.533811723670112 0 0 0 0 109.84619643902988 -14.447106407766114 0 -14.447106407766114 -100.20043567327957 0 0 0 0 199.20789820101345 -3.5213104521681089 0 -3.5213104521681089 -137.65977523950278 0 0 0 0 -6.3584406841955392 47.22745115137684 0 47.22745115137684 -64.2579089836115 0 0 0 0 125.35366328581586 87.378667750985187 0 87.378667750985187 -103.84270162602843 0 0 0 0 152.6511560418694 60.589653643790825 0 60.589653643790825 -78.019259407978097 0 0 0 0 112.32859813855612 77.839702193283301 0 77.839702193283301 -45.862515069376968 0 0 0 0 112.6595281759619 80.051860162449884 0 80.051860162449884 -62.650550659607688 0 0 0 0 36.782031814786023 140.987685104089 0 140.987685104089 -77.696167376110679 0 0 0 0 58.663128207123549 86.122738446457333 0 86.122738446457333 -61.590277026041207 0 0 0 0 107.38569912227103 60.527974775101029 0 60.527974775101029 -89.572819394743419 0 0 0 0 45.111387549579376 134.48801575917969 0 134.48801575917969 -72.797712251482153 0 0 0 0 43.885040783399745 194.1631753007922 0 194.1631753007922 -170.54833635770774 0 0 0 0 -28.601082269480685 289.5053331664385 0 289.5053331664385 -112.25531323937503 0 0 0 0 43.251950608711923 236.54999993310048 0 236.54999993310048 -98.932176027979949 0 0 0 0 36.013975103280245 266.78463255473616 0 266.78463255473616 -222.82955585062155 0 0 0 0 72.480754444157355 194.70619620912476 0 194.70619620912476 -186.07183525204164 0 0 0 0 -188.56185973704487 487.91313282474584 0 487.91313282474584 -14.689632195324521 0 0 0 0 -169.73404917804328 399.36675488627952 0 399.36675488627952 41.241089677379932 0 0 0 0 -11.999657402819139 347.10694005501409 0 347.10694005501409 -171.57246980587661 0 0 0 0 -44.017000999156153 253.09212761799245 0 253.09212761799245 2.0244630798406433 0 0 0 0 -97.118864076255704 154.78490923961363 0 154.78490923961363 -57.815589356583587 0 0 0 0 -365.63317755016033 264.64768436058148 0 264.64768436058148 6.8035093883199806 0 0 0 0 -115.17323166773713 26.837125178200949 0 26.837125178200949 40.084910408062569 0 0 0 0 -24.224305686278967 134.84589540478555 0 134.84589540478555 -26.723478762882223 0 0 0 0 139.96797415927722 52.779645882313162 0 52.779645882313162 -201.59002678225806 0 0 0 0 1.2164908812889053 29.486835742688214 0 29.486835742688214 -15.628865262122076 0 0 0 0 -16.774548067420255 113.27956830717267 0 113.27956830717267 -42.703399142868875 0 0 0 0 60.18385546306024 89.095326029375556 0 89.095326029375556 -54.768657312163157 0 0 0 0 122.76025964379369 78.948012429997107 0 78.948012429997107 -48.32053409789296 0 0 0 0 -13.469191935834285 58.350756581669714 0 58.350756581669714 -37.495140091722064 0 0 0 0 153.52242380009557 81.194747010213177 0 81.194747010213177 -78.143492545968911 0 0 0 0 -0.070351370733988006 90.397465873089828 0 90.397465873089828 -50.342412669113521 0 0 0 0 54.513560454943217 70.061077636437403 0 70.061077636437403 -58.312521750389351 0 0 0 0 10.915765094740628 54.170441231901194 0 54.170441231901194 -64.501674828396474 0 0 0 0 391.08388782570637 206.41146066125634 0 206.41146066125634 -56.889366093603712 0 0 0 0 87.440446420358882 46.837806422582361 0 46.837806422582361 -62.439794930781375 0 0 0 0 136.62855034967652 47.6438506741124 0 47.6438506741124 -138.4096667781123 0 0 0 0 -46.6303340121178 16.123263215921583 0 16.123263215921583 -5.4302509705413193 0 0 0 0 651.22933540142913 33.547823117694634 0 33.547823117694634 -271.16537400089328 0 0 0 0 3.3032938828630876 123.01105714024382 0 123.01105714024382 -78.056153205634757 0 0 0 0 155.87898089298142 228.06502007369932 0 228.06502007369932 -208.94700678949448 0 0 0 0 -43.856773918458202 218.60241345370241 0 218.60241345370241 -73.691196889551065 0 0 0 0 294.94541952812142 -221.4866767112976 0 -221.4866767112976 -95.517379569429977 0 0 0 0 -59.451769883366069 149.07431657326015 0 149.07431657326015 -2.0226400264077711 0 0 0 0 5.8122636581538245 303.94896033519399 0 303.94896033519399 -28.069598160587702 0 0 0 0 -288.37466985863284 542.31691135991605 0 542.31691135991605 86.656240971775333 0 0 0 0 8.13847595286461 313.9148600766473 0 313.9148600766473 -206.85873212679144 0 0 0 0 106.87618493894115 109.10045652756526 0 109.10045652756526 -89.853570302133448 0 0 0 0 111.16056751146971 118.13700698400862 0 118.13700698400862 -151.9766063686402 0 0 0 0 44.402254762258963 -101.16751795395703 0 -101.16751795395703 -851.41992601110542 0 0 0 0 -752.90335821232293 -11.945667148451321 0 -11.945667148451321 108.37199807782235 0 0 0 0 -17.520088048977357 2.2065870081692083 0 2.2065870081692083 4.7278054875729083 0 0 0 0 134.99267670413246 599.52286490592815 0 599.52286490592815 -626.40066151983956 0 0 0 0 -259.35544423927786 -360.08487423211045 0 -360.08487423211045 921.97493699614643 0 0 0 0 -1219.4681174659054 349.57716770527804 0 349.57716770527804 563.15044056063925 0 0 0 0 357.66112144253566 -229.499610282719 0 -229.499610282719 -311.30470185042941 0 0 0 0 -129.1548881456838 639.97083327961445 0 639.97083327961445 -424.9180648506408 0 0 0 0 -791.77006159194571 545.79128078808753 0 545.79128078808753 7.1632211835749331 0 0 0 0 57.141655914776493 317.46772801269844 0 317.46772801269844 14.046282073083148 0 0 0 0 274.72146715097915 583.75560151783145 0 583.75560151783145 -65.066947636986697 0 0 0 0 -335.38065417578764 270.73882851239409 0 270.73882851239409 111.32790779297056 0 0 0 0 -69.530780326265585 384.23112509113031 0 384.23112509113031 122.38317988718677 0 0 0 0 -57.292692298162819 252.87710344795082 0 252.87710344795082 -8.8765200025682134 0 0 0 0 305.07065004947071 443.20478702198568 0 443.20478702198568 20.302461328067579 0 0 0 0 394.35378213430522 363.14857928978972 0 363.14857928978972 79.607975219674472 0 0 0 0 43.104174182006318 79.8708960894744 0 79.8708960894744 -26.440997545840219 0 0 0 0 -4.8302117792604804 45.38339548157812 0 45.38339548157812 -57.924955277177567 0 0 0 0 395.73872709944408 374.24980689529184 0 374.24980689529184 43.22230618023741 0 0 0 0 460.78453511197586 272.06486475340262 0 272.06486475340262 -27.542488408649433 0 0 0 0 630.34772842550592 286.33800692553859 0 286.33800692553859 -122.31654346054802 0 0 0 0 343.86712878644903 478.58638125722723 0 478.58638125722723 -2.584629688020641 0 0 0 0 557.66122501497011 466.77309449792983 0 466.77309449792983 -287.96952830186819 0 0 0 0 424.70410191465635 916.36266125290717 0 916.36266125290717 -406.04077056264032 0 0 0 0 949.64595720569196 422.74077649254377 0 422.74077649254377 -283.02884744754783 0 0 0 0 730.75856048121932 137.46654591736751 0 137.46654591736751 -172.97249622722347 0 0 0 0 511.99996643143822 189.34351479726911 0 189.34351479726911 -184.41907781293139 0 0 0 0 711.39589397385134 197.85853269180006 0 197.85853269180006 -318.66342301574514 0 0 0 0 1748.348311400121 -254.75481655158819 0 -254.75481655158819 -256.05672873505864 0 0 0 0 841.2885638121079 51.092986784791719 0 51.092986784791719 -276.81895622731463 0 0 0 0 843.14598327748945 119.00481262913119 0 119.00481262913119 -372.64227465110707 0 0 0 0 1664.6450663146097 794.7285649338055 0 794.7285649338055 -488.69285436398104 0 0 0 0 -1096.7781546169426 296.35013858819093 0 296.35013858819093 13.621608402655966 0 0 0 0 -53.144696275958268 565.9605818360892 0 565.9605818360892 15.834224252568674 0 0 0 0 -28.254248776658642 547.47771426445615 0 547.47771426445615 -61.38572110287987 0 0 0 0 -370.57608682533009 205.56495289043824 0 205.56495289043824 46.501884402786345 0 0 0 0 -344.25785881279444 486.2645277951251 0 486.2645277951251 80.609787535624491 0 0 0 0 -783.6659352943243 580.10952835082389 0 580.10952835082389 176.43575700167912 0 0 0 0 -517.22776251536197 283.68111152972824 0 283.68111152972824 -263.03181864598992 0 0 0 0 -466.78836151754876 144.9530516244605 0 144.9530516244605 -320.27183502182743 0 0 0 0 -575.44787994354556 8.023701805460405 0 8.023701805460405 -121.39100114825851 0 0 0 0 -692.49515911989147 183.10403442161669 0 183.10403442161669 28.498823413453124 0 0 0 0 -323.29229405791557 116.37599300382499 0 116.37599300382499 -114.72134213656045 0 0 0 0 -320.64661036044708 46.566774104614979 0 46.566774104614979 -98.341561544413707 0 0 0 0 -424.78453583142982 33.783631370595231 0 33.783631370595231 -181.55855546388011 0 0 0 0 -432.17947950548023 125.13864594929902 0 125.13864594929902 -38.798280383640304 0 0 0 0 -444.4536714729611 76.297652327567732 0 76.297652327567732 -7.6565258516438917 0 0 0 0 -340.0098322135018 111.16263755204636 0 111.16263755204636 0.077770675886313256 0 0 0 0 -438.11170282923558 248.6823181100649 0 248.6823181100649 37.320089269480548 0 0 0 0 -498.42377542897157 108.97214877845659 0 108.97214877845659 44.977312526988953 0 0 0 0 -381.42814565417939 148.64272912124193 0 148.64272912124193 48.540048845079582 0 0 0 0 -412.98779786344676 157.70612207718568 0 157.70612207718568 67.144679006166143 0 0 0 0 -417.29917087446665 147.99185904288595 0 147.99185904288595 49.235455290604932 0 0 0 0 -341.25726366735762 102.6856995866051 0 102.6856995866051 4.6816953374200239 0 0 0 0 -426.98538945202745 169.00517183430929 0 169.00517183430929 53.81459522093769 0 0 0 0 11.212912740391388 17.754935296069405 0 17.754935296069405 19.968570793960279 0 0 0 0 1180.1364818923248 1560.7973791332406 0 1560.7973791332406 562.42287831570138 0 0 0 0 -296.8009014790623 236.59188025980734 0 236.59188025980734 -98.571833453613181 0 0 0 0 -455.75993281380215 301.75428372272194 0 301.75428372272194 -92.170271456156655 0 0 0 0 -523.41792557232111 151.7496769757729 0 151.7496769757729 -32.827638145862977 0 0 0 0 -156.79986012514564 365.01397429939868 0 365.01397429939868 36.195394563492151 0 0 0 0 -243.89110755512957 142.09208854155054 0 142.09208854155054 6.9381747689386088 0 0 0 0 -374.56274033316004 218.53135164184403 0 218.53135164184403 90.952752952678111 0 0 0 0 -389.11215944477226 175.01013713899266 0 175.01013713899266 -32.31673688639728 0 0 0 0 -218.38658144481087 -443.54967801268776 0 -443.54967801268776 -681.94866915806233 0 0 0 0 13.485873096028335 15.483835643280472 0 15.483835643280472 13.245093656882403 0 0 0 0 -173.7056280304887 -278.48022873093942 0 -278.48022873093942 -366.60915740109886 0 0 0 0 -794.75830971234973 -821.42315382396555 0 -821.42315382396555 58.539276604435031 0 0 0 0 -1249.7693305438588 -11.850848926658728 0 -11.850848926658728 1502.1724583071407 0 0 0 0 -103.12876556690026 127.2767168516616 0 127.2767168516616 -61.772630470657077 0 0 0 0 -321.51120998019178 131.23971971671915 0 131.23971971671915 -11.561494777814914 0 0 0 0 -218.5004198901006 108.74473451308222 0 108.74473451308222 -15.896917394768025 0 0 0 0 13.416037442918707 15.838265982835537 0 15.838265982835537 16.781501236185321 0 0 0 0 -124.33103994424437 10.465479925142006 0 10.465479925142006 6.8589652287223544 0 0 0 0 -181.57156869543542 -179.94141397148087 0 -179.94141397148087 -494.740928217896 0 0 0 0 -137.66131720154954 90.133056390996899 0 90.133056390996899 22.023493747574094 0 0 0 0 -10.866192880221206 144.12789078647711 0 144.12789078647711 107.7816908606037 0 0 0 0 -5.878370752405317 114.64943148736256 0 114.64943148736256 -45.690973789312011 0 0 0 0 34.048168727638767 60.755678680032361 0 60.755678680032361 -101.974371710583 0 0 0 0 -107.36738664544464 75.368656231966497 0 75.368656231966497 -55.815450060030344 0 0 0 0 -109.23447296940503 68.295253326214606 0 68.295253326214606 -81.177077113970881 0 0 0 0 -6.8822966623556567 39.489898759409243 0 39.489898759409243 -97.686763858320774 0 0 0 0 -338.1947589579795 92.358746353134848 0 92.358746353134848 -10.141829159327244 0 0 0 0 -233.39006473984045 65.739877670149781 0 65.739877670149781 -52.029295764106791 0 0 0 0 -223.75594232072763 83.827884832498967 0 83.827884832498967 -18.294353488827824 0 0 0 0 -177.33794490261062 47.319735248045617 0 47.319735248045617 -23.739348192737452 0 0 0 0 -207.19443450046674 35.064904172446404 0 35.064904172446404 -89.286036694388713 0 0 0 0 -278.11836210005276 92.837653258961836 0 92.837653258961836 -51.307835541117356 0 0 0 0 -218.18197499442613 21.502276972725667 0 21.502276972725667 -172.54105027976948 0 0 0 0 -103.3801461428011 78.162593531541006 0 78.162593531541006 -74.930403203962214 0 0 0 0 -100.24521263207498 96.489776195418017 0 96.489776195418017 -134.49874448351056 0 0 0 0 -27.60855240735691 62.684604917241359 0 62.684604917241359 -149.03726372673555 0 0 0 0 -34.154786037586746 94.429039916433794 0 94.429039916433794 -50.568579599739451 0 0 0 0 2.9873728499231973 2.9248075044851802 0 2.9248075044851802 3.3442964223258755 0 0 0 0 -18.547715311655338 68.036067939608074 0 68.036067939608074 -84.437985900748572 0 0 0 0 198.74114138189907 172.88505024410006 0 172.88505024410006 -365.59422019666999 0 0 0 0 253.34229938943463 -245.22728850152089 0 -245.22728850152089 -333.44781820800199 0 0 0 0 -307.93883603244467 112.27911197471894 0 112.27911197471894 233.7247740169488 0 0 0 0 66.4128126729629 122.94695403324113 0 122.94695403324113 102.44432121165119 0 0 0 0 -5.1001605690662473 -16.63700039819787 0 -16.63700039819787 -18.910971677182715 0 0 0 0 5.3764376209182814 10.424337496668976 0 10.424337496668976 12.461401311977585 0 0 0 0 12.695961937737202 9.3460353652988033 0 9.3460353652988033 1.7634650662507028 0 0 0 0 25.93623935469077 271.57393632242565 0 271.57393632242565 -159.95860243533065 0 0 0 0 53.558569808163156 25.679767353655734 0 25.679767353655734 77.069192669685435 0 0 0 0 26.67491728666937 80.554251474808552 0 80.554251474808552 10.484312426348879 0 0 0 0 -21.770014901478135 80.573810301787489 0 80.573810301787489 109.31180335270619 0 0 0 0 -90.573240697718575 102.16000068810354 0 102.16000068810354 16.076074313762547 0 0 0 0 -13.620380561022102 88.747587972801284 0 88.747587972801284 -97.245835573739896 0 0 0 0 -94.508133712453855 -228.30370334267718 0 -228.30370334267718 208.22095614714709 0 0 0 0 34.484766576126276 15.110147844447056 0 15.110147844447056 -35.751295065327213 0 0 0 0 41.653929258161952 34.350670903775608 0 34.350670903775608 -5.892590076677152 0 0 0 0 6.7566720691650346 6.4450665561915486 0 6.4450665561915486 5.1200259442647393 0 0 0 0 0.99821181937659276 -7.3036705312952108 0 -7.3036705312952108 -48.549072717776653 0 0 0 0 -158.73278208371266 116.24291931048356 0 116.24291931048356 -341.90885430666822 0 0 0 0 -367.08495432471682 196.79513432049498 0 196.79513432049498 -321.48864087290622 0 0 0 0 -184.32327070533938 36.67284792335704 0 36.67284792335704 -19.96663216584875 0 0 0 0 -277.03355203898536 186.32418617244821 0 186.32418617244821 -131.14154326109929 0 0 0 0 -85.9188965891517 161.0208766189171 0 161.0208766189171 -235.63501028322025 0 0 0 0 -102.96143168280832 216.11145698706423 0 216.11145698706423 -154.19726197193086 0 0 0 0 -158.47745425181711 280.13067425186455 0 280.13067425186455 -340.25323845103776 0 0 0 0 -160.9725821789616 160.18095823764997 0 160.18095823764997 -476.50319825913357 0 0 0 0 -123.03376928712532 223.12444142676213 0 223.12444142676213 -438.83108897228522 0 0 0 0 -207.93863931762462 270.01909183928001 0 270.01909183928001 -567.66189311950802 0 0 0 0 -204.61858764784847 212.79807202187021 0 212.79807202187021 -381.10391547868858 0 0 0 0 -44.05492470410536 181.0602664388291 0 181.0602664388291 -387.79691184507101 0 0 0 0 -63.913375279589673 303.80107458375096 0 303.80107458375096 -562.70621032956842 0 0 0 0 -51.873507812713797 297.11762028486919 0 297.11762028486919 -287.85438306175274 0 0 0 0 123.20992592598486 -80.894405524359172 0 -80.894405524359172 -1335.084719413986 0 0 0 0 -88.893756691708404 133.24299542426525 0 133.24299542426525 -621.45446120563747 0 0 0 0 -93.467134204591275 266.7925412359109 0 266.7925412359109 -825.8612838017616 0 0 0 0 -86.242945664991566 49.265951634803059 0 49.265951634803059 -1090.1897580024452 0 0 0 0 -202.46234778007783 165.88076318972162 0 165.88076318972162 -806.37585009319173 0 0 0 0 -64.187506524136552 165.16757454252729 0 165.16757454252729 -992.12633441149956 0 0 0 0 -190.67411033573444 80.042798720749488 0 80.042798720749488 -887.86766417979197 0 0 0 0 -4.5382208131365118 11.092876228838996 0 11.092876228838996 13.14828817189893 0 0 0 0 9.2524434240986011 394.38844676793178 0 394.38844676793178 -1562.383969531038 0 0 0 0 8.8308795343218662 128.11244203252909 0 128.11244203252909 -1591.5420451172085 0 0 0 0 -6.6358756945195694 8.1817163589585675 0 8.1817163589585675 17.532905557183014 0 0 0 0 -217.61766122848348 384.89450912393022 0 384.89450912393022 -964.11453345292466 0 0 0 0 -507.71398187701561 623.18345267966015 0 623.18345267966015 -871.24638807243173 0 0 0 0 -150.60610199640359 3.1458663098692341 0 3.1458663098692341 142.01570467848501 0 0 0 0 -410.05192934526349 227.95448192472759 0 227.95448192472759 71.686788927330781 0 0 0 0 -33.104748598124715 13.69603579047461 0 13.69603579047461 80.819102143250774 0 0 0 0 8.5734399833545467 3.0698660013540575 0 3.0698660013540575 -77.678769641210238 0 0 0 0 -105.70951767311635 384.08091299362695 0 384.08091299362695 -379.55919531761174 0 0 0 0 -28.033110188145656 124.36767015686928 0 124.36767015686928 -94.807707931331606 0 0 0 0 -532.27859023914937 -12.42901650239429 0 -12.42901650239429 -343.21440747177257 0 0 0 0 -0.67703734984024777 42.954739114283257 0 42.954739114283257 -776.6875732830631 0 0 0 0 -227.04341732617104 566.97771874278442 0 566.97771874278442 -540.1826717721151 0 0 0 0 -61.199378351851919 301.82801445573205 0 301.82801445573205 -128.69242592183582 0 0 0 0 -97.510194907848927 552.68587794231826 0 552.68587794231826 -348.31769987672305 0 0 0 0 -22.444098467175536 437.51436610237033 0 437.51436610237033 -346.09741297768778 0 0 0 0 -60.729437183443224 207.74232889456471 0 207.74232889456471 236.02194818585849 0 0 0 0 105.49317347129545 134.65967211993757 0 134.65967211993757 -138.78325348709768 0 0 0 0 -23.028149898847914 327.92339376738892 0 327.92339376738892 275.32938339369957 0 0 0 0 -42.197816173327737 222.06665088806767 0 222.06665088806767 -110.94990861742463 0 0 0 0 -202.70234199562037 251.62747951981964 0 251.62747951981964 222.004948803351 0 0 0 0 -59.5823286148634 175.51715902336241 0 175.51715902336241 243.49743141289946 0 0 0 0 -27.39876376625034 118.10689793982965 0 118.10689793982965 362.68848719296602 0 0 0 0 -125.21538337296442 209.70596723642666 0 209.70596723642666 331.29093918082071 0 0 0 0 -0.10423929773298113 0.22693744993215859 0 0.22693744993215859 6.5121391799669937 0 0 0 0 55.035438788141619 146.40538147884763 0 146.40538147884763 123.67070230423633 0 0 0 0 338.98689166786789 287.00313565926626 0 287.00313565926626 161.51436230571016 0 0 0 0 27.429154940775334 290.00726357800499 0 290.00726357800499 34.176042214268818 0 0 0 0 87.747130092007865 82.149606499704532 0 82.149606499704532 -131.85697308482395 0 0 0 0 53.116766223152808 111.84410771751391 0 111.84410771751391 199.31997582648728 0 0 0 0 -77.043361630310756 159.02473721665319 0 159.02473721665319 153.99684099941442 0 0 0 0 44.401835875803954 293.52698111084828 0 293.52698111084828 196.90557864005859 0 0 0 0 -85.569578470338456 115.6205780164164 0 115.6205780164164 28.31510684511295 0 0 0 0 -82.363518445396039 116.88210524223041 0 116.88210524223041 406.40561196794806 0 0 0 0 101.13808571539266 -157.97578973790223 0 -157.97578973790223 557.26984098934554 0 0 0 0 -49.730739091573923 186.98673514045731 0 186.98673514045731 474.74474631747216 0 0 0 0 -44.137287997131352 -219.25090233220544 0 -219.25090233220544 1168.5508525063883 0 0 0 0 -59.503244222942158 256.69336819387536 0 256.69336819387536 1264.1173082499781 0 0 0 0 29.026050308981212 -3.8130932407202636 0 -3.8130932407202636 756.03266803010774 0 0 0 0 235.68246410650318 446.23828719485391 0 446.23828719485391 396.22739129523325 0 0 0 0 23.165921629726654 54.068354581075255 0 54.068354581075255 -59.236955784552265 0 0 0 0 19.057410021780498 6.0321668452258201 0 6.0321668452258201 -1.183872551076476 0 0 0 0 86.977794666796399 12.704580933936086 0 12.704580933936086 -207.13353752638113 0 0 0 0 -0.60322777429671248 0.12418388406665315 0 0.12418388406665315 0.21434833898060646 0 0 0 0 69.784912578419608 160.03862911459873 0 160.03862911459873 -325.78111171897399 0 0 0 0 -62.667328176760748 101.617242904254 0 101.617242904254 -121.43343998752971 0 0 0 0 -23.155066274022829 43.436366341669782 0 43.436366341669782 251.3546896986154 0 0 0 0 29.793740416957981 4.5573282537183246 0 4.5573282537183246 -4.5858135699548797 0 0 0 0 -4.3489884641312528 55.735097148033674 0 55.735097148033674 -179.24350155827415 0 0 0 0 17.942654560137044 15.262829245567971 0 15.262829245567971 10.77964140744583 0 0 0 0 9.0036912295981892 55.326130504636239 0 55.326130504636239 244.69057775356396 0 0 0 0 -39.910447776345904 200.83822305677859 0 200.83822305677859 -207.46002290908291 0 0 0 0 37.691215239404187 149.50026590605239 0 149.50026590605239 -209.12674639472971 0 0 0 0 34.177353693536134 115.65394288451353 0 115.65394288451353 -24.380147036086896 0 0 0 0 20.714814793088863 56.591292782475648 0 56.591292782475648 -144.03486581650213 0 0 0 0 0.97681997466706871 8.8748341992837751 0 8.8748341992837751 20.268719686199134 0 0 0 0 4.6648350067916908 -3.4870640973385889 0 -3.4870640973385889 114.32067435831436 0 0 0 0 -67.92208693115208 89.945017461839598 0 89.945017461839598 -83.609500692870824 0 0 0 0 -22.864478703470013 166.47604278553263 0 166.47604278553263 -137.76430048827115 0 0 0 0 -8.9485123820423951 112.66901085061863 0 112.66901085061863 -75.394280095253634 0 0 0 0 20.537261874388903 17.864992228180274 0 17.864992228180274 10.959872040500791 0 0 0 0 -3.2866358250466874 89.571780415310059 0 89.571780415310059 -90.43440515887778 0 0 0 0 35.723231804888201 49.180137424980785 0 49.180137424980785 40.482202727524054 0 0 0 0 42.639415583791255 27.520340848540201 0 27.520340848540201 -7.4097481843984312 0 0 0 0 46.909949950224714 77.378157226425117 0 77.378157226425117 -63.754960479271602 0 0 0 0 -161.37060378796014 131.50413866518284 0 131.50413866518284 21.399553170707804 0 0 0 0 -87.972871758560359 176.77457407333895 0 176.77457407333895 16.119130145689269 0 0 0 0 -350.45237019568231 -1.9350081461798254 0 -1.9350081461798254 60.980447670011927 0 0 0 0 -127.43651293608775 76.747449368170123 0 76.747449368170123 79.352681912849221 0 0 0 0 -554.1042485973594 405.16615949401967 0 405.16615949401967 204.76274546928653 0 0 0 0 -313.41960927959735 187.90684049025367 0 187.90684049025367 141.51278711807026 0 0 0 0 -430.61101192730712 209.61008274590131 0 209.61008274590131 221.5408369442448 0 0 0 0 26.656480899539019 620.03970329091771 0 620.03970329091771 281.20605166744281 0 0 0 0 -46.1480338081019 425.33830273882631 0 425.33830273882631 233.2435859405839 0 0 0 0 -162.1654188946722 264.52034581071871 0 264.52034581071871 53.433717479383631 0 0 0 0 32.762648280737267 306.67006707466317 0 306.67006707466317 41.048522114531806 0 0 0 0 0.87758791831220151 132.16094956317011 0 132.16094956317011 -153.84412933084968 0 0 0 0 103.69641210232658 122.2251879660671 0 122.2251879660671 -412.43818845760416 0 0 0 0 422.48661604803056 141.72315344948765 0 141.72315344948765 -187.44165499440714 0 0 0 0 -529.53705018685287 -607.65259798984698 0 -607.65259798984698 727.16450336189882 0 0 0 0 717.22126573395508 239.35007997184584 0 239.35007997184584 -173.0614893068614 0 0 0 0 -47.97148702614686 380.25521093765934 0 380.25521093765934 116.06165361268359 0 0 0 0 1955.6150593181228 -262.51021010505428 0 -262.51021010505428 -146.51766171201598 0 0 0 0 27.792282022896075 66.475989703535333 0 66.475989703535333 52.761663408990685 0 0 0 0 -554.37132199438565 17.521096972217492 0 17.521096972217492 213.34764787826134 0 0 0 0 -165.45340319416664 468.5000430159991 0 468.5000430159991 -162.64721276682303 0 0 0 0 -154.45167560760456 378.02832931702778 0 378.02832931702778 -117.85383046602055 0 0 0 0 86.198586045953562 297.9070481140825 0 297.9070481140825 -131.05430140344697 0 0 0 0 268.63820076889897 308.91838646439811 0 308.91838646439811 -320.97128963218893 0 0 0 0 402.17757689634163 437.8716506878983 0 437.8716506878983 -348.4819788759105 0 0 0 0 243.87373625081091 358.46147973689403 0 358.46147973689403 -338.56960272394144 0 0 0 0 137.64605039948947 561.53438804158372 0 561.53438804158372 -94.271703393848838 0 0 0 0 -117.16599451455841 409.00238200359422 0 409.00238200359422 -341.94728185256281 0 0 0 0 -171.11525114513643 336.24300967029285 0 336.24300967029285 -234.93279582443563 0 0 0 0 -77.66420146193559 497.63685664162085 0 497.63685664162085 -224.35423283139426 0 0 0 0 -170.72922018631337 258.45843776534821 0 258.45843776534821 -416.0143326255602 0 0 0 0 -391.9672446113982 464.88469374974301 0 464.88469374974301 342.37814548913889 0 0 0 0 -360.08811073907418 351.90658744661152 0 351.90658744661152 14.989237828394408 0 0 0 0 -841.64100021864579 54.860853187682551 0 54.860853187682551 -19.012987948592126 0 0 0 0 25.681131583420211 757.27945547046261 0 757.27945547046261 428.73989892277825 0 0 0 0 577.19761387037579 561.84424001282309 0 561.84424001282309 -373.73848245445328 0 0 0 0 1430.6300581268551 617.86986711744203 0 617.86986711744203 -173.57880420769834 0 0 0 0 9.1948283836502753 20.540534169145566 0 20.540534169145566 51.408698348787979 0 0 0 0 -968.45336103193404 412.78031289435614 0 412.78031289435614 454.46710544724965 0 0 0 0 8.8554629997437644 9.9121409699198679 0 9.9121409699198679 8.7648119528467845 0 0 0 0 1061.2173269436244 753.54863450025732 0 753.54863450025732 176.69122629407866 0 0 0 0 500.89943035295073 -1387.5944763003099 0 -1387.5944763003099 786.16976113913552 0 0 0 0 1370.7184138220437 282.53449371545173 0 282.53449371545173 -200.82741468374661 0 0 0 0 -834.43983527759201 482.26794357211617 0 482.26794357211617 397.76861618454495 0 0 0 0 -733.51522519171704 429.60240871592259 0 429.60240871592259 288.81844551592258 0 0 0 0 -593.70901314425282 -130.38882677681568 0 -130.38882677681568 146.66287163619086 0 0 0 0 -598.49973270746705 -31.390297223270409 0 -31.390297223270409 840.84971327171797 0 0 0 0 2.3985818846780091 8.0527818097167483 0 8.0527818097167483 10.532762894605597 0 0 0 0 -508.6643025738158 546.55473201494146 0 546.55473201494146 1087.0612275231206 0 0 0 0 -224.63280588305679 1032.01097716301 0 1032.01097716301 -113.09624434705603 0 0 0 0 397.10814215500432 1184.5642273404087 0 1184.5642273404087 592.24135308901373 0 0 0 0 -605.82225302813458 288.74691093557612 0 288.74691093557612 416.02553936136383 0 0 0 0 -838.40394959981518 348.40308187812496 0 348.40308187812496 561.94863785887344 0 0 0 0 -281.6331741161448 128.59730179336441 0 128.59730179336441 -401.31185325524734 0 0 0 0 -84.869996548255585 557.30324973682605 0 557.30324973682605 -539.76233183536488 0 0 0 0 5.7956945410487819 8.5703688832590288 0 8.5703688832590288 13.267906981216822 0 0 0 0 -441.18010155900993 -17.664018068138375 0 -17.664018068138375 -696.12572987735439 0 0 0 0 42.154873148305342 1126.1786792590192 0 1126.1786792590192 989.33099806764039 0 0 0 0 510.95951822133065 1642.9202406593486 0 1642.9202406593486 1554.3918861560828 0 0 0 0 2887.9491676655562 85.702729046894092 0 85.702729046894092 47.537872681223234 0 0 0 0 14.258292453771041 19.114457996719757 0 19.114457996719757 20.036982571416722 0 0 0 0 -249.86711351252598 400.61226676725346 0 400.61226676725346 190.447918663564 0 0 0 0 -700.4038468113722 349.84746894139062 0 349.84746894139062 612.19239765908424 0 0 0 0 -714.16215843361033 626.28066581255734 0 626.28066581255734 -140.14802329740996 0 0 0 0 184.581704266413 316.49458851653981 0 316.49458851653981 -614.0984792348836 0 0 0 0 -349.251168133178 95.991523397270612 0 95.991523397270612 14.759928910618328 0 0 0 0 -205.87740374152645 44.234915726416602 0 44.234915726416602 -115.23718366643516 0 0 0 0 -551.11270189973948 4.662618297697918 0 4.662618297697918 4.4416399759174965 0 0 0 0 -346.0934099687729 28.18082971140484 0 28.18082971140484 -268.00774299764817 0 0 0 0 -5.9558789435468498 -1465.7608504902728 0 -1465.7608504902728 -123.06310335517446 0 0 0 0 201.89314374922105 792.85239102254491 0 792.85239102254491 448.76172424478864 0 0 0 0 2.0297950834828953 413.03508809419418 0 413.03508809419418 447.43961986275099 0 0 0 0 441.55951121977341 342.46652081446882 0 342.46652081446882 158.93485360526392 0 0 0 0 -4.9858264556025347 9.0664790891896416 0 9.0664790891896416 -12.858554873847908 0 0 0 0 176.76351010773215 38.36640562069806 0 38.36640562069806 -34.912167737827986 0 0 0 0 18.321740464045433 -16.38605875669964 0 -16.38605875669964 -1.4939455491767148 0 0 0 0 101.2725843082444 24.991295851501491 0 24.991295851501491 -32.675576492765686 0 0 0 0 354.59151569082314 165.06707437751174 0 165.06707437751174 72.009728025950608 0 0 0 0 -11.232709404358872 16.44656212605139 0 16.44656212605139 -22.694185145750907 0 0 0 0 1084.8957536246162 417.60003547813176 0 417.60003547813176 -17.308372209612571 0 0 0 0 152.77332403765467 357.70209818287458 0 357.70209818287458 184.24331090309715 0 0 0 0 -15.046841214079109 27.854024374551841 0 27.854024374551841 -33.372342508665099 0 0 0 0 -5.6644892144831829 109.74567813381145 0 109.74567813381145 -74.451689980080118 0 0 0 0 297.130035271206 -185.37591783356129 0 -185.37591783356129 -59.055779363494366 0 0 0 0 264.97870941747533 152.0342041076874 0 152.0342041076874 65.291560536265024 0 0 0 0 1469.9361954178603 148.97394555214851 0 148.97394555214851 -74.849591068152222 0 0 0 0 286.97019837446715 124.57513242274945 0 124.57513242274945 -146.95490597469325 0 0 0 0 1010.5696399950539 446.68804312382417 0 446.68804312382417 65.518038327791146 0 0 0 0 1194.7855939989677 1691.8651844318374 0 1691.8651844318374 1248.1674408500767 0 0 0 0 1309.2619727610727 1479.1463139823063 0 1479.1463139823063 1380.0700763158784 0 0 0 0 -0.95233992380235577 2172.384047766971 0 2172.384047766971 2368.8684093607299 0 0 0 0 1311.8727985039041 1998.0323998136528 0 1998.0323998136528 4296.8233104836836 0 0 0 0 2324.2051426829094 2455.0602880900551 0 2455.0602880900551 -1.3412507005559746 0 0 0 0 2157.6556170989679 2045.2107584161049 0 2045.2107584161049 677.42910019037663 0 0 0 0 2182.6931545610423 1926.9189634097784 0 1926.9189634097784 1144.2340675941377 0 0 0 0 30.185547590501699 4.8780745769832663 0 4.8780745769832663 3.0227440339199241 0 0 0 0 393.61245535916169 853.08401310809859 0 853.08401310809859 1176.5577887548279 0 0 0 0 1131.101277867554 2566.5989332353947 0 2566.5989332353947 4551.6288732087414 0 0 0 0 4059.1604200438305 2423.8095523090815 0 2423.8095523090815 946.39210130318679 0 0 0 0 3822.9785556532879 1475.9474323834111 0 1475.9474323834111 -83.579869954191963 0 0 0 0 1589.757666170306 -317.85131509409985 0 -317.85131509409985 -552.54750206392509 0 0 0 0 1143.4627282710426 717.65157660359546 0 717.65157660359546 367.33503290643421 0 0 0 0 -41.888718712211812 -131.02810292858567 0 -131.02810292858567 381.21714561783301 0 0 0 0 3.69654156223001 44.202093488253865 0 44.202093488253865 -17.773043798890797 0 0 0 0 -75.195383707371548 276.12118279832453 0 276.12118279832453 73.432375545700779 0 0 0 0 0.67033487968728878 202.53285587399296 0 202.53285587399296 -172.36251858585456 0 0 0 0 62.649218094782555 66.410581641173849 0 66.410581641173849 -16.586334395688027 0 0 0 0 48.685532286515809 38.742200463530025 0 38.742200463530025 10.191994520685512 0 0 0 0 16.249761144606737 26.566574970220387 0 26.566574970220387 -28.931761625781405 0 0 0 0 14.952158127598636 9.8775099452680308 0 9.8775099452680308 15.097626636878601 0 0 0 0 95.837903532301425 73.620638459731708 0 73.620638459731708 29.707477029354777 0 0 0 0 55.232365098555363 43.603917741549026 0 43.603917741549026 -16.327429238104514 0 0 0 0 19.375086961379566 92.684947265490337 0 92.684947265490337 39.883890200319001 0 0 0 0 753.86981309023395 783.59278872412688 0 783.59278872412688 880.72407477796787 0 0 0 0 350.75203959181817 499.83623965224615 0 499.83623965224615 894.15056189897587 0 0 0 0 78.192291658643626 21.398005921964284 0 21.398005921964284 -0.17705695305282632 0 0 0 0 1000.9422859086626 1677.3241401015621 0 1677.3241401015621 1693.7655006718451 0 0 0 0 1183.7860840240173 1012.1683860885751 0 1012.1683860885751 448.521020091026 0 0 0 0 1746.4628649894876 1425.7438917191284 0 1425.7438917191284 2.6338236083538504 0 0 0 0 1.0483156943768961 -1.7217514470514175 0 -1.7217514470514175 2.8438691645524727 0 0 0 0 -265.69230744711967 47.453616705832246 0 47.453616705832246 132.63594675916829 0 0 0 0 1718.0864244656841 1303.0891091727353 0 1303.0891091727353 489.85948525248386 0 0 0 0 1091.4250048915856 527.24510807250044 0 527.24510807250044 965.87510671505879 0 0 0 0 227.2745628322009 175.17642862840148 0 175.17642862840148 0.24696655134175671 0 0 0 0 282.76461096938874 126.60154986586713 0 126.60154986586713 42.76456410632818 0 0 0 0 160.96925477203331 103.88683090658742 0 103.88683090658742 41.45367266748508 0 0 0 0 408.32655536898528 890.20422810343734 0 890.20422810343734 1130.7281969008764 0 0 0 0 212.49721290223533 214.90945891783485 0 214.90945891783485 67.361263356899144 0 0 0 0 153.9088757452264 145.88867416603171 0 145.88867416603171 131.70935351191292 0 0 0 0 88.341994354748749 70.287293052155292 0 70.287293052155292 -7.0745796139526647 0 0 0 0 85.185552775161341 77.911634166208387 0 77.911634166208387 64.845783879689407 0 0 0 0 54.497279158356832 38.456702314790164 0 38.456702314790164 1.7371492550591938 0 0 0 0 155.95288245281063 110.89231258318159 0 110.89231258318159 72.667249302030541 0 0 0 0 47.170142632210627 21.58439496761639 0 21.58439496761639 1.7302213865623344 0 0 0 0 33.39395529524387 -2.9837840319884492 0 -2.9837840319884492 -37.139921414401897 0 0 0 0 30.947717974393612 6.0633997553779295 0 6.0633997553779295 -7.0981795578765343 0 0 0 0 40.864399511448937 15.436760284471291 0 15.436760284471291 -7.7988164693344117 0 0 0 0 42.71890977275325 13.550407965602062 0 13.550407965602062 -29.499096966828802 0 0 0 0 59.210711061197799 21.765398684307002 0 21.765398684307002 -65.7766284399695 0 0 0 0 42.341805977695742 24.511489944407231 0 24.511489944407231 -17.398132804893006 0 0 0 0 32.064004933798969 21.381705536919782 0 21.381705536919782 -38.626238306240396 0 0 0 0 47.477744806688861 46.306485825742129 0 46.306485825742129 -33.259488496172708 0 0 0 0 91.175839048926719 130.80877958143537 0 130.80877958143537 44.111227877936471 0 0 0 0 53.839272353805427 39.063986066825237 0 39.063986066825237 -37.770629403006751 0 0 0 0 57.804222305348958 60.296692443102074 0 60.296692443102074 53.633771531647653 0 0 0 0 16.358239655091893 -6.7827623696684896 0 -6.7827623696684896 118.77793599831057 0 0 0 0 26.191069687522941 23.926162585766122 0 23.926162585766122 -1.6951527853455808 0 0 0 0 52.396670446705684 35.880691510548786 0 35.880691510548786 -47.899254350762931 0 0 0 0 -2.7973670455394313 140.30716515981521 0 140.30716515981521 107.72690242632234 0 0 0 0 11.461655582003004 258.77603784095709 0 258.77603784095709 571.67678879064624 0 0 0 0 254.80411257333981 277.30912057141791 0 277.30912057141791 -157.01381634757854 0 0 0 0 259.2540796923804 222.61041246572404 0 222.61041246572404 -61.956868726105313 0 0 0 0 29.605145864625229 191.62708613590803 0 191.62708613590803 171.14129255615262 0 0 0 0 36.983111503956025 182.0940547147693 0 182.0940547147693 50.541573159302061 0 0 0 0 17.929789578178315 94.419786156417103 0 94.419786156417103 92.558697340602521 0 0 0 0 14.627334799995879 108.01351387398608 0 108.01351387398608 150.24783549215863 0 0 0 0 43.199307823946583 90.439652752917027 0 90.439652752917027 51.216159857198818 0 0 0 0 93.085975924645027 118.38770050624225 0 118.38770050624225 20.560610181724769 0 0 0 0 -282.2707222882018 -36.554869974905159 0 -36.554869974905159 193.80200164326379 0 0 0 0 86.466357414770755 99.030172390819644 0 99.030172390819644 17.25395864037182 0 0 0 0 -20.920882555624701 36.461673881558596 0 36.461673881558596 -5.5876144953080029 0 0 0 0 13.740863459166832 13.171382562532074 0 13.171382562532074 -39.947525586659168 0 0 0 0 154.94759956963753 96.065142545046911 0 96.065142545046911 -67.051256587881653 0 0 0 0 -4.1902953250653638 10.544810299705432 0 10.544810299705432 6.7924145098790234 0 0 0 0 80.96196561861143 169.41021734546484 0 169.41021734546484 -102.3061063279456 0 0 0 0 97.121686826125369 118.85482711452642 0 118.85482711452642 20.47436223386012 0 0 0 0 -0.077477661295972666 1.1905489861285616 0 1.1905489861285616 -0.98742554635845181 0 0 0 0 132.21431498928223 76.953202254237112 0 76.953202254237112 -146.36737777842791 0 0 0 0 131.64088789423113 83.494870933427592 0 83.494870933427592 -64.413243868933023 0 0 0 0 65.380131635287398 127.9875762650845 0 127.9875762650845 82.48690633395745 0 0 0 0 154.36463830756838 215.08433843343073 0 215.08433843343073 121.32923522197962 0 0 0 0 165.93952132346749 224.36413524141972 0 224.36413524141972 97.43559874535913 0 0 0 0 -0.39113201726308944 2.2365604570437085 0 2.2365604570437085 -1.9593275762296685 0 0 0 0 140.30415378815087 130.05452852230155 0 130.05452852230155 157.45075444554459 0 0 0 0 108.92339491794701 116.07288522678573 0 116.07288522678573 111.98411943758038 0 0 0 0 97.403486362265539 189.93750646668923 0 189.93750646668923 170.22291879342083 0 0 0 0 57.120556688183569 126.84752934976132 0 126.84752934976132 116.56839790835511 0 0 0 0 -338.37613310131565 -35.450137933779843 0 -35.450137933779843 89.325160165426496 0 0 0 0 -24.49700710060452 3.5756395823657101 0 3.5756395823657101 -4.2170724983648995 0 0 0 0 110.14578841680486 134.26828090847266 0 134.26828090847266 81.678342493425589 0 0 0 0 258.79822406089079 130.3356087805405 0 130.3356087805405 66.015962701087119 0 0 0 0 187.9103968225827 230.32358614213808 0 230.32358614213808 -57.423022292394307 0 0 0 0 113.51083803156507 277.19935181312394 0 277.19935181312394 289.3664542769402 0 0 0 0 134.20932069174887 234.93590738821149 0 234.93590738821149 90.296528308455891 0 0 0 0 -49.668762060304289 38.413469543338579 0 38.413469543338579 66.476275267283199 0 0 0 0 -25.360328648113274 47.572455399387053 0 47.572455399387053 61.378990300180249 0 0 0 0 -24.856549030143583 23.033986515909561 0 23.033986515909561 26.548243897254963 0 0 0 0 -147.51181576459931 13.493332044938143 0 13.493332044938143 87.229536577418912 0 0 0 0 -111.27215815077943 -102.33669795651804 0 -102.33669795651804 -120.75399055262096 0 0 0 0 -1.498517106245032 1.1301534503564881 0 1.1301534503564881 6.7983496883646239 0 0 0 0 5.9988150788631174 36.853626686315692 0 36.853626686315692 -127.04144764860393 0 0 0 0 344.03205489664833 196.3280070310102 0 196.3280070310102 -92.327453002319089 0 0 0 0 1.6692244798029066 1.4908156185733219 0 1.4908156185733219 -1.8254720571055145 0 0 0 0 -471.97131031967001 -116.92874873157416 0 -116.92874873157416 101.22235131227535 0 0 0 0 -97.062815408033771 56.268509635821459 0 56.268509635821459 40.747722261231047 0 0 0 0 -209.08705505482067 34.011238068746025 0 34.011238068746025 46.646934846095974 0 0 0 0 -198.46710235721548 21.908632558130194 0 21.908632558130194 38.667557339504128 0 0 0 0 -99.430436077120248 153.19192648100579 0 153.19192648100579 -48.476278336325777 0 0 0 0 42.350323887323611 7.5382678662936087 0 7.5382678662936087 8.5883917391183786 0 0 0 0 -485.91293764703732 -94.841519991085079 0 -94.841519991085079 219.95738838271063 0 0 0 0 -22.527388816728994 6.332965579042849 0 6.332965579042849 35.489605453606487 0 0 0 0 -2.9929725667919058 3.9535893828321491 0 3.9535893828321491 3.6521306817861046 0 0 0 0 -70.91826033515099 44.279357417559368 0 44.279357417559368 -139.15552059357105 0 0 0 0 -51.680805314099416 -32.391860510411789 0 -32.391860510411789 125.37359872704837 0 0 0 0 -2.7475170993157008 -1.805407480654452 0 -1.805407480654452 3.5159602754503965 0 0 0 0 6.2727073805494626 1.1909136902386876 0 1.1909136902386876 -3.0521894051280469 0 0 0 0 469.34073388812249 -787.58463262742589 0 -787.58463262742589 -601.07717192453674 0 0 0 0 -484.56018576110364 368.75028682623815 0 368.75028682623815 186.10957478478667 0 0 0 0 -49.377454393499647 339.42491636665363 0 339.42491636665363 -276.07841940506478 0 0 0 0 216.2315766766842 59.791632198015577 0 59.791632198015577 -16.712732328960556 0 0 0 0 124.7125091941125 532.26880314396112 0 532.26880314396112 2010.7483624923916 0 0 0 0 1815.2312434998057 1245.7792971706549 0 1245.7792971706549 146.91140954235743 0 0 0 0 32.300134007018642 -766.05317176033714 0 -766.05317176033714 833.38896555134852 0 0 0 0 903.28133980027633 -3.9923637997053447 0 -3.9923637997053447 -573.31239115964127 0 0 0 0 17.337867317545658 0.057528856585548738 0 0.057528856585548738 -5.4011847989517605 0 0 0 0 26.240288368589972 20.016146187976119 0 20.016146187976119 -6.086733580334112 0 0 0 0 31.92523998922843 10.954708839250088 0 10.954708839250088 -5.0749808901309734 0 0 0 0 1.1825794587930432 -6.4375360128324246 0 -6.4375360128324246 8.9872916846361477 0 0 0 0 -7.9068753221945371 18.951614561679889 0 18.951614561679889 21.065710105947801 0 0 0 0 -16.441522493754746 -77.17242530999647 0 -77.17242530999647 -87.336027228404419 0 0 0 0 -25.213017806163407 -3.2880079029346234 0 -3.2880079029346234 13.280457473854767 0 0 0 0 -11.879598108667139 -1.2602137710191528 0 -1.2602137710191528 -12.644040485106416 0 0 0 0 0.35588711129821604 17.437999598168972 0 17.437999598168972 -1.5204375516477739 0 0 0 0 -26.404380384681474 4.4035520409636035 0 4.4035520409636035 22.266925541116763 0 0 0 0 -10.598216183676286 -5.9528343561774193 0 -5.9528343561774193 -0.31948987093591086 0 0 0 0 20.179469257200253 21.056459007537342 0 21.056459007537342 -0.86021665953921911 0 0 0 0 20.230370004176166 21.87529475427732 0 21.87529475427732 -2.6230749929090962 0 0 0 0 -92.851948175768484 -38.407761792419478 0 -38.407761792419478 6.115082672018616 0 0 0 0 -24.392616294903007 9.1589458338220595 0 9.1589458338220595 6.735161418923667 0 0 0 0 -72.010352783428971 -14.241340592401684 0 -14.241340592401684 -5.3490207378636114 0 0 0 0 63.411048178895726 83.233232212209259 0 83.233232212209259 55.829942835480324 0 0 0 0 -0.26982857001559069 -0.35749696607504688 0 -0.35749696607504688 0.56651099148319872 0 0 0 0 29.653308527864283 45.115499804465799 0 45.115499804465799 57.574450762127981 0 0 0 0 -0.90050128152143394 51.567447460850389 0 51.567447460850389 52.398829786332612 0 0 0 0 -73.277368290691811 54.860583128254802 0 54.860583128254802 86.356319603830343 0 0 0 0 18.060809395727119 37.080092545664229 0 37.080092545664229 37.6737431249785 0 0 0 0 4.5476750868256204 71.48669837860507 0 71.48669837860507 48.254270104618627 0 0 0 0 -273.43414065322349 -23.682903020407934 0 -23.682903020407934 -252.63887756908662 0 0 0 0 325.80721099150833 -154.76149551727576 0 -154.76149551727576 -312.00533652256854 0 0 0 0 349.44277434256219 518.14525512022374 0 518.14525512022374 96.480629454286827 0 0 0 0 -370.93896341427171 271.04118888689118 0 271.04118888689118 1028.6855389000339 0 0 0 0 816.57602607762601 -21.251272687989513 0 -21.251272687989513 -473.51986748675699 0 0 0 0 0.90781235858208831 5.562711481225648 0 5.562711481225648 9.0187040451354221 0 0 0 0 -9.0265102418343304 -25.605458490230376 0 -25.605458490230376 189.56268885570898 0 0 0 0 1.4718401177087799 90.882293414302694 0 90.882293414302694 64.775207837243215 0 0 0 0 -16.666652030296973 7.69600780413748 0 7.69600780413748 49.032196911881329 0 0 0 0 -50.903522409462312 40.439305297935789 0 40.439305297935789 18.015908513705654 0 0 0 0 -8.9062062452721875 58.771149783278815 0 58.771149783278815 -22.534473729538149 0 0 0 0 11.627921263511006 61.483603727088862 0 61.483603727088862 33.519899477998422 0 0 0 0 284.42724868489313 109.99105351473918 0 109.99105351473918 -67.776400267073768 0 0 0 0 -24.362915796649759 187.92710262185574 0 187.92710262185574 210.77081602031831 0 0 0 0 17.588330673629038 6.4422734177096856 0 6.4422734177096856 -35.867897380177396 0 0 0 0 50.111201021121815 27.172576525961631 0 27.172576525961631 -31.92021885678696 0 0 0 0 41.389253251734772 14.566421174560674 0 14.566421174560674 -10.761410588987928 0 0 0 0 30.044498677317826 27.01484586025164 0 27.01484586025164 14.871193750082114 0 0 0 0 -15.627602459629998 75.818497791464324 0 75.818497791464324 110.36067895518499 0 0 0 0 80.388764380506473 77.123636641015764 0 77.123636641015764 -11.170083913879353 0 0 0 0 80.974371563218057 67.275102805029547 0 67.275102805029547 26.495150319728296 0 0 0 0 3.183389465758637 80.313817675220434 0 80.313817675220434 17.972559155343333 0 0 0 0 14.078412188260872 16.391209068048354 0 16.391209068048354 4.7508343582560428 0 0 0 0 178.09338194315205 167.70809437216667 0 167.70809437216667 42.554122893605381 0 0 0 0 1.0159979316496042 -4.5943162892831708 0 -4.5943162892831708 0.94447366395530707 0 0 0 0 608.28906745532686 248.24070961625193 0 248.24070961625193 -296.09562873039977 0 0 0 0 -45.415450597560266 57.973311581015878 0 57.973311581015878 8.2938920926244464 0 0 0 0 -138.60692148194494 81.560353413257872 0 81.560353413257872 15.406041920010466 0 0 0 0 -176.59835425621714 184.51784521035734 0 184.51784521035734 0.54989507728896569 0 0 0 0 -46.764454625619692 115.24785998328298 0 115.24785998328298 -148.61456231752527 0 0 0 0 8.2323219079778163 -1.6979186435231668 0 -1.6979186435231668 0.41234296805259874 0 0 0 0 -43.911742046052495 -1.3778123711258559 0 -1.3778123711258559 1.5228071448509581 0 0 0 0 8.2203268340243767 3.6130605736755399 0 3.6130605736755399 -2.8053707538728077 0 0 0 0 -40.323289360239869 65.92521801066323 0 65.92521801066323 129.21867369059328 0 0 0 0 11.26477657846408 104.52430012451805 0 104.52430012451805 0.0024098927533486858 0 0 0 0 -16.417733200767543 97.703742814308498 0 97.703742814308498 -17.362447382693063 0 0 0 0 -12.340046782290301 87.559399665384262 0 87.559399665384262 7.3022349023231072 0 0 0 0 -55.613591293178615 97.955209002408083 0 97.955209002408083 -0.015154928842093796 0 0 0 0 -2.178001324631623 83.759507125709206 0 83.759507125709206 7.9886829002007289 0 0 0 0 25.227108315913938 81.192619019297126 0 81.192619019297126 -18.513315923999471 0 0 0 0 10.761138724617922 77.099975734541658 0 77.099975734541658 -13.443239512882428 0 0 0 0 18.963470282826222 45.315650452106155 0 45.315650452106155 23.843748217592875 0 0 0 0 -20.241139641853806 68.066932918387465 0 68.066932918387465 40.308141938461631 0 0 0 0 3.9544204830286844 41.768557228486486 0 41.768557228486486 36.180363846559843 0 0 0 0 22.020950143341906 39.066843387627159 0 39.066843387627159 -13.124054421015899 0 0 0 0 -12.353139008482685 27.091111024979909 0 27.091111024979909 126.58803868044924 0 0 0 0 179.61886790878634 154.15856726418133 0 154.15856726418133 74.848463520829682 0 0 0 0 -24.512009886083632 13.253782342724264 0 13.253782342724264 15.28256859186402 0 0 0 0 37.671773145597399 112.07710952286106 0 112.07710952286106 19.09093049398507 0 0 0 0 -49.557428722033364 20.540284969480126 0 20.540284969480126 62.904142732913897 0 0 0 0 24.149148578944732 65.592416121842689 0 65.592416121842689 22.457910216515302 0 0 0 0 25.347746384763127 54.877544552519623 0 54.877544552519623 25.005754452693509 0 0 0 0 15.550925131974509 62.646980369492667 0 62.646980369492667 18.854306189827184 0 0 0 0 25.459699576443427 74.267948553973383 0 74.267948553973383 75.703833842067979 0 0 0 0 44.743650568605517 83.243952539924067 0 83.243952539924067 8.7130228119494859 0 0 0 0 11.580962243198883 59.386711237806594 0 59.386711237806594 28.243959642684786 0 0 0 0 -3.2456918183980292 4.0946738609297739 0 4.0946738609297739 0.13286898418084547 0 0 0 0 11.479819261612647 55.247242477515101 0 55.247242477515101 19.720393957235501 0 0 0 0 10.394779294922046 60.019691703855642 0 60.019691703855642 28.506873707170598 0 0 0 0 18.607206839556966 67.483033181391875 0 67.483033181391875 2.2919964171014726 0 0 0 0 20.197487566707423 61.743283055475331 0 61.743283055475331 20.435082415031502 0 0 0 0 2.3085720951676478 28.771959596652749 0 28.771959596652749 -43.207910069464447 0 0 0 0 24.137072155113856 75.161137111710559 0 75.161137111710559 -19.846991984231863 0 0 0 0 28.684966045759211 90.251119384563935 0 90.251119384563935 -6.4285659091110574 0 0 0 0 51.164103398063162 75.384317250245658 0 75.384317250245658 -19.858195907563413 0 0 0 0 67.558089885193112 14.305562183422808 0 14.305562183422808 -27.171886227326468 0 0 0 0 48.125490522979817 71.478258532348264 0 71.478258532348264 -23.721377571491757 0 0 0 0 67.644995889393613 106.85362534629166 0 106.85362534629166 0.0041007760737556964 0 0 0 0 133.97920569405687 71.238624674420862 0 71.238624674420862 -23.755321042428477 0 0 0 0 39.459223720012233 82.884485232192674 0 82.884485232192674 -4.236992366528284 0 0 0 0 -1492.5302208240682 362.95605606282334 0 362.95605606282334 206.14438599070854 0 0 0 0 -1563.7092519059106 44.715623429634434 0 44.715623429634434 -4.957257261412451 0 0 0 0 0.83519632010751366 5.1828030974548085 0 5.1828030974548085 -0.68312437491135825 0 0 0 0 0.975624195751152 17.910309305341798 0 17.910309305341798 0.0019009246482517977 0 0 0 0 135.60935164552473 10.094389736661469 0 10.094389736661469 -27.302427387810894 0 0 0 0 0.81783875336986966 17.670819291903172 0 17.670819291903172 -0.34193242074801877 0 0 0 0 -1.7547680198738362 2.6921961856953089 0 2.6921961856953089 -2.5265687428668002 0 0 0 0 5.3410672214386921 18.928195628220351 0 18.928195628220351 -39.74661187231689 0 0 0 0 32.013622812584799 17.3256119722937 0 17.3256119722937 -10.536414640679141 0 0 0 0 29.02711580072355 91.965620485323598 0 91.965620485323598 -100.3034325853514 0 0 0 0 13.035456033603936 27.241830449057503 0 27.241830449057503 25.990006042488204 0 0 0 0 -1261.6945651422357 283.42102181303198 0 283.42102181303198 24.317992110212799 0 0 0 0 -1219.2719361034688 608.70677777576202 0 608.70677777576202 274.08229291246971 0 0 0 0 82.321019143637386 -5.0998113502355409 0 -5.0998113502355409 -23.688993830146501 0 0 0 0 3.0972168397929636 255.3010253387074 0 255.3010253387074 69.740868956476334 0 0 0 0 23.895434450598259 55.960136476925982 0 55.960136476925982 15.45210332282295 0 0 0 0 11.814215824753774 55.040207629432189 0 55.040207629432189 208.77354977796494 0 0 0 0 272.20603629051038 214.58722094623954 0 214.58722094623954 0.78446080364665249 0 0 0 0 124.32980317992769 533.6882732994236 0 533.6882732994236 1005.8211104990187 0 0 0 0 435.17217181545129 776.13304742842729 0 776.13304742842729 740.35400775645394 0 0 0 0 448.09155975108479 709.98445665066902 0 709.98445665066902 526.46566572050506 0 0 0 0 512.63752404868137 656.17256290642399 0 656.17256290642399 571.28047874557524 0 0 0 0 583.81138089198794 1114.8565996404868 0 1114.8565996404868 1289.9151435742388 0 0 0 0 586.34994513354286 620.32522791180145 0 620.32522791180145 719.12120761322149 0 0 0 0 84.963137752733019 -12.808792434858333 0 -12.808792434858333 -261.25835248962539 0 0 0 0 4.9108478035920484 1.8123331122637865 0 1.8123331122637865 -1.607529164418338 0 0 0 0 19.860252145910636 70.916793337572017 0 70.916793337572017 11.926238407664641 0 0 0 0 24.192678056595469 65.868765096096467 0 65.868765096096467 -35.303458282935026 0 0 0 0 16.450400155910756 66.031715854740469 0 66.031715854740469 23.833453850747901 0 0 0 0 14.676802543035592 51.82982787295623 0 51.82982787295623 17.408691531826662 0 0 0 0 27.45615268212714 20.765871608062298 0 20.765871608062298 -5.7628074600652326 0 0 0 0 30.605469681219802 8.0911047287040674 0 8.0911047287040674 -84.127853514364688 0 0 0 0 620.18352396852424 880.57898310983001 0 880.57898310983001 661.73631581514201 0 0 0 0 13.296714571102541 2.0599879318542094 0 2.0599879318542094 -4.4487806803942362 0 0 0 0 457.72545899711258 885.88139505582512 0 885.88139505582512 670.16798417207247 0 0 0 0 548.27420132543193 801.49033657706605 0 801.49033657706605 745.49051871338452 0 0 0 0 395.38545240888197 903.71304302912904 0 903.71304302912904 807.05790392216295 0 0 0 0 582.64555827647564 923.79224733184674 0 923.79224733184674 800.73045926166378 0 0 0 0 708.39878911191772 1680.52618617392 0 1680.52618617392 2000.992085696038 0 0 0 0 -30.769674720155308 646.44051718300761 0 646.44051718300761 2780.6357302171964 0 0 0 0 128.08103159116581 561.56378238877733 0 561.56378238877733 727.20674100535689 0 0 0 0 155.89357931545237 -2.951047400922107 0 -2.951047400922107 334.67800398579857 0 0 0 0 373.8168173467493 940.44190864047414 0 940.44190864047414 1310.6600172804901 0 0 0 0 -50.286820121968049 61.91207912399841 0 61.91207912399841 1255.718973127945 0 0 0 0 308.85632814640121 313.36485831367463 0 313.36485831367463 178.38559694266587 0 0 0 0 279.30564496332954 550.65740619943244 0 550.65740619943244 654.69561663680361 0 0 0 0 411.88831381054479 605.60943173544547 0 605.60943173544547 472.10360127344029 0 0 0 0 264.16805142765224 251.82394092544564 0 251.82394092544564 204.3226320112808 0 0 0 0 227.11574627444497 616.1509305909567 0 616.1509305909567 724.28126179427454 0 0 0 0 131.36082239187817 67.957375457030139 0 67.957375457030139 -500.43923497709329 0 0 0 0 139.40247889739112 164.38497164218279 0 164.38497164218279 -347.58745657563486 0 0 0 0 129.90221466592629 104.10799705502723 0 104.10799705502723 -531.37591642580082 0 0 0 0 120.1393446928123 46.075140863002161 0 46.075140863002161 -420.53404986600071 0 0 0 0 118.86905910844507 83.432851974383084 0 83.432851974383084 -263.25482946709963 0 0 0 0 91.235018168812587 34.910228652465264 0 34.910228652465264 -9.2498172284499702 0 0 0 0 225.40194839021569 30.893988758914929 0 30.893988758914929 -303.16552904168202 0 0 0 0 34.448171855008695 163.97799755979213 0 163.97799755979213 267.79935754906182 0 0 0 0 94.13510082564477 -10.78504756515747 0 -10.78504756515747 -13.306720799629062 0 0 0 0 50.895640143584444 7.1244664702498142 0 7.1244664702498142 0.93646520381601306 0 0 0 0 79.774559175906688 14.073157274038692 0 14.073157274038692 -3.0866765185220189 0 0 0 0 299.77856369946676 250.95857695615632 0 250.95857695615632 69.651034586786409 0 0 0 0 54.956558599573327 121.81211175805947 0 121.81211175805947 -51.788950189496973 0 0 0 0 26.6220784854969 8.8767938514750853 0 8.8767938514750853 5.0694761770473349 0 0 0 0 706.4777031007834 -33.412938441862934 0 -33.412938441862934 -76.202497828257037 0 0 0 0 -9.8513221740540757 -0.84305890287578222 0 -0.84305890287578222 199.00952413697814 0 0 0 0 34.034115144111922 -6.1708648469081311 0 -6.1708648469081311 -0.1449603575427787 0 0 0 0 -56.459204861967009 112.6297876917306 0 112.6297876917306 -588.22471655780828 0 0 0 0 153.12206255978526 -55.619321881164069 0 -55.619321881164069 -1027.2337659496407 0 0 0 0 57.529850473234546 162.63613575905765 0 162.63613575905765 -829.9688890288744 0 0 0 0 58.823745256813709 77.441498705098638 0 77.441498705098638 -470.47366255024826 0 0 0 0 -6.3911337917525088 -74.427915167048923 0 -74.427915167048923 -681.86530527191644 0 0 0 0 162.76479516596009 217.93177959512832 0 217.93177959512832 -429.0476410519841 0 0 0 0 121.18369945477752 123.51680588447198 0 123.51680588447198 -556.02034903225285 0 0 0 0 120.20306332744076 134.71643267577747 0 134.71643267577747 -572.19330714050739 0 0 0 0 64.822428133367794 144.73752505819721 0 144.73752505819721 -516.23325942049451 0 0 0 0 130.24821161064756 -15.116452884567479 0 -15.116452884567479 -537.55397437773354 0 0 0 0 0.93582439026067732 15.63963913319094 0 15.63963913319094 -554.43994636755087 0 0 0 0 165.7539617477305 -29.395030925257743 0 -29.395030925257743 -413.28014181118488 0 0 0 0 350.49110286339419 92.409109536110918 0 92.409109536110918 -408.77370017074099 0 0 0 0 210.23195735683839 204.36039988718039 0 204.36039988718039 -356.83093138462573 0 0 0 0 121.43170520740387 59.906506694715063 0 59.906506694715063 -413.35250253080449 0 0 0 0 130.8598153165367 219.10459666001771 0 219.10459666001771 -359.50428010431642 0 0 0 0 216.25347988994326 358.27414395107189 0 358.27414395107189 -263.90913906837886 0 0 0 0 272.86917440124671 234.30721439121771 0 234.30721439121771 -364.94365919280881 0 0 0 0 187.98831067858555 205.68031646418603 0 205.68031646418603 -435.71654982699692 0 0 0 0 153.1676438982613 267.60000076330107 0 267.60000076330107 -305.97612698412559 0 0 0 0 130.75619897943579 211.59731581973438 0 211.59731581973438 -424.12462027471338 0 0 0 0 127.45461153195356 194.62084794039401 0 194.62084794039401 -371.20328306416923 0 0 0 0 114.14870120114938 207.3669490699649 0 207.3669490699649 -218.84578262675495 0 0 0 0 111.50284170715895 332.75291677077621 0 332.75291677077621 -169.90570455985289 0 0 0 0 135.38078062160639 283.21416369368671 0 283.21416369368671 -316.27671450158959 0 0 0 0 112.5010406729707 434.52790469745014 0 434.52790469745014 -112.47146199720009 0 0 0 0 -8.6382482388580684 459.65110159850155 0 459.65110159850155 -115.51232027618971 0 0 0 0 156.06125446342048 360.87319488981939 0 360.87319488981939 -255.18422469348297 0 0 0 0 343.77379693719558 454.30799218429456 0 454.30799218429456 -208.93546628199692 0 0 0 0 301.62556098345158 368.21555641068062 0 368.21555641068062 -232.10977137218288 0 0 0 0 234.00860056689999 424.03261672978988 0 424.03261672978988 -152.67993701339947 0 0 0 0 452.9217978777815 407.39151921085431 0 407.39151921085431 -242.72458624016872 0 0 0 0 333.60948043881217 534.43516803830971 0 534.43516803830971 -33.457190571862157 0 0 0 0 -31.644429980151472 578.95974427219699 0 578.95974427219699 -58.22723200834298 0 0 0 0 233.80507642521115 528.94303982712154 0 528.94303982712154 -140.68066421202093 0 0 0 0 139.20523180512828 339.35815019924848 0 339.35815019924848 -120.22872056409233 0 0 0 0 111.36476763757673 441.65146011900924 0 441.65146011900924 485.80889314807428 0 0 0 0 391.3494712793181 557.89254966630324 0 557.89254966630324 -34.539357696877346 0 0 0 0 -718.22018685562944 310.31629040898042 0 310.31629040898042 466.00993737215504 0 0 0 0 486.69294601889851 1828.8619094560199 0 1828.8619094560199 787.521904509671 0 0 0 0 -15.859461605438582 -3.8766867564413445 0 -3.8766867564413445 -1.1956301269919969 0 0 0 0 -109.90519218642294 -352.38367131939594 0 -352.38367131939594 1086.1962625640699 0 0 0 0 28.90435186503089 6.833121412902301 0 6.833121412902301 2.3114900807615228 0 0 0 0 1789.1435436890752 -757.28774059134957 0 -757.28774059134957 292.06460702742334 0 0 0 0 720.34865282183455 1082.4581105395646 0 1082.4581105395646 1941.7648360032144 0 0 0 0 -103.24614502000622 -892.45420690610626 0 -892.45420690610626 1555.5212485016145 0 0 0 0 2828.4466001397959 769.81456610250461 0 769.81456610250461 -179.06753751542419 0 0 0 0 856.86415320986998 756.91470107995337 0 756.91470107995337 -137.12419988475631 0 0 0 0 392.42704526066109 587.95578416230103 0 587.95578416230103 -84.808710018412967 0 0 0 0 1711.0313641257235 227.80857241554986 0 227.80857241554986 -366.34105275637557 0 0 0 0 215.11565857566166 1.2079699539954163 0 1.2079699539954163 -6.1051503569760825 0 0 0 0 662.0113934641704 -509.18838408340889 0 -509.18838408340889 266.03332403144304 0 0 0 0 678.99261330373156 214.21401351861937 0 214.21401351861937 -324.87075665203884 0 0 0 0 633.67493330487832 -189.18330334997563 0 -189.18330334997563 -153.06111177504499 0 0 0 0 676.55655271167052 565.59398243589749 0 565.59398243589749 -152.05379038766114 0 0 0 0 719.79801369376946 218.06275727909451 0 218.06275727909451 -364.76717338397884 0 0 0 0 369.2823273781687 175.08724963269196 0 175.08724963269196 -329.38492828672588 0 0 0 0 498.27567954536789 259.54579552554969 0 259.54579552554969 -358.28234867276478 0 0 0 0 550.3271719639597 30.163863683821546 0 30.163863683821546 -431.45703655987018 0 0 0 0 101.80410089474753 -342.00448247939494 0 -342.00448247939494 -451.35797579047357 0 0 0 0 345.35721788334195 -11.614038846997573 0 -11.614038846997573 -678.95169518922012 0 0 0 0 -192.23564748257922 -45.530372055578482 0 -45.530372055578482 -95.556137117615435 0 0 0 0 132.29296733126102 -675.27482461948603 0 -675.27482461948603 -1253.2146787373931 0 0 0 0 300.77869595275843 190.0501051992178 0 190.0501051992178 41.355363666523772 0 0 0 0 106.23675374400045 34.326495573008287 0 34.326495573008287 -17.047716883367684 0 0 0 0 -10.456216806937078 2.5899429953927324 0 2.5899429953927324 6.7172198474820561 0 0 0 0 314.96733882580884 -2.8208735616190097 0 -2.8208735616190097 -260.45442402748449 0 0 0 0 75.916912593286554 25.283701443675962 0 25.283701443675962 9.7938531573739596 0 0 0 0 208.05953565184973 -15.136277727939159 0 -15.136277727939159 -41.277746494215535 0 0 0 0 114.83624196379719 46.255348567732732 0 46.255348567732732 4.0745775375592856 0 0 0 0 192.85534366411594 120.10357078099878 0 120.10357078099878 -42.835546468530083 0 0 0 0 100.17562878030003 70.299240983971686 0 70.299240983971686 94.117629809234131 0 0 0 0 70.073861596662027 119.7866787191906 0 119.7866787191906 342.40903774045 0 0 0 0 182.79021823253424 235.96753598142095 0 235.96753598142095 328.28220221034098 0 0 0 0 91.232776391872903 164.49214634991768 0 164.49214634991768 436.66908635252548 0 0 0 0 107.40398993666167 149.7812981439165 0 149.7812981439165 61.803646050919269 0 0 0 0 89.998728892081999 140.15926988310639 0 140.15926988310639 228.68439602469152 0 0 0 0 128.26550232223235 96.876613137811546 0 96.876613137811546 48.825425466822708 0 0 0 0 118.99591897781647 79.373058744718946 0 79.373058744718946 50.766883662083501 0 0 0 0 16.329615206745416 42.535865221313941 0 42.535865221313941 -41.487003942174383 0 0 0 0 199.69140788422374 158.86212273136152 0 158.86212273136152 -83.857917365163303 0 0 0 0 158.42035524666838 38.450544804707391 0 38.450544804707391 -0.86001969395517364 0 0 0 0 411.38584052738588 259.79207898825643 0 259.79207898825643 -501.42680885847949 0 0 0 0 70.123223834249075 -188.63457732601819 0 -188.63457732601819 -601.55449172153021 0 0 0 0 23.979013537586638 25.554898088775616 0 25.554898088775616 1.4100056963329735 0 0 0 0 772.6769538663284 -214.50211609476173 0 -214.50211609476173 -286.72959099955187 0 0 0 0 182.60677599960491 96.501162233475156 0 96.501162233475156 -410.23137651204888 0 0 0 0 77.013441398521536 185.94856382682337 0 185.94856382682337 -355.62679058591311 0 0 0 0 612.38309301554727 660.64424651828404 0 660.64424651828404 30.428189351230685 0 0 0 0 -170.18336147013906 308.12660124214017 0 308.12660124214017 489.75871501664733 0 0 0 0 -170.83355425999616 88.617725944357517 0 88.617725944357517 -30.021518496203498 0 0 0 0 -424.56996589537641 5.9830028690906829 0 5.9830028690906829 191.75316260290856 0 0 0 0 0.16427657642511573 9.272291493921216 0 9.272291493921216 11.674850093451624 0 0 0 0 1178.4168454292958 767.9448893234694 0 767.9448893234694 77.528693954256596 0 0 0 0 1610.8295602614307 912.41832861628063 0 912.41832861628063 -200.9511477668857 0 0 0 0 821.32407610907467 972.74583662014447 0 972.74583662014447 671.55753787336289 0 0 0 0 408.02648774458066 94.797613772265322 0 94.797613772265322 -274.6299180265778 0 0 0 0 355.80537359340087 93.815939365751547 0 93.815939365751547 -165.14492995703768 0 0 0 0 124.45144107801025 -162.49814706976758 0 -162.49814706976758 -244.99361590838907 0 0 0 0 239.38856412395762 -167.81845542232622 0 -167.81845542232622 -282.3425937674765 0 0 0 0 60.991848360645236 41.489653280303173 0 41.489653280303173 -207.12851200073419 0 0 0 0 1144.7785272596739 823.07082770544002 0 823.07082770544002 -5.8230026457222266 0 0 0 0 832.80173317893059 109.52240810453441 0 109.52240810453441 -865.26010957666585 0 0 0 0 1533.57130984994 1919.2630671827501 0 1919.2630671827501 1039.9226829136169 0 0 0 0 1707.0880313192129 702.3179118988246 0 702.3179118988246 240.47039106790908 0 0 0 0 13.626824522710592 -4.007693598501163 0 -4.007693598501163 1.6614356807231871 0 0 0 0 1190.7658692743425 1772.6585435561283 0 1772.6585435561283 1605.6303062608495 0 0 0 0 279.69013385429571 -362.29889653539431 0 -362.29889653539431 -1237.9574807995014 0 0 0 0 1351.9563694587741 1598.3149773636469 0 1598.3149773636469 1217.1374606645259 0 0 0 0 1269.9021947468718 1648.0627219537964 0 1648.0627219537964 1346.4384335197101 0 0 0 0 149.81855133916542 387.21891209184105 0 387.21891209184105 647.75031520541233 0 0 0 0 524.97175162925851 1205.6140482080955 0 1205.6140482080955 1104.7648356518612 0 0 0 0 -331.88889477647899 72.426913877454353 0 72.426913877454353 712.37246436704299 0 0 0 0 921.15526241478074 808.47285818521777 0 808.47285818521777 495.98669326727395 0 0 0 0 223.26653258237275 -717.97486634057532 0 -717.97486634057532 -335.48498882056447 0 0 0 0 -916.8689827847229 -444.44052853754329 0 -444.44052853754329 393.45084173808573 0 0 0 0 411.30428454731009 248.48849128495203 0 248.48849128495203 -290.96863293502975 0 0 0 0 258.93112782976823 162.16234281325887 0 162.16234281325887 -239.4269297667779 0 0 0 0 -164.78296308978315 52.792943645144987 0 52.792943645144987 2.6444591369363479 0 0 0 0 -123.26942146006331 12.750469988939585 0 12.750469988939585 22.931641860428499 0 0 0 0 -115.29803741957767 104.01544770659348 0 104.01544770659348 32.825262436628691 0 0 0 0 -200.87892697125608 68.444710974516966 0 68.444710974516966 47.062930830943515 0 0 0 0 -188.9834274850291 6.5587264828864136 0 6.5587264828864136 7.5791009276817931 0 0 0 0 -326.37899281811633 64.134815658497246 0 64.134815658497246 44.602860083061387 0 0 0 0 1.3931366191223318 12.598913641704939 0 12.598913641704939 30.201528355829083 0 0 0 0 121.30007834156277 149.69564271445415 0 149.69564271445415 730.88932175484661 0 0 0 0 -396.35465764192145 573.2267053029517 0 573.2267053029517 669.85969448048854 0 0 0 0 61.291632386572928 131.58739554311893 0 131.58739554311893 79.131716477117152 0 0 0 0 60.122113203440676 70.511860613445606 0 70.511860613445606 16.88090479632956 0 0 0 0 3.9611154977028491 130.61882403698837 0 130.61882403698837 85.194519457960268 0 0 0 0 -135.21266028868558 66.682581311535614 0 66.682581311535614 -15.647228720488783 0 0 0 0 -70.827622232026215 61.353151760354152 0 61.353151760354152 31.32991178660879 0 0 0 0 -20.046164722332747 34.61952351831286 0 34.61952351831286 -23.537410849987054 0 0 0 0 102.14866574186453 154.5097107710244 0 154.5097107710244 25.349957067082869 0 0 0 0 -98.757160556035302 63.539383699428953 0 63.539383699428953 24.474324442808211 0 0 0 0 116.72592892310149 178.67733408582171 0 178.67733408582171 77.923953848759993 0 0 0 0 160.58115215678117 175.66832532172339 0 175.66832532172339 86.22302409891563 0 0 0 0 77.145930866303388 207.22917400359984 0 207.22917400359984 75.456979711030726 0 0 0 0 -0.78142951852350961 198.87131289065655 0 198.87131289065655 83.478307788427628 0 0 0 0 110.93303654123156 143.8179120433233 0 143.8179120433233 44.675363799353363 0 0 0 0 20.636705340642948 104.78715889940941 0 104.78715889940941 44.551609781358195 0 0 0 0 -32.470695286703062 27.38596691429629 0 27.38596691429629 -26.658726366361151 0 0 0 0 41.084310773032485 152.64293832760086 0 152.64293832760086 125.69222134613665 0 0 0 0 21.324443461547162 55.203186422319959 0 55.203186422319959 42.959220232180087 0 0 0 0 -23.752933576239201 36.777576060957273 0 36.777576060957273 -16.231200625576804 0 0 0 0 -4.1348624264937826 66.743060109431099 0 66.743060109431099 38.227334965300543 0 0 0 0 43.470061252446612 60.848860379055623 0 60.848860379055623 -13.568570020390325 0 0 0 0 77.915680155092559 108.68741365945061 0 108.68741365945061 2.355214237832115 0 0 0 0 -46.860694674244094 71.715972743951127 0 71.715972743951127 5.6332575332357351 0 0 0 0 39.629817963425012 137.56439681879783 0 137.56439681879783 47.24222922984336 0 0 0 0 20.946351999577018 43.338616524963982 0 43.338616524963982 14.06588967096468 0 0 0 0 -111.09478017382935 90.052473041501798 0 90.052473041501798 84.663768962196627 0 0 0 0 -148.62297406272046 38.781064754544786 0 38.781064754544786 21.041646036726888 0 0 0 0 -127.66289491725911 138.18903641149882 0 138.18903641149882 41.133809281131107 0 0 0 0 89.151970832281222 368.58074276524712 0 368.58074276524712 -150.40360643537861 0 0 0 0 -16.287395193123189 89.911630898442326 0 89.911630898442326 -16.717367447049469 0 0 0 0 16.524389440768573 175.01886339545126 0 175.01886339545126 25.647771633855882 0 0 0 0 15.814414925698657 62.613582027013763 0 62.613582027013763 -10.094202825173852 0 0 0 0 138.71266696498787 11.988407091837871 0 11.988407091837871 -117.73017612175317 0 0 0 0 183.4412438364414 62.988516845660151 0 62.988516845660151 4.0047437365328804 0 0 0 0 194.07282623992796 63.714588260241726 0 63.714588260241726 -140.55819183408312 0 0 0 0 161.18143724443507 116.1391527706437 0 116.1391527706437 -8.8719548486915301 0 0 0 0 262.32083063026948 64.239446798739664 0 64.239446798739664 -149.59269190661689 0 0 0 0 217.09274102461495 4.847636728035468 0 4.847636728035468 -127.95687859149621 0 0 0 0 268.19304065027973 103.12770209237715 0 103.12770209237715 -57.008606851706645 0 0 0 0 288.41340735991616 68.144687084492034 0 68.144687084492034 3.1426686913910089 0 0 0 0 375.30973747532698 258.4658104717455 0 258.4658104717455 46.248713434819365 0 0 0 0 -13.267524560971538 27.73951377951937 0 27.73951377951937 -46.962557504400927 0 0 0 0 8.0916500932362396 272.25483561743567 0 272.25483561743567 -516.23094944102922 0 0 0 0 85.985905693203676 97.434646373614669 0 97.434646373614669 -166.03018805780448 0 0 0 0 139.62944843309378 -180.41751957682663 0 -180.41751957682663 -523.18197413289454 0 0 0 0 -190.22201460116776 219.77452953490683 0 219.77452953490683 -99.639261933436501 0 0 0 0 -4.1218432872104813 1.2870898324686095 0 1.2870898324686095 -7.4649572983423411 0 0 0 0 -57.222969508089591 70.518226145421067 0 70.518226145421067 40.317703933607845 0 0 0 0 84.570885627064854 20.397238610003114 0 20.397238610003114 2.7585268868351704 0 0 0 0 -66.037205073028417 221.53727430840536 0 221.53727430840536 -132.68693631818314 0 0 0 0 4.5023085606226232 137.77992889827874 0 137.77992889827874 -43.784206885995445 0 0 0 0 17.147364292868588 113.96585264253008 0 113.96585264253008 -51.593250529462239 0 0 0 0 -11.87512126663205 89.524074213386484 0 89.524074213386484 -2.3959573174652178 0 0 0 0 146.20199484368641 80.379546779977318 0 80.379546779977318 -21.066348358741379 0 0 0 0 28.172088717993475 18.220659998066623 0 18.220659998066623 -16.214613319497573 0 0 0 0 65.487679742829641 41.849344076108537 0 41.849344076108537 -23.530378828276298 0 0 0 0 23.482097549269383 75.766174487591343 0 75.766174487591343 19.582886608768604 0 0 0 0 42.937756009188888 85.595178849947843 0 85.595178849947843 -47.496786153889843 0 0 0 0 66.005455118589452 57.363263565217494 0 57.363263565217494 35.648752068584145 0 0 0 0 49.591407089310849 48.797068734461178 0 48.797068734461178 12.583020776102671 0 0 0 0 31.660784405932645 34.717299664745951 0 34.717299664745951 17.037347047589719 0 0 0 0 35.195309470291249 50.551337837047413 0 50.551337837047413 -80.989720810073777 0 0 0 0 51.624254589489738 37.178098661333181 0 37.178098661333181 10.438641747632019 0 0 0 0 18.064939386124024 40.317849516522983 0 40.317849516522983 50.347205426038272 0 0 0 0 114.3082206871477 125.00113777512888 0 125.00113777512888 -16.409150917286752 0 0 0 0 1.8820162168868535 9.393167941926805 0 9.393167941926805 11.852838945737673 0 0 0 0 38.184313711128198 31.807298383129819 0 31.807298383129819 53.93215915239125 0 0 0 0 19.833045353203488 19.321177728677867 0 19.321177728677867 -8.5703456121555064 0 0 0 0 -1.2165988055792241 13.503574465269224 0 13.503574465269224 -27.70104613615257 0 0 0 0 177.37676685605402 0.1698941140784882 0 0.1698941140784882 -123.39942404000431 0 0 0 0 -1.8830051872794655 16.302238119411555 0 16.302238119411555 -20.477517159498802 0 0 0 0 -60.436479990354201 247.2006853060584 0 247.2006853060584 -208.19201905693626 0 0 0 0 -50.255489745279192 166.34121566943213 0 166.34121566943213 6.3496826343180146 0 0 0 0 69.337026114328182 -91.120870205035317 0 -91.120870205035317 67.208863659676354 0 0 0 0 -43.434597920291708 121.3243480659803 0 121.3243480659803 -43.128027523598575 0 0 0 0 4.0960193337523378 134.485018584317 0 134.485018584317 -82.656918842862638 0 0 0 0 -71.482384339731652 240.95342039434036 0 240.95342039434036 -71.14997513826529 0 0 0 0 8.5405493734288029 105.77106930369428 0 105.77106930369428 -39.802458450343693 0 0 0 0 168.48724795709131 73.53258577181623 0 73.53258577181623 -143.16637848337996 0 0 0 0 276.88634581540828 30.608471959747476 0 30.608471959747476 -143.97660770938819 0 0 0 0 20.550008496313239 -15.332796202259487 0 -15.332796202259487 148.37575365888188 0 0 0 0 -1.2383656106045748 6.6978540753061679 0 6.6978540753061679 0.86260031998531872 0 0 0 0 -1.6958114322620759 13.056722930697532 0 13.056722930697532 -46.125352822866517 0 0 0 0 168.49368738531484 80.187244522490801 0 80.187244522490801 -122.063824682009 0 0 0 0 177.34156460451777 73.252534233037295 0 73.252534233037295 -121.7402328637836 0 0 0 0 -1.7939783052757861 9.3872790018963883 0 9.3872790018963883 -1.9699354055317997 0 0 0 0 227.88336602345225 96.209429403486865 0 96.209429403486865 -423.8170892780181 0 0 0 0 222.60699988435954 113.1678472309577 0 113.1678472309577 -91.397975979423791 0 0 0 0 148.8261715140834 78.950380634094472 0 78.950380634094472 -77.467205364599067 0 0 0 0 99.247657297433761 101.5450868499338 0 101.5450868499338 -214.42950348099839 0 0 0 0 129.07682225355529 48.391023128515371 0 48.391023128515371 -119.76259807965835 0 0 0 0 29.877462793694576 42.536828134900134 0 42.536828134900134 -13.375218507194404 0 0 0 0 -5.3161611721029089 15.285813381933252 0 15.285813381933252 -31.188441684309993 0 0 0 0 11.925615933869267 112.92081984596371 0 112.92081984596371 -38.914765935682226 0 0 0 0 18.459723033214686 20.065494865204528 0 20.065494865204528 -15.371814586940673 0 0 0 0 57.348092326530605 53.339497523451428 0 53.339497523451428 0.26529535789813963 0 0 0 0 49.670649956504349 26.654805311787641 0 26.654805311787641 -24.911524978077068 0 0 0 0 59.183947101031663 54.851382308312168 0 54.851382308312168 -14.869894889540319 0 0 0 0 -0.069510436107520945 71.933633027641918 0 71.933633027641918 14.659337240926106 0 0 0 0 140.34600492949539 175.06291304279875 0 175.06291304279875 87.930975739596761 0 0 0 0 -0.063299746481753516 14.708661414574266 0 14.708661414574266 4.9741115041819626 0 0 0 0 134.15924012535834 22.714949769968371 0 22.714949769968371 -5.7286638653313275 0 0 0 0 205.99455350085918 93.452109299349104 0 93.452109299349104 60.046596881809819 0 0 0 0 2.1606630265966658 7.5099927057461571 0 7.5099927057461571 8.0280584105716741 0 0 0 0 0.6735760674928315 189.92574840986344 0 189.92574840986344 155.17399910171662 0 0 0 0 351.51064475241128 499.96927910223985 0 499.96927910223985 399.10377709845488 0 0 0 0 -1.1719305392325623 573.87688459490892 0 573.87688459490892 252.88757062390505 0 0 0 0 210.51595540910785 337.99747041534283 0 337.99747041534283 474.16323502231717 0 0 0 0 517.86862791435851 -132.18867122684605 0 -132.18867122684605 -196.96872407312912 0 0 0 0 330.60462916718825 881.98436633346228 0 881.98436633346228 949.43721141375136 0 0 0 0 215.59742191055557 479.42322868108749 0 479.42322868108749 345.03874325330253 0 0 0 0 -275.13754187583254 731.21006667530492 0 731.21006667530492 473.34687889346969 0 0 0 0 1.5477259860764505 5.1312196582814806 0 5.1312196582814806 3.7231756798630329 0 0 0 0 412.9480985024511 37.968092737100051 0 37.968092737100051 5.8354725709505146 0 0 0 0 -470.39996934926603 535.51971599539684 0 535.51971599539684 1496.6977035987074 0 0 0 0 1218.1991038885026 488.89483899941843 0 488.89483899941843 179.16446462424938 0 0 0 0 165.362388853624 377.13367047578504 0 377.13367047578504 753.83202422503382 0 0 0 0 3.4691568692962278 1.3856145769043948 0 1.3856145769043948 -0.48986915603182979 0 0 0 0 -452.53412226135038 -540.57387557355537 0 -540.57387557355537 297.03667784530262 0 0 0 0 4.3440395955623217 19.690672231217782 0 19.690672231217782 -20.692248359656162 0 0 0 0 20.86462947466498 85.911730029793034 0 85.911730029793034 -29.957559322414454 0 0 0 0 5.5905373891862382 39.316972731296516 0 39.316972731296516 21.03247247556267 0 0 0 0 -56.951261085574515 77.101413073483855 0 77.101413073483855 -14.394806928583421 0 0 0 0 1.9451235267333686 43.445089283311972 0 43.445089283311972 -59.968556148264724 0 0 0 0 -7.0926072884797691 11.730220729075882 0 11.730220729075882 10.447801285010542 0 0 0 0 -40.74668526937603 84.581354667621781 0 84.581354667621781 -58.606082687670551 0 0 0 0 -3.2633915583137423 15.647932424719329 0 15.647932424719329 4.7716462438620511 0 0 0 0 13.213690829241386 103.07307120344103 0 103.07307120344103 105.01459360084846 0 0 0 0 30.313395255856449 319.51604555851372 0 319.51604555851372 395.20984283412508 0 0 0 0 -84.732026877900353 -9.5166116453474388 0 -9.5166116453474388 108.08250593436242 0 0 0 0 -107.76730829139706 35.57104154057015 0 35.57104154057015 310.57553413088317 0 0 0 0 0.18045209559711139 2.5089650754855768 0 2.5089650754855768 4.5319180014322171 0 0 0 0 393.61543019257078 482.80696556250768 0 482.80696556250768 450.82509592304996 0 0 0 0 212.46579440610367 491.72527459626144 0 491.72527459626144 494.86150341983739 0 0 0 0 166.20083296686062 241.64406702508859 0 241.64406702508859 333.40957554660417 0 0 0 0 319.18533928564284 151.60665593514932 0 151.60665593514932 -166.01659456125344 0 0 0 0 349.62438907509204 431.74005086332545 0 431.74005086332545 -66.759941704760422 0 0 0 0 150.43319449179671 92.274440621972417 0 92.274440621972417 -234.49946721400192 0 0 0 0 -0.22272295841730738 1.1318447461126482 0 1.1318447461126482 -0.91325994672246225 0 0 0 0 159.61167107743677 301.36048352513171 0 301.36048352513171 180.93475339620636 0 0 0 0 202.48143442274886 221.03660918208334 0 221.03660918208334 -206.85581156691114 0 0 0 0 54.12982331364401 -42.490122832912675 0 -42.490122832912675 -363.82962184196367 0 0 0 0 156.15473904020109 -525.57781398060069 0 -525.57781398060069 -979.11610155769449 0 0 0 0 -2.9412166128674357 2.710331544441857 0 2.710331544441857 -2.8690764372618673 0 0 0 0 -25.299605932650593 37.464543196454542 0 37.464543196454542 15.521215160537395 0 0 0 0 477.86236255936092 422.05583345880586 0 422.05583345880586 220.85127286287025 0 0 0 0 198.91294773708796 745.59336275086389 0 745.59336275086389 -1157.7983955979134 0 0 0 0 2.192841432421119 920.98016934972475 0 920.98016934972475 -1119.7920321614861 0 0 0 0 0.15160177570214728 991.29711427758502 0 991.29711427758502 -375.9243142831474 0 0 0 0 14.98529629103723 410.51341199422313 0 410.51341199422313 -680.34640537361156 0 0 0 0 -157.43387970983895 755.22934053266818 0 755.22934053266818 -524.45775737262738 0 0 0 0 -563.28991452291666 846.17223896340147 0 846.17223896340147 -922.78622041209019 0 0 0 0 -318.54618884221418 582.13858815059211 0 582.13858815059211 -768.69520375317006 0 0 0 0 -1185.4279100417407 975.16863276473669 0 975.16863276473669 -1220.719172889927 0 0 0 0 -304.89420043717837 881.47322806010015 0 881.47322806010015 -1231.6368658114479 0 0 0 0 -223.69152020027104 463.17060463663165 0 463.17060463663165 -1329.5349494006732 0 0 0 0 49.47858261683723 962.10109108808683 0 962.10109108808683 -1346.0752687213112 0 0 0 0 -263.16771098350728 393.75919582673487 0 393.75919582673487 -2379.2314407848935 0 0 0 0 -38.240943568351213 1585.3292305154464 0 1585.3292305154464 -1862.5835839056872 0 0 0 0 -472.80984187289505 1330.8930639628215 0 1330.8930639628215 -119.9631271923281 0 0 0 0 2.8288489910628414 1000.421997692305 0 1000.421997692305 -779.03736262968596 0 0 0 0 105.13207419340324 1134.1718111852515 0 1134.1718111852515 -1496.6586247954183 0 0 0 0 28.811251509745489 1125.6670994112865 0 1125.6670994112865 -1473.3042721748898 0 0 0 0 133.37838645877491 1115.5204990816019 0 1115.5204990816019 -1586.6310604226528 0 0 0 0 123.06990909318847 842.8737919885898 0 842.8737919885898 -1684.0142389647972 0 0 0 0 111.05867713905172 935.41501148231328 0 935.41501148231328 -1577.5354094673094 0 0 0 0 0.14160573138360633 1092.7818704652891 0 1092.7818704652891 -1433.9403831196723 0 0 0 0 -13.287675574014429 958.64136392499677 0 958.64136392499677 -1589.8949809448241 0 0 0 0 -213.11384070770873 1033.8199337980805 0 1033.8199337980805 -1618.1785448824594 0 0 0 0 -0.87632804174063494 357.11187194712511 0 357.11187194712511 -2974.1556170448021 0 0 0 0 159.89279693795834 79.362980461555708 0 79.362980461555708 -2039.0226780497408 0 0 0 0 72.768589890489238 1001.455485577555 0 1001.455485577555 -2091.4769655896307 0 0 0 0 73.526024045233498 814.01456268703714 0 814.01456268703714 -1034.4859746803413 0 0 0 0 91.354237877589185 589.16860157847623 0 589.16860157847623 -1281.0634248779425 0 0 0 0 45.369512421573745 172.91295116177935 0 172.91295116177935 -1054.7008645888818 0 0 0 0 101.01640307552952 8.9197119177715649 0 8.9197119177715649 -683.38718332845019 0 0 0 0 -241.61061237280228 -238.56161799701295 0 -238.56161799701295 161.60741251573927 0 0 0 0 -97.381268977907894 -140.71539520095394 0 -140.71539520095394 -64.607356557411549 0 0 0 0 -25.631959254766116 -158.19761126469893 0 -158.19761126469893 -628.87752113226998 0 0 0 0 -130.53972211082873 299.98070675794588 0 299.98070675794588 -463.93003504264925 0 0 0 0 -2.4273060866244123 4.4067489438364476 0 4.4067489438364476 -8.8612449829228552 0 0 0 0 -130.04517954378389 -389.01704947371763 0 -389.01704947371763 -1043.5373401937686 0 0 0 0 -0.23889883915398968 -29.443309923230117 0 -29.443309923230117 103.38324901991655 0 0 0 0 71.960380144519149 -22.020028562572406 0 -22.020028562572406 16.513679408919415 0 0 0 0 -4.549652793034852 10.312540637282893 0 10.312540637282893 -23.031292114857365 0 0 0 0 173.22412708251795 154.65520976269909 0 154.65520976269909 38.53946618707414 0 0 0 0 -59.719730072567472 169.33270030554195 0 169.33270030554195 174.95735241528723 0 0 0 0 56.72161031064752 16.531747749460919 0 16.531747749460919 65.668764539688709 0 0 0 0 -70.14976142382875 -57.836784759168722 0 -57.836784759168722 42.530379343806999 0 0 0 0 114.89292126282817 -6.0508481524520903 0 -6.0508481524520903 12.945663463848177 0 0 0 0 76.509719848836539 -9.6088159863684268 0 -9.6088159863684268 26.657256235877867 0 0 0 0 0.18950403635244584 29.237744872682015 0 29.237744872682015 -15.221612666027795 0 0 0 0 56.608971972891595 -100.30672690371284 0 -100.30672690371284 -46.334774141965681 0 0 0 0 131.30859741926542 -72.401530626870226 0 -72.401530626870226 -210.01762563839441 0 0 0 0 121.97350632447342 -61.778205599232933 0 -61.778205599232933 -32.675870342027338 0 0 0 0 110.75112716641161 28.668808759972308 0 28.668808759972308 70.280700489398441 0 0 0 0 111.49233002454275 -17.827916445396113 0 -17.827916445396113 -112.67780915942967 0 0 0 0 83.101734931973624 -14.084723369678613 0 -14.084723369678613 10.624462534819031 0 0 0 0 21.226715698081534 -47.294781019696529 0 -47.294781019696529 23.393127179939256 0 0 0 0 65.771132378176844 -75.191272896421651 0 -75.191272896421651 10.361120441404637 0 0 0 0 -10.971107652774663 -50.738452197379956 0 -50.738452197379956 -33.668751472585427 0 0 0 0 -40.858187051140703 -99.833442339793692 0 -99.833442339793692 5.8183556175918056 0 0 0 0 49.2127851907062 -93.214774201048385 0 -93.214774201048385 -125.04867011470196 0 0 0 0 55.685686054639518 -60.52655578847407 0 -60.52655578847407 38.811804154469428 0 0 0 0 92.216671302739996 -135.90152636375569 0 -135.90152636375569 -10.895713956240797 0 0 0 0 89.228654153881507 -97.264621741301653 0 -97.264621741301653 40.927101849403698 0 0 0 0 166.40741785470891 37.203784001440908 0 37.203784001440908 121.96494808567513 0 0 0 0 75.748140003561275 -65.576227953664784 0 -65.576227953664784 -107.56131898747844 0 0 0 0 148.47808332656859 -42.693989626975963 0 -42.693989626975963 -111.39384027074993 0 0 0 0 74.415423401893349 299.93298879158829 0 299.93298879158829 -261.00765553183919 0 0 0 0 30.207380604013451 -21.84705027983 0 -21.84705027983 -411.74507667827856 0 0 0 0 7.6631501447409391 -17.929814279679704 0 -17.929814279679704 -87.991307558373592 0 0 0 0 -14.896728759620601 28.833142984403821 0 28.833142984403821 -349.01670825608744 0 0 0 0 -38.090601800562581 484.1366572367042 0 484.1366572367042 -818.99569255828465 0 0 0 0 40.970776828515227 277.01786600399828 0 277.01786600399828 -276.6100405873658 0 0 0 0 -311.66999797569588 972.01919869604171 0 972.01919869604171 -722.38995979756146 0 0 0 0 7.7888802039669827 282.13848686680012 0 282.13848686680012 327.21737079841114 0 0 0 0 166.27911231361941 112.81937717227811 0 112.81937717227811 80.955587707270752 0 0 0 0 838.99666801876447 582.12542978256533 0 582.12542978256533 149.95714350147864 0 0 0 0 -9.0080438529937226 20.160318102386043 0 20.160318102386043 -36.627277180475801 0 0 0 0 799.28476008636062 151.77504079818755 0 151.77504079818755 -70.246791746720191 0 0 0 0 31.049225788447075 40.939324759086503 0 40.939324759086503 13.475113091706589 0 0 0 0 107.40091133511305 91.696654752689938 0 91.696654752689938 -162.91576735776471 0 0 0 0 415.76071396264888 34.003346931875058 0 34.003346931875058 -333.13886654047747 0 0 0 0 -12.843633671169187 26.743573948238861 0 26.743573948238861 -43.27999102383928 0 0 0 0 96.642578140192199 144.53595542385301 0 144.53595542385301 34.138125237936038 0 0 0 0 61.802793858223595 133.96599848478945 0 133.96599848478945 71.113522003644903 0 0 0 0 47.522270214889431 103.35103200654885 0 103.35103200654885 77.431026892299997 0 0 0 0 372.78397898651019 123.3285438348139 0 123.3285438348139 211.57968690666166 0 0 0 0 593.84178252279526 205.51241764252336 0 205.51241764252336 207.35915401605598 0 0 0 0 864.22835604769352 519.25604197807843 0 519.25604197807843 186.98175340889429 0 0 0 0 755.03638899099315 247.23491450826259 0 247.23491450826259 174.17872079396329 0 0 0 0 452.47986671474064 325.54754075601522 0 325.54754075601522 345.73829634212598 0 0 0 0 629.62688434089068 167.86463135250233 0 167.86463135250233 7.0182223344854719 0 0 0 0 444.86003455478931 215.7780454895983 0 215.7780454895983 275.85506938709295 0 0 0 0 493.42427820208832 163.21752785158606 0 163.21752785158606 133.3506321618479 0 0 0 0 232.1626596119022 0.17023647325549973 0 0.17023647325549973 95.375514515644682 0 0 0 0 165.41266119675129 32.432014568980776 0 32.432014568980776 187.22014570770261 0 0 0 0 203.06507865493768 -70.658307194891677 0 -70.658307194891677 0.53030909942754079 0 0 0 0 294.59080261731287 48.788564754242543 0 48.788564754242543 98.644219452893594 0 0 0 0 543.91232322642463 346.51306704998206 0 346.51306704998206 246.74711913178908 0 0 0 0 609.76396413960902 774.26450032542562 0 774.26450032542562 439.5839266863768 0 0 0 0 4.9181384033326481 -2.0640150614291031 0 -2.0640150614291031 -8.5343242385767439 0 0 0 0 523.61754172336077 240.49528937870491 0 240.49528937870491 173.30150768112071 0 0 0 0 452.04170665800484 498.1872118098172 0 498.1872118098172 363.95406902376271 0 0 0 0 370.92781919016852 370.01876048642953 0 370.01876048642953 269.16797308076639 0 0 0 0 268.36333030141031 608.9486670393826 0 608.9486670393826 649.90206844646309 0 0 0 0 194.66336301041883 257.1308916099515 0 257.1308916099515 305.7597290893973 0 0 0 0 346.14691469987156 394.71297791074539 0 394.71297791074539 244.59288583054149 0 0 0 0 165.24099089191441 542.88770700098939 0 542.88770700098939 -95.713987461960642 0 0 0 0 -225.40017909974267 118.85494614341042 0 118.85494614341042 254.94338027141202 0 0 0 0 139.7056588580308 -124.20800970498385 0 -124.20800970498385 -551.66010213466006 0 0 0 0 -76.079719125613337 -245.08959934247287 0 -245.08959934247287 -164.14118503671489 0 0 0 0 115.48722496943083 -89.839641484759341 0 -89.839641484759341 -131.81326746301056 0 0 0 0 117.00861719896784 -177.84438649487129 0 -177.84438649487129 -98.836470214169822 0 0 0 0 30.48324931593379 -24.731232760910643 0 -24.731232760910643 161.03274724143557 0 0 0 0 99.209044134840951 119.72490266719979 0 119.72490266719979 24.550050810339599 0 0 0 0 101.64094650429615 133.01159462810392 0 133.01159462810392 44.077219150542078 0 0 0 0 99.776199689756595 137.0659821634946 0 137.0659821634946 51.485961950445926 0 0 0 0 411.93284119857708 213.17779763426734 0 213.17779763426734 313.96103763783321 0 0 0 0 -8.4839651221295185 28.30193638428176 0 28.30193638428176 -51.41630097010146 0 0 0 0 527.16054479284503 616.90096879496559 0 616.90096879496559 131.83949315607788 0 0 0 0 111.07608991416055 127.05480360465299 0 127.05480360465299 22.749576557664113 0 0 0 0 113.99064622190781 125.70268949236925 0 125.70268949236925 12.555472113133874 0 0 0 0 110.65301937778713 132.90610910922624 0 132.90610910922624 14.722976567092701 0 0 0 0 103.19558792933822 126.88951387671113 0 126.88951387671113 16.059102129758685 0 0 0 0 115.37593936850317 125.35791994645115 0 125.35791994645115 13.679452374009998 0 0 0 0 110.99640252336394 121.69267554862017 0 121.69267554862017 18.314565679145744 0 0 0 0 112.70660516776843 121.99051593230251 0 121.99051593230251 14.994769756303867 0 0 0 0 111.57383925447357 120.0031834523088 0 120.0031834523088 8.5636595139221754 0 0 0 0 107.48428408085601 119.20965932858962 0 119.20965932858962 7.829399162568734 0 0 0 0 112.99327680695569 123.65740960730909 0 123.65740960730909 10.844783424108755 0 0 0 0 108.84660569741391 121.19458652724279 0 121.19458652724279 10.594145936693167 0 0 0 0 108.6008856393164 118.03232809074689 0 118.03232809074689 9.067600741649585 0 0 0 0 116.0539533024712 117.65352554877609 0 117.65352554877609 -0.062351203356229234 0 0 0 0 118.88788353279233 121.1908124528054 0 121.1908124528054 4.3340390765297343 0 0 0 0 120.78161159020965 130.81259433516607 0 130.81259433516607 12.953905386500992 0 0 0 0 116.66753144044196 122.63910505636704 0 122.63910505636704 4.1571286959006102 0 0 0 0 138.02796763215156 160.17482308373656 0 160.17482308373656 26.801385082781053 0 0 0 0 119.40326049455689 137.28228629096111 0 137.28228629096111 1.7453541841314291 0 0 0 0 156.81488245504443 140.60265853234887 0 140.60265853234887 -6.7715393290454813 0 0 0 0 172.61265263124369 124.37381202718461 0 124.37381202718461 -78.640076253279403 0 0 0 0 134.82847439168836 120.12309149895736 0 120.12309149895736 -25.669590111581783 0 0 0 0 159.39884752433863 124.15930972620845 0 124.15930972620845 -28.410597955386038 0 0 0 0 124.23425770309404 109.6646742922494 0 109.6646742922494 -22.399545275286073 0 0 0 0 133.51914705173112 121.83321485249326 0 121.83321485249326 -6.4517816969091655 0 0 0 0 121.59231700870441 103.0570697885305 0 103.0570697885305 -19.65770484152381 0 0 0 0 141.58364983512729 97.867176378058502 0 97.867176378058502 -63.265627385175321 0 0 0 0 145.2352854424098 87.073102726346406 0 87.073102726346406 -61.930205081359873 0 0 0 0 192.17600492906058 115.68038815990803 0 115.68038815990803 -76.039540269512145 0 0 0 0 215.27768041245872 115.22676880727886 0 115.22676880727886 -127.94237970450922 0 0 0 0 74.47574317723047 118.15924725612422 0 118.15924725612422 28.06729343756615 0 0 0 0 95.959649464930408 135.83382974251435 0 135.83382974251435 25.796576278487919 0 0 0 0 97.142055865144357 122.44749146224785 0 122.44749146224785 12.852673906832933 0 0 0 0 96.882550662732683 120.47354807285501 0 120.47354807285501 17.066957711358555 0 0 0 0 80.864091988420114 103.13765263842652 0 103.13765263842652 6.8746200805253466 0 0 0 0 90.028081771393772 98.325840945195523 0 98.325840945195523 -2.9065998106057123 0 0 0 0 95.455621043358406 114.6160770085944 0 114.6160770085944 10.730872486557928 0 0 0 0 108.52413689586683 109.89586107496507 0 109.89586107496507 -3.5685110910126241 0 0 0 0 110.10489507275634 112.57532834641461 0 112.57532834641461 0.6699568087424268 0 0 0 0 85.705015280866064 54.096169083226414 0 54.096169083226414 -48.868404931461555 0 0 0 0 116.93329098995309 94.157080729100926 0 94.157080729100926 -30.866710522008361 0 0 0 0 76.122409496281762 75.238294984726963 0 75.238294984726963 -7.0612298518282159 0 0 0 0 72.89092813791649 68.78475065202656 0 68.78475065202656 -19.938312975755252 0 0 0 0 93.601815424670349 103.0431340793657 0 103.0431340793657 -6.6790123229147866 0 0 0 0 36.26797388381965 79.281355384448034 0 79.281355384448034 41.995675958518405 0 0 0 0 75.225667643215274 120.31559604417271 0 120.31559604417271 33.374953721620841 0 0 0 0 134.23173754378513 14.43391507155502 0 14.43391507155502 -215.10338016274181 0 0 0 0 39.520989200791519 -5.829054035878471 0 -5.829054035878471 -73.72169145506632 0 0 0 0 138.04888147662859 64.249061891656311 0 64.249061891656311 -113.1282827235118 0 0 0 0 153.04597015990294 76.552158007463731 0 76.552158007463731 -113.12380966369857 0 0 0 0 206.99791330155858 67.962168054869835 0 67.962168054869835 -183.16674129664534 0 0 0 0 325.86041025095619 127.70409811471472 0 127.70409811471472 -206.49178189087979 0 0 0 0 152.61632401813404 72.405452127080935 0 72.405452127080935 -113.89983194506158 0 0 0 0 181.38440379503299 87.044956336409086 0 87.044956336409086 -113.77289055765141 0 0 0 0 387.0978573913053 156.63125876611116 0 156.63125876611116 -451.36709827437153 0 0 0 0 179.0806719342072 0.65998169540853269 0 0.65998169540853269 -313.607249545179 0 0 0 0 126.8277117334801 357.49640990681655 0 357.49640990681655 -238.25566140807314 0 0 0 0 220.1593780875628 345.55838449483872 0 345.55838449483872 -897.6972905901348 0 0 0 0 65.356599152888521 86.115745457056619 0 86.115745457056619 -212.8117665499193 0 0 0 0 -43.296728021858144 -70.885724112617027 0 -70.885724112617027 -334.16487461077486 0 0 0 0 70.048236094604363 -160.41273144957086 0 -160.41273144957086 -668.20618423987617 0 0 0 0 130.24187064389116 70.578153416101486 0 70.578153416101486 -519.90924134201123 0 0 0 0 -41.582898286709678 104.26968714294708 0 104.26968714294708 -160.82441004183784 0 0 0 0 -4.9259627717327135 8.7073558835506049 0 8.7073558835506049 -14.308267483768503 0 0 0 0 93.472523631688091 -297.12003956853459 0 -297.12003956853459 -2132.4532933793635 0 0 0 0 -143.10923408983217 1125.154264740233 0 1125.154264740233 -2110.8711023103929 0 0 0 0 104.92680831054167 552.06299468615362 0 552.06299468615362 -1241.7532615340606 0 0 0 0 -74.158497143711429 949.54840231409435 0 949.54840231409435 -1338.589772590045 0 0 0 0 160.77513960223587 597.88100544470944 0 597.88100544470944 -1205.3718700104382 0 0 0 0 -383.656682937406 846.07009275190831 0 846.07009275190831 -1078.1206041787664 0 0 0 0 -362.89899109787621 982.59318246285602 0 982.59318246285602 -1170.0701552678183 0 0 0 0 -264.82992329799163 820.70877226211269 0 820.70877226211269 -1095.0461282899041 0 0 0 0 -187.6339037224825 912.33253876015624 0 912.33253876015624 -1142.0390814048587 0 0 0 0 -142.60423746672313 862.81387271004223 0 862.81387271004223 -1224.8537488468464 0 0 0 0 -170.41742212291865 856.53412946651952 0 856.53412946651952 -1144.9913652042499 0 0 0 0 92.414359137503197 706.15129961168759 0 706.15129961168759 -1298.4462932765491 0 0 0 0 39.690034686558647 591.21416782203778 0 591.21416782203778 -1200.3349671611413 0 0 0 0 205.03719802969135 694.1970824369273 0 694.1970824369273 -1136.1954270794013 0 0 0 0 474.50520484287699 698.83877425691935 0 698.83877425691935 -841.16006757684045 0 0 0 0 256.96343024124144 491.1799502268434 0 491.1799502268434 -1033.2219768432697 0 0 0 0 141.12912804049847 811.09522895108057 0 811.09522895108057 -999.27537087085875 0 0 0 0 87.17641321499832 707.65608054162385 0 707.65608054162385 -1168.5739865170435 0 0 0 0 35.634657054517447 32.195346137360957 0 32.195346137360957 -726.65427596744485 0 0 0 0 176.04015963937854 -112.59909996468014 0 -112.59909996468014 -2253.5449475173737 0 0 0 0 508.68047250391101 1009.7392066095017 0 1009.7392066095017 698.63356982110054 0 0 0 0 2.0398212877113906 3.0548458403723373 0 3.0548458403723373 -4.3462601467527406 0 0 0 0 214.71542393616801 662.97635093221925 0 662.97635093221925 -1303.4030685923244 0 0 0 0 201.29382701239956 582.5976415870573 0 582.5976415870573 -1135.4737798738797 0 0 0 0 210.4641954658 436.3346268319392 0 436.3346268319392 -541.0616333171547 0 0 0 0 303.7333770666155 373.19223031480715 0 373.19223031480715 -437.75043330914741 0 0 0 0 235.33318401465658 456.88237488912728 0 456.88237488912728 -539.24431635140513 0 0 0 0 284.28073920623865 171.0716692697215 0 171.0716692697215 -553.57937281733393 0 0 0 0 315.55252064841625 303.08435578503759 0 303.08435578503759 -314.89440083413501 0 0 0 0 120.71176137290604 87.980220516560621 0 87.980220516560621 -297.44842321887336 0 0 0 0 124.44058700300957 97.968597965583285 0 97.968597965583285 -678.3197806979806 0 0 0 0 367.81728346567252 446.60370152722862 0 446.60370152722862 325.71667035232713 0 0 0 0 5.9141167779864077 6.7533388309950197 0 6.7533388309950197 -9.4722089928332167 0 0 0 0 8.2618247909111915 6.4511294543518005 0 6.4511294543518005 -10.022478319926769 0 0 0 0 121.81219236945617 157.67250240955855 0 157.67250240955855 -94.561372705344183 0 0 0 0 209.84746912808623 196.20234686441199 0 196.20234686441199 -80.72460584262808 0 0 0 0 243.80864572648716 139.15042424858757 0 139.15042424858757 -266.12155403069482 0 0 0 0 203.94208144213189 176.93968669824881 0 176.93968669824881 -63.247777521330136 0 0 0 0 409.36635562777519 256.97438515788599 0 256.97438515788599 -269.90917353513214 0 0 0 0 409.90554554967093 217.49168580824517 0 217.49168580824517 -132.818519762709 0 0 0 0 543.54719061674405 361.43531518946111 0 361.43531518946111 -74.565163177416252 0 0 0 0 487.84142907861678 200.0533901816525 0 200.0533901816525 -63.815707391921023 0 0 0 0 325.69397565137479 124.43665475206944 0 124.43665475206944 -192.35878710844713 0 0 0 0 426.55758016167783 293.28525841706437 0 293.28525841706437 -179.73761893405754 0 0 0 0 415.20751107869728 172.14376262354745 0 172.14376262354745 -187.13810728673343 0 0 0 0 294.06964131772111 152.58020931176816 0 152.58020931176816 -184.37032795191772 0 0 0 0 370.34975385457801 216.54374634971464 0 216.54374634971464 -132.71962007878756 0 0 0 0 302.27536771696759 132.9209151487903 0 132.9209151487903 -138.97110364586115 0 0 0 0 424.2295689602015 242.28778551332141 0 242.28778551332141 -194.17432576759165 0 0 0 0 350.22772688314581 255.95211330369921 0 255.95211330369921 -194.16160393228711 0 0 0 0 366.834606116754 290.7820621067458 0 290.7820621067458 -142.04940119093044 0 0 0 0 285.29431662638672 248.57708887317858 0 248.57708887317858 -38.475605759147584 0 0 0 0 279.32292200218581 270.99250052679963 0 270.99250052679963 -113.80923000171242 0 0 0 0 248.00171876887907 195.52795010322734 0 195.52795010322734 -111.27944538633528 0 0 0 0 250.14134865850792 153.62599993859112 0 153.62599993859112 -90.580911411097986 0 0 0 0 197.4544586516422 163.63306473274315 0 163.63306473274315 -26.907900420112128 0 0 0 0 153.58123108890504 152.13384807322018 0 152.13384807322018 -12.536064856569283 0 0 0 0 143.91918187754345 161.8168131265902 0 161.8168131265902 -3.2955907933210256 0 0 0 0 164.18548314664804 196.61194777598939 0 196.61194777598939 37.765742639705422 0 0 0 0 222.48310561512335 296.50680364875916 0 296.50680364875916 81.269928450754378 0 0 0 0 181.54027796405717 224.96803592943616 0 224.96803592943616 -41.919041534060398 0 0 0 0 271.41633865748008 338.01352641628182 0 338.01352641628182 -37.735254031107615 0 0 0 0 147.32008210640925 262.95263709354367 0 262.95263709354367 143.44252763635268 0 0 0 0 140.13266806829779 226.41191092330973 0 226.41191092330973 78.966276430881408 0 0 0 0 94.681728643430688 154.89924297090147 0 154.89924297090147 94.14054446418595 0 0 0 0 155.86746962649704 199.51937704241482 0 199.51937704241482 40.808651806590206 0 0 0 0 170.41515027106652 203.74613715720716 0 203.74613715720716 246.11883531455169 0 0 0 0 125.8385943431349 292.56507505857371 0 292.56507505857371 367.31833330941845 0 0 0 0 273.69876348979597 359.68266931220387 0 359.68266931220387 6.8305955545365578 0 0 0 0 370.12729533988386 446.97733432849645 0 446.97733432849645 -65.279242079017422 0 0 0 0 331.35420291971241 518.16914416040163 0 518.16914416040163 122.61282950781788 0 0 0 0 350.42032147918087 387.0431117650262 0 387.0431117650262 -75.227575891050947 0 0 0 0 351.63417495931299 441.57082273623888 0 441.57082273623888 -135.72689500369233 0 0 0 0 363.26939683924138 308.47112830889455 0 308.47112830889455 -223.54919591773705 0 0 0 0 333.59112426822503 306.90863067875853 0 306.90863067875853 -209.29973827186404 0 0 0 0 379.62219184204514 186.94427481408729 0 186.94427481408729 -500.69901893496717 0 0 0 0 64.547577072589775 94.390515574505116 0 94.390515574505116 -245.12869501882233 0 0 0 0 218.26283199808677 -165.78217469195988 0 -165.78217469195988 -824.90842846580381 0 0 0 0 -46.090637776898802 -9.8011801752218162 0 -9.8011801752218162 -491.79169191079745 0 0 0 0 43.789844480548709 -671.35819749789937 0 -671.35819749789937 -1184.3972691651761 0 0 0 0 491.22155454104359 470.07008613025664 0 470.07008613025664 -285.05102298947349 0 0 0 0 609.02810220170068 -16.106810721194051 0 -16.106810721194051 -661.97357870683845 0 0 0 0 687.736015823044 897.76329057358453 0 897.76329057358453 547.46974882923314 0 0 0 0 1098.9255684777199 -98.220798893379424 0 -98.220798893379424 -216.63967007754582 0 0 0 0 169.94236425708368 38.57421445374257 0 38.57421445374257 -218.96056141178997 0 0 0 0 598.70307172749017 2.5945940916662948 0 2.5945940916662948 31.944858459312854 0 0 0 0 3364.0168357960283 -336.21599400443847 0 -336.21599400443847 47.027067139621067 0 0 0 0 168.58208568192276 208.74615131782093 0 208.74615131782093 604.47844250450362 0 0 0 0 -376.53259937163966 726.07845702689337 0 726.07845702689337 -1008.7297824740936 0 0 0 0 -1404.0836079612782 358.4039959149768 0 358.4039959149768 693.36149349206971 0 0 0 0 486.31321366266639 -562.03385446868742 0 -562.03385446868742 127.91783175870478 0 0 0 0 -73.669120150421804 174.37330712899347 0 174.37330712899347 -236.4941726670113 0 0 0 0 -359.70740491176548 -118.08371033755702 0 -118.08371033755702 -76.038508313549755 0 0 0 0 -43.545426251061144 83.603268769890747 0 83.603268769890747 -132.24728866540681 0 0 0 0 313.73229085507046 -139.796391232735 0 -139.796391232735 -148.35375033873788 0 0 0 0 436.46876978217915 -55.882731485830391 0 -55.882731485830391 -784.15471847118533 0 0 0 0 697.47233535435225 382.01989497100294 0 382.01989497100294 -62.362994653560236 0 0 0 0 502.3056054556946 745.87798270282383 0 745.87798270282383 740.05196050307859 0 0 0 0 3.0171762302351794 1.1927089685353423 0 1.1927089685353423 -2.5054262041573381 0 0 0 0 161.96234371584433 95.773092394936612 0 95.773092394936612 -138.38979625372849 0 0 0 0 144.8882669177583 186.27250575764583 0 186.27250575764583 133.1821213219373 0 0 0 0 314.94097070826683 200.12195580200932 0 200.12195580200932 -120.41867803398327 0 0 0 0 504.11876927527192 261.61634926676652 0 261.61634926676652 -128.08099788462641 0 0 0 0 432.78710061819584 276.0713493913654 0 276.0713493913654 185.71756796456248 0 0 0 0 316.95477740101705 442.71223568774894 0 442.71223568774894 330.98743517850016 0 0 0 0 7.8592506231739776 4.2832886331326705 0 4.2832886331326705 -7.5912118820116774 0 0 0 0 204.11361839587335 222.97691104604564 0 222.97691104604564 236.70513088140933 0 0 0 0 340.28190335874388 338.17197374864008 0 338.17197374864008 158.46416438475899 0 0 0 0 406.54909572924953 232.96507442054735 0 232.96507442054735 -121.79556674168998 0 0 0 0 445.76230595591187 238.07706918161875 0 238.07706918161875 -266.47874624472024 0 0 0 0 366.12091573400539 256.15118965657803 0 256.15118965657803 -270.58043473548969 0 0 0 0 348.92548226779036 299.835165271601 0 299.835165271601 -138.7937325911048 0 0 0 0 342.76882332343666 223.99263749804959 0 223.99263749804959 -279.97840644876669 0 0 0 0 360.32980979912099 332.64764773607749 0 332.64764773607749 -360.21888425133329 0 0 0 0 279.97654338744178 357.92925129771538 0 357.92925129771538 -319.71586943465627 0 0 0 0 299.30756617894804 305.11417526629157 0 305.11417526629157 -292.99162247747108 0 0 0 0 367.46163045583762 251.90587571852018 0 251.90587571852018 -277.4298547303988 0 0 0 0 321.67942363502516 227.89441249323409 0 227.89441249323409 -276.29099174742078 0 0 0 0 335.93847284236108 239.39679302654258 0 239.39679302654258 -268.26886926292718 0 0 0 0 311.46421524062498 305.28222678497855 0 305.28222678497855 -378.6486497007354 0 0 0 0 240.84983722015568 278.5183315192603 0 278.5183315192603 -202.81459692313001 0 0 0 0 241.43508309397657 248.69408953647374 0 248.69408953647374 -218.00150694118201 0 0 0 0 373.22301410662476 227.26856925459833 0 227.26856925459833 -289.19518763338419 0 0 0 0 165.99471011388232 277.85322723951322 0 277.85322723951322 -9.4778668857743469 0 0 0 0 28.647800503560575 437.61822971840775 0 437.61822971840775 275.74251144899608 0 0 0 0 175.73231041399413 258.04335300721505 0 258.04335300721505 296.15906224825812 0 0 0 0 174.01080959959654 269.51279443221574 0 269.51279443221574 699.16481747093712 0 0 0 0 380.06155432519154 -65.811906063692732 0 -65.811906063692732 398.85989293027887 0 0 0 0 211.17728415227612 150.64226359722306 0 150.64226359722306 340.03408142600438 0 0 0 0 284.72167091339361 201.01398287389202 0 201.01398287389202 150.48733810534759 0 0 0 0 422.75236052216496 17.248089166332647 0 17.248089166332647 -27.679635768183289 0 0 0 0 351.81495072149846 192.26693563262234 0 192.26693563262234 -293.70021838505636 0 0 0 0 326.81454155292158 225.1978605529639 0 225.1978605529639 -218.21573962376351 0 0 0 0 333.74895147883217 243.74814059806522 0 243.74814059806522 -188.91136266419198 0 0 0 0 348.27129036305996 168.55731929135845 0 168.55731929135845 -196.63861814092525 0 0 0 0 255.24484172437224 224.6866789295018 0 224.6866789295018 12.862688547526886 0 0 0 0 209.06757681316958 324.71256776733026 0 324.71256776733026 -203.54132515361562 0 0 0 0 328.00055728995358 332.95540033035377 0 332.95540033035377 -314.52765558953615 0 0 0 0 224.34652128603193 407.82310443572533 0 407.82310443572533 -211.7851029105841 0 0 0 0 230.9280563762004 372.05245093075973 0 372.05245093075973 -114.96892984102669 0 0 0 0 229.8128963173076 443.5080896775853 0 443.5080896775853 -279.15106137213797 0 0 0 0 246.59760014223866 463.63269314525542 0 463.63269314525542 -280.92664303043057 0 0 0 0 204.29084616824548 538.20490207424518 0 538.20490207424518 -304.34815062938287 0 0 0 0 209.70365106947429 517.66180627617177 0 517.66180627617177 -227.55982485980712 0 0 0 0 185.30879827807075 479.79922150387029 0 479.79922150387029 -86.083057074063163 0 0 0 0 182.59741287998622 515.35094986309014 0 515.35094986309014 -207.02613835385762 0 0 0 0 79.590692237907206 543.61289186519934 0 543.61289186519934 -120.1677448946084 0 0 0 0 162.53547442390118 657.90192430692969 0 657.90192430692969 -56.501428038085578 0 0 0 0 211.59907671016117 622.25103187944114 0 622.25103187944114 -316.31139705442547 0 0 0 0 254.67273423177539 552.55835162497806 0 552.55835162497806 -249.98604757605426 0 0 0 0 316.33915578539018 496.97470075738238 0 496.97470075738238 -360.96797272702679 0 0 0 0 311.21745104310685 414.51327629707339 0 414.51327629707339 -174.60971875965151 0 0 0 0 396.85182619909756 562.65455411667062 0 562.65455411667062 -307.81092283166527 0 0 0 0 511.54318026636611 347.15338200885799 0 347.15338200885799 -772.42079245193599 0 0 0 0 332.17848748953838 708.99232244142968 0 708.99232244142968 -636.10826053892379 0 0 0 0 181.52781971939476 492.81939263990807 0 492.81939263990807 -188.96912817348311 0 0 0 0 183.08652318248642 521.3978812491805 0 521.3978812491805 -258.52331549347582 0 0 0 0 130.86915575018793 475.50903168877539 0 475.50903168877539 -30.506915467409272 0 0 0 0 234.33094259968493 490.07337595477657 0 490.07337595477657 -57.060044451956855 0 0 0 0 75.27940374200989 563.09823176839745 0 563.09823176839745 -157.34619571864641 0 0 0 0 216.90655831505137 519.32806292847636 0 519.32806292847636 278.29287428117277 0 0 0 0 417.33155301137595 309.8492281542276 0 309.8492281542276 -111.45546671098373 0 0 0 0 380.28881169731903 347.98300501346603 0 347.98300501346603 -118.81540490677071 0 0 0 0 377.3253596898212 535.52594642705594 0 535.52594642705594 251.51093217043672 0 0 0 0 3180.6887329092424 831.23314898082344 0 831.23314898082344 -285.04674220260858 0 0 0 0 1.8579752890775012 3.9583733615913275 0 3.9583733615913275 33.952885697458697 0 0 0 0 681.14838736472302 806.82982472725416 0 806.82982472725416 498.75501338845788 0 0 0 0 1985.8478923909715 1001.5269997918367 0 1001.5269997918367 294.32086880253337 0 0 0 0 692.84230039294926 877.2899623365829 0 877.2899623365829 640.4857782171639 0 0 0 0 641.11856237385655 415.76420560853876 0 415.76420560853876 271.87167197752387 0 0 0 0 1420.522616358794 2720.8448028458906 0 2720.8448028458906 1818.2416854282783 0 0 0 0 3611.3574041506945 3072.545150336482 0 3072.545150336482 -657.22313512703113 0 0 0 0 -2806.5877232266357 68.34931124661307 0 68.34931124661307 2967.1810348938761 0 0 0 0 567.60435614222661 590.46676942011982 0 590.46676942011982 240.4943376076917 0 0 0 0 389.61677584605059 460.89254534141219 0 460.89254534141219 474.36517634787015 0 0 0 0 335.0668829921633 83.836446679131768 0 83.836446679131768 -108.67259212509452 0 0 0 0 399.70717264109408 814.55530461964918 0 814.55530461964918 -471.1409583362838 0 0 0 0 -166.75076108908979 -1175.345117281573 0 -1175.345117281573 -2275.2262256316026 0 0 0 0 249.04745097487466 1407.6361603870573 0 1407.6361603870573 -2050.7067434914061 0 0 0 0 -253.373533070946 1491.9821010029536 0 1491.9821010029536 -102.21007391517196 0 0 0 0 -165.67804347086349 719.6497501432732 0 719.6497501432732 328.29575360311355 0 0 0 0 -13.028131769344327 577.30839016769869 0 577.30839016769869 117.88917349390977 0 0 0 0 -44.314781971042976 930.33339233233892 0 930.33339233233892 -392.66478671899949 0 0 0 0 72.215889135419275 2184.6769084372581 0 2184.6769084372581 -828.66912950245705 0 0 0 0 -31.153909543417114 18.651472045906218 0 18.651472045906218 -6.7278721237320838 0 0 0 0 -73.505100395443151 267.49930312689867 0 267.49930312689867 1294.3315094112713 0 0 0 0 -189.86947866930859 1016.7436778918363 0 1016.7436778918363 1269.2596999384587 0 0 0 0 284.96144495543558 -80.773004502496406 0 -80.773004502496406 1021.3768513136347 0 0 0 0 -48.7380895131937 549.82279239127229 0 549.82279239127229 808.61761737000779 0 0 0 0 -1612.4455823835742 3248.239963406344 0 3248.239963406344 -1746.975777468268 0 0 0 0 -877.35611674464599 2322.2177517075693 0 2322.2177517075693 -585.55865604412111 0 0 0 0 842.28009284670406 433.50862360715064 0 433.50862360715064 -1014.2466863288391 0 0 0 0 -821.26786543478374 657.96601144863962 0 657.96601144863962 9.6648970455862582 0 0 0 0 224.5051221331596 1018.4644456046012 0 1018.4644456046012 -1564.0774427929609 0 0 0 0 -2.647377184575177 3.4170206594849617 0 3.4170206594849617 -33.237614305569778 0 0 0 0 -701.23354039930564 215.24492430266946 0 215.24492430266946 -241.7788121295016 0 0 0 0 394.28415851449245 484.65245955498176 0 484.65245955498176 -433.26949785422767 0 0 0 0 -49.1758928305062 1247.6553737437316 0 1247.6553737437316 454.80491715510288 0 0 0 0 19.107363835995784 1202.5500085348904 0 1202.5500085348904 -1466.8247813425915 0 0 0 0 44.253176043814165 583.82256738884826 0 583.82256738884826 90.001672667134585 0 0 0 0 68.990775269528967 -636.08704095417397 0 -636.08704095417397 157.93061754116206 0 0 0 0 1165.1407703436853 658.99508080925079 0 658.99508080925079 191.04261589613452 0 0 0 0 944.69264640312758 514.94127338611816 0 514.94127338611816 312.4922005841654 0 0 0 0 1389.047473043378 -119.25771245960095 0 -119.25771245960095 256.10681940752329 0 0 0 0 2162.7378067747632 30.77043044765378 0 30.77043044765378 -28.617901338751835 0 0 0 0 445.66484623128781 54.469316496288229 0 54.469316496288229 226.54058280271602 0 0 0 0 683.72661405490362 417.06096386733861 0 417.06096386733861 179.02957795190559 0 0 0 0 787.44948295880022 480.46054924756299 0 480.46054924756299 97.056086811640853 0 0 0 0 246.0645008114152 389.70727926309814 0 389.70727926309814 129.11454550706549 0 0 0 0 400.50563197873998 379.98228252926674 0 379.98228252926674 97.545259769566655 0 0 0 0 391.6148961406434 105.1977198721861 0 105.1977198721861 6.2242704062809935 0 0 0 0 8.4154475868131726 35.22299779029828 0 35.22299779029828 -78.635581398820136 0 0 0 0 0.94689409651738288 32.362515829817369 0 32.362515829817369 87.765559897537457 0 0 0 0 -726.83759886796543 292.47580707060706 0 292.47580707060706 -95.289563253511005 0 0 0 0 374.46986720332643 160.34633636014178 0 160.34633636014178 118.53741316373817 0 0 0 0 18.086281807233249 15.130152886243451 0 15.130152886243451 4.8411218267626879 0 0 0 0 28.732279530428059 112.97465280662163 0 112.97465280662163 81.608019800880356 0 0 0 0 -213.41835865557368 240.40916088836229 0 240.40916088836229 86.146948312416498 0 0 0 0 14.83785532485625 53.329650146740761 0 53.329650146740761 17.753072114510573 0 0 0 0 21.89902921441535 293.69341860752456 0 293.69341860752456 89.778181620073155 0 0 0 0 -13.410514462964784 124.82868419607985 0 124.82868419607985 45.916691790454934 0 0 0 0 145.33018760931736 211.26193672729778 0 211.26193672729778 39.546920800004045 0 0 0 0 0.56372006559200827 0.39479100801622735 0 0.39479100801622735 -0.43197148425973353 0 0 0 0 -254.53107127145267 131.62978336309243 0 131.62978336309243 86.186671856683461 0 0 0 0 -38.629048308270285 217.76747385925137 0 217.76747385925137 82.056517759496728 0 0 0 0 -83.8770052457985 64.236321802281964 0 64.236321802281964 56.064240338469062 0 0 0 0 299.32575571739289 184.31896856060098 0 184.31896856060098 -84.204458259369858 0 0 0 0 -241.60395747925941 587.62964718747207 0 587.62964718747207 240.49586224982932 0 0 0 0 -52.27550956891082 128.00600313168709 0 128.00600313168709 372.43216733760346 0 0 0 0 -298.93847296389868 306.18129429683358 0 306.18129429683358 261.56984529159126 0 0 0 0 86.908600568363909 444.15232845939136 0 444.15232845939136 310.90255554324222 0 0 0 0 -130.51349866468081 698.56542621141296 0 698.56542621141296 697.11748465702112 0 0 0 0 -151.49261331676826 578.80892937691669 0 578.80892937691669 243.66517498099893 0 0 0 0 218.27934904154972 657.9209608089659 0 657.9209608089659 236.18045779963904 0 0 0 0 231.36746446757752 674.90365056017436 0 674.90365056017436 246.17247214959571 0 0 0 0 199.99442151296535 661.54987251657349 0 661.54987251657349 259.43019255626859 0 0 0 0 500.59414489289338 716.09546503611182 0 716.09546503611182 188.38368059143068 0 0 0 0 417.09631648002687 452.30726322112878 0 452.30726322112878 241.28313253634951 0 0 0 0 193.73427206883207 644.37079358720348 0 644.37079358720348 248.27958600736383 0 0 0 0 30.176875270495657 521.52202890632998 0 521.52202890632998 98.112201447654115 0 0 0 0 104.18427908077138 814.21884554167582 0 814.21884554167582 -67.735893246725027 0 0 0 0 -197.75200168348965 478.42889777683376 0 478.42889777683376 -140.16360643454846 0 0 0 0 4.4129879764368525 593.4525995130648 0 593.4525995130648 -100.69333613354684 0 0 0 0 -280.94358735672722 323.61669824749333 0 323.61669824749333 -611.83161602088148 0 0 0 0 -345.67670644323516 651.61792352744851 0 651.61792352744851 -59.197031468020214 0 0 0 0 81.979608493609703 951.78222607893167 0 951.78222607893167 -1336.7621690539982 0 0 0 0 3.5333588207573143 6.0048693455955018 0 6.0048693455955018 2.8457343008058373 0 0 0 0 -80.508691679642652 1075.7282304372056 0 1075.7282304372056 -449.40799349107192 0 0 0 0 -65.207985035289312 926.14656027394994 0 926.14656027394994 370.17262677211056 0 0 0 0 90.022087504214142 1053.1640154911165 0 1053.1640154911165 619.2178187915988 0 0 0 0 -142.80483455098874 417.27853382464036 0 417.27853382464036 420.74753873906866 0 0 0 0 -302.20233589004056 576.8419715815694 0 576.8419715815694 1786.7969222364291 0 0 0 0 -583.96854063477076 664.3906478042968 0 664.3906478042968 540.69555420808933 0 0 0 0 9.7138623441715026 862.3769821288397 0 862.3769821288397 146.78767471219089 0 0 0 0 -147.09715125639923 334.22661189334235 0 334.22661189334235 -273.92881451021276 0 0 0 0 -187.59564138355927 679.38845378793621 0 679.38845378793621 788.60345169178072 0 0 0 0 -99.869860409962712 763.10271427745147 0 763.10271427745147 662.63357113675261 0 0 0 0 20.917597610299708 781.53275376689271 0 781.53275376689271 540.04286062633582 0 0 0 0 -215.58847828384023 456.61716763332333 0 456.61716763332333 486.3549164251765 0 0 0 0 -118.73415584799659 748.20113142577759 0 748.20113142577759 -165.25915022248319 0 0 0 0 9.0279649274954181 12.203917989127547 0 12.203917989127547 5.6371152303645342 0 0 0 0 -311.05984549195909 548.65322983287001 0 548.65322983287001 -44.881274406068769 0 0 0 0 -167.54001072640676 516.37953495200463 0 516.37953495200463 -44.955706272236057 0 0 0 0 -151.06366293210885 1024.3719400485143 0 1024.3719400485143 21.263481452089763 0 0 0 0 -145.37186075693353 984.82907847978754 0 984.82907847978754 112.67512930089651 0 0 0 0 -94.316418558097212 898.78152831732405 0 898.78152831732405 -180.26353407462739 0 0 0 0 -346.11581966622907 784.21744664699509 0 784.21744664699509 370.35284383175804 0 0 0 0 -364.77796724194923 670.45890808832837 0 670.45890808832837 -20.909090696331987 0 0 0 0 -216.14323570448323 593.46110840018628 0 593.46110840018628 -50.610464076899007 0 0 0 0 -150.91940383697511 630.35030781921932 0 630.35030781921932 -82.839454419494359 0 0 0 0 -65.923070288146846 495.07895197354719 0 495.07895197354719 -35.383366178415145 0 0 0 0 -141.22631875473598 740.82451616819708 0 740.82451616819708 -3.5232019698069053 0 0 0 0 -132.45464879539213 645.85473931836441 0 645.85473931836441 -100.67923996413265 0 0 0 0 108.81722898258886 536.22524288663499 0 536.22524288663499 -214.84657225427691 0 0 0 0 159.04392247348733 574.75108268782787 0 574.75108268782787 -289.43752169756408 0 0 0 0 72.803802296111826 624.62424506228945 0 624.62424506228945 -313.66595856122694 0 0 0 0 190.07751956388529 556.04120874114142 0 556.04120874114142 -431.39096376951056 0 0 0 0 102.96103820121789 713.54223581174756 0 713.54223581174756 -627.30871701176693 0 0 0 0 81.596992687889724 800.4394115937539 0 800.4394115937539 -792.29086012668813 0 0 0 0 40.126915829416248 670.52263590196344 0 670.52263590196344 -713.6137990531206 0 0 0 0 195.07237635477213 769.95179529987581 0 769.95179529987581 -884.68043143466275 0 0 0 0 144.65374272559711 584.53715798475423 0 584.53715798475423 -1240.9070782546905 0 0 0 0 105.93468268957258 1042.7048204494824 0 1042.7048204494824 -372.51676791108184 0 0 0 0 130.6659594846551 936.12493797849413 0 936.12493797849413 -980.58368765911291 0 0 0 0 43.967484054504894 755.37798918100179 0 755.37798918100179 -315.05128503534434 0 0 0 0 -99.116258707654197 869.72171922884445 0 869.72171922884445 -272.92346628765517 0 0 0 0 50.918555595213547 859.0492022954495 0 859.0492022954495 -2165.3462835441787 0 0 0 0 -100.58014480993734 1164.1605368961991 0 1164.1605368961991 -1981.2799006842251 0 0 0 0 -714.15560680787894 788.32354485840551 0 788.32354485840551 -1534.104437488746 0 0 0 0 278.98010631106445 1066.7862809866401 0 1066.7862809866401 -1177.654178087203 0 0 0 0 254.45011624050676 1402.0673783753573 0 1402.0673783753573 -247.65880215720063 0 0 0 0 86.724796958078514 1179.8085025828323 0 1179.8085025828323 -1206.9149805975612 0 0 0 0 76.022872007641126 581.33234103014365 0 581.33234103014365 -1460.962702926161 0 0 0 0 234.38405035009418 734.36054549622213 0 734.36054549622213 -1330.0750435449809 0 0 0 0 -204.37544515389891 796.00982923503943 0 796.00982923503943 -1294.1892817969419 0 0 0 0 -152.74496263579931 725.42883558357607 0 725.42883558357607 -1536.4933558442208 0 0 0 0 -38.693248690280598 802.21900340888351 0 802.21900340888351 -1558.2710134366644 0 0 0 0 -371.48197199526476 850.60303762051262 0 850.60303762051262 -1222.1406111126976 0 0 0 0 -289.38068110960012 841.41512503712693 0 841.41512503712693 -1110.9546641325978 0 0 0 0 -41.239582422218518 580.36262783605798 0 580.36262783605798 -1103.8572026074507 0 0 0 0 37.071600713671728 12.513365168972332 0 12.513365168972332 -0.0085433323040646769 0 0 0 0 32.379482157441089 73.432017638420803 0 73.432017638420803 -20.773980664709597 0 0 0 0 -80.694563765471685 676.65090452021286 0 676.65090452021286 -1288.0951084165172 0 0 0 0 -68.545678029913688 134.07823540848949 0 134.07823540848949 -984.44444932349597 0 0 0 0 -103.36266014563444 769.26369913820781 0 769.26369913820781 -1503.8989017907661 0 0 0 0 -131.58751512161689 935.63686201677046 0 935.63686201677046 -2478.8092237922974 0 0 0 0 7.900752428305708 5.0329421197948818 0 5.0329421197948818 -3.4495401647088286 0 0 0 0 181.43101199044031 75.586315145606932 0 75.586315145606932 -2622.9826960717455 0 0 0 0 183.1821092030732 32.003649575530289 0 32.003649575530289 -2082.6000015013196 0 0 0 0 362.83013448253041 185.80770533702162 0 185.80770533702162 78.029877968685469 0 0 0 0 -3.4052218827033585 5.4243492011762129 0 5.4243492011762129 2.5204617156155464 0 0 0 0 -25.698214536701869 19.442980774584697 0 19.442980774584697 8.9553635939938729 0 0 0 0 81.587296084115223 85.6893426552042 0 85.6893426552042 7.4844882472752943 0 0 0 0 8.1666555495024795 12.959882083723585 0 12.959882083723585 -10.350348341077343 0 0 0 0 47.845493395812809 73.737305442153229 0 73.737305442153229 -22.718137534385278 0 0 0 0 91.467912519932725 139.25875294858633 0 139.25875294858633 172.35378061769006 0 0 0 0 6.5876282039680518 57.859562198304047 0 57.859562198304047 -12.734717190476658 0 0 0 0 49.299534845078597 46.60907888924703 0 46.60907888924703 -12.67684644468136 0 0 0 0 -18.063921522801053 17.085920893671783 0 17.085920893671783 -2.9992326156550178 0 0 0 0 54.24018892357708 85.49390953441798 0 85.49390953441798 6.0176769331992546 0 0 0 0 6.5826938912359765 107.27621232759975 0 107.27621232759975 94.855208321117971 0 0 0 0 2.761044465104078 5.5929598945461692 0 5.5929598945461692 1.30766765232325 0 0 0 0 922.34181582924793 810.33707744601088 0 810.33707744601088 783.50087934352814 0 0 0 0 895.23032710071857 842.7171813781506 0 842.7171813781506 832.58372089327531 0 0 0 0 756.10102684472804 852.15585026019198 0 852.15585026019198 856.0147955700786 0 0 0 0 1142.5080083317298 923.34457721848594 0 923.34457721848594 785.73443631259852 0 0 0 0 1033.1570039356156 1129.3716685712752 0 1129.3716685712752 920.60135792599067 0 0 0 0 546.71576879514032 1129.9384929802791 0 1129.9384929802791 926.69972090767442 0 0 0 0 -69.608172546606511 -350.62362135218791 0 -350.62362135218791 -1267.6036484392607 0 0 0 0 -0.31901755525910858 3.1303952584450201 0 3.1303952584450201 -2.8338137089084405 0 0 0 0 867.25782933150185 849.2127603099525 0 849.2127603099525 1112.3597776862334 0 0 0 0 523.15439753097598 1595.9543796890575 0 1595.9543796890575 1527.7987750838984 0 0 0 0 330.47583695239155 896.45567753961041 0 896.45567753961041 979.02873830737099 0 0 0 0 545.89612306896015 1760.8113980183539 0 1760.8113980183539 163.91152345334922 0 0 0 0 -171.87923247493745 340.33852797005602 0 340.33852797005602 874.587112228362 0 0 0 0 91.399920766067225 1311.7497232775731 0 1311.7497232775731 549.58311996222983 0 0 0 0 70.258862662114552 842.80960943645209 0 842.80960943645209 1907.5873369282053 0 0 0 0 5.728987835414614 5.8280058751105699 0 5.8280058751105699 2.6921919282934024 0 0 0 0 793.30828062433284 800.59531853174894 0 800.59531853174894 -1276.6315173398948 0 0 0 0 -28.013686115358723 79.695292158692155 0 79.695292158692155 -239.0291267123539 0 0 0 0 -390.94784321446059 510.00345847835092 0 510.00345847835092 327.07696872424458 0 0 0 0 59.887867384270066 703.23706257468348 0 703.23706257468348 389.55537580057762 0 0 0 0 222.08642537264677 328.25398152022763 0 328.25398152022763 383.13606802942741 0 0 0 0 495.69702187135408 538.00281510355489 0 538.00281510355489 84.316627084169795 0 0 0 0 427.04411450063344 413.76541652149626 0 413.76541652149626 772.57728770161475 0 0 0 0 468.37206057191361 586.1163938053819 0 586.1163938053819 586.91543309458166 0 0 0 0 -44.756825392672908 484.05745917639388 0 484.05745917639388 678.90980036050587 0 0 0 0 159.35843207265134 805.27161738315226 0 805.27161738315226 1147.3141010314512 0 0 0 0 561.67744544860034 692.19639282353091 0 692.19639282353091 519.65988580283192 0 0 0 0 560.9738721782669 442.30366788980632 0 442.30366788980632 370.4267059032527 0 0 0 0 580.00380437180866 611.79196081199416 0 611.79196081199416 807.31528359365723 0 0 0 0 495.97227063822714 498.17074143318183 0 498.17074143318183 385.21013866275734 0 0 0 0 899.96865884038743 802.62935557610604 0 802.62935557610604 303.42402826176294 0 0 0 0 764.93747462463216 796.50160602477786 0 796.50160602477786 338.94704606848222 0 0 0 0 796.29322276523453 957.6486937421696 0 957.6486937421696 432.58309961352256 0 0 0 0 1049.6707338083361 696.25742679320319 0 696.25742679320319 374.66174971028579 0 0 0 0 846.84807103925414 1093.7531724296714 0 1093.7531724296714 305.72393099967667 0 0 0 0 844.45542148045206 575.51115300093488 0 575.51115300093488 -8.2162659158375391 0 0 0 0 773.5643008396728 857.89504432447302 0 857.89504432447302 808.43288157265124 0 0 0 0 961.86053152877139 763.08011090367245 0 763.08011090367245 802.4812663795874 0 0 0 0 751.13129607557858 812.71501186768 0 812.71501186768 762.34369212848651 0 0 0 0 878.02830977522535 779.4303821473768 0 779.4303821473768 770.87088216936536 0 0 0 0 -4.1379344142898162 -1.0319737851469455 0 -1.0319737851469455 3.1218700820269341 0 0 0 0 113.66555498258094 -21.201748713843699 0 -21.201748713843699 -189.75868681613701 0 0 0 0 -476.91607032726461 47.789493978953033 0 47.789493978953033 48.133558637012356 0 0 0 0 -239.00124490025337 217.812882213595 0 217.812882213595 23.721040612044817 0 0 0 0 -677.75715715630213 182.15626323820652 0 182.15626323820652 22.88338379524248 0 0 0 0 -1045.8177551353583 34.238872373079175 0 34.238872373079175 106.41919919950556 0 0 0 0 -827.72905909740803 731.7734348684985 0 731.7734348684985 -57.876733106034408 0 0 0 0 1106.6351675808237 988.78519805396343 0 988.78519805396343 231.2746651062871 0 0 0 0 -8.106130313034356 6.6409560005574804 0 6.6409560005574804 -1.2579289666911713 0 0 0 0 1032.4810000210127 704.85821757563781 0 704.85821757563781 406.15416148481563 0 0 0 0 764.12970408986439 1136.5125123690843 0 1136.5125123690843 189.11163434983484 0 0 0 0 -64.167486806516536 329.9614788238635 0 329.9614788238635 444.43497231420554 0 0 0 0 -167.21813616492 931.42013952775244 0 931.42013952775244 675.43472594943898 0 0 0 0 38.853792645168141 339.90772108241231 0 339.90772108241231 528.22566387011079 0 0 0 0 -101.94362730021749 590.92326098903709 0 590.92326098903709 953.73543603808685 0 0 0 0 -10.608818573484314 598.47688256864353 0 598.47688256864353 -108.3732333961525 0 0 0 0 -119.06718982262828 379.77078893927865 0 379.77078893927865 519.27223011404124 0 0 0 0 0.14569233574729878 535.21427922020712 0 535.21427922020712 -12.005194878946895 0 0 0 0 -149.43238299919176 445.29821969100249 0 445.29821969100249 -58.488837930674435 0 0 0 0 -144.5131323771202 474.95763481728864 0 474.95763481728864 -116.43321950336303 0 0 0 0 -409.56063403308508 504.4866129564025 0 504.4866129564025 -79.260059819491289 0 0 0 0 -131.08132838839083 420.56781911863345 0 420.56781911863345 -84.19177658701301 0 0 0 0 -128.83724095483194 397.95610464996844 0 397.95610464996844 -140.15660634694177 0 0 0 0 -0.14023925919900648 450.64917586756792 0 450.64917586756792 -153.59530187252676 0 0 0 0 -100.82435339548101 358.04679139010386 0 358.04679139010386 -145.72772781323874 0 0 0 0 -32.706326727144187 239.58046782812562 0 239.58046782812562 -395.14786089595873 0 0 0 0 -0.14478176208649529 348.37361399157544 0 348.37361399157544 -202.14332686238231 0 0 0 0 -12.196861855190946 151.70352667004045 0 151.70352667004045 -30.57320133274925 0 0 0 0 -208.20819285421749 277.02865894859497 0 277.02865894859497 -60.380111275813761 0 0 0 0 -119.58870607917197 314.99686390346506 0 314.99686390346506 -51.107472132700423 0 0 0 0 -270.0181648133439 386.62878355715475 0 386.62878355715475 -84.50355954790939 0 0 0 0 -342.71744113649038 260.18362528593707 0 260.18362528593707 31.46780691668755 0 0 0 0 -229.81043983291602 124.93357271458808 0 124.93357271458808 57.181764873235807 0 0 0 0 -144.31449332268676 204.08723527031907 0 204.08723527031907 7.144398003241804 0 0 0 0 -98.356763568037422 31.940637909980069 0 31.940637909980069 101.5120529697042 0 0 0 0 -328.5083620059886 121.25158174089756 0 121.25158174089756 131.88822708274529 0 0 0 0 21.648657397250645 62.627837016923877 0 62.627837016923877 14.39752347598187 0 0 0 0 16.93556173354591 37.920693330040649 0 37.920693330040649 -70.19050720335872 0 0 0 0 -88.095247116754763 86.642444022105337 0 86.642444022105337 13.398972495149792 0 0 0 0 -117.44909600829124 147.9720264397456 0 147.9720264397456 -25.094656530896827 0 0 0 0 -149.99117863868742 167.70394257117368 0 167.70394257117368 97.569563754208502 0 0 0 0 -88.766963712821962 89.646738071332152 0 89.646738071332152 21.674896641754458 0 0 0 0 -23.857089554076083 57.677733296199222 0 57.677733296199222 -127.41022326208986 0 0 0 0 -94.002120876735717 185.23739966729954 0 185.23739966729954 -251.2675576883521 0 0 0 0 -16.815356956460164 72.061245442842846 0 72.061245442842846 -102.67924234586462 0 0 0 0 25.071902110267388 6.661219894163672 0 6.661219894163672 0.7381915408101456 0 0 0 0 -115.88319115421473 502.05628672761031 0 502.05628672761031 -889.00506502696589 0 0 0 0 -191.27111716319632 446.32338701788285 0 446.32338701788285 -784.92988372714717 0 0 0 0 13.233105888435261 4.3534374788074679 0 4.3534374788074679 0.5478747285981278 0 0 0 0 -66.014211653848179 147.38461482125058 0 147.38461482125058 -233.71867178276989 0 0 0 0 -262.17257183879701 282.49143792910036 0 282.49143792910036 -349.84210648671433 0 0 0 0 55.993748584820423 162.3377279895667 0 162.3377279895667 -404.92373611114999 0 0 0 0 4.9312899211497552 0.37754284668270799 0 0.37754284668270799 -0.54131084972253873 0 0 0 0 -192.70643844132428 303.28493727638352 0 303.28493727638352 541.35058200693311 0 0 0 0 -0.057330984631646098 188.78036125831619 0 188.78036125831619 -219.02218662209634 0 0 0 0 -73.777851955324877 91.842966919572063 0 91.842966919572063 27.509221544265529 0 0 0 0 -0.22972465757743521 -2.5512170641934802 0 -2.5512170641934802 -0.54412732813788267 0 0 0 0 38.450698604516219 71.558085917282369 0 71.558085917282369 -247.18880422986331 0 0 0 0 -0.25179996629515244 -2.21759835015364 0 -2.21759835015364 -0.3517716543617424 0 0 0 0 -33.593239003035706 152.47866726701977 0 152.47866726701977 -337.56010359376251 0 0 0 0 -89.998881746796542 121.5483710699209 0 121.5483710699209 -227.19612848078395 0 0 0 0 -740.78756544524003 171.69620034081481 0 171.69620034081481 -34.159381585976007 0 0 0 0 29.594625060854014 115.6887439996176 0 115.6887439996176 -156.77129270549085 0 0 0 0 -431.28215307378491 398.08216209382994 0 398.08216209382994 117.62150151775495 0 0 0 0 -387.5566379693737 444.36093252076716 0 444.36093252076716 -260.50024926116203 0 0 0 0 -997.14875221850161 544.60391428460298 0 544.60391428460298 -188.1966803910891 0 0 0 0 -1250.9091578835869 621.64860847240607 0 621.64860847240607 -250.00885865801138 0 0 0 0 -993.31501270408262 484.46975867623041 0 484.46975867623041 -244.72541250693757 0 0 0 0 -43.467309689844114 -148.46042622595633 0 -148.46042622595633 123.08875675083499 0 0 0 0 -10.088498539435506 -6.5545804269884513 0 -6.5545804269884513 1.7965707307522862 0 0 0 0 -1079.7011585635883 426.18127025460853 0 426.18127025460853 -338.19392128455365 0 0 0 0 -1675.3600393450943 1060.7041620372511 0 1060.7041620372511 -245.0096071841449 0 0 0 0 -4.8055025217978766 -1.6636407137878706 0 -1.6636407137878706 1.0885430713446169 0 0 0 0 125.50135003935247 -278.8324481475488 0 -278.8324481475488 305.32412933827618 0 0 0 0 -149.50949094784664 54.94084470488815 0 54.94084470488815 140.61525175810857 0 0 0 0 -414.49524701234986 61.01657684240854 0 61.01657684240854 359.391913638598 0 0 0 0 -797.57396314960806 366.51541440990832 0 366.51541440990832 186.47596040036115 0 0 0 0 -596.14601726846377 538.98229966114195 0 538.98229966114195 101.35555787794965 0 0 0 0 -701.22910986851639 558.14451593476906 0 558.14451593476906 178.80279799382515 0 0 0 0 -433.10661730260108 371.26766862240038 0 371.26766862240038 -244.60978443253452 0 0 0 0 -1284.0441087506533 391.41107647695321 0 391.41107647695321 187.15902283487048 0 0 0 0 -146.9081789085285 730.20742656956008 0 730.20742656956008 402.2577736453278 0 0 0 0 -510.63479200250549 386.65535152460939 0 386.65535152460939 225.61460100841214 0 0 0 0 543.03016087024662 325.13276081242975 0 325.13276081242975 -133.09290852010236 0 0 0 0 6.7885510809224314 3.3259768456671064 0 3.3259768456671064 1.4343360535054028 0 0 0 0 338.96606266946401 55.177415475301132 0 55.177415475301132 -249.39180492450578 0 0 0 0 37.144878314473317 -48.967891517453609 0 -48.967891517453609 -104.09919124088628 0 0 0 0 -25.586879120080994 411.13381336889506 0 411.13381336889506 621.59991828331204 0 0 0 0 42.710052359936526 88.553219475561491 0 88.553219475561491 289.14228409015755 0 0 0 0 639.49862043297253 592.83382647098188 0 592.83382647098188 52.762703949793831 0 0 0 0 -42.920531783129263 168.49199025442431 0 168.49199025442431 -548.04291946379453 0 0 0 0 -124.77148660973035 207.67114791357972 0 207.67114791357972 -248.23006346667898 0 0 0 0 18.396519769690158 7.5864209440124526 0 7.5864209440124526 2.7505094048502556 0 0 0 0 16.935391320002964 192.51286779027578 0 192.51286779027578 -146.55395206393678 0 0 0 0 -25.260490275510165 299.66669207487257 0 299.66669207487257 -289.64852997220987 0 0 0 0 -100.70565447147601 131.97935078169712 0 131.97935078169712 8.9458296650336706 0 0 0 0 -89.136455205971288 216.7014840822967 0 216.7014840822967 53.881557431737747 0 0 0 0 -4.8097230602652417 236.70670825465822 0 236.70670825465822 -248.80948120340418 0 0 0 0 -6.7026272946823156 330.3751743859475 0 330.3751743859475 11.483477914676314 0 0 0 0 -86.139029377343832 274.31309821791274 0 274.31309821791274 28.058297028144807 0 0 0 0 -42.232663000017055 324.48126791686445 0 324.48126791686445 -200.96335872361806 0 0 0 0 -84.720774803507084 220.16285576282007 0 220.16285576282007 -204.85025487872736 0 0 0 0 -60.626000473199383 355.03170110501537 0 355.03170110501537 146.11394027778078 0 0 0 0 -33.752687180363864 464.56983789039805 0 464.56983789039805 215.33808729875318 0 0 0 0 59.849393625996527 342.63839122374156 0 342.63839122374156 220.299394634485 0 0 0 0 54.337530009655893 365.84719749466058 0 365.84719749466058 140.61278624803458 0 0 0 0 29.194226344252456 347.2221412834765 0 347.2221412834765 152.96293677772155 0 0 0 0 146.41889187951892 369.83755589359862 0 369.83755589359862 -16.584245150922015 0 0 0 0 130.83460490838752 359.7960623852025 0 359.7960623852025 18.943629226891062 0 0 0 0 229.0086521227895 457.26591965801117 0 457.26591965801117 55.572658268909436 0 0 0 0 98.837892585845111 231.9034125024732 0 231.9034125024732 228.49167847159242 0 0 0 0 150.22010379231324 358.99398888805172 0 358.99398888805172 17.885828934902747 0 0 0 0 108.05927082243943 171.86646725880064 0 171.86646725880064 -165.50642939318504 0 0 0 0 -4.8540049338160429 4.6008284657023335 0 4.6008284657023335 0.20521247661511111 0 0 0 0 -26.389519107553497 129.57031141946891 0 129.57031141946891 31.334735255520172 0 0 0 0 -76.112719361586642 143.79678332785625 0 143.79678332785625 -100.09225168047669 0 0 0 0 -76.849861500948464 198.51677205598753 0 198.51677205598753 -304.37444261399196 0 0 0 0 -66.953138937829863 180.49383028452382 0 180.49383028452382 46.931212598791717 0 0 0 0 110.38805468099054 405.37824411586234 0 405.37824411586234 -43.310666878825941 0 0 0 0 154.94688608348224 304.48596582344089 0 304.48596582344089 158.69441347756265 0 0 0 0 1.7883881846264558 318.57920846777461 0 318.57920846777461 528.35456701780549 0 0 0 0 -1.6046722880480644 2.9442293077778494 0 2.9442293077778494 0.092550887966293072 0 0 0 0 73.126445383652026 407.13980073256789 0 407.13980073256789 211.18573252615681 0 0 0 0 -113.59046292195853 284.5776410524104 0 284.5776410524104 152.33060595855932 0 0 0 0 98.559441891906317 365.98648493095607 0 365.98648493095607 -544.52666793750029 0 0 0 0 39.357490795613558 512.08187381885728 0 512.08187381885728 -170.23392637784582 0 0 0 0 240.9018816091193 301.6663993844254 0 301.6663993844254 138.1310624190246 0 0 0 0 155.26605357860899 227.9918220748641 0 227.9918220748641 123.4135143057556 0 0 0 0 126.77361557434961 204.53975639148985 0 204.53975639148985 276.33129234033458 0 0 0 0 -127.45066892432078 93.797748419465279 0 93.797748419465279 88.137943207842909 0 0 0 0 -0.97743669392375665 0.33519280538520135 0 0.33519280538520135 2.7851415845926653 0 0 0 0 9.1407306839864759 -38.693861463116264 0 -38.693861463116264 29.757411058055368 0 0 0 0 2.4648330682379225 1.9028963384139423 0 1.9028963384139423 1.9992820838184429 0 0 0 0 220.08763936872856 -28.916670163181152 0 -28.916670163181152 130.89444656907835 0 0 0 0 -16.399080511997454 45.277558258479985 0 45.277558258479985 145.00574863183829 0 0 0 0 109.41924100232427 207.81089615184464 0 207.81089615184464 10.669342467335809 0 0 0 0 -79.122717463855224 142.66723337982512 0 142.66723337982512 -100.48957817527025 0 0 0 0 -124.01053081755526 111.13076735736558 0 111.13076735736558 -67.789512369958175 0 0 0 0 -27.768507373686589 127.48956653368259 0 127.48956653368259 -100.25799320135047 0 0 0 0 -77.38488272808172 98.104681515172615 0 98.104681515172615 -68.643634542241671 0 0 0 0 -28.803351071478573 134.59574572654583 0 134.59574572654583 -141.36515266696824 0 0 0 0 -76.556349994109041 114.89450807704952 0 114.89450807704952 -132.93546345840241 0 0 0 0 -302.17449984696577 78.561398040075801 0 78.561398040075801 -156.148408463132 0 0 0 0 -65.051160183375032 91.660727446932469 0 91.660727446932469 -237.41135283601579 0 0 0 0 -383.78745569907915 98.797752419506651 0 98.797752419506651 -115.77410030684041 0 0 0 0 25.245851049654448 197.21778120316185 0 197.21778120316185 -141.37476626176891 0 0 0 0 -7.1264599682062908 14.892988227340993 0 14.892988227340993 -100.25438687831593 0 0 0 0 -634.95819319955262 81.274629421008285 0 81.274629421008285 455.21783319833582 0 0 0 0 -3.2953105567464007 2.8780486822467566 0 2.8780486822467566 0.0068666735328719586 0 0 0 0 -501.15647033674759 539.27124676055155 0 539.27124676055155 -588.54482988549171 0 0 0 0 -13.403767779771442 83.440482833885653 0 83.440482833885653 -285.07268786721454 0 0 0 0 -1069.5764278470924 462.97277609833418 0 462.97277609833418 -193.94616479810156 0 0 0 0 -1028.9463093137892 370.92412301674267 0 370.92412301674267 -136.22805116473137 0 0 0 0 -837.76288940266386 535.43616912611196 0 535.43616912611196 -233.67776941142347 0 0 0 0 -1023.5755984582429 492.77379504177952 0 492.77379504177952 -227.02417342045374 0 0 0 0 -782.70951746782157 356.96680010281852 0 356.96680010281852 -116.00618524896709 0 0 0 0 -1005.7334730690163 714.23641653434561 0 714.23641653434561 -562.7955396380712 0 0 0 0 -439.99402514647227 252.54627424025875 0 252.54627424025875 -364.36946043341459 0 0 0 0 -530.13164317110932 88.286262683733185 0 88.286262683733185 -249.12414669370946 0 0 0 0 -301.34713544213821 121.61232751200126 0 121.61232751200126 -278.930553281225 0 0 0 0 -661.47466467108825 242.50143825197097 0 242.50143825197097 -246.03162833953684 0 0 0 0 -683.19855795772673 162.25240008643777 0 162.25240008643777 -481.64172094935202 0 0 0 0 -822.60373436392547 9.5268015187575656 0 9.5268015187575656 -400.6160070140163 0 0 0 0 -977.89138901263686 711.56650091360802 0 711.56650091360802 -1094.9575411748174 0 0 0 0 -1361.84064744016 419.40206965720017 0 419.40206965720017 -145.70752812653518 0 0 0 0 -2328.7780069477085 892.0214334359016 0 892.0214334359016 -284.30402538270755 0 0 0 0 250.87501996892388 -63.523296713428863 0 -63.523296713428863 -149.03404031386572 0 0 0 0 -85.232880528597889 287.31215069251994 0 287.31215069251994 -474.64480786621516 0 0 0 0 -1.6422621344855877 -1.7930476606634755 0 -1.7930476606634755 -10.536231343991872 0 0 0 0 -80.610363093577689 1455.5355842039232 0 1455.5355842039232 -231.27936634194702 0 0 0 0 695.31726995357712 -188.68931945308597 0 -188.68931945308597 70.801806615019814 0 0 0 0 691.41573169617914 -250.76069580071817 0 -250.76069580071817 762.70587840444387 0 0 0 0 984.32117093638226 798.42381685508644 0 798.42381685508644 804.23450539287455 0 0 0 0 1049.1046556249057 585.3583866201875 0 585.3583866201875 -216.64911096446667 0 0 0 0 2087.2253060887233 948.70141601569503 0 948.70141601569503 -179.31163264827865 0 0 0 0 650.59855180536397 13.217809422859318 0 13.217809422859318 153.50361547167358 0 0 0 0 3034.0126413624203 -760.96113451163865 0 -760.96113451163865 57.810482794477139 0 0 0 0 12.811822445138219 10.255691632311759 0 10.255691632311759 13.081019563842354 0 0 0 0 1133.7860670208975 -90.165091914184359 0 -90.165091914184359 -56.037811213937857 0 0 0 0 1141.8312934895948 -130.99243142216164 0 -130.99243142216164 12.824046566637833 0 0 0 0 1147.830571124272 -113.14709831273558 0 -113.14709831273558 -93.175327880205259 0 0 0 0 1122.8858374591 287.11653682947417 0 287.11653682947417 -228.65056592268684 0 0 0 0 1364.8626267813961 -68.018955717525841 0 -68.018955717525841 -154.67895261192643 0 0 0 0 1111.0487110952672 58.079051589815208 0 58.079051589815208 -209.00868469159423 0 0 0 0 849.80299775003868 19.772751558963336 0 19.772751558963336 -164.73463911690669 0 0 0 0 1080.5491444475847 -4.7072300504780742 0 -4.7072300504780742 -256.07411385841169 0 0 0 0 1092.6168336201881 21.372322795679793 0 21.372322795679793 -203.24840099446374 0 0 0 0 1108.4301389668981 -38.077950434539844 0 -38.077950434539844 -37.212443857750827 0 0 0 0 -28.219499388717011 -6.6231110287128558 0 -6.6231110287128558 1.5538924726573526 0 0 0 0 -889.84906656188105 377.55835258477782 0 377.55835258477782 -194.15914549388617 0 0 0 0 -1029.3083942842688 440.41357159066695 0 440.41357159066695 -161.77537852191017 0 0 0 0 -1065.736973995954 447.83635284203683 0 447.83635284203683 -156.49109612144002 0 0 0 0 17.563477385053375 39.314473033383443 0 39.314473033383443 36.428909406087627 0 0 0 0 1139.4178990615192 -113.48127692254559 0 -113.48127692254559 -71.868201841175505 0 0 0 0 3.3704801647290283 8.2454478679804737 0 8.2454478679804737 -30.904577860666663 0 0 0 0 18.217518817691598 203.01322812610306 0 203.01322812610306 -90.972208458818386 0 0 0 0 -195.56973513943376 131.67981309120569 0 131.67981309120569 -102.03308145096526 0 0 0 0 -266.99954809239716 117.25535347395089 0 117.25535347395089 -253.19521729749795 0 0 0 0 -42.805150097548562 -9.8325288256756362 0 -9.8325288256756362 0.0041958676885514024 0 0 0 0 -99.837710991407221 234.31297328204255 0 234.31297328204255 -395.13505068745144 0 0 0 0 -137.16958436541609 213.22363167342519 0 213.22363167342519 -130.89972928245879 0 0 0 0 -119.2714314051118 103.63022175438982 0 103.63022175438982 -216.42491067324409 0 0 0 0 -111.31883175877738 136.38874135813694 0 136.38874135813694 -109.8341687410466 0 0 0 0 -72.924051548742 11.561185388840133 0 11.561185388840133 -5.6172678368326743 0 0 0 0 -222.08597909574746 239.7811210034215 0 239.7811210034215 453.13908568247825 0 0 0 0 -108.57038389131048 137.95639040897913 0 137.95639040897913 -114.25302799406563 0 0 0 0 -15.265638956797153 124.9022016786037 0 124.9022016786037 -55.395231065707002 0 0 0 0 -72.967124238959514 151.71912902442091 0 151.71912902442091 46.46966309473919 0 0 0 0 -175.42871178433052 1.4762790645809218 0 1.4762790645809218 229.58069842235273 0 0 0 0 -51.737854630540824 -96.417313909576478 0 -96.417313909576478 312.5465156375576 0 0 0 0 -258.72752532199956 -326.14031833145964 0 -326.14031833145964 79.05157895636512 0 0 0 0 661.80274257627025 54.992087203786468 0 54.992087203786468 -634.09594735462815 0 0 0 0 -701.38364024693146 -86.383024124781514 0 -86.383024124781514 122.68988318245738 0 0 0 0 -246.01304224113119 170.93285665409348 0 170.93285665409348 -169.17858520592563 0 0 0 0 -845.94881391356466 642.63418177167114 0 642.63418177167114 -518.04271137080286 0 0 0 0 -33.415567218279364 63.648198333258293 0 63.648198333258293 11.676765728655862 0 0 0 0 75.624388417694718 171.04468651614661 0 171.04468651614661 -31.238518557702719 0 0 0 0 -29.828378634145977 89.375390748372951 0 89.375390748372951 -40.475981295737093 0 0 0 0 -65.247925725609093 464.76606348460905 0 464.76606348460905 358.96442712307271 0 0 0 0 -140.79265723711433 141.70529912347865 0 141.70529912347865 -62.464678708187421 0 0 0 0 -281.89493222766032 158.05847908352735 0 158.05847908352735 1.1322169513232438 0 0 0 0 -9.9504795924594553 87.904969118487855 0 87.904969118487855 -46.303185631033344 0 0 0 0 830.35423047638642 367.40508895150572 0 367.40508895150572 -181.82642396390929 0 0 0 0 429.96411050496681 170.54137220487951 0 170.54137220487951 -62.823855128590594 0 0 0 0 -282.82012077531544 166.89032662781483 0 166.89032662781483 -21.026498082599574 0 0 0 0 -158.12457731552422 189.86054357954254 0 189.86054357954254 -40.59019944706597 0 0 0 0 53.402986284985673 279.74749492502451 0 279.74749492502451 -26.796274601631012 0 0 0 0 1.4294449440349126 157.89830721068756 0 157.89830721068756 -101.6007596039808 0 0 0 0 -157.24056931586347 186.00208480132483 0 186.00208480132483 -64.12822856924322 0 0 0 0 -141.35580186833977 283.48119007096147 0 283.48119007096147 -74.80869386980703 0 0 0 0 -94.61498274213227 210.40030321537324 0 210.40030321537324 -31.152210060382458 0 0 0 0 -143.43961705584661 201.12917550031761 0 201.12917550031761 83.105519450035899 0 0 0 0 128.96534955474999 242.82992985942406 0 242.82992985942406 -67.386514924453877 0 0 0 0 -312.2004039526073 195.16997013195942 0 195.16997013195942 28.986042746723797 0 0 0 0 -139.70329646061964 176.58244329623744 0 176.58244329623744 -41.40396278847038 0 0 0 0 -355.79466263380891 116.02033535887495 0 116.02033535887495 0.10598529786648214 0 0 0 0 -493.04903556874342 85.417333773079008 0 85.417333773079008 17.464886952522647 0 0 0 0 -318.49323687462902 74.495708003274643 0 74.495708003274643 -74.857701321012428 0 0 0 0 751.0392992274501 81.485318533715827 0 81.485318533715827 -49.670831893308332 0 0 0 0 357.23018282285193 68.0593600751846 0 68.0593600751846 -3.6998765531377558 0 0 0 0 -13.176771558938569 86.739352486202577 0 86.739352486202577 -55.891211646348836 0 0 0 0 524.35582354905273 166.2348881790632 0 166.2348881790632 -167.82878536585827 0 0 0 0 155.57428222789986 16.378209913506467 0 16.378209913506467 59.531402349090058 0 0 0 0 375.73833058164746 22.147842224584565 0 22.147842224584565 -251.50888999792141 0 0 0 0 81.704564892481187 -33.608267994752936 0 -33.608267994752936 6.913360259383774 0 0 0 0 -678.85047845795634 105.76612859607121 0 105.76612859607121 -0.50659252704645041 0 0 0 0 -8.3028110943387965 82.319004646737682 0 82.319004646737682 -64.85678410441156 0 0 0 0 -426.17966261169931 -57.792309248745369 0 -57.792309248745369 -150.22706178948647 0 0 0 0 -382.37196398366359 144.45963591643431 0 144.45963591643431 -12.936107799612728 0 0 0 0 -535.83591972553404 88.80380010387853 0 88.80380010387853 -22.426138130850632 0 0 0 0 -335.92032496255706 275.35850325413048 0 275.35850325413048 -68.362744974554516 0 0 0 0 -385.20240204151924 315.78431289164791 0 315.78431289164791 -48.484448483261076 0 0 0 0 -746.56645440425928 371.51477356283431 0 371.51477356283431 -51.298123578508239 0 0 0 0 -647.83962688758038 138.92124908780625 0 138.92124908780625 32.549019317884813 0 0 0 0 -1408.0869158226997 351.72305949684232 0 351.72305949684232 -0.0029130787643225631 0 0 0 0 -287.78520839721023 540.23867431775579 0 540.23867431775579 -285.30832945003021 0 0 0 0 1.4569118698127568 391.27903064454767 0 391.27903064454767 -260.96226450215181 0 0 0 0 -211.20515954701114 409.68286352182986 0 409.68286352182986 -240.34468325626403 0 0 0 0 32.937677424924914 301.98870594342225 0 301.98870594342225 -224.82717031570792 0 0 0 0 -414.68508700234815 -48.725753553686502 0 -48.725753553686502 1271.2175390716216 0 0 0 0 -372.19182304926653 30.620249091748065 0 30.620249091748065 169.1379031713841 0 0 0 0 -68.651656257766263 82.808518676015126 0 82.808518676015126 -70.75060852228853 0 0 0 0 1.9746775033593131 57.827744933837458 0 57.827744933837458 36.618850275696602 0 0 0 0 -208.0730436304184 -11.338941384918598 0 -11.338941384918598 70.822990815184312 0 0 0 0 418.10311229128479 304.59165982582675 0 304.59165982582675 -167.58434284533041 0 0 0 0 7.7890203434785574 61.153861313994952 0 61.153861313994952 28.848031652508958 0 0 0 0 1680.185927235987 536.75439990229859 0 536.75439990229859 -341.82827115240826 0 0 0 0 1549.7596725033 -392.98787477746271 0 -392.98787477746271 -254.42677566876776 0 0 0 0 711.08819911233149 -75.880464348491955 0 -75.880464348491955 -269.3206649800735 0 0 0 0 351.82821690170385 104.54771110758236 0 104.54771110758236 -110.57520230715772 0 0 0 0 31.957630333439738 -667.83320808012218 0 -667.83320808012218 -134.98518386872752 0 0 0 0 1874.4395753662466 1408.9788212346716 0 1408.9788212346716 1373.853602046888 0 0 0 0 13.899636926356379 -6.1306979539756696 0 -6.1306979539756696 3.0438003147190367 0 0 0 0 200.18333155939217 -243.62480492229361 0 -243.62480492229361 -531.80584034953063 0 0 0 0 1176.5917120771337 1851.747008543658 0 1851.747008543658 1280.4916806934275 0 0 0 0 37.162357162356983 -20.270123735203079 0 -20.270123735203079 11.09236106523776 0 0 0 0 1114.7221043803875 157.36066804801339 0 157.36066804801339 536.22438340074427 0 0 0 0 1215.4712261660352 500.80717369799203 0 500.80717369799203 256.27574602533696 0 0 0 0 -167.16299550444819 65.419630063371187 0 65.419630063371187 362.01279425819075 0 0 0 0 359.00776007198874 -212.60356378943834 0 -212.60356378943834 178.71780323858866 0 0 0 0 1760.0146678709207 -347.18786372654444 0 -347.18786372654444 -424.27532279201739 0 0 0 0 -185.82830930448836 -25.415447072775123 0 -25.415447072775123 -4.0811351172415016 0 0 0 0 -269.14378004687387 194.3597928899394 0 194.3597928899394 123.70082073220169 0 0 0 0 -216.58588319697083 193.60659183311236 0 193.60659183311236 26.973559218242372 0 0 0 0 3.2392307034441887 57.964726772047669 0 57.964726772047669 25.711862044011312 0 0 0 0 44.381671066361378 206.16925873116364 0 206.16925873116364 -93.895398364096764 0 0 0 0 4.2776739665118386 59.092586333119606 0 59.092586333119606 6.3728509072222081 0 0 0 0 502.6013355335308 154.38201292851409 0 154.38201292851409 125.0215869321255 0 0 0 0 890.16095862188376 18.308146903825218 0 18.308146903825218 -446.68232585240912 0 0 0 0 778.67229209748621 -177.85185372839078 0 -177.85185372839078 41.952399752135079 0 0 0 0 810.27015570204094 -215.95503834398096 0 -215.95503834398096 -1059.3804179064446 0 0 0 0 898.07628318591742 -678.32094948792565 0 -678.32094948792565 -1913.816419360086 0 0 0 0 723.20560651750566 1289.7966826705695 0 1289.7966826705695 -873.97389588241458 0 0 0 0 -9.4199494552798342 11.387030263846441 0 11.387030263846441 -7.5788332914835213 0 0 0 0 157.33462082956248 323.74998162207476 0 323.74998162207476 408.34319048962698 0 0 0 0 252.73123352380208 342.3913355161576 0 342.3913355161576 229.15824483000324 0 0 0 0 238.97063222635916 512.9444212155272 0 512.9444212155272 -198.97348747376009 0 0 0 0 475.92484900903946 249.26116674610785 0 249.26116674610785 44.436632310738787 0 0 0 0 273.02425971264711 241.72891578194117 0 241.72891578194117 106.91596429455058 0 0 0 0 282.09995786422223 207.56503557974247 0 207.56503557974247 127.17197704066166 0 0 0 0 254.04138730673731 190.68144212271363 0 190.68144212271363 229.58091640906787 0 0 0 0 249.96137537929462 213.3336180922206 0 213.3336180922206 129.91458741499446 0 0 0 0 292.95916689888691 200.18254912376301 0 200.18254912376301 101.11176252864243 0 0 0 0 302.53772940476483 249.96685904348033 0 249.96685904348033 84.056450273599694 0 0 0 0 373.14443812752143 209.93435982479969 0 209.93435982479969 101.91713604123913 0 0 0 0 278.08216590575466 188.02739405676948 0 188.02739405676948 105.01731585552443 0 0 0 0 388.5354731595362 214.0259672825332 0 214.0259672825332 102.69004834020052 0 0 0 0 496.62789448820695 129.9477422096561 0 129.9477422096561 -10.715089567345785 0 0 0 0 387.00903179873421 170.84598047216514 0 170.84598047216514 56.024485533525876 0 0 0 0 55.488031949236756 77.364787814426563 0 77.364787814426563 55.827068027499195 0 0 0 0 -0.66948236527969129 66.494708384115711 0 66.494708384115711 27.927015958444827 0 0 0 0 2.2120066914121397 61.257915224675173 0 61.257915224675173 -8.4629847005017105 0 0 0 0 284.01836071326807 100.51497886527676 0 100.51497886527676 -142.59257539982355 0 0 0 0 572.77864448945911 180.14447299940002 0 180.14447299940002 -6.5339569896550529 0 0 0 0 497.09431682361173 224.85464911313829 0 224.85464911313829 68.25622424616995 0 0 0 0 -204.09320507201483 548.47925049361766 0 548.47925049361766 2209.1372750022501 0 0 0 0 370.51084602077435 198.67570873839426 0 198.67570873839426 533.39594563087667 0 0 0 0 668.24889018243994 76.25098987347701 0 76.25098987347701 574.22151700992526 0 0 0 0 469.7950271251766 296.53193725284598 0 296.53193725284598 -111.3534224713876 0 0 0 0 434.89808693304076 -174.53700708982615 0 -174.53700708982615 206.51967517844969 0 0 0 0 381.44886896633579 260.72583646630073 0 260.72583646630073 -162.63514483270774 0 0 0 0 371.44207352824742 160.26056583464742 0 160.26056583464742 -300.43130406797354 0 0 0 0 202.86319772514253 463.59273767707055 0 463.59273767707055 -527.73460999346935 0 0 0 0 127.65643444236048 662.7888349019463 0 662.7888349019463 -867.05541392732994 0 0 0 0 166.6730218740413 18.092748763638156 0 18.092748763638156 -278.8729414531681 0 0 0 0 -763.47079417711939 612.8334510822333 0 612.8334510822333 -283.13663053570417 0 0 0 0 -758.42782076704316 609.61141631642749 0 609.61141631642749 -297.39851833526336 0 0 0 0 -2409.4589589813404 1258.7885257690432 0 1258.7885257690432 -550.89299037246201 0 0 0 0 -127.98409647756489 1127.8542191937195 0 1127.8542191937195 -2434.5408371920239 0 0 0 0 -697.76176857556857 -1084.1891651576188 0 -1084.1891651576188 1721.2295054710467 0 0 0 0 428.2141152692202 -2175.3315186848722 0 -2175.3315186848722 -1229.8946378032369 0 0 0 0 683.34376664138108 1606.9976651894212 0 1606.9976651894212 446.11227097768642 0 0 0 0 69.53753549324756 22.175739141708618 0 22.175739141708618 387.92247040189523 0 0 0 0 -46.495505674544802 28.956248869252377 0 28.956248869252377 -12.400588328851702 0 0 0 0 -834.8922457577919 3296.5135772618332 0 3296.5135772618332 -1327.2638997158047 0 0 0 0 6.075573536080725 24.217338184037359 0 24.217338184037359 -24.66536401676073 0 0 0 0 -2033.3720164022161 -225.09352802738658 0 -225.09352802738658 -108.3642328389069 0 0 0 0 -936.68333974230336 -361.89925582757587 0 -361.89925582757587 -103.59792982054569 0 0 0 0 12.85675179985671 -3.7624118415951386 0 -3.7624118415951386 3.996885460301641 0 0 0 0 38.756660999031737 -15.397121080750821 0 -15.397121080750821 -421.83335073322837 0 0 0 0 2823.8230309604642 1036.9322845127131 0 1036.9322845127131 -20.293200617543334 0 0 0 0 770.14117637817981 1405.27893351081 0 1405.27893351081 295.03087079152465 0 0 0 0 973.68945217764121 310.03404127997101 0 310.03404127997101 453.81608201332165 0 0 0 0 1126.6709228921827 1510.4882303047298 0 1510.4882303047298 532.82711600582297 0 0 0 0 -351.94950047766906 386.40318596781253 0 386.40318596781253 890.23788414664159 0 0 0 0 40.741114061316694 84.990864725605888 0 84.990864725605888 269.90773780007476 0 0 0 0 65.052820383672952 185.10012162900512 0 185.10012162900512 286.14334331202554 0 0 0 0 154.87532298253791 88.289601893474355 0 88.289601893474355 139.97405122453347 0 0 0 0 172.98262999524013 38.553369576278783 0 38.553369576278783 276.49355482564351 0 0 0 0 325.22012841161268 116.81504467027116 0 116.81504467027116 72.333948251918628 0 0 0 0 393.64074413415801 132.94491625129467 0 132.94491625129467 76.015817770596186 0 0 0 0 312.72579715126631 -5.709335916420514 0 -5.709335916420514 -158.12472051308578 0 0 0 0 245.53984444611706 -71.485089422884812 0 -71.485089422884812 -356.52361778777595 0 0 0 0 215.0488804211418 -40.274535526838463 0 -40.274535526838463 128.34399900665085 0 0 0 0 167.39353514301183 -1.1397190361358298 0 -1.1397190361358298 146.39873683536143 0 0 0 0 157.57309805652039 -97.005942467928435 0 -97.005942467928435 308.97207038077795 0 0 0 0 -71.500503170076968 31.827118602744072 0 31.827118602744072 -9.0501020910619463 0 0 0 0 -727.11666412714112 82.111406453220752 0 82.111406453220752 2148.5985552414259 0 0 0 0 190.23138756724074 279.11524923741672 0 279.11524923741672 718.54317597121553 0 0 0 0 286.65242932501133 92.509109349138271 0 92.509109349138271 423.76061155625575 0 0 0 0 -60.655657534909551 -123.2533039429054 0 -123.2533039429054 641.43717066185854 0 0 0 0 5.1910344643692952 -345.91519257113396 0 -345.91519257113396 -643.43553696689924 0 0 0 0 41.880391100319684 -313.15282441818636 0 -313.15282441818636 273.13771849750856 0 0 0 0 -79.831481790053658 10.95264830200631 0 10.95264830200631 -157.77076896007384 0 0 0 0 -127.28244989560335 363.76676207191122 0 363.76676207191122 -785.14739572733197 0 0 0 0 -501.87644700420788 342.64490268596091 0 342.64490268596091 -539.79253212717049 0 0 0 0 -956.24253256630254 1625.866268630763 0 1625.866268630763 -2200.8616526626029 0 0 0 0 -3363.8541731931909 889.99243024585667 0 889.99243024585667 -214.02720697659606 0 0 0 0 745.72639200877165 -292.96606497092944 0 -292.96606497092944 -2864.8729181120643 0 0 0 0 665.33827840466984 -1854.3988260250662 0 -1854.3988260250662 -1048.6325851826041 0 0 0 0 -673.57013704668498 -1606.1613785238806 0 -1606.1613785238806 1615.2779078042067 0 0 0 0 -341.23179059334507 -216.81172108606461 0 -216.81172108606461 249.34104934990683 0 0 0 0 -988.3286939598911 392.2330659409854 0 392.2330659409854 -87.049333360108449 0 0 0 0 -1293.8503933183674 170.21910465859219 0 170.21910465859219 -85.292539384943666 0 0 0 0 -1446.7806782972275 836.9089448382008 0 836.9089448382008 -312.29852789236247 0 0 0 0 -580.81146015743434 315.29554288225881 0 315.29554288225881 -40.624733593012934 0 0 0 0 -968.53180280425295 455.82394236330754 0 455.82394236330754 -42.10479167770427 0 0 0 0 -334.2263376925257 367.1923180530066 0 367.1923180530066 -277.44291413776955 0 0 0 0 -307.64546723000421 498.08597343468421 0 498.08597343468421 328.64547082026002 0 0 0 0 605.75128938020498 658.27963492629715 0 658.27963492629715 -51.692017473238593 0 0 0 0 -216.44015661181766 464.19512363831291 0 464.19512363831291 -394.88561922599547 0 0 0 0 234.45945698821015 -58.466774718954639 0 -58.466774718954639 93.185449593569501 0 0 0 0 760.18622136960767 198.36303351608967 0 198.36303351608967 -140.02913470447265 0 0 0 0 1133.214504897529 166.99573073857232 0 166.99573073857232 -187.54419813064305 0 0 0 0 1077.3622780603728 -166.503324156963 0 -166.503324156963 -99.254932019986882 0 0 0 0 511.85133418356418 374.00805980339101 0 374.00805980339101 -169.24319006917949 0 0 0 0 318.12035792449024 293.54360145416831 0 293.54360145416831 -77.796511619118974 0 0 0 0 693.57583640810481 -46.566009881049013 0 -46.566009881049013 139.90711628427016 0 0 0 0 115.48922994603345 484.6507068257315 0 484.6507068257315 -216.86903454243838 0 0 0 0 373.63853102740541 299.40704251746683 0 299.40704251746683 -33.847827889418113 0 0 0 0 382.74232556046627 291.08298068762269 0 291.08298068762269 -76.659471399860195 0 0 0 0 57.685180059852428 505.38606937240547 0 505.38606937240547 -97.616176065479749 0 0 0 0 136.31103582658397 505.16149029131793 0 505.16149029131793 -79.16871078683107 0 0 0 0 150.72543901405879 482.14360696044969 0 482.14360696044969 -198.85632673975306 0 0 0 0 -157.3268515883974 597.77609624488377 0 597.77609624488377 -133.02272373925416 0 0 0 0 -187.35789162137371 522.3115730963691 0 522.3115730963691 -213.50714028884249 0 0 0 0 -317.2084562497912 605.38084537053874 0 605.38084537053874 -149.94812239467865 0 0 0 0 -259.71321250355322 637.28135430823113 0 637.28135430823113 -258.61960963113233 0 0 0 0 224.33470784878591 620.53711123832181 0 620.53711123832181 -130.09333989690822 0 0 0 0 -289.38356228045086 529.10855440597811 0 529.10855440597811 -49.889186163622071 0 0 0 0 -378.86244216433261 368.32661489909924 0 368.32661489909924 -144.6448037759219 0 0 0 0 -306.35362453694688 526.90999196225494 0 526.90999196225494 38.313151005111649 0 0 0 0 -1943.9411585624039 495.66296076440722 0 495.66296076440722 217.87126927587815 0 0 0 0 -975.75281125350739 863.47085597486875 0 863.47085597486875 -201.2853254100894 0 0 0 0 -601.85214320609521 297.12712799306428 0 297.12712799306428 -185.1839588516425 0 0 0 0 -846.74409874810954 558.25761877323566 0 558.25761877323566 -88.714471994268024 0 0 0 0 -484.5531673101068 579.92538638175938 0 579.92538638175938 -121.44921353414065 0 0 0 0 -843.53329867346702 169.05614029833282 0 169.05614029833282 -172.59501283725331 0 0 0 0 58.966236813837895 -120.58673255541544 0 -120.58673255541544 0.27786416542789993 0 0 0 0 -0.8454480849476298 3.2421094756356581 0 3.2421094756356581 -4.9192195993719565 0 0 0 0 102.22494269099843 315.66750165048506 0 315.66750165048506 -82.789492659902294 0 0 0 0 468.2801964658214 142.19029482826232 0 142.19029482826232 -180.56232313091459 0 0 0 0 652.67632350962958 -115.21246316438373 0 -115.21246316438373 40.374872665944167 0 0 0 0 -14.92961692575949 1.5625429705511209 0 1.5625429705511209 4.2504956978784776 0 0 0 0 375.31505073069275 -34.527910386743315 0 -34.527910386743315 -65.796994031774375 0 0 0 0 364.75456276602927 -23.098480582319098 0 -23.098480582319098 76.553395275171624 0 0 0 0 175.45761962202232 80.991208943369202 0 80.991208943369202 -29.745677317563604 0 0 0 0 43.22716202113952 23.116873746683268 0 23.116873746683268 15.39095235385048 0 0 0 0 166.32882615441122 184.75334971497273 0 184.75334971497273 93.320458898881043 0 0 0 0 296.08770916758385 6.8092007657931504 0 6.8092007657931504 -85.258294874454805 0 0 0 0 19.604636895131222 56.549400112381569 0 56.549400112381569 -18.909121451180383 0 0 0 0 144.91760411916039 -43.05176090990517 0 -43.05176090990517 32.242660972329531 0 0 0 0 388.46894187254657 -1.5164131026649557 0 -1.5164131026649557 -24.98202258577453 0 0 0 0 328.21908080664434 106.64330095555033 0 106.64330095555033 145.98324301601679 0 0 0 0 336.93391468589834 31.578983328741742 0 31.578983328741742 137.03421608411736 0 0 0 0 301.89882745491923 144.1154881507955 0 144.1154881507955 136.92126381980233 0 0 0 0 88.028557722165715 121.28138897537428 0 121.28138897537428 179.90784948946384 0 0 0 0 151.10806260419486 278.80279022337345 0 278.80279022337345 227.37078089814713 0 0 0 0 523.33665831240069 566.18017035326329 0 566.18017035326329 122.56916215590172 0 0 0 0 209.08410054731939 305.36654825145524 0 305.36654825145524 105.03979202877872 0 0 0 0 29.01336353662191 585.31928732649976 0 585.31928732649976 226.63167765757498 0 0 0 0 -415.90019512629078 450.58566567108574 0 450.58566567108574 187.83297534365647 0 0 0 0 4.7766131092324713 5.0889620330236482 0 5.0889620330236482 5.1912843330658944 0 0 0 0 -125.91886800573411 152.93647575571845 0 152.93647575571845 174.24893840068762 0 0 0 0 -79.557070892580668 229.74862284163464 0 229.74862284163464 87.775849435276541 0 0 0 0 -40.29664151876932 -27.974336996316197 0 -27.974336996316197 22.938949315801437 0 0 0 0 98.598500318141305 97.846663192229244 0 97.846663192229244 126.33221015738673 0 0 0 0 272.49975024217565 43.084031618664994 0 43.084031618664994 112.52597936748862 0 0 0 0 156.93562787747942 87.353989992478091 0 87.353989992478091 -148.65055054166623 0 0 0 0 -50.036921461774909 145.39370355016399 0 145.39370355016399 -263.46337480145303 0 0 0 0 -249.92671174254792 260.20226269187879 0 260.20226269187879 -128.76254365102795 0 0 0 0 -132.94979059162142 153.68748233158658 0 153.68748233158658 -57.537043750809971 0 0 0 0 111.39295274071628 119.86234853255883 0 119.86234853255883 -206.5933646035628 0 0 0 0 -327.4891853480367 -25.006537957187902 0 -25.006537957187902 -173.02858384477804 0 0 0 0 -93.496491766960389 286.18357700058323 0 286.18357700058323 -435.33048954831247 0 0 0 0 -176.7688784931961 390.0889359238422 0 390.0889359238422 -383.20075414855455 0 0 0 0 743.9922419313225 -88.453222020689282 0 -88.453222020689282 -67.662786950589179 0 0 0 0 4.4317500657105313 1.5997419957476069 0 1.5997419957476069 -0.051862223566725874 0 0 0 0 269.41132713775005 -122.64758170169534 0 -122.64758170169534 242.07571127171468 0 0 0 0 -73.467981597816106 6.5528757204151589 0 6.5528757204151589 186.45435538077982 0 0 0 0 484.69832419079466 48.658164286171541 0 48.658164286171541 -0.046439067882602103 0 0 0 0 25.642926958913449 26.301085994298774 0 26.301085994298774 430.98234095776206 0 0 0 0 98.043029207590735 202.47746161636132 0 202.47746161636132 79.427663609596493 0 0 0 0 82.51261652285757 190.54924892805138 0 190.54924892805138 74.350786611292278 0 0 0 0 160.8882443814291 47.661433567122458 0 47.661433567122458 188.05957490230139 0 0 0 0 12.608233674021903 48.05640849115116 0 48.05640849115116 -26.265371283254353 0 0 0 0 -382.70766612849548 444.87567218678123 0 444.87567218678123 -210.62155823794819 0 0 0 0 10.557646310630076 12.777496909669622 0 12.777496909669622 11.967124303130362 0 0 0 0 -257.82041340826254 145.44669064154004 0 145.44669064154004 -102.3452224343564 0 0 0 0 -185.70140966085182 56.398938614158169 0 56.398938614158169 -102.72984205864486 0 0 0 0 -167.08545046413201 298.73018854059774 0 298.73018854059774 -164.33883686416084 0 0 0 0 -522.86771971316193 226.524002039896 0 226.524002039896 -63.484807966455264 0 0 0 0 -335.31131552025909 -17.32502651555842 0 -17.32502651555842 -161.80550145592133 0 0 0 0 -256.15127025177935 24.579737869211385 0 24.579737869211385 -267.36153639863915 0 0 0 0 10.60151459791814 159.66639978956664 0 159.66639978956664 -299.65465185638914 0 0 0 0 48.989527140161954 235.93633383040651 0 235.93633383040651 -157.98085055759475 0 0 0 0 110.63025428340188 69.024963900239527 0 69.024963900239527 -196.23634239855528 0 0 0 0 68.334093959478196 132.8014917562723 0 132.8014917562723 -236.02925837168004 0 0 0 0 307.83606452328968 163.75899853497685 0 163.75899853497685 -168.45471346548584 0 0 0 0 141.03305356725468 125.21447858654392 0 125.21447858654392 -92.44932915904792 0 0 0 0 351.41447459650954 159.36230128955594 0 159.36230128955594 109.00526067600003 0 0 0 0 306.35089806004544 41.260304179177183 0 41.260304179177183 -197.68131260791415 0 0 0 0 332.55032852456497 21.977075272274305 0 21.977075272274305 -120.65423388550334 0 0 0 0 57.887710651637462 47.479973437801164 0 47.479973437801164 40.210773910795979 0 0 0 0 338.58183649507669 -144.62118944386521 0 -144.62118944386521 59.031911891848722 0 0 0 0 114.10291576885356 -20.04916319638869 0 -20.04916319638869 -9.787642024744855 0 0 0 0 16.505581299588094 -7.82676568412883 0 -7.82676568412883 12.497407640994837 0 0 0 0 192.88055745145584 -108.0767010767521 0 -108.0767010767521 60.783250014686928 0 0 0 0 65.75904981699972 62.467151855131846 0 62.467151855131846 -34.944444414369137 0 0 0 0 111.21650233079345 -2.5084137989260853 0 -2.5084137989260853 -30.257534197560744 0 0 0 0 576.36836848220992 -70.155919205073587 0 -70.155919205073587 -98.859396237096007 0 0 0 0 261.36474906329386 93.380951785678008 0 93.380951785678008 -56.783850350963803 0 0 0 0 -1.8601650910129539 -3.4608179586266345 0 -3.4608179586266345 -30.306406523920415 0 0 0 0 210.68218843449722 110.14536192149808 0 110.14536192149808 81.652303440936521 0 0 0 0 609.82459755887976 48.813495507855805 0 48.813495507855805 -217.50425328632991 0 0 0 0 202.16489061876928 71.842015057106209 0 71.842015057106209 -24.167277180619749 0 0 0 0 -539.36610599551204 3.368214769287988 0 3.368214769287988 0.96510222072720353 0 0 0 0 89.7502607499639 81.998838369128592 0 81.998838369128592 1.2975701476351666 0 0 0 0 -228.09698337825102 123.24145185694397 0 123.24145185694397 25.60083474246494 0 0 0 0 -11.948595552839834 -51.378449090345384 0 -51.378449090345384 -354.57738592703754 0 0 0 0 -80.992702452407684 -42.351316520271212 0 -42.351316520271212 -69.803353453244654 0 0 0 0 97.307416754905717 169.45048023526215 0 169.45048023526215 -10.574487639401013 0 0 0 0 -97.592641222081511 26.84543953866114 0 26.84543953866114 -62.410070400892437 0 0 0 0 -102.04758748662789 10.83020758637258 0 10.83020758637258 21.564008256242232 0 0 0 0 -188.31074568913755 -82.771531653544116 0 -82.771531653544116 -60.888512838109818 0 0 0 0 -115.40982280013122 5.3686512867516285 0 5.3686512867516285 7.9442392263154034 0 0 0 0 -147.56660762955016 5.9309988843958763 0 5.9309988843958763 22.346918121980707 0 0 0 0 -115.31198443616813 29.886840661653878 0 29.886840661653878 17.992384352472072 0 0 0 0 63.309124037541551 103.68891375807016 0 103.68891375807016 1.2428886849593255 0 0 0 0 -99.392763113643014 131.74919336714174 0 131.74919336714174 150.63837061876256 0 0 0 0 -17.639440775266849 196.64103250197695 0 196.64103250197695 105.20732488522071 0 0 0 0 -85.213226518506417 157.73962142448727 0 157.73962142448727 112.82557625807567 0 0 0 0 -64.022316743561532 76.104131996318756 0 76.104131996318756 8.8431886000089435 0 0 0 0 -142.53655551264137 35.837680647902971 0 35.837680647902971 24.000729106965082 0 0 0 0 -157.77093272649654 26.327820840508139 0 26.327820840508139 18.58234182833985 0 0 0 0 -150.52967689391153 111.03767894204469 0 111.03767894204469 35.041601680948588 0 0 0 0 -116.00039028919855 97.873902464878483 0 97.873902464878483 39.696032118979929 0 0 0 0 -171.35069039939117 143.39625562393303 0 143.39625562393303 52.81492623558097 0 0 0 0 -133.37147870284434 193.62998842609016 0 193.62998842609016 106.90593448145955 0 0 0 0 -270.69878457502273 135.50150131212104 0 135.50150131212104 -30.229739611992045 0 0 0 0 -191.81133014641455 185.9940252504739 0 185.9940252504739 2.0805009375253576 0 0 0 0 -246.28828097356745 74.259158400906017 0 74.259158400906017 27.951538609891031 0 0 0 0 -185.81060534769131 41.796363018305783 0 41.796363018305783 -13.254029192201415 0 0 0 0 -284.81166880440287 86.86722355245638 0 86.86722355245638 -18.810205095025594 0 0 0 0 -192.28550930658821 49.915469929451319 0 49.915469929451319 10.099028797450046 0 0 0 0 -324.32357230036359 47.374618188498971 0 47.374618188498971 -58.032830945036949 0 0 0 0 -270.90344543045285 114.85247690336109 0 114.85247690336109 -151.2978069348801 0 0 0 0 -334.75300684874856 216.13115697185324 0 216.13115697185324 -100.75252593424011 0 0 0 0 -399.37498709424472 169.29625403534101 0 169.29625403534101 -133.5519311337066 0 0 0 0 -98.006300663491857 -14.597788104744723 0 -14.597788104744723 -4.0595588933219915 0 0 0 0 42.875498723798501 28.148663227972747 0 28.148663227972747 -21.465169826582496 0 0 0 0 -168.85380705812713 -6.531682530051512 0 -6.531682530051512 15.286584235278497 0 0 0 0 -133.9445593526616 34.140513525967435 0 34.140513525967435 -10.746339560748766 0 0 0 0 -149.54562936635557 -24.85474705407978 0 -24.85474705407978 -80.214196732288656 0 0 0 0 -297.04030949791922 67.718174637466291 0 67.718174637466291 -48.54345104752565 0 0 0 0 -192.26886326211024 -7.0293055636598183 0 -7.0293055636598183 -33.769252025063906 0 0 0 0 -35.936059428793669 53.200482681667381 0 53.200482681667381 -59.79851806479428 0 0 0 0 4.5184708415981731 -12.734489102033876 0 -12.734489102033876 -15.701105102103611 0 0 0 0 124.14180961108468 23.197058944688706 0 23.197058944688706 -99.40913098247438 0 0 0 0 -63.458300871519896 17.183712082641478 0 17.183712082641478 -92.22714075211934 0 0 0 0 36.875801946349384 131.18117418361726 0 131.18117418361726 -29.321273524507887 0 0 0 0 -100.24968499122406 272.25035451593249 0 272.25035451593249 -189.91466866400492 0 0 0 0 -340.74290965180262 376.35805849292137 0 376.35805849292137 -367.9018241124154 0 0 0 0 -168.08213763333697 202.96273679345813 0 202.96273679345813 -234.87642752127795 0 0 0 0 -281.83638238388448 57.484208890774426 0 57.484208890774426 -303.98613540702172 0 0 0 0 -197.13729652823167 171.13234837067739 0 171.13234837067739 -154.70521371760151 0 0 0 0 -426.39838336579123 57.367429157539846 0 57.367429157539846 -167.76908430212643 0 0 0 0 -466.93367408230552 244.8055412459762 0 244.8055412459762 -301.24635190710069 0 0 0 0 -482.48689147516416 293.94067996694957 0 293.94067996694957 -253.28102766216489 0 0 0 0 -752.76111461214896 219.44697265434843 0 219.44697265434843 -270.41080311390033 0 0 0 0 -520.54059028803385 560.10253739838186 0 560.10253739838186 -566.17652510794505 0 0 0 0 -452.69290037735846 190.95988507505399 0 190.95988507505399 -545.0242008324476 0 0 0 0 -1124.1882079998948 189.10393894912042 0 189.10393894912042 -512.85037098263092 0 0 0 0 -1105.8901675175373 1015.909496988062 0 1015.909496988062 -1041.2144354484808 0 0 0 0 -430.95041203905566 355.01688482054305 0 355.01688482054305 -988.38078804482211 0 0 0 0 -447.45464172065294 320.2614286870396 0 320.2614286870396 -367.75827010285138 0 0 0 0 -435.83385899200221 571.69219808343951 0 571.69219808343951 -412.89552893451582 0 0 0 0 -669.20359137275045 646.65411316067957 0 646.65411316067957 87.933174805293675 0 0 0 0 -1087.7954119634742 616.2752303462039 0 616.2752303462039 244.30432063358603 0 0 0 0 -731.69888489557343 901.52095851292233 0 901.52095851292233 -702.10813229678797 0 0 0 0 -690.76922597135854 543.92383089159284 0 543.92383089159284 266.54156158337173 0 0 0 0 -164.27597140226499 293.5595772744382 0 293.5595772744382 176.15675766415734 0 0 0 0 -631.88388305128319 570.85823613571097 0 570.85823613571097 69.364921232294364 0 0 0 0 -271.51181541032565 342.68321426235252 0 342.68321426235252 7.3627714099407058 0 0 0 0 -248.72693452734529 177.99688498448086 0 177.99688498448086 32.884255898388346 0 0 0 0 -427.42905674967551 454.9685747602789 0 454.9685747602789 -65.159346096623267 0 0 0 0 -117.33590781869134 70.934955135970085 0 70.934955135970085 117.98651272254574 0 0 0 0 29.21673609764548 34.841115333332709 0 34.841115333332709 120.84568751152256 0 0 0 0 -270.43203996642842 819.65455004357364 0 819.65455004357364 779.04830854913052 0 0 0 0 -5.8700903173399439 -0.11003617491251561 0 -0.11003617491251561 2.183868388612348 0 0 0 0 409.18530050623031 166.54975224670625 0 166.54975224670625 -809.67874327410573 0 0 0 0 -28.886008271159696 10.083424908459698 0 10.083424908459698 -2.423648786162838 0 0 0 0 -5.4393336865839217 6.6299170714762958 0 6.6299170714762958 -5.8159903049791808 0 0 0 0 63.698926167060563 133.52620030083767 0 133.52620030083767 851.557961734542 0 0 0 0 189.02356768227764 0.31752507682904252 0 0.31752507682904252 131.67628363908807 0 0 0 0 80.478125709454616 61.973138860779727 0 61.973138860779727 -16.271824007110808 0 0 0 0 -1.9325958085778154 0.17015767847848906 0 0.17015767847848906 0.13684839500551504 0 0 0 0 2.4654549369588494 12.319678288216437 0 12.319678288216437 70.29772386694458 0 0 0 0 70.083027347704046 99.089083705957819 0 99.089083705957819 -101.30947808983728 0 0 0 0 130.15792310671532 120.08508440121841 0 120.08508440121841 -17.452793373484838 0 0 0 0 30.541543920644472 156.15109621841293 0 156.15109621841293 222.28313894790699 0 0 0 0 236.45203967313137 90.976196773181073 0 90.976196773181073 -9.7834075521204795 0 0 0 0 143.39205763811333 243.88917259910613 0 243.88917259910613 -76.059827733728071 0 0 0 0 -172.69422074937756 257.72829506447397 0 257.72829506447397 48.065642797899272 0 0 0 0 94.943967227343819 101.22470934786543 0 101.22470934786543 138.75945613855583 0 0 0 0 73.180392048605427 373.90821179689374 0 373.90821179689374 385.73099348380856 0 0 0 0 -18.476080866924988 7.8730248000024758 0 7.8730248000024758 -1.1814324136461094 0 0 0 0 -6.8494363758709511 4.2326796738185273 0 4.2326796738185273 -2.1977210498354616 0 0 0 0 -489.52961429112474 3.1181746267025119 0 3.1181746267025119 594.69906962291316 0 0 0 0 505.10953200758013 471.26501823421677 0 471.26501823421677 -566.80005845047162 0 0 0 0 -18.591362972861816 12.017111611417455 0 12.017111611417455 -5.7601208174605389 0 0 0 0 140.94316024198633 301.56611172693101 0 301.56611172693101 -434.84768488689679 0 0 0 0 118.744181347829 443.51064628904896 0 443.51064628904896 364.85993221998024 0 0 0 0 -35.259703326610179 440.93555352281464 0 440.93555352281464 -688.66253185598453 0 0 0 0 252.97479166423636 183.0120352444261 0 183.0120352444261 -727.54577443530798 0 0 0 0 341.79405822418266 423.52223859030198 0 423.52223859030198 -866.91685197898732 0 0 0 0 -39.827604763730051 532.46179634366899 0 532.46179634366899 -798.52327728566524 0 0 0 0 -89.921960701947683 562.48467597686977 0 562.48467597686977 -2089.5635614527073 0 0 0 0 24.257499039631512 151.5664044061532 0 151.5664044061532 -555.54952312644673 0 0 0 0 88.76126619232673 131.52177960950303 0 131.52177960950303 -1102.212176120669 0 0 0 0 -548.68598217748513 504.72780839798543 0 504.72780839798543 -584.64672725069795 0 0 0 0 -394.53803072418668 830.89471647412665 0 830.89471647412665 -1040.942927131367 0 0 0 0 -481.04786277803578 483.72782527013123 0 483.72782527013123 -418.72885510460765 0 0 0 0 -246.84419870267448 438.49884788986765 0 438.49884788986765 -446.23294852597064 0 0 0 0 -220.08252076269855 364.0275458564256 0 364.0275458564256 -373.46511333283524 0 0 0 0 74.153037453115758 269.11952096260774 0 269.11952096260774 -595.01141663405451 0 0 0 0 57.022176148035214 349.40601664450151 0 349.40601664450151 -603.44936887788117 0 0 0 0 -14.498265096379328 205.15185066905178 0 205.15185066905178 -543.20633012077951 0 0 0 0 -58.943628350520157 -59.425196774903725 0 -59.425196774903725 -731.22072979178029 0 0 0 0 163.05962325771543 197.85055466711856 0 197.85055466711856 -685.71543066351387 0 0 0 0 71.388626482003019 530.46592925021241 0 530.46592925021241 -1052.3129578678961 0 0 0 0 -386.11056749076852 338.62901647746025 0 338.62901647746025 -550.11784007472124 0 0 0 0 42.233253598304145 190.22260082626644 0 190.22260082626644 -512.89520613644504 0 0 0 0 78.655725633689144 216.14823151752717 0 216.14823151752717 -295.1199594528116 0 0 0 0 -13.662728503011749 282.2802490256131 0 282.2802490256131 -339.98978792566686 0 0 0 0 25.913011092223314 266.48632992415696 0 266.48632992415696 -124.30518702119934 0 0 0 0 -53.086750301719803 182.18080968166305 0 182.18080968166305 -332.78556519946324 0 0 0 0 -71.3748624185464 294.76782290409938 0 294.76782290409938 -242.73461931775546 0 0 0 0 -52.637180062120024 314.72171321757378 0 314.72171321757378 -57.021338451464317 0 0 0 0 -59.692118406670488 225.27254413837363 0 225.27254413837363 -53.120836224904451 0 0 0 0 -39.400790402756684 190.31603489132522 0 190.31603489132522 -83.813136497721644 0 0 0 0 194.84254737144693 254.45320106054533 0 254.45320106054533 -136.74166784040608 0 0 0 0 138.74107324273427 360.59494222579633 0 360.59494222579633 -24.427794777058807 0 0 0 0 -420.03842768380832 380.81961198126908 0 380.81961198126908 -228.26971668678016 0 0 0 0 -246.32859577682757 244.26072906312493 0 244.26072906312493 -127.24217972484803 0 0 0 0 -253.11957214938593 351.50948476680696 0 351.50948476680696 -194.62663149517903 0 0 0 0 -98.649628735522128 289.96146712849259 0 289.96146712849259 -321.69623285536636 0 0 0 0 -100.83800418957617 307.02506336610804 0 307.02506336610804 -318.68635468135108 0 0 0 0 -91.578420730509606 226.43534577225478 0 226.43534577225478 -226.06389821353514 0 0 0 0 -179.6723750648016 302.63701063792632 0 302.63701063792632 -37.283462963182046 0 0 0 0 -139.63580592683866 314.27609473505981 0 314.27609473505981 -129.18647708229037 0 0 0 0 -156.20921049848403 236.75136911991365 0 236.75136911991365 -86.859987074325545 0 0 0 0 -227.39835933148788 222.62945368278042 0 222.62945368278042 20.138603361762762 0 0 0 0 -258.57771785691398 287.21610823504761 0 287.21610823504761 -66.352498332584219 0 0 0 0 -116.99629645301684 293.99235486607085 0 293.99235486607085 64.387466550379031 0 0 0 0 -179.62967482774548 248.50501409005983 0 248.50501409005983 117.54835463614199 0 0 0 0 -174.77952979605834 299.86107453465729 0 299.86107453465729 115.73673523045545 0 0 0 0 -331.25926156343485 252.44421111318752 0 252.44421111318752 250.1412967979868 0 0 0 0 -87.94824811658691 196.5953038992966 0 196.5953038992966 273.33816294784992 0 0 0 0 -204.3780202169055 278.66344296510397 0 278.66344296510397 135.68027984369655 0 0 0 0 -0.88801385284750722 317.02735848461271 0 317.02735848461271 142.80607264694618 0 0 0 0 103.48632130241822 305.07208825108228 0 305.07208825108228 83.096402219487743 0 0 0 0 15.23059616359842 212.68241538644565 0 212.68241538644565 87.637690645346083 0 0 0 0 -108.99180729021464 223.66348789626318 0 223.66348789626318 203.22446677301377 0 0 0 0 -109.17723450512524 256.44442983303037 0 256.44442983303037 217.48775455225223 0 0 0 0 155.98209378961474 224.58438562929405 0 224.58438562929405 181.05950316605049 0 0 0 0 178.21976546902442 372.42927319397313 0 372.42927319397313 221.11358719594409 0 0 0 0 153.43242235392972 236.85956008872654 0 236.85956008872654 176.07084759393911 0 0 0 0 243.60560085031102 295.51090892624325 0 295.51090892624325 311.57194139878266 0 0 0 0 222.97379977171477 332.04151600952673 0 332.04151600952673 547.46023566795338 0 0 0 0 437.18752750374733 440.69902713196552 0 440.69902713196552 247.00519688023087 0 0 0 0 240.66174337374832 355.55217357603942 0 355.55217357603942 170.39280030835198 0 0 0 0 -66.148718085234577 261.22946530107765 0 261.22946530107765 310.09869628546767 0 0 0 0 -62.309987892011577 240.37871585045195 0 240.37871585045195 142.65986145158604 0 0 0 0 -86.289976604421099 253.35254561443071 0 253.35254561443071 341.93841920657542 0 0 0 0 -378.38772089218401 203.5817195257805 0 203.5817195257805 493.00374866886523 0 0 0 0 285.0986058638955 407.59916024601989 0 407.59916024601989 288.08097654256562 0 0 0 0 675.62590377351444 319.46914450364602 0 319.46914450364602 131.76939068180218 0 0 0 0 -29.558655531637037 32.462963259364017 0 32.462963259364017 -32.390322204970985 0 0 0 0 150.34648726397313 -211.49053708460403 0 -211.49053708460403 -410.08631152188127 0 0 0 0 -92.777566644913804 609.09159180533641 0 609.09159180533641 45.247043086087615 0 0 0 0 433.32318160117575 670.21286640960716 0 670.21286640960716 363.61727509738193 0 0 0 0 -686.19051083180602 587.92186527499871 0 587.92186527499871 130.41604865391128 0 0 0 0 -251.95212313333104 424.36096375755551 0 424.36096375755551 155.3577536314333 0 0 0 0 -368.15388473729399 174.18437889539018 0 174.18437889539018 200.83786503732063 0 0 0 0 -656.41590192148215 434.36474087447732 0 434.36474087447732 411.95424778818233 0 0 0 0 -684.60452624129903 292.733674797606 0 292.733674797606 -275.45048274266264 0 0 0 0 -113.93072814509378 352.83826373131137 0 352.83826373131137 71.789511688759376 0 0 0 0 -392.22493898242828 308.65544883419716 0 308.65544883419716 392.7518992063342 0 0 0 0 1.4100679656337505 3.6867260030355524 0 3.6867260030355524 0.43502659694659229 0 0 0 0 -1314.4026747196876 534.58217582597899 0 534.58217582597899 394.15842095745029 0 0 0 0 1241.7602224295151 46.070239720603468 0 46.070239720603468 -49.219510904642448 0 0 0 0 175.82228647931333 -10.1363859024259 0 -10.1363859024259 176.37041803997363 0 0 0 0 4.4234472097851594 6.3409377990450011 0 6.3409377990450011 3.2425854350568528 0 0 0 0 917.78796996376332 -69.332265745488712 0 -69.332265745488712 -206.33821866773906 0 0 0 0 183.74609613863868 101.8809829745951 0 101.8809829745951 -58.590695794155181 0 0 0 0 457.41839009338378 228.48983793966482 0 228.48983793966482 -101.39436359453248 0 0 0 0 631.64067242191231 255.28657247625961 0 255.28657247625961 -103.14407804569237 0 0 0 0 -815.11675275727566 2386.8194015626223 0 2386.8194015626223 -990.3416804719418 0 0 0 0 -1093.7835514797243 596.81423677603163 0 596.81423677603163 415.12607912382737 0 0 0 0 354.46837016120844 673.32954120270279 0 673.32954120270279 -140.75707504431512 0 0 0 0 -5011.1767550748773 -801.5965167091872 0 -801.5965167091872 497.29849804699825 0 0 0 0 -39.387734112919134 69.980070520168738 0 69.980070520168738 598.34273168951313 0 0 0 0 383.87194687733245 89.620096717937713 0 89.620096717937713 -108.40138901225782 0 0 0 0 259.21431341653442 136.64828841102917 0 136.64828841102917 163.48858138486867 0 0 0 0 439.82093996381445 -149.00351983249493 0 -149.00351983249493 98.494252648637485 0 0 0 0 274.85167021750385 86.647155590511829 0 86.647155590511829 -103.25278421771145 0 0 0 0 -98.775743861195224 126.37218155493338 0 126.37218155493338 -15.42871857575301 0 0 0 0 190.6823824025887 268.61479453688162 0 268.61479453688162 -25.945596837998892 0 0 0 0 140.09303102784907 103.66448042085722 0 103.66448042085722 22.974379068129565 0 0 0 0 195.9238322173851 435.79225316237876 0 435.79225316237876 -230.83499205664793 0 0 0 0 -3893.7197068444948 -2260.0270868979305 0 -2260.0270868979305 264.67811310672653 0 0 0 0 47.020683562371232 986.94292682381069 0 986.94292682381069 -2257.1045266574338 0 0 0 0 1909.9216343340813 -221.60463114497816 0 -221.60463114497816 -2566.7968392651073 0 0 0 0 -10.940730439552141 15.461424326006089 0 15.461424326006089 -19.599642483307274 0 0 0 0 2237.2186968252026 -415.51299747952271 0 -415.51299747952271 -2955.0680945853765 0 0 0 0 -9.2397772494017758 14.78081788181591 0 14.78081788181591 -28.181634967066934 0 0 0 0 -728.10003172380675 214.53086890903433 0 214.53086890903433 413.12939573920448 0 0 0 0 -49.560764034078602 -1001.3356862030196 0 -1001.3356862030196 1870.0767955992014 0 0 0 0 1775.2489851867285 -446.42974415272511 0 -446.42974415272511 -2599.0702159709072 0 0 0 0 195.39064074568887 -15.52031474639989 0 -15.52031474639989 390.24055319728723 0 0 0 0 -1879.6783787926906 1529.2202727285792 0 1529.2202727285792 640.1932819995418 0 0 0 0 401.16747434137869 -235.25887644258228 0 -235.25887644258228 -547.0923786616695 0 0 0 0 1694.6807292412486 -301.90559800612027 0 -301.90559800612027 -2437.7929824953026 0 0 0 0 10.094791003245096 6.109571724710829 0 6.109571724710829 5.8637409447292299 0 0 0 0 -517.75202442739101 -213.45942213309559 0 -213.45942213309559 1148.1500315122712 0 0 0 0 -37.19877061504576 365.42781191165852 0 365.42781191165852 -235.56338468638387 0 0 0 0 -29.301988601850496 263.00050544226451 0 263.00050544226451 -127.97322934214753 0 0 0 0 -9.7239646454927424 287.19067069533503 0 287.19067069533503 -108.47750125463426 0 0 0 0 -188.34356167045371 351.7328099409151 0 351.7328099409151 -112.67083658642332 0 0 0 0 -12.950391651819722 159.74907967735152 0 159.74907967735152 -38.929278230811178 0 0 0 0 -177.45459324434751 246.97522838147506 0 246.97522838147506 -50.796489126352753 0 0 0 0 -40.698907847699957 324.12426239561592 0 324.12426239561592 -204.64319707122831 0 0 0 0 -2.6562774333132992 22.847046428490081 0 22.847046428490081 19.173735630071132 0 0 0 0 -14.906608711006323 51.004534194647348 0 51.004534194647348 -68.329674967640599 0 0 0 0 34.448980916269647 135.13988236478281 0 135.13988236478281 18.749098534687619 0 0 0 0 65.38953036935618 253.88227439640821 0 253.88227439640821 -105.5862512265885 0 0 0 0 -122.27086603522184 38.005253082773379 0 38.005253082773379 -136.80628233912375 0 0 0 0 177.2986413671897 189.18544030522253 0 189.18544030522253 -95.038200828243134 0 0 0 0 281.32092651088897 20.815552126564398 0 20.815552126564398 -103.25909672396847 0 0 0 0 166.60917218644317 190.08330512810517 0 190.08330512810517 -7.4932679790172187 0 0 0 0 531.46241845652912 -32.442168673886044 0 -32.442168673886044 -433.28659323137617 0 0 0 0 50.53863343305725 68.343483482529621 0 68.343483482529621 70.06333588408323 0 0 0 0 22.579752541704721 44.787873419727376 0 44.787873419727376 -33.589926828744822 0 0 0 0 13.213225605192807 62.770378312250308 0 62.770378312250308 -14.092728247828994 0 0 0 0 189.06514521627469 198.44860371850882 0 198.44860371850882 -94.115225113262568 0 0 0 0 30.767370034358464 91.43933860128891 0 91.43933860128891 9.7767643253682763 0 0 0 0 37.942334201997149 53.893059773793212 0 53.893059773793212 5.4308014778784326 0 0 0 0 -50.849328349038842 80.641745314620493 0 80.641745314620493 29.126446010370273 0 0 0 0 18.140775642415974 40.709486670522892 0 40.709486670522892 -24.382107945959433 0 0 0 0 56.515628063391802 59.870602836476614 0 59.870602836476614 20.232517376058382 0 0 0 0 87.664746751876919 143.61705191530177 0 143.61705191530177 -36.72672066258383 0 0 0 0 -145.49349266798527 -593.10052953877312 0 -593.10052953877312 1237.9851179977995 0 0 0 0 101.46705516832299 38.993487773419474 0 38.993487773419474 17.27559643839777 0 0 0 0 11.315900692440152 21.644704246797112 0 21.644704246797112 8.7140403671581623 0 0 0 0 -145.57462091962952 255.88539457795196 0 255.88539457795196 -78.307886080845492 0 0 0 0 -11.860170893967734 121.58658730203024 0 121.58658730203024 -38.95961475684453 0 0 0 0 21.8443514429093 46.789740017851798 0 46.789740017851798 21.612831136247152 0 0 0 0 32.673729087800893 78.36261436877794 0 78.36261436877794 4.8303683249250753 0 0 0 0 -1.4003440359228989 132.74107006649865 0 132.74107006649865 -39.022183567398315 0 0 0 0 -23.049449704325525 157.98499345887831 0 157.98499345887831 -14.248225335309144 0 0 0 0 561.54817358743458 -57.361145876449882 0 -57.361145876449882 104.14850574923184 0 0 0 0 751.59332548209568 1.5147006274128216 0 1.5147006274128216 50.845923159729864 0 0 0 0 363.03006320473651 -25.563919747459295 0 -25.563919747459295 183.29368907754633 0 0 0 0 1338.5201450579698 175.94556120532798 0 175.94556120532798 172.13075420630594 0 0 0 0 -31.770505236022242 -1.0917646664726561 0 -1.0917646664726561 18.632536927064876 0 0 0 0 32.031447877634491 280.70934465681785 0 280.70934465681785 67.106976595328888 0 0 0 0 159.63200557601158 103.62555164243895 0 103.62555164243895 70.921090110808109 0 0 0 0 287.01238111404382 -63.641548623898416 0 -63.641548623898416 238.31411544314324 0 0 0 0 212.43677823771395 198.27275872858263 0 198.27275872858263 -158.25335440006165 0 0 0 0 -90.677316965171485 166.06439056079398 0 166.06439056079398 43.53934221383679 0 0 0 0 -514.56827553266339 415.10998594215562 0 415.10998594215562 -99.550995842877455 0 0 0 0 -93.931570825625386 235.29458326457825 0 235.29458326457825 75.461055172265333 0 0 0 0 -44.891389279920986 205.59487069481838 0 205.59487069481838 36.7026161103513 0 0 0 0 92.283947637111851 208.79759055432442 0 208.79759055432442 -261.58405549237068 0 0 0 0 -381.51110301657206 102.39292153289684 0 102.39292153289684 13.412500334419747 0 0 0 0 53.445159066099222 83.511071612372689 0 83.511071612372689 3.3174330209039908 0 0 0 0 480.409134419976 105.64554453658047 0 105.64554453658047 -116.39867945759033 0 0 0 0 -875.9989708243811 170.72711404130678 0 170.72711404130678 -241.48388849460753 0 0 0 0 51.074506947566988 32.991979295361944 0 32.991979295361944 5.3406096970720682 0 0 0 0 -849.27151556145691 -253.99076802922536 0 -253.99076802922536 -39.960568377744949 0 0 0 0 -0.18441480901029195 5.4062964658652959 0 5.4062964658652959 -3.582164397416193 0 0 0 0 -39.837731352707067 82.348907071186886 0 82.348907071186886 -3.2962617386690027 0 0 0 0 57.922180554101942 68.494093659679493 0 68.494093659679493 40.82859010064567 0 0 0 0 76.811776996910339 33.128679401172121 0 33.128679401172121 52.572536096413387 0 0 0 0 118.00088657910237 70.053651681533665 0 70.053651681533665 33.571343620724292 0 0 0 0 190.10243285773322 57.473286881860986 0 57.473286881860986 12.95051758569025 0 0 0 0 115.15429443848552 79.515109319399926 0 79.515109319399926 42.525335300268125 0 0 0 0 183.34745039866539 55.964076004689559 0 55.964076004689559 -25.291890045395121 0 0 0 0 103.95406201842707 68.020094792111195 0 68.020094792111195 44.123547475770465 0 0 0 0 79.800053418861353 86.583934970440168 0 86.583934970440168 -6.2605253752262797 0 0 0 0 100.43484014953719 56.55033608051599 0 56.55033608051599 33.275857735955697 0 0 0 0 107.80157101299847 62.714864409888833 0 62.714864409888833 20.03685425731237 0 0 0 0 112.161938187739 49.202441469438781 0 49.202441469438781 51.27495939459186 0 0 0 0 219.20474184327759 64.07241736981814 0 64.07241736981814 -40.271496568602743 0 0 0 0 213.69753009217675 101.39524483044806 0 101.39524483044806 37.785882875075913 0 0 0 0 332.76137459563324 84.555513606370369 0 84.555513606370369 -46.183794404569198 0 0 0 0 366.07957631588215 174.43536890562973 0 174.43536890562973 38.390412950936025 0 0 0 0 443.67684059916064 134.37822546295502 0 134.37822546295502 25.644970712150098 0 0 0 0 332.2862848181976 91.497667388277478 0 91.497667388277478 40.199354444006531 0 0 0 0 411.33336427295581 191.45266811165493 0 191.45266811165493 49.944760914913786 0 0 0 0 323.33658541191835 110.10818191015278 0 110.10818191015278 5.325535866424616 0 0 0 0 703.17326085032255 287.04107664352887 0 287.04107664352887 81.743011157537694 0 0 0 0 586.60245252173627 133.22647876192059 0 133.22647876192059 35.006971614973736 0 0 0 0 515.37412081513321 216.12851314789441 0 216.12851314789441 81.288916598961805 0 0 0 0 559.23643664828705 194.17048774356772 0 194.17048774356772 63.005829951740452 0 0 0 0 569.30950932432097 159.18019751340944 0 159.18019751340944 3.3094221016508527 0 0 0 0 287.67520628409693 71.982539131040539 0 71.982539131040539 -7.423997637553839 0 0 0 0 268.42537254662602 187.48536814269755 0 187.48536814269755 63.210979159783165 0 0 0 0 182.61784970983354 100.02271913513687 0 100.02271913513687 75.893082316557411 0 0 0 0 176.43063423094645 122.24908036760326 0 122.24908036760326 4.2113902011769824 0 0 0 0 121.58359068102436 97.998384398728376 0 97.998384398728376 10.632071040992741 0 0 0 0 234.77729871421252 92.262614245780696 0 92.262614245780696 -45.343326471396722 0 0 0 0 448.60202613049478 176.38596875555231 0 176.38596875555231 -59.591741759912111 0 0 0 0 221.17668824634529 222.1796028138383 0 222.1796028138383 -64.647185115616594 0 0 0 0 70.265833205485251 142.47630049230065 0 142.47630049230065 1.5650168895643901 0 0 0 0 -20.975125814041071 10.854942451136196 0 10.854942451136196 -14.278245278626201 0 0 0 0 -645.91320779455418 49.064374102363217 0 49.064374102363217 29.289742617987031 0 0 0 0 -102.58172012190334 40.121959784170031 0 40.121959784170031 26.335121523312409 0 0 0 0 7.4220206865575165 -23.289845749781307 0 -23.289845749781307 -15.427892495310516 0 0 0 0 125.91031217630371 45.172664876110503 0 45.172664876110503 -91.932417463147431 0 0 0 0 101.95268827443942 43.964484554460796 0 43.964484554460796 -0.49855525502061937 0 0 0 0 238.27477925577841 42.210915738811309 0 42.210915738811309 4.3406545138859656 0 0 0 0 101.229151596257 195.46777796692913 0 195.46777796692913 60.401663524666219 0 0 0 0 146.6505768368952 90.444130597941694 0 90.444130597941694 129.87934557906556 0 0 0 0 272.80699448219821 74.915570201221271 0 74.915570201221271 -76.661781914968742 0 0 0 0 248.82033268234227 104.22102078730313 0 104.22102078730313 -72.467085648328066 0 0 0 0 238.85089793527732 85.489668197165884 0 85.489668197165884 -87.095950418697612 0 0 0 0 194.05969872145215 94.094923856173409 0 94.094923856173409 -67.868367875300464 0 0 0 0 227.99215962694143 88.086790502740769 0 88.086790502740769 -70.889909607198206 0 0 0 0 151.86809959010861 102.19236586960687 0 102.19236586960687 -82.877955527525046 0 0 0 0 182.72776493143829 125.51779328151497 0 125.51779328151497 -80.228141432045959 0 0 0 0 217.63489714168827 112.02366586918652 0 112.02366586918652 -93.416700660840434 0 0 0 0 53.809927049282123 86.353237325027294 0 86.353237325027294 -71.483359941408708 0 0 0 0 64.227268591333996 119.3334562929158 0 119.3334562929158 -134.56959819806798 0 0 0 0 120.8723119563947 150.9483226378361 0 150.9483226378361 -130.10018884925375 0 0 0 0 95.071540040196851 206.47848243914632 0 206.47848243914632 -50.960343981103506 0 0 0 0 85.238222661340842 243.11677940066147 0 243.11677940066147 -182.19888414942761 0 0 0 0 99.996990362262295 215.14943967136423 0 215.14943967136423 -67.762983840380912 0 0 0 0 93.790264505514642 221.19308342211298 0 221.19308342211298 -34.29233207028301 0 0 0 0 118.46049719979055 173.88420808155206 0 173.88420808155206 52.526623618134181 0 0 0 0 126.8531833178713 153.93300451186951 0 153.93300451186951 -14.158441995474277 0 0 0 0 141.12096697939705 121.55085321251318 0 121.55085321251318 28.51443560354528 0 0 0 0 124.52305471236468 193.90429247095017 0 193.90429247095017 -115.32594846721986 0 0 0 0 155.47221500007436 141.647270843976 0 141.647270843976 -27.449700416473206 0 0 0 0 -322.91140323315631 12.020203296000545 0 12.020203296000545 -117.93381558512374 0 0 0 0 53.818592848998378 80.786213471321389 0 80.786213471321389 -170.68747975135739 0 0 0 0 36.326491858693771 171.37010970411939 0 171.37010970411939 -189.59502373531359 0 0 0 0 13.555149345105747 165.13808881579462 0 165.13808881579462 -185.67296241184522 0 0 0 0 84.221531063492876 197.41887252268862 0 197.41887252268862 -331.9860703222148 0 0 0 0 1.4904899902849138 77.939724856405519 0 77.939724856405519 -807.29639094120648 0 0 0 0 -687.26638352038208 1009.128876204406 0 1009.128876204406 372.27523038789514 0 0 0 0 -114.18776611113572 841.35822017830651 0 841.35822017830651 -807.19975930211365 0 0 0 0 -61.979676431939879 499.51576056264639 0 499.51576056264639 -175.641963985443 0 0 0 0 -75.616042189416476 541.82982379815803 0 541.82982379815803 177.02188192763424 0 0 0 0 -301.07964054722106 471.09338752432814 0 471.09338752432814 159.66860150168031 0 0 0 0 -226.93483723800455 336.95942854168243 0 336.95942854168243 355.96472011107835 0 0 0 0 -137.69287217284727 372.43405616041855 0 372.43405616041855 93.88296619245375 0 0 0 0 -158.09589767048601 113.10586738992424 0 113.10586738992424 439.80226745427535 0 0 0 0 -550.42164395395957 325.94322159185322 0 325.94322159185322 1015.5302277746341 0 0 0 0 91.59477323252213 199.85346035047041 0 199.85346035047041 44.549511911638547 0 0 0 0 89.310012801768607 214.80780267462251 0 214.80780267462251 29.100015507763601 0 0 0 0 78.689212601166219 258.33960556084639 0 258.33960556084639 12.048875269774726 0 0 0 0 47.340180002356647 263.26990140254929 0 263.26990140254929 11.328465929580489 0 0 0 0 49.366239060473163 244.55313733037474 0 244.55313733037474 14.551939559441962 0 0 0 0 77.719828220870113 237.66501198807964 0 237.66501198807964 16.195646258682245 0 0 0 0 101.03623099951824 235.98567805441712 0 235.98567805441712 -14.862699858931592 0 0 0 0 55.557944326472352 301.94661994715716 0 301.94661994715716 -69.808449431409827 0 0 0 0 -15.237368168891408 341.23687017872726 0 341.23687017872726 64.753415334562305 0 0 0 0 -14.456909969754633 322.25907670176821 0 322.25907670176821 39.296855022781529 0 0 0 0 -5.3454809030154138 261.7062731806891 0 261.7062731806891 86.252555241750088 0 0 0 0 -82.451357999787433 252.09068030436174 0 252.09068030436174 112.36950303478807 0 0 0 0 -85.212931910107727 265.1770109506615 0 265.1770109506615 292.26828169978398 0 0 0 0 -145.46258769062115 151.40185708618083 0 151.40185708618083 203.68364170265704 0 0 0 0 -20.666270892383181 192.59424629769637 0 192.59424629769637 164.90374501432234 0 0 0 0 17.347748184838565 217.52908100992499 0 217.52908100992499 76.343924276212419 0 0 0 0 3.9784902869068901 240.86614992142859 0 240.86614992142859 75.784041436796542 0 0 0 0 32.373263187764678 95.485590273596245 0 95.485590273596245 73.307070039460086 0 0 0 0 73.155468635864963 143.28762768482557 0 143.28762768482557 78.938113262775005 0 0 0 0 -42.767317266014288 61.87810066381644 0 61.87810066381644 125.02786387457036 0 0 0 0 -35.568608303990914 153.35056261951104 0 153.35056261951104 145.28098269097973 0 0 0 0 -66.641112504628836 112.13390048010478 0 112.13390048010478 138.44946896992042 0 0 0 0 -16.938584091334633 25.613300315013475 0 25.613300315013475 5.4654133739386452 0 0 0 0 -141.41372785310523 249.20076282970695 0 249.20076282970695 50.286043937921932 0 0 0 0 -78.903176163876196 15.812260013188279 0 15.812260013188279 173.85635642548004 0 0 0 0 9.6845213959078507 7.4858171566263536 0 7.4858171566263536 3.9569207785987146 0 0 0 0 -99.056901056297647 -123.12559496236645 0 -123.12559496236645 531.93339380483667 0 0 0 0 -37.954071331980231 31.765976853079337 0 31.765976853079337 -40.901949098937621 0 0 0 0 165.89654485106439 53.197214712403365 0 53.197214712403365 -106.88049517410946 0 0 0 0 -65.761035815608921 115.99482429515592 0 115.99482429515592 -64.328983248908571 0 0 0 0 -14.681254812314364 92.649063893404445 0 92.649063893404445 -7.9531066740713783 0 0 0 0 -325.87779825719917 -218.09055330382489 0 -218.09055330382489 238.61351110000214 0 0 0 0 -424.81344343388628 -124.85271075289165 0 -124.85271075289165 225.91265476090484 0 0 0 0 -74.583728632725979 74.468505204455141 0 74.468505204455141 -30.576301124045131 0 0 0 0 -0.61765421763161044 23.471839034980633 0 23.471839034980633 20.414625033377156 0 0 0 0 996.22858229647682 74.054486684801304 0 74.054486684801304 -69.452217720417138 0 0 0 0 520.58190967101837 59.245234695841646 0 59.245234695841646 -69.899571905341872 0 0 0 0 72.587387201674574 257.10722358064504 0 257.10722358064504 -31.3672675911439 0 0 0 0 140.90210989551269 28.109113581391284 0 28.109113581391284 18.086858210604987 0 0 0 0 -545.93793884158367 304.62156361895904 0 304.62156361895904 -14.668905277540034 0 0 0 0 -439.5619392357039 -200.73743685460431 0 -200.73743685460431 -45.762854064407293 0 0 0 0 109.45275192325062 350.40073414498875 0 350.40073414498875 -429.57784430643369 0 0 0 0 428.80919478056603 188.42992053650596 0 188.42992053650596 -224.51717264951731 0 0 0 0 149.67988410232647 212.60603890326183 0 212.60603890326183 -101.17499290105479 0 0 0 0 306.90630163130118 90.769459308361547 0 90.769459308361547 -211.42752300488064 0 0 0 0 155.04708153664978 74.213159663870556 0 74.213159663870556 -17.484034780325601 0 0 0 0 154.41212233287843 60.992499311592383 0 60.992499311592383 -285.26867972781474 0 0 0 0 83.734626323705015 10.701491406298373 0 10.701491406298373 -83.407840572057466 0 0 0 0 660.49281417194288 226.74803959923884 0 226.74803959923884 96.0045608781802 0 0 0 0 586.1057204286044 315.39282397036004 0 315.39282397036004 11.259288965758969 0 0 0 0 705.14988155301398 225.3890852054119 0 225.3890852054119 15.987721721059643 0 0 0 0 701.67272253352894 192.44724043734323 0 192.44724043734323 107.99477141002717 0 0 0 0 541.59676773674437 180.87973289244837 0 180.87973289244837 41.482906941710098 0 0 0 0 485.2392535325489 234.93326431557216 0 234.93326431557216 11.00082096820006 0 0 0 0 526.92224161553895 228.39401999606343 0 228.39401999606343 -113.94787008153799 0 0 0 0 343.44872014573775 186.4590721391578 0 186.4590721391578 -34.756428424087062 0 0 0 0 376.78999725499307 152.33527192598194 0 152.33527192598194 -28.562084246077575 0 0 0 0 593.43312630265427 339.12358203270378 0 339.12358203270378 -149.80916806153982 0 0 0 0 434.27763521979796 320.71409017050246 0 320.71409017050246 -43.622732143405301 0 0 0 0 594.59552582821925 320.63656653404996 0 320.63656653404996 2.7933788896771148 0 0 0 0 745.63464574428508 357.26561751520057 0 357.26561751520057 -7.3150623729816289 0 0 0 0 582.51695348545763 417.25299776416614 0 417.25299776416614 -55.964251731507829 0 0 0 0 569.19536009218427 448.87280449772879 0 448.87280449772879 -117.38729061356116 0 0 0 0 579.29680666913919 411.89483479358569 0 411.89483479358569 -44.630350334562536 0 0 0 0 947.74624599503295 479.51049645700004 0 479.51049645700004 -32.655031865779165 0 0 0 0 93.34025826996367 246.10034491052738 0 246.10034491052738 368.23160701469408 0 0 0 0 518.29349973359422 530.02471422126564 0 530.02471422126564 351.48756215246613 0 0 0 0 -384.53295484086993 751.77306393285312 0 751.77306393285312 317.1357077950961 0 0 0 0 153.8547101662698 -96.129932944566463 0 -96.129932944566463 1006.5216035890626 0 0 0 0 138.76595511209598 46.416124620976007 0 46.416124620976007 -340.08958329149755 0 0 0 0 436.3344718235021 785.70149292694259 0 785.70149292694259 342.41114078243299 0 0 0 0 -321.15040375915123 96.601047564516193 0 96.601047564516193 186.27880455871309 0 0 0 0 1084.4344984246854 89.683287229849157 0 89.683287229849157 -240.13102496169449 0 0 0 0 306.08473084848083 -88.635840733428267 0 -88.635840733428267 -479.04420787050913 0 0 0 0 360.97980642572657 57.062697840839064 0 57.062697840839064 -104.74250641402978 0 0 0 0 13.63381275424112 7.2191246203735915 0 7.2191246203735915 -3.42629558196343 0 0 0 0 892.52845018066364 -416.34741991441092 0 -416.34741991441092 76.817152064728361 0 0 0 0 605.53026176558342 -43.999755093984277 0 -43.999755093984277 -133.56008982098137 0 0 0 0 594.50029525146238 130.68983281772671 0 130.68983281772671 -392.17989827504243 0 0 0 0 469.54216084006475 -55.887120760511607 0 -55.887120760511607 57.920840424803828 0 0 0 0 37.93943502412786 47.826064526085233 0 47.826064526085233 52.598735088125878 0 0 0 0 -269.3302267133804 374.64292141490387 0 374.64292141490387 4.9648947414752911 0 0 0 0 -2.9227762416558107 106.02038590807661 0 106.02038590807661 27.531840954379732 0 0 0 0 -214.25523969344795 317.09532342023704 0 317.09532342023704 32.546503810409376 0 0 0 0 -316.929186896803 296.64515836053079 0 296.64515836053079 86.429193841602682 0 0 0 0 -107.34130163036889 346.30488529918489 0 346.30488529918489 -9.9601503822996165 0 0 0 0 -215.92897720699693 297.05318319923663 0 297.05318319923663 -116.80512776093201 0 0 0 0 58.822950512249747 36.979720273235856 0 36.979720273235856 -5.3865198734745618 0 0 0 0 915.52604068558139 1.8977499267539315 0 1.8977499267539315 -806.03984534234405 0 0 0 0 22.20601281060226 22.73202612433403 0 22.73202612433403 19.933160188688646 0 0 0 0 84.250044321540017 110.2051537774646 0 110.2051537774646 33.779121497067948 0 0 0 0 82.092092613274872 121.96803950761296 0 121.96803950761296 49.970156789804605 0 0 0 0 -6.6023535964577604 172.6238046302451 0 172.6238046302451 -403.23467447354051 0 0 0 0 31.046203486133891 239.21618842057342 0 239.21618842057342 -506.58878438182182 0 0 0 0 13.377008680313203 14.161816253078612 0 14.161816253078612 1.9854428607778551 0 0 0 0 -846.3904281933319 214.37070844818641 0 214.37070844818641 -34.384662357100751 0 0 0 0 -169.95090297799834 465.45519158086336 0 465.45519158086336 -294.31321578550524 0 0 0 0 206.37615320877376 134.92408625947519 0 134.92408625947519 -145.80997894528991 0 0 0 0 76.575869034422794 370.84660207883371 0 370.84660207883371 -207.39901289786576 0 0 0 0 210.90046338369575 -25.102870036784225 0 -25.102870036784225 -317.35951999816621 0 0 0 0 -473.34949559810411 253.59940328100856 0 253.59940328100856 262.91524054745969 0 0 0 0 -251.43443147117796 97.430786990001252 0 97.430786990001252 333.25998426848673 0 0 0 0 -317.59072621697123 449.74212404975151 0 449.74212404975151 -335.69912504106287 0 0 0 0 -256.52273936141137 279.10936983878128 0 279.10936983878128 140.68448792721756 0 0 0 0 -329.46579965620913 68.319258707397239 0 68.319258707397239 165.51638381047087 0 0 0 0 -206.83801172111271 177.87112209758016 0 177.87112209758016 -393.6432759599229 0 0 0 0 -309.36924556882695 326.52541417354769 0 326.52541417354769 494.71959159314792 0 0 0 0 -352.17400039853237 172.60255234400211 0 172.60255234400211 191.18169217596824 0 0 0 0 -100.02508673601187 249.46884965732943 0 249.46884965732943 221.33788725412523 0 0 0 0 -168.19292375755685 362.26487830467204 0 362.26487830467204 299.21283786473214 0 0 0 0 -191.10006251964842 475.34135576970402 0 475.34135576970402 355.80092888482977 0 0 0 0 -20.212490827771035 247.23845820534734 0 247.23845820534734 -61.707267299072555 0 0 0 0 -70.247236713081293 289.21970788307272 0 289.21970788307272 259.89245999307241 0 0 0 0 -310.87962293746023 341.02145883603953 0 341.02145883603953 418.70315260069401 0 0 0 0 53.020390757625137 384.36253215961642 0 384.36253215961642 384.92869718006295 0 0 0 0 36.969601317163324 180.15862143918184 0 180.15862143918184 252.53933045249869 0 0 0 0 144.64139392440848 204.88348894567662 0 204.88348894567662 17.471808657906422 0 0 0 0 342.00890916187245 246.47638814261424 0 246.47638814261424 -125.09622614475666 0 0 0 0 341.17609305231599 161.84723024762206 0 161.84723024762206 17.994449698922836 0 0 0 0 470.19976287989994 23.496916595571747 0 23.496916595571747 -23.114973670939435 0 0 0 0 451.3227686144528 6.9664013152851112 0 6.9664013152851112 -34.978576098315898 0 0 0 0 351.32642965436389 230.41700368704278 0 230.41700368704278 -175.09933408989309 0 0 0 0 426.77738457595115 123.58984475740453 0 123.58984475740453 -175.01089496673012 0 0 0 0 424.32457041475573 136.57745663258538 0 136.57745663258538 -133.75851436729567 0 0 0 0 101.84823466534704 99.329024865037923 0 99.329024865037923 28.828194926027447 0 0 0 0 6.0007793225291408 6.4547967430295614 0 6.4547967430295614 6.7703136338941547 0 0 0 0 409.95045975028188 265.94707810961791 0 265.94707810961791 -481.83291171321082 0 0 0 0 162.87495469124406 391.99120027435333 0 391.99120027435333 -170.43238426072958 0 0 0 0 -254.14780525470451 318.96985452947865 0 318.96985452947865 633.22903457641951 0 0 0 0 818.07447558485728 1006.7115353737718 0 1006.7115353737718 1000.2223764473019 0 0 0 0 -452.96983369578084 -503.02411582544528 0 -503.02411582544528 823.10750794029263 0 0 0 0 -128.88438758876873 612.48767630906514 0 612.48767630906514 960.67790082656575 0 0 0 0 -312.95083784784947 294.22292548575751 0 294.22292548575751 555.14907157358175 0 0 0 0 1292.8514302365802 1457.09101698001 0 1457.09101698001 189.93549074924158 0 0 0 0 2005.86102746693 303.41063051255196 0 303.41063051255196 -1720.476755143718 0 0 0 0 -19.642996331327595 937.45689857862453 0 937.45689857862453 1099.9865594979738 0 0 0 0 -53.656811415945413 678.68832877691966 0 678.68832877691966 618.87779440692157 0 0 0 0 282.0445487355662 442.44435577242984 0 442.44435577242984 -419.59397193509358 0 0 0 0 280.24140118425566 550.93424084380604 0 550.93424084380604 175.73030883397769 0 0 0 0 327.4589838566626 -718.87174144988876 0 -718.87174144988876 -1187.2994761044538 0 0 0 0 -538.44641363485061 -427.56204496154623 0 -427.56204496154623 -259.76333204466209 0 0 0 0 573.88905982738652 239.36837035116696 0 239.36837035116696 -289.18650560945753 0 0 0 0 210.80536375480006 -178.21155878589116 0 -178.21155878589116 -79.117142850336677 0 0 0 0 315.94779530382948 94.12476866053953 0 94.12476866053953 4.309653309773239 0 0 0 0 427.68248351544025 183.97521146813688 0 183.97521146813688 -59.384310463605289 0 0 0 0 -2.0016325894523206 6.4575566442788386 0 6.4575566442788386 0.80331193912099597 0 0 0 0 254.40628990407276 56.493958940369566 0 56.493958940369566 -150.05619724886765 0 0 0 0 20.786686200925033 -225.44964230375149 0 -225.44964230375149 -127.61196556795861 0 0 0 0 205.65758622958947 154.10641583065217 0 154.10641583065217 -57.133971974275482 0 0 0 0 11.633382689145789 -2.6458622871366799 0 -2.6458622871366799 -68.509761543824382 0 0 0 0 -181.81824228745973 -90.913315941348174 0 -90.913315941348174 -31.157910265091232 0 0 0 0 200.98263653986942 -63.033294326006398 0 -63.033294326006398 -153.06737363607499 0 0 0 0 36.373415301859495 -5.0450248773695421 0 -5.0450248773695421 7.07123935211348 0 0 0 0 85.830795145273441 -12.253697792723869 0 -12.253697792723869 -48.086652989839422 0 0 0 0 83.097015168983489 22.935062793489124 0 22.935062793489124 -2.6987889840456774 0 0 0 0 5.5574391992345156 8.7439783919955687 0 8.7439783919955687 -1.5657921546807501 0 0 0 0 124.43024882796453 29.136977064241364 0 29.136977064241364 -208.89704913050446 0 0 0 0 869.83262452704366 209.51356845235341 0 209.51356845235341 -501.45241034866149 0 0 0 0 373.50137322582304 -362.21526145363896 0 -362.21526145363896 571.78854494151892 0 0 0 0 833.53561878143228 -479.77864676996205 0 -479.77864676996205 160.94158246174538 0 0 0 0 46.422921096085673 39.342725387583414 0 39.342725387583414 8.5003852476794748 0 0 0 0 20.346030101141963 2.768781386993723 0 2.768781386993723 -12.09131663965989 0 0 0 0 1402.6825873184716 -1220.0828647592225 0 -1220.0828647592225 200.30733705400871 0 0 0 0 -367.44517656778044 -15.802644131482339 0 -15.802644131482339 749.13196380207228 0 0 0 0 -126.6131727558095 339.31559228268634 0 339.31559228268634 -105.2464218364621 0 0 0 0 -166.31453341004089 169.75420707107696 0 169.75420707107696 134.41944998225881 0 0 0 0 78.028477306797868 -68.311606586004928 0 -68.311606586004928 66.688778615656702 0 0 0 0 434.29146038227191 -104.42335545554852 0 -104.42335545554852 -107.78446905700548 0 0 0 0 70.309579232198757 193.91516079086347 0 193.91516079086347 -81.015206632306217 0 0 0 0 129.23996711001382 97.487849400247796 0 97.487849400247796 -54.091154914909566 0 0 0 0 9.9523002756603205 7.552391452903791 0 7.552391452903791 6.6007873154192467 0 0 0 0 -22.591778596775839 8.3424843236634842 0 8.3424843236634842 44.755851959494066 0 0 0 0 -92.465998289582785 -811.61170299438527 0 -811.61170299438527 656.03390041098464 0 0 0 0 21.199367701734332 14.688097475906631 0 14.688097475906631 10.692598864187609 0 0 0 0 218.40217968144862 245.79241657790499 0 245.79241657790499 273.28377015139995 0 0 0 0 448.40511396413785 -260.28906154842844 0 -260.28906154842844 160.03697280324559 0 0 0 0 -800.33256736762996 -267.9645658731597 0 -267.9645658731597 548.78786936808046 0 0 0 0 75.468969692126848 315.51723904520986 0 315.51723904520986 -49.760001546463172 0 0 0 0 119.30996511998819 218.88936757509509 0 218.88936757509509 383.37824663276024 0 0 0 0 174.91541840153513 175.14315163367792 0 175.14315163367792 182.34495549558778 0 0 0 0 -20.341222623115755 110.41523631197015 0 110.41523631197015 304.49598257685284 0 0 0 0 -115.8446387067379 258.33101860047282 0 258.33101860047282 230.84274494527199 0 0 0 0 -204.7381589400029 231.71672448505979 0 231.71672448505979 233.23467665489989 0 0 0 0 -132.65069535835937 395.83693205801592 0 395.83693205801592 8.4155781389995354 0 0 0 0 -113.47021167800995 534.07007954659855 0 534.07007954659855 -351.46422574843928 0 0 0 0 -410.93038303991489 764.8718861016107 0 764.8718861016107 -397.15272333520625 0 0 0 0 -303.3521858223794 509.72687056498785 0 509.72687056498785 -235.27205901814705 0 0 0 0 -486.26318474968139 -567.78004298079213 0 -567.78004298079213 402.96665162242061 0 0 0 0 -324.57835128564329 -94.925429650799288 0 -94.925429650799288 167.46181337384041 0 0 0 0 -541.60722370623262 -447.77263263575151 0 -447.77263263575151 969.28123388538552 0 0 0 0 -374.4118658995576 517.82179907111731 0 517.82179907111731 -216.57673734903256 0 0 0 0 -1246.7685775555001 1336.229661339421 0 1336.229661339421 -883.95318129178077 0 0 0 0 -2041.5690466987289 -470.82767385818352 0 -470.82767385818352 181.15371271680942 0 0 0 0 -1221.9201340002328 98.599606500250502 0 98.599606500250502 44.629983172520951 0 0 0 0 313.42188014429121 258.00049954693384 0 258.00049954693384 -2221.5965998310212 0 0 0 0 -1038.4872949917426 1140.5030561305114 0 1140.5030561305114 -406.18705786510981 0 0 0 0 -72.106557228231395 305.12438286477618 0 305.12438286477618 -1535.6245463530745 0 0 0 0 -17.186434907606099 18.101277889585631 0 18.101277889585631 0.69137349126246228 0 0 0 0 -10.935586697680264 50.52802076777607 0 50.52802076777607 -505.03138177795245 0 0 0 0 16.701401100055463 43.027959821637836 0 43.027959821637836 40.619062446130116 0 0 0 0 -156.34636578772188 64.786774568352484 0 64.786774568352484 -2.031355482104118 0 0 0 0 -293.4210119661002 542.20929143463638 0 542.20929143463638 -24.393922052536993 0 0 0 0 -414.69893788811169 644.67412977099957 0 644.67412977099957 -32.460772029543023 0 0 0 0 -283.57476687054441 567.03432492103104 0 567.03432492103104 -54.980343324216371 0 0 0 0 -265.30887663442991 561.16917672675663 0 561.16917672675663 -50.569919977708196 0 0 0 0 8.7042259690151695 309.25384785932454 0 309.25384785932454 -60.392757881876605 0 0 0 0 4.5192061073673315 5.4124486724742553 0 5.4124486724742553 -14.749711858983481 0 0 0 0 96.631951801013201 14.879278398623683 0 14.879278398623683 -20.064504211208259 0 0 0 0 -10.191455988802772 61.378162080976836 0 61.378162080976836 296.04166113211977 0 0 0 0 4.231043483280537 11.942368313383128 0 11.942368313383128 -12.379719767905407 0 0 0 0 97.962919586861972 20.7307928410155 0 20.7307928410155 -10.688090696465224 0 0 0 0 0.37569474021372784 26.676823198120275 0 26.676823198120275 -19.88847122724551 0 0 0 0 347.54519635002725 143.57602598360336 0 143.57602598360336 -121.11175465482665 0 0 0 0 634.82578390443996 96.353758282598321 0 96.353758282598321 -315.40693684991857 0 0 0 0 79.147510988623253 16.778525717294542 0 16.778525717294542 -7.8063519966617605 0 0 0 0 17.714403857552167 23.959928875606153 0 23.959928875606153 -21.053104176994271 0 0 0 0 95.687087612030155 17.348490287109485 0 17.348490287109485 -25.858307564596544 0 0 0 0 45.026863911683904 12.17427070411577 0 12.17427070411577 -15.336947885720292 0 0 0 0 22.070600451390362 21.817319852533785 0 21.817319852533785 -35.697901316148645 0 0 0 0 7.8760504348431795 -1.0768908926003462 0 -1.0768908926003462 -0.27746207320235072 0 0 0 0 43.230508690845454 -29.564841602064917 0 -29.564841602064917 54.341263642529157 0 0 0 0 28.882562092014211 17.047284619643918 0 17.047284619643918 -53.618965889054891 0 0 0 0 716.77208624299965 59.018811649538947 0 59.018811649538947 -634.98176015157605 0 0 0 0 125.96819558297284 176.33845280124154 0 176.33845280124154 -175.53323616208019 0 0 0 0 -242.44859646985424 69.482738082866945 0 69.482738082866945 29.174022190661162 0 0 0 0 13.053534121669642 53.002552796457053 0 53.002552796457053 12.509681563650064 0 0 0 0 -35.589770236543359 34.833911386437805 0 34.833911386437805 14.809734899696554 0 0 0 0 110.55976553575033 53.832617471968867 0 53.832617471968867 -23.591957790675224 0 0 0 0 15.518682428039028 164.47814365651629 0 164.47814365651629 36.889381066365559 0 0 0 0 -609.5762651687221 270.54923290950501 0 270.54923290950501 -95.796617511168733 0 0 0 0 -2.5379852381303492 9.681612757562192 0 9.681612757562192 -14.904207487706167 0 0 0 0 -490.5571424972004 378.57020518558693 0 378.57020518558693 -125.67744521490386 0 0 0 0 -383.84870772005524 321.08083024237021 0 321.08083024237021 -201.85734967561439 0 0 0 0 -238.77832415993907 376.42510528417506 0 376.42510528417506 -183.82415566752388 0 0 0 0 -355.44354147449485 225.15518289783904 0 225.15518289783904 -183.5287780012759 0 0 0 0 -1.4983137917086538 0.99765773553964721 0 0.99765773553964721 -3.8683665379881695 0 0 0 0 22.022829219378764 25.239831255468744 0 25.239831255468744 63.571575356987523 0 0 0 0 1.974581105307152 175.30786042651062 0 175.30786042651062 -172.5319399464006 0 0 0 0 622.03086392628029 -58.696289811924089 0 -58.696289811924089 -111.90988312227091 0 0 0 0 208.33975308247318 492.14214850701956 0 492.14214850701956 -316.35906137414054 0 0 0 0 -187.52190040493588 532.77725769361359 0 532.77725769361359 -188.15733863446621 0 0 0 0 -330.34238529128197 498.92961564429243 0 498.92961564429243 -178.55321177628502 0 0 0 0 -93.743685950845247 497.56349603508716 0 497.56349603508716 -307.64947077324587 0 0 0 0 -74.745560578823643 552.04977324064316 0 552.04977324064316 -215.15980557335934 0 0 0 0 -95.531645945171476 759.72195544961414 0 759.72195544961414 -559.66758972347634 0 0 0 0 1.2873538061335239 0.61404133543884143 0 0.61404133543884143 -1.229518280756551 0 0 0 0 -200.82964135039947 692.28894489578261 0 692.28894489578261 -874.00241754114631 0 0 0 0 -422.62248163603363 856.2929792356008 0 856.2929792356008 -549.16083955735121 0 0 0 0 126.55621151041123 80.105630357551945 0 80.105630357551945 -53.779079986104989 0 0 0 0 2.9464454210220197 13.443996194465058 0 13.443996194465058 -16.087753922834221 0 0 0 0 2.1050679966503481 51.597549039752863 0 51.597549039752863 -66.835653018705997 0 0 0 0 68.392131776286988 71.525898016685687 0 71.525898016685687 -54.877617011041707 0 0 0 0 53.714402078243438 94.007555594737369 0 94.007555594737369 -26.348251156854985 0 0 0 0 46.794792817730922 102.55443683852582 0 102.55443683852582 -35.11720126562625 0 0 0 0 97.95091568656062 114.06159972132082 0 114.06159972132082 -80.660340909471415 0 0 0 0 63.986353804248211 188.04733860402803 0 188.04733860402803 40.807056394067331 0 0 0 0 100.64394208950398 129.87643938031943 0 129.87643938031943 -29.439013639921541 0 0 0 0 -176.81403326427971 276.27081763637398 0 276.27081763637398 17.10354942747017 0 0 0 0 -124.94371474767104 79.987375834352861 0 79.987375834352861 89.081891194420677 0 0 0 0 -40.115405954158632 121.20743356821072 0 121.20743356821072 81.535223146212957 0 0 0 0 30.431547068670625 137.40265359595469 0 137.40265359595469 59.77390493249186 0 0 0 0 -39.062084843884804 126.06355668432661 0 126.06355668432661 7.426993335006955 0 0 0 0 37.546696131132194 111.38676986360088 0 111.38676986360088 7.5282310783532012 0 0 0 0 -23.112404457097 62.470962034499962 0 62.470962034499962 -23.65751766528092 0 0 0 0 -85.864056200960476 74.779560443109858 0 74.779560443109858 41.810915230289993 0 0 0 0 -75.443175432832504 253.08642165934043 0 253.08642165934043 178.31401780416354 0 0 0 0 -721.22353210165602 428.38458824585211 0 428.38458824585211 215.44041592409076 0 0 0 0 21.528910930810866 48.308058852224264 0 48.308058852224264 11.792954026024415 0 0 0 0 -597.34559785449528 298.90144173302076 0 298.90144173302076 -138.06316867479927 0 0 0 0 -743.54972278604691 403.87960658983866 0 403.87960658983866 491.04656382891244 0 0 0 0 -886.22510570763552 450.59191469022926 0 450.59191469022926 483.06596391977837 0 0 0 0 -221.98444639792433 -121.07309258049008 0 -121.07309258049008 -1023.9162075614604 0 0 0 0 106.46133770612505 89.398214565141188 0 89.398214565141188 10.257272685377757 0 0 0 0 -198.04340874749323 -8.2950526645308855 0 -8.2950526645308855 -144.08575624895457 0 0 0 0 -3.1222590134336627 4.2486151045222442 0 4.2486151045222442 1.4032054332187514 0 0 0 0 -551.72774892518646 235.42674286330467 0 235.42674286330467 -374.41798189514151 0 0 0 0 -573.96912808688649 110.4482152064549 0 110.4482152064549 -129.92445902604686 0 0 0 0 -882.24523308850621 338.7973236152352 0 338.7973236152352 -213.80606849340484 0 0 0 0 12.4369883887762 55.231978724985652 0 55.231978724985652 7.0694468910391759 0 0 0 0 34.741339334548684 105.57784681718272 0 105.57784681718272 -13.249882339629039 0 0 0 0 44.353288837613945 98.532356368466822 0 98.532356368466822 -27.518238527292397 0 0 0 0 36.722106197266839 86.368081063148111 0 86.368081063148111 -37.339064705480723 0 0 0 0 19.344801182761444 37.357357003883621 0 37.357357003883621 -76.880675673510083 0 0 0 0 556.91380713538092 596.81652177363867 0 596.81652177363867 -403.53653245031455 0 0 0 0 135.76286412717309 613.30160122542293 0 613.30160122542293 -399.58614969080372 0 0 0 0 135.76286412742047 613.30160122542293 0 613.30160122542293 -399.58614969080372 0 0 0 0 -563.50648681842722 483.24149158740329 0 483.24149158740329 -157.98534343524079 0 0 0 0 135.76286412758054 613.30160122551024 0 613.30160122551024 -399.58614969080372 0 0 0 0 978.51568614691496 382.07552996452432 0 382.07552996452432 -485.78614525829471 0 0 0 0 464.72714704158716 217.05454454808932 0 217.05454454808932 -256.77716012260817 0 0 0 0 1148.6732451707212 377.39536054398923 0 377.39536054398923 -576.48770976225205 0 0 0 0 660.89659017328813 713.60979504630086 0 713.60979504630086 -753.16154111592914 0 0 0 0 565.66292676528974 687.51656134985024 0 687.51656134985024 -620.99865781283006 0 0 0 0 471.06474444955165 870.66964153155186 0 870.66964153155186 -695.29106142489036 0 0 0 0 23.984019530682417 92.351469247918203 0 92.351469247918203 -10.259822393225477 0 0 0 0 -144.01630381456926 375.84462503466239 0 375.84462503466239 651.08065683029417 0 0 0 0 -998.28131069416122 -76.461359900928073 0 -76.461359900928073 517.09118884074633 0 0 0 0 -780.91910388626275 867.26328615847251 0 867.26328615847251 -543.68461220700192 0 0 0 0 -150.82490154900006 -275.95376764017783 0 -275.95376764017783 -483.07009369173102 0 0 0 0 -676.47956132944273 190.36121440032548 0 190.36121440032548 147.35027162705956 0 0 0 0 -1401.1567532416266 168.85353086157738 0 168.85353086157738 176.6586429847448 0 0 0 0 -855.00857420272769 700.58317330842283 0 700.58317330842283 152.83996400183969 0 0 0 0 -228.82734343150514 401.41598549507216 0 401.41598549507216 -772.17508651366006 0 0 0 0 -4.7750544699374586 4.4165727979780058 0 4.4165727979780058 -3.358721920361404 0 0 0 0 -38.702886923376354 32.428587956143019 0 32.428587956143019 -102.95733467892569 0 0 0 0 -6.8266185496322578 141.25567341564238 0 141.25567341564238 -197.86285504246734 0 0 0 0 -13.962453795895271 148.0637957130466 0 148.0637957130466 -13.471191258140607 0 0 0 0 -41.209005236698431 41.377252083624626 0 41.377252083624626 -40.85297665942926 0 0 0 0 -6.9841764504366779 7.3381212351742775 0 7.3381212351742775 -6.5205337382284085 0 0 0 0 121.09994058932352 762.96895379637863 0 762.96895379637863 631.17042776758717 0 0 0 0 364.96883997501573 502.5668840464059 0 502.5668840464059 -243.30750803663113 0 0 0 0 548.92848465198767 117.28387622330592 0 117.28387622330592 237.72214560512657 0 0 0 0 312.87624965296709 278.71913033687451 0 278.71913033687451 -298.17815843660355 0 0 0 0 -804.89503422609414 123.41322087802837 0 123.41322087802837 2.4046687867230503 0 0 0 0 -338.89001031630323 61.253592678494897 0 61.253592678494897 -209.24118121685024 0 0 0 0 556.43938729842193 603.44198691943166 0 603.44198691943166 -358.30969963783718 0 0 0 0 -18.55643294432565 18.259058491391528 0 18.259058491391528 -13.56118963874286 0 0 0 0 1135.0563961025473 1183.1048676763385 0 1183.1048676763385 242.08835874259603 0 0 0 0 214.86632549364003 266.78241066513601 0 266.78241066513601 893.78461569338106 0 0 0 0 279.20395046910562 936.00919547291051 0 936.00919547291051 730.06769946109489 0 0 0 0 56.649094125052216 717.39406572101507 0 717.39406572101507 17.307525300660927 0 0 0 0 -516.63660674673156 784.82189350116096 0 784.82189350116096 561.11738090872313 0 0 0 0 -424.84846667405509 41.871026084013465 0 41.871026084013465 5.0641793630638858 0 0 0 0 -955.49307677766046 41.146862390921342 0 41.146862390921342 156.2861688927951 0 0 0 0 -533.42081781607703 646.66384438712339 0 646.66384438712339 -753.209348945893 0 0 0 0 -247.90563987378846 84.078710856229009 0 84.078710856229009 214.39101972911703 0 0 0 0 -31.899524798779368 63.770345563769325 0 63.770345563769325 -47.723379236234159 0 0 0 0 -347.07452010679845 -511.36212886016438 0 -511.36212886016438 -769.89852444951248 0 0 0 0 -102.09980582270873 1242.8582265359919 0 1242.8582265359919 -76.974479579854233 0 0 0 0 -2150.3005823764979 830.59065159812235 0 830.59065159812235 791.9190886749675 0 0 0 0 -528.49999973906961 465.18878942213087 0 465.18878942213087 -383.769370323982 0 0 0 0 -817.45395114578423 478.71005260627862 0 478.71005260627862 96.51127649789305 0 0 0 0 -808.50436788467778 -614.9683070849951 0 -614.9683070849951 -314.44660048127116 0 0 0 0 795.36259891674854 355.53048404203219 0 355.53048404203219 -14.328690676789847 0 0 0 0 -2688.8394402402191 -303.97205724398555 0 -303.97205724398555 165.59054019091809 0 0 0 0 -452.51075114469859 158.50987462907688 0 158.50987462907688 34.092872553679626 0 0 0 0 -4.2407244590382973 8.0557141954173517 0 8.0557141954173517 -4.2280138513280292 0 0 0 0 1110.0927421909582 -5.5725177762215026 0 -5.5725177762215026 67.981659555785882 0 0 0 0 853.43380983569659 82.679550712418859 0 82.679550712418859 264.13948917511152 0 0 0 0 827.59312959155068 258.8432659453174 0 258.8432659453174 37.075164310474065 0 0 0 0 746.64138864981942 279.46343514320688 0 279.46343514320688 214.20674994839283 0 0 0 0 2.930039851814314 13.485127285943321 0 13.485127285943321 -16.578821654519615 0 0 0 0 -3.5072819988462811 17.887580656890805 0 17.887580656890805 -1.7230459512041563 0 0 0 0 -1181.055101446429 276.55569478463349 0 276.55569478463349 100.3184631122931 0 0 0 0 383.08872327720746 91.184723776168539 0 91.184723776168539 133.95208786873263 0 0 0 0 646.25771147661726 366.00493765875126 0 366.00493765875126 -73.554684036073013 0 0 0 0 -584.62669022832415 222.31317823152858 0 222.31317823152858 -8.1648213995158585 0 0 0 0 16.906386782708587 5.3617468120635579 0 5.3617468120635579 -14.611269533826686 0 0 0 0 -370.12692220660392 541.8412234526877 0 541.8412234526877 63.097625623599015 0 0 0 0 -593.6337104205079 647.52631915656048 0 647.52631915656048 44.006372245778039 0 0 0 0 -829.95837861532345 536.32216212442381 0 536.32216212442381 25.311885743816674 0 0 0 0 -580.53617541635322 481.39356079406934 0 481.39356079406934 -83.181975023313498 0 0 0 0 108.15434940654086 -216.57534618599448 0 -216.57534618599448 255.35108542056696 0 0 0 0 -138.51160305202939 -67.948409960496065 0 -67.948409960496065 263.23924038746554 0 0 0 0 442.2429854358561 214.96560647982915 0 214.96560647982915 -73.705790960254603 0 0 0 0 488.2405076569994 -369.22272891820467 0 -369.22272891820467 188.64141153566379 0 0 0 0 10.352467916876776 10.30193553637227 0 10.30193553637227 15.594253642389759 0 0 0 0 191.33337953040609 865.97406036365646 0 865.97406036365646 424.60096882969083 0 0 0 0 990.77052488185291 498.68875086839944 0 498.68875086839944 -73.625055181742937 0 0 0 0 -264.46702178873238 210.23285722346918 0 210.23285722346918 787.27581436095352 0 0 0 0 -218.03167109972856 316.69201515911482 0 316.69201515911482 -21.10962828528136 0 0 0 0 -454.60105519713397 781.68445720332966 0 781.68445720332966 -134.42934913368299 0 0 0 0 -469.53818711437634 579.25061421596183 0 579.25061421596183 310.48503809756039 0 0 0 0 -14.207172717298818 79.205728052090308 0 79.205728052090308 -67.266589510778431 0 0 0 0 -1.6698290207132231 426.04218104778556 0 426.04218104778556 -28.083881159342127 0 0 0 0 -53.091218415167532 154.21355667849275 0 154.21355667849275 -186.11913063757129 0 0 0 0 -46.319785929299542 -58.679130419503053 0 -58.679130419503053 16.912261885110638 0 0 0 0 -581.08252618619008 -167.83124141577355 0 -167.83124141577355 3.0034097954376193 0 0 0 0 -410.4313284586533 75.313959669234464 0 75.313959669234464 39.239348145427357 0 0 0 0 -1457.9880717125488 1281.7226507783653 0 1281.7226507783653 865.12251043784636 0 0 0 0 718.9265108406762 -412.55604960219353 0 -412.55604960219353 -287.13101325893513 0 0 0 0 -657.46856116683921 -708.30559797174283 0 -708.30559797174283 350.95579045470731 0 0 0 0 -2465.0816483977978 378.38882766191455 0 378.38882766191455 317.87540257100045 0 0 0 0 -2157.1305623241205 979.7030590011509 0 979.7030590011509 62.618999322075979 0 0 0 0 -1.2988752853318672 7.2376179572140131 0 7.2376179572140131 -1.1616979671654519 0 0 0 0 1622.3025073371027 405.1102426064117 0 405.1102426064117 -234.02570439723786 0 0 0 0 1045.3840568416344 242.49557545435891 0 242.49557545435891 -7.0560266507091001 0 0 0 0 893.33782117149201 787.6399918584649 0 787.6399918584649 34.863309603984817 0 0 0 0 891.36975397571223 333.97550379899621 0 333.97550379899621 -4.8779053056205157 0 0 0 0 35.474625213304535 238.60603430309129 0 238.60603430309129 3.3276502709195483 0 0 0 0 299.93253274285235 258.21871265646041 0 258.21871265646041 44.91289171635799 0 0 0 0 424.14043393287284 719.39813888711615 0 719.39813888711615 100.02728085170384 0 0 0 0 -844.27761994150933 336.19183238188998 0 336.19183238188998 128.89554757249971 0 0 0 0 -83.058127007170697 326.43194580861746 0 326.43194580861746 112.03020312571607 0 0 0 0 -90.299993272972642 217.34265221723035 0 217.34265221723035 4.3382624316072906 0 0 0 0 -116.55023983923093 177.66003557932618 0 177.66003557932618 105.66964475320856 0 0 0 0 -82.540908243070589 99.133509715600667 0 99.133509715600667 105.34921654195009 0 0 0 0 -88.995302619507129 108.82457454938958 0 108.82457454938958 90.817908954435552 0 0 0 0 -174.84927609435545 79.975619669199659 0 79.975619669199659 181.20346763152338 0 0 0 0 -396.28422875815158 117.11926137210139 0 117.11926137210139 57.836485856048967 0 0 0 0 -111.70303451836662 201.80125378735465 0 201.80125378735465 35.959656156439451 0 0 0 0 -558.01954737240885 219.48036687178683 0 219.48036687178683 131.69016247337277 0 0 0 0 -641.70692280152798 968.23772186940005 0 968.23772186940005 518.66609470630647 0 0 0 0 -790.39564606400381 606.50331166713841 0 606.50331166713841 1.5863141668537537 0 0 0 0 -715.22669592169768 -65.477225373046167 0 -65.477225373046167 -287.61942968523363 0 0 0 0 -153.27965454713558 500.26901507576986 0 500.26901507576986 -411.87174764349766 0 0 0 0 -8.5442311085480185 -2.1172468117195251 0 -2.1172468117195251 -1.4204297048871126 0 0 0 0 8.3198856343515217 -188.40453132535913 0 -188.40453132535913 375.13097063745954 0 0 0 0 -327.1548015379376 8.7677141656304229 0 8.7677141656304229 323.73877986278239 0 0 0 0 -390.27714036292673 444.65944404208221 0 444.65944404208221 -766.82218619427294 0 0 0 0 -1313.3122360942234 1210.401599732555 0 1210.401599732555 -1028.9987864994473 0 0 0 0 -33.390928085165797 322.46407911332062 0 322.46407911332062 -468.4572339818551 0 0 0 0 -31.555553358295583 30.451137646392453 0 30.451137646392453 -537.00786659637834 0 0 0 0 -78.075365220531239 259.7539335258225 0 259.7539335258225 -393.93784438277362 0 0 0 0 -731.02544633394427 273.78185354124253 0 273.78185354124253 -341.7466396300515 0 0 0 0 -659.74493009553407 498.76810249359551 0 498.76810249359551 -430.08548436371257 0 0 0 0 -515.91126594862726 733.19922714025051 0 733.19922714025051 -765.29892474755252 0 0 0 0 -495.14519607253533 310.25202013763146 0 310.25202013763146 -219.47260323401133 0 0 0 0 -436.85561748156761 487.32944541812321 0 487.32944541812321 -415.04719045248203 0 0 0 0 -41.970993258575618 6.0978617258060694 0 6.0978617258060694 32.342334798908269 0 0 0 0 -25.341989181451993 -8.3187686172035455 0 -8.3187686172035455 -1.9799018054000328 0 0 0 0 -84.991353438839724 -39.078913945862951 0 -39.078913945862951 233.22049678404437 0 0 0 0 -17.388985947429319 29.891920474990911 0 29.891920474990911 90.244091326203488 0 0 0 0 105.97151216786006 234.36849120929401 0 234.36849120929401 -317.16315264776313 0 0 0 0 45.73483158898307 26.073369575395191 0 26.073369575395191 -260.61402136025208 0 0 0 0 -49.133056060425588 -58.191922502533998 0 -58.191922502533998 9.5794250961189391 0 0 0 0 -26.467684755079972 56.525076177442315 0 56.525076177442315 -68.811668299807934 0 0 0 0 -5.7696178213955136 14.694923810235196 0 14.694923810235196 5.5351727195666172 0 0 0 0 -0.31769738807133763 12.090287077416932 0 12.090287077416932 -4.502074641972456 0 0 0 0 -7.8708397971019792 8.227200508928739 0 8.227200508928739 5.1704067801256315 0 0 0 0 247.77826528415471 176.58972410980539 0 176.58972410980539 956.4585608074558 0 0 0 0 7.9774351305573816 13.841848650869451 0 13.841848650869451 -9.2815764124494748 0 0 0 0 27.458531115553342 63.121013537089311 0 63.121013537089311 -6.9517260149950744 0 0 0 0 -23.635043286707003 23.47975960831053 0 23.47975960831053 -10.697902307063927 0 0 0 0 44.658849699173516 -7.4355896484157711 0 -7.4355896484157711 -53.68674779333378 0 0 0 0 49.376701578803477 -9.1702045493866535 0 -9.1702045493866535 365.51260703740991 0 0 0 0 62.48369642511534 -12.250309102149913 0 -12.250309102149913 43.126132453777245 0 0 0 0 161.05522575820214 252.38962875764992 0 252.38962875764992 -129.16199867782416 0 0 0 0 43.610616288999154 59.510371818634667 0 59.510371818634667 88.743121631923714 0 0 0 0 161.23582695654477 233.41286785015836 0 233.41286785015836 46.800645300121687 0 0 0 0 170.06671175951487 343.42101962966262 0 343.42101962966262 156.85390073631424 0 0 0 0 22.098169068834977 234.91003583358543 0 234.91003583358543 747.25836254354363 0 0 0 0 312.67156703487854 602.1294973020922 0 602.1294973020922 545.64593281198904 0 0 0 0 183.45510146184824 278.05826082224667 0 278.05826082224667 285.40424838309264 0 0 0 0 533.44763196409622 532.82465069222235 0 532.82465069222235 -82.205641353626561 0 0 0 0 565.71481802125345 689.7047874978889 0 689.7047874978889 238.58127795685141 0 0 0 0 10.232506916347802 2.0996769283614753 0 2.0996769283614753 -2.1890458394831462 0 0 0 0 215.23690280706796 3.7564703690259194 0 3.7564703690259194 -14.322415317317791 0 0 0 0 -9.1542637532995741 5.4343970320050623 0 5.4343970320050623 -0.16404663085411642 0 0 0 0 22.241176506489865 12.217692654456187 0 12.217692654456187 -70.833501531647926 0 0 0 0 608.63655064807972 671.0040229323713 0 671.0040229323713 586.90647598029318 0 0 0 0 -3.9065611564597873 0.55132543690599789 0 0.55132543690599789 0.049623981315264132 0 0 0 0 -316.10107127130323 617.6570526009782 0 617.6570526009782 791.12985381558974 0 0 0 0 -154.1652677563834 402.64181753655066 0 402.64181753655066 775.79415665012675 0 0 0 0 754.80103624412732 139.80193832546138 0 139.80193832546138 -225.21367216865474 0 0 0 0 14.235394040988467 195.07561079277821 0 195.07561079277821 -164.37651004231884 0 0 0 0 412.35586860317562 144.84960396707538 0 144.84960396707538 -447.29217423551381 0 0 0 0 62.425062928639818 207.39800505876156 0 207.39800505876156 -407.83337808672513 0 0 0 0 -129.89683752023848 165.45257432707876 0 165.45257432707876 -330.57235852061058 0 0 0 0 255.53922789650096 163.12119642367543 0 163.12119642367543 -488.26728121713313 0 0 0 0 229.12485717982054 256.03417141226601 0 256.03417141226601 -399.22046754337498 0 0 0 0 260.26509946030274 284.7175242297053 0 284.7175242297053 -372.82954831470124 0 0 0 0 332.77004762256547 255.71237512712742 0 255.71237512712742 -416.20040228528524 0 0 0 0 412.14257218495186 382.44926745919292 0 382.44926745919292 -317.20119451470964 0 0 0 0 324.18996961782068 289.90562255370332 0 289.90562255370332 -181.48888208606513 0 0 0 0 354.29673069593264 407.42003877095522 0 407.42003877095522 -203.01904617389664 0 0 0 0 247.44672465794429 289.1641838825235 0 289.1641838825235 -302.01587870318326 0 0 0 0 198.57223893491027 368.77025276200766 0 368.77025276200766 -285.71430146384228 0 0 0 0 126.28291521203937 179.84659372296301 0 179.84659372296301 -221.24375642262021 0 0 0 0 310.60119508510797 374.06065372396188 0 374.06065372396188 -376.801115420305 0 0 0 0 180.108132677502 338.29982418227883 0 338.29982418227883 -379.3234592326844 0 0 0 0 215.49752153213194 331.31810635359579 0 331.31810635359579 -378.51065965792804 0 0 0 0 154.50965896483103 330.30079182400732 0 330.30079182400732 -322.97585326564149 0 0 0 0 179.84166612783031 358.49239400786871 0 358.49239400786871 -381.74336847237282 0 0 0 0 94.254977777454769 395.85614968439768 0 395.85614968439768 -372.58905056609183 0 0 0 0 -99.016608063069725 338.02203784717858 0 338.02203784717858 -232.67098191112746 0 0 0 0 -37.725810501933665 346.78876180445832 0 346.78876180445832 -397.54939815640682 0 0 0 0 -23.632513600547099 432.96654651231074 0 432.96654651231074 -396.25136087975625 0 0 0 0 175.56076814964763 288.6107170535397 0 288.6107170535397 -485.03701770482076 0 0 0 0 38.747190157002478 195.10562258626305 0 195.10562258626305 -334.81292776422924 0 0 0 0 93.891190673108213 245.85885362551926 0 245.85885362551926 -59.405729442602023 0 0 0 0 112.40801592539356 215.45067647923497 0 215.45067647923497 -116.52826177846873 0 0 0 0 11.514907071353264 282.62540246494359 0 282.62540246494359 -159.05948288293439 0 0 0 0 82.803730447485577 272.63568635759293 0 272.63568635759293 -209.59965168761119 0 0 0 0 144.00040365307359 257.71610517722729 0 257.71610517722729 -182.36803615702956 0 0 0 0 174.96560170472367 313.85422447755991 0 313.85422447755991 -317.77103116088256 0 0 0 0 71.035170976163499 320.90006575811003 0 320.90006575811003 -229.24594747529773 0 0 0 0 193.42573234479642 283.26278982780423 0 283.26278982780423 -267.15874703634472 0 0 0 0 172.67989364409004 292.35103738194448 0 292.35103738194448 -265.00069472648283 0 0 0 0 137.32820555324724 239.57928104232997 0 239.57928104232997 -58.237002803558426 0 0 0 0 143.5007511475269 306.30757852273746 0 306.30757852273746 -22.828545760698034 0 0 0 0 133.26303697345429 289.6701374722652 0 289.6701374722652 -155.70170649595093 0 0 0 0 136.85697043714754 223.46840572516521 0 223.46840572516521 -163.55715980128662 0 0 0 0 157.80158328049583 266.45348034530252 0 266.45348034530252 -142.13798421080719 0 0 0 0 79.772917901311303 254.48984111731625 0 254.48984111731625 22.75137817003997 0 0 0 0 145.17526226776499 254.75424102386251 0 254.75424102386251 -218.33838495472446 0 0 0 0 148.16813005966833 295.96827615224538 0 295.96827615224538 -220.84367065451806 0 0 0 0 194.72943551282515 265.61217047132959 0 265.61217047132959 -373.25459776081868 0 0 0 0 149.22234087923425 204.27611711963254 0 204.27611711963254 -267.64997059333109 0 0 0 0 127.19574097266377 232.60347268759142 0 232.60347268759142 -226.31394380053825 0 0 0 0 99.631404103893146 177.79059732434689 0 177.79059732434689 -331.87782633913594 0 0 0 0 -90.250018248028937 198.59745057979671 0 198.59745057979671 -163.99722417039447 0 0 0 0 48.301380822515057 268.58695628777059 0 268.58695628777059 -10.837053643743275 0 0 0 0 83.987758367336937 200.42667955811703 0 200.42667955811703 -110.25683738465159 0 0 0 0 23.182012522127479 194.20295166832148 0 194.20295166832148 -167.42396065083449 0 0 0 0 -8.862803418902331 193.26278291493873 0 193.26278291493873 72.30366300591777 0 0 0 0 49.634094572874005 325.90788475196121 0 325.90788475196121 209.47934258516034 0 0 0 0 34.432526396150934 292.17337979623335 0 292.17337979623335 238.63981111211979 0 0 0 0 36.889519286371069 420.8520612848406 0 420.8520612848406 400.92584098190127 0 0 0 0 83.750514967687195 337.71995960116692 0 337.71995960116692 364.98857427923576 0 0 0 0 49.03629073369666 377.6200455183789 0 377.6200455183789 339.81671451013244 0 0 0 0 113.67742009187714 312.00244430391831 0 312.00244430391831 235.1133392218544 0 0 0 0 119.87959967632196 387.18098101492433 0 387.18098101492433 348.82754335176287 0 0 0 0 61.488184049463598 327.22888082150166 0 327.22888082150166 231.79050180035119 0 0 0 0 174.58598197600804 310.76000219230627 0 310.76000219230627 79.794640859690844 0 0 0 0 137.18228901876137 285.40400996199605 0 285.40400996199605 24.769012416642454 0 0 0 0 50.662044264295105 248.67680807214049 0 248.67680807214049 136.82054198118567 0 0 0 0 91.399457925683237 240.81857342598232 0 240.81857342598232 45.065954166791926 0 0 0 0 184.90440311611746 305.94819908114005 0 305.94819908114005 9.6783919126683031 0 0 0 0 124.71280779054359 275.84629590497207 0 275.84629590497207 119.2244014787284 0 0 0 0 196.76452163714566 360.08749086871103 0 360.08749086871103 177.54898216565925 0 0 0 0 149.21777597222535 303.76456843792403 0 303.76456843792403 243.67847150340458 0 0 0 0 176.04854598698512 389.50939135887165 0 389.50939135887165 406.59701076667989 0 0 0 0 214.80299209400255 328.38512139514933 0 328.38512139514933 222.38808162588612 0 0 0 0 165.35679862531106 317.70006391395509 0 317.70006391395509 228.98950975580374 0 0 0 0 390.91728221316589 367.15056642916898 0 367.15056642916898 170.14577793854357 0 0 0 0 263.3402451324946 301.74284278802952 0 301.74284278802952 169.74920394383662 0 0 0 0 233.75262083253619 303.96416840292295 0 303.96416840292295 72.268777356075589 0 0 0 0 204.27502468876628 217.95302534602251 0 217.95302534602251 66.012276058027055 0 0 0 0 223.33704301685793 237.1639059566005 0 237.1639059566005 12.515346268282883 0 0 0 0 175.52509184912196 238.85205465955369 0 238.85205465955369 -58.815682851747624 0 0 0 0 145.34696462298598 227.29160316933303 0 227.29160316933303 30.134368508486659 0 0 0 0 124.12772727829724 175.63392460534851 0 175.63392460534851 -12.762448805719032 0 0 0 0 -439.39252319070511 384.4580545812023 0 384.4580545812023 36.149991267917358 0 0 0 0 -254.12676160983392 558.69733664707746 0 558.69733664707746 -262.40722753834962 0 0 0 0 -509.32222045423987 458.42303144580183 0 458.42303144580183 -310.05520888238243 0 0 0 0 -436.96609160631488 472.72350614769675 0 472.72350614769675 -350.96475771984842 0 0 0 0 -186.4754078637925 280.24961438199171 0 280.24961438199171 -870.96355762781604 0 0 0 0 -909.73090657277498 986.44866294235544 0 986.44866294235544 -734.92291539355938 0 0 0 0 -498.74986139687826 615.75293770704957 0 615.75293770704957 -323.61588335624037 0 0 0 0 -662.54231697629439 683.27478167031677 0 683.27478167031677 -305.07096485498914 0 0 0 0 -535.23943514578059 548.49218708963508 0 548.49218708963508 -245.49600636451942 0 0 0 0 -338.33385448640911 478.3494749193087 0 478.3494749193087 -439.86667943700286 0 0 0 0 -181.52737424698716 345.98737883707145 0 345.98737883707145 -284.31858900871157 0 0 0 0 -423.00489204804762 498.20544019477165 0 498.20544019477165 -212.51230904000113 0 0 0 0 -344.96209622765127 222.10439940517836 0 222.10439940517836 -289.9764026959383 0 0 0 0 -52.77854335331358 295.09568531355762 0 295.09568531355762 -276.21486008637294 0 0 0 0 -91.688711565904669 197.28416232404561 0 197.28416232404561 -133.02624290821041 0 0 0 0 -93.906552156186081 248.25128949260761 0 248.25128949260761 38.803541915120149 0 0 0 0 -176.56789946342906 430.96231823941798 0 430.96231823941798 -29.782823966408614 0 0 0 0 -4.7939380225870991 204.48770691888785 0 204.48770691888785 90.68231859673142 0 0 0 0 -72.082107349880971 309.11082712957432 0 309.11082712957432 484.69817838016024 0 0 0 0 -27.787834383649169 472.26401597269432 0 472.26401597269432 583.73536377593337 0 0 0 0 22.247490324298269 289.05786681206882 0 289.05786681206882 53.031929242701153 0 0 0 0 -65.736580686045272 194.63329403452735 0 194.63329403452735 285.40268958048546 0 0 0 0 12.565193954418646 375.71228648626129 0 375.71228648626129 353.98588613643733 0 0 0 0 -31.603454359290481 358.74160470071001 0 358.74160470071001 389.04177481342776 0 0 0 0 62.335428733455046 429.87202593696384 0 429.87202593696384 355.39232387897209 0 0 0 0 54.413316372792906 388.50457909513807 0 388.50457909513807 251.02323436815641 0 0 0 0 51.873190546379192 425.26117138229165 0 425.26117138229165 392.28866795280555 0 0 0 0 -9.9496067877290528 24.072712437603684 0 24.072712437603684 -18.656043155409492 0 0 0 0 315.12235849074204 592.19629500109295 0 592.19629500109295 408.52420938411524 0 0 0 0 519.66668562966152 376.16536183955213 0 376.16536183955213 35.338378051863401 0 0 0 0 -1006.1473973396642 466.60403996836249 0 466.60403996836249 630.56152989763177 0 0 0 0 -830.92269363491869 284.86661981935686 0 284.86661981935686 716.05879268962599 0 0 0 0 -112.2487082088046 595.84318796112757 0 595.84318796112757 172.4922824619789 0 0 0 0 -778.93309046771901 352.77875720082375 0 352.77875720082375 594.88393860427277 0 0 0 0 -501.50014049082529 -85.165657715846464 0 -85.165657715846464 164.47459182745115 0 0 0 0 -620.04989941694657 275.55422064576123 0 275.55422064576123 183.87991060424247 0 0 0 0 -689.61853807970328 170.52305927020552 0 170.52305927020552 698.5597675641402 0 0 0 0 -759.24868220452481 316.23362957713834 0 316.23362957713834 -397.44886357952055 0 0 0 0 -860.68554209049762 126.34494747212375 0 126.34494747212375 1041.5585958017182 0 0 0 0 -57.905663519946842 63.929052733806842 0 63.929052733806842 -34.602957176633929 0 0 0 0 959.99295052795787 1733.5749166987953 0 1733.5749166987953 746.50442499355268 0 0 0 0 544.23436733445851 361.41717193849036 0 361.41717193849036 199.19591244209369 0 0 0 0 -108.06198328959726 901.06981612417803 0 901.06981612417803 2993.9002882721688 0 0 0 0 35.162624399672495 863.11948097630375 0 863.11948097630375 1218.7300476135424 0 0 0 0 -12.175664276510361 877.70224314341613 0 877.70224314341613 1392.691341039048 0 0 0 0 14.274614621550427 758.34200034181413 0 758.34200034181413 1317.9062112029642 0 0 0 0 -1781.4151326532738 496.7872920002701 0 496.7872920002701 886.2191116984668 0 0 0 0 -605.88075058246727 1227.944665847635 0 1227.944665847635 975.48047998237234 0 0 0 0 -55.042815070871342 65.381400293298469 0 65.381400293298469 -43.974509749716262 0 0 0 0 -271.95530920768215 -240.59143719336134 0 -240.59143719336134 -193.91119689568586 0 0 0 0 -1962.2538356708319 600.16033668273303 0 600.16033668273303 -68.256816338413046 0 0 0 0 -0.63809485641106534 -0.56834825779921516 0 -0.56834825779921516 -11.045864502069151 0 0 0 0 687.64431328559658 554.61754620883039 0 554.61754620883039 -8.4046303527939017 0 0 0 0 494.77249924073112 -6.9493791056229384 0 -6.9493791056229384 -447.25357870025982 0 0 0 0 16.288736356965302 26.634230412328577 0 26.634230412328577 6.1238977969998132 0 0 0 0 -3.8380102770170197 35.665732685887633 0 35.665732685887633 -195.12067032502273 0 0 0 0 257.59046234877314 -40.331316192579834 0 -40.331316192579834 -178.68306194254546 0 0 0 0 -5.3099220260562419 7.2205290939982802 0 7.2205290939982802 -28.674873529055105 0 0 0 0 -469.67289933124266 289.90662300878466 0 289.90662300878466 -208.33435855333664 0 0 0 0 -852.42942115016922 343.67842095733886 0 343.67842095733886 -11.016619529560558 0 0 0 0 770.74182468451181 42.897287709634838 0 42.897287709634838 -148.35295908309854 0 0 0 0 700.76027358463762 -198.76923617175999 0 -198.76923617175999 195.40536865990725 0 0 0 0 -96.451920791569137 184.66451891423912 0 184.66451891423912 -107.78761652034882 0 0 0 0 7.9532124640936672 6.4737990271955113 0 6.4737990271955113 7.0469207807171586 0 0 0 0 277.14400263792049 767.85587184555698 0 767.85587184555698 70.608029511698987 0 0 0 0 -70.678786885495356 357.85283459981292 0 357.85283459981292 876.65643344019918 0 0 0 0 -92.565590653532126 90.981211130409065 0 90.981211130409065 45.282201953632466 0 0 0 0 -568.89471651679196 1367.4016419869658 0 1367.4016419869658 827.63874293454137 0 0 0 0 167.2448903238037 455.87635582227813 0 455.87635582227813 1402.2135469204659 0 0 0 0 339.39907975435926 484.98514405525202 0 484.98514405525202 1229.4529838635353 0 0 0 0 225.66187454405008 630.69590127223637 0 630.69590127223637 1068.8002586731018 0 0 0 0 368.48505500518604 686.60176717249851 0 686.60176717249851 1079.475929132881 0 0 0 0 116.26421814319474 759.77046518995485 0 759.77046518995485 1060.0652272941516 0 0 0 0 178.98855834119422 547.32275759118056 0 547.32275759118056 1026.8502096262819 0 0 0 0 166.46413649441092 835.3771105689666 0 835.3771105689666 1108.697311769487 0 0 0 0 -49.083618130815069 66.252824401725434 0 66.252824401725434 -44.107538072288214 0 0 0 0 56.138025797859882 841.41728119450272 0 841.41728119450272 1114.9074376578137 0 0 0 0 14.202670120619587 763.93743621674366 0 763.93743621674366 1122.6707841699463 0 0 0 0 48.398225637924043 809.74999397207284 0 809.74999397207284 1156.8604319398728 0 0 0 0 -69.782589026632195 672.42655077976997 0 672.42655077976997 1275.9961028183461 0 0 0 0 -33.251565556911373 576.40070607664347 0 576.40070607664347 959.52456666243961 0 0 0 0 -74.857107561634621 514.25906638968445 0 514.25906638968445 1034.2433326480241 0 0 0 0 -170.19916160758294 458.32109971689351 0 458.32109971689351 1122.2146208889098 0 0 0 0 112.0756603638074 637.97172399685951 0 637.97172399685951 918.23824082886131 0 0 0 0 42.714477699209965 482.63710010602335 0 482.63710010602335 800.17627233896928 0 0 0 0 89.586674710591979 710.87497186146902 0 710.87497186146902 1000.368778731543 0 0 0 0 -16.787152928096475 644.59506112916279 0 644.59506112916279 1063.1280024664375 0 0 0 0 95.329731394413102 591.52948181235115 0 591.52948181235115 856.78365583939012 0 0 0 0 -21.922206203613314 470.87788624667155 0 470.87788624667155 804.73035415550112 0 0 0 0 -53.698885075675207 478.82416017753712 0 478.82416017753712 884.13904808439474 0 0 0 0 -17.441789804681321 467.42422644164617 0 467.42422644164617 820.24997348737088 0 0 0 0 19.438620877503126 458.22602242662106 0 458.22602242662106 698.73233833472477 0 0 0 0 48.546075276964984 276.50930618475104 0 276.50930618475104 473.30463927243545 0 0 0 0 104.27251890020852 538.93669785197562 0 538.93669785197562 730.89185617376279 0 0 0 0 81.920765615053824 448.87433630312444 0 448.87433630312444 621.40771023900015 0 0 0 0 97.680990096783887 290.29050812890682 0 290.29050812890682 454.22427741167485 0 0 0 0 8.1097106841480127 332.81833062240912 0 332.81833062240912 438.21270397767512 0 0 0 0 203.98628139221546 733.80518606787155 0 733.80518606787155 957.50795456200285 0 0 0 0 162.42023185899598 599.57487191240944 0 599.57487191240944 976.99079882526075 0 0 0 0 54.319972157478333 435.37632636322815 0 435.37632636322815 996.81784109213913 0 0 0 0 103.80388879326711 555.48128615123278 0 555.48128615123278 1330.3723302627768 0 0 0 0 0.59454551421350743 -0.42785049580248824 0 -0.42785049580248824 4.3206852167196814 0 0 0 0 370.76568256835071 263.39355916028398 0 263.39355916028398 30.025152250585961 0 0 0 0 98.968606552512938 87.160952877573436 0 87.160952877573436 -82.669257320652832 0 0 0 0 -50.82285444171066 188.4404420744977 0 188.4404420744977 416.57537961625349 0 0 0 0 358.3451133043709 315.01151289048357 0 315.01151289048357 209.67116829567749 0 0 0 0 839.46483907161564 1024.2372017691214 0 1024.2372017691214 953.0170702249452 0 0 0 0 842.94493272313321 1054.1306753412282 0 1054.1306753412282 1165.6105852874171 0 0 0 0 -85.6206326061656 83.01174161608651 0 83.01174161608651 369.40306510298251 0 0 0 0 1.1968234674447942 -0.35467504569890451 0 -0.35467504569890451 2.6089080344756326 0 0 0 0 667.67053690923422 843.5613479563217 0 843.5613479563217 1712.114635804086 0 0 0 0 623.75393309962419 884.13556672094273 0 884.13556672094273 1809.1977289045753 0 0 0 0 583.18595884086244 699.11484528463188 0 699.11484528463188 1078.1341833908191 0 0 0 0 144.00152279148097 852.02345181099008 0 852.02345181099008 1520.040382303363 0 0 0 0 -58.001651210756336 63.089761464532614 0 63.089761464532614 -38.062306937895585 0 0 0 0 -143.659458821714 412.17869560632971 0 412.17869560632971 1667.9558742790978 0 0 0 0 -152.95765294727607 295.37514781578648 0 295.37514781578648 23.997945235423686 0 0 0 0 889.48430789880877 1095.037745020345 0 1095.037745020345 1379.6694915500375 0 0 0 0 646.46537035212532 1006.6666188806121 0 1006.6666188806121 1952.0576695184791 0 0 0 0 1009.8169766522378 1458.3924542505247 0 1458.3924542505247 1650.1114605906478 0 0 0 0 -2.9741607256263976 21.294105523202589 0 21.294105523202589 -7.029782914198762 0 0 0 0 701.35892614641489 991.54347655877064 0 991.54347655877064 1707.1054866153281 0 0 0 0 91.91578721467522 770.07823273404574 0 770.07823273404574 1316.4999884348363 0 0 0 0 4.2254890842195891 716.6539824574138 0 716.6539824574138 1546.0181757935716 0 0 0 0 -52.876400700090045 59.396291333863736 0 59.396291333863736 -38.688119207729812 0 0 0 0 370.73970401349561 -827.40657186091175 0 -827.40657186091175 617.10588130541873 0 0 0 0 143.02219523855092 592.5414692288432 0 592.5414692288432 1136.6110001166671 0 0 0 0 -248.15911852708814 458.18913578925458 0 458.18913578925458 -247.68014194261923 0 0 0 0 -1.2820376946474425 241.04561018087406 0 241.04561018087406 213.97097831390784 0 0 0 0 -385.70415971455077 335.70372156929079 0 335.70372156929079 455.78078922552959 0 0 0 0 -475.95018325238561 757.11552962496171 0 757.11552962496171 -262.66611571122485 0 0 0 0 -13.078255870728754 358.20592324750396 0 358.20592324750396 -1206.1227043027502 0 0 0 0 -7.8844320497446461 158.73081340520002 0 158.73081340520002 -219.66490211108521 0 0 0 0 -48.046560038892494 125.3514718887709 0 125.3514718887709 19.119283541855111 0 0 0 0 -11.64413596769549 33.955165143221876 0 33.955165143221876 -13.631577554452079 0 0 0 0 -14.480271740369005 1.7928322215245771 0 1.7928322215245771 0.043062861955490916 0 0 0 0 -317.56501503174513 -65.803105600331037 0 -65.803105600331037 79.359788499190472 0 0 0 0 -565.20880661104457 343.28876803773164 0 343.28876803773164 227.52104175156273 0 0 0 0 -70.514816507771684 146.54434282856164 0 146.54434282856164 -131.17282961975434 0 0 0 0 -26.197546966261143 82.338999540166697 0 82.338999540166697 -57.123595581160771 0 0 0 0 102.85387764062943 3.0897059294693463 0 3.0897059294693463 -142.28405065674451 0 0 0 0 53.278961173740754 64.699759394199646 0 64.699759394199646 -206.88946312255575 0 0 0 0 27.183452634033301 11.083598922111378 0 11.083598922111378 -20.013680098299645 0 0 0 0 16.007221617604376 47.002808437261372 0 47.002808437261372 -63.245864097771715 0 0 0 0 -16.978416837926488 143.35759886762389 0 143.35759886762389 -121.36199533430408 0 0 0 0 -52.54754197467264 137.17498321983476 0 137.17498321983476 -97.961863007214561 0 0 0 0 76.605108744413883 68.346948628957762 0 68.346948628957762 -163.57848094104338 0 0 0 0 22.98470192043645 53.688895519374441 0 53.688895519374441 -59.381638662169962 0 0 0 0 22.924781270064614 95.41976822307879 0 95.41976822307879 -81.217023489167332 0 0 0 0 5.6615586110277221 57.857559809497729 0 57.857559809497729 -46.791433828101496 0 0 0 0 -222.37598710142265 60.840452690514212 0 60.840452690514212 -65.781626069878257 0 0 0 0 -118.34317749514958 96.923108480328665 0 96.923108480328665 687.05310526360336 0 0 0 0 355.24877231670507 -106.4319449265804 0 -106.4319449265804 150.40505625233345 0 0 0 0 26.004962690303536 93.402868895413803 0 93.402868895413803 18.730582719559351 0 0 0 0 -64.59990565627777 126.94005737943553 0 126.94005737943553 27.607369807781652 0 0 0 0 709.15299441643947 -149.05333852116382 0 -149.05333852116382 -133.1591101287886 0 0 0 0 40.176581244062774 85.77059493081407 0 85.77059493081407 28.33723882882957 0 0 0 0 542.2282800469693 75.380164324522411 0 75.380164324522411 -175.21370884566568 0 0 0 0 253.01317698128696 -32.219482314794732 0 -32.219482314794732 -50.730322259405511 0 0 0 0 206.23945305882444 -153.83026904195867 0 -153.83026904195867 135.82786370950635 0 0 0 0 -742.29772602276716 -541.64493850130748 0 -541.64493850130748 448.49917332603582 0 0 0 0 163.03981129108524 -339.37192949603559 0 -339.37192949603559 -568.06849418374622 0 0 0 0 124.60862530345366 255.70661547586951 0 255.70661547586951 -640.02259164938732 0 0 0 0 -141.52132338952651 138.12155252995581 0 138.12155252995581 46.108895809276873 0 0 0 0 -114.63725887893088 218.67195017375343 0 218.67195017375343 106.61911124029575 0 0 0 0 -146.1637614115607 194.08425172167335 0 194.08425172167335 97.221243948122719 0 0 0 0 -39.965040074122953 77.783213163238543 0 77.783213163238543 80.111838983742928 0 0 0 0 -37.490412512845069 154.21452958485133 0 154.21452958485133 14.694363348302431 0 0 0 0 5.9164135801656812 130.3194634748852 0 130.3194634748852 0.55013786367635475 0 0 0 0 -50.225419082550616 157.51159590293256 0 157.51159590293256 13.914345050739939 0 0 0 0 -50.662445949310495 130.19991457237847 0 130.19991457237847 15.20208788295713 0 0 0 0 -78.735204442113172 222.42764039323083 0 222.42764039323083 -73.525382844036358 0 0 0 0 -86.265654941627872 187.92880036139468 0 187.92880036139468 34.424662907178572 0 0 0 0 -133.61276955173525 180.86562610990404 0 180.86562610990404 33.849947982125741 0 0 0 0 -78.023272819264093 176.49131395205404 0 176.49131395205404 -91.684414284056402 0 0 0 0 -109.96638452197658 118.12273090177769 0 118.12273090177769 -10.055558524247317 0 0 0 0 53.306097159031196 171.53340599423609 0 171.53340599423609 1.9355305632707314 0 0 0 0 16.656597660934494 263.6877775563662 0 263.6877775563662 120.29032596141042 0 0 0 0 -39.343365466913383 233.28011122807948 0 233.28011122807948 67.191881346494483 0 0 0 0 3.7624380813213065 142.32121014268614 0 142.32121014268614 39.161265431990614 0 0 0 0 133.73427176180121 214.94343963302526 0 214.94343963302526 45.581441737942441 0 0 0 0 19.440386783076974 211.00339817973509 0 211.00339817973509 48.088833797206462 0 0 0 0 484.90284747139958 62.5298493379305 0 62.5298493379305 -75.428827039206226 0 0 0 0 202.58962613148469 82.674155373009853 0 82.674155373009853 -3.2900710880494444 0 0 0 0 226.89588111777266 105.14031568593055 0 105.14031568593055 7.8716140064061619 0 0 0 0 285.71458402746066 33.042366621732072 0 33.042366621732072 -6.2659213762235595 0 0 0 0 218.01111688232777 67.088814919530705 0 67.088814919530705 -29.854541817534482 0 0 0 0 217.49563313145336 81.578022984263953 0 81.578022984263953 45.114911480835872 0 0 0 0 148.82675605958502 123.92601397304679 0 123.92601397304679 6.6560625303500274 0 0 0 0 84.567655491931873 74.464624414370519 0 74.464624414370519 -19.773819471171009 0 0 0 0 153.53422616452735 125.98472951489384 0 125.98472951489384 -62.788321708831063 0 0 0 0 158.39459329208785 81.243620707108221 0 81.243620707108221 -57.474038819898851 0 0 0 0 222.49253203109765 96.978962439447969 0 96.978962439447969 -20.676368291256949 0 0 0 0 224.03565793413145 118.45346970694663 0 118.45346970694663 -41.790525950762458 0 0 0 0 258.93427423070534 88.392801210269681 0 88.392801210269681 -74.59696241927486 0 0 0 0 -34.986694438813089 78.946643786676162 0 78.946643786676162 7.3947290359762121 0 0 0 0 -570.09131349582458 -66.094516536482843 0 -66.094516536482843 -27.042008542921394 0 0 0 0 274.22220708656459 93.997651800040785 0 93.997651800040785 -52.290877178427763 0 0 0 0 -75.661910104739945 123.99534280949956 0 123.99534280949956 1.4642178974687283 0 0 0 0 -166.99695925181015 0.73269114626515375 0 0.73269114626515375 20.22519794777088 0 0 0 0 259.51268414434981 95.261495902738716 0 95.261495902738716 6.8877499148366041 0 0 0 0 251.60051536469837 77.91137352581427 0 77.91137352581427 55.792937315243762 0 0 0 0 256.05605808849214 94.464015820660279 0 94.464015820660279 -21.623375653849507 0 0 0 0 108.45835679213633 120.62496859392195 0 120.62496859392195 -57.657437559246318 0 0 0 0 33.403462899819715 244.07165517589965 0 244.07165517589965 -0.3038547306714463 0 0 0 0 -19.482128742097103 13.025725571921782 0 13.025725571921782 -7.7146320393558909 0 0 0 0 -49.982910141581669 81.746026481836452 0 81.746026481836452 -65.480664132273887 0 0 0 0 -129.88804266249645 72.982506671796727 0 72.982506671796727 6.2282307740024407 0 0 0 0 -18.287681793692173 167.90178163693781 0 167.90178163693781 31.83870939782355 0 0 0 0 -83.715701090797666 99.368229271927703 0 99.368229271927703 10.377627264866533 0 0 0 0 -119.32895616123369 108.96289509095868 0 108.96289509095868 -108.73718226203346 0 0 0 0 406.67531822859746 -66.25877114900868 0 -66.25877114900868 10.925078746884537 0 0 0 0 -0.3587449099685216 28.438241426278069 0 28.438241426278069 19.513108669062717 0 0 0 0 -25.299624138694298 63.555698689448491 0 63.555698689448491 -39.958105767878493 0 0 0 0 -201.44340372793886 155.23154755326686 0 155.23154755326686 -78.54383925847651 0 0 0 0 250.67842583071615 1.5576005240436643 0 1.5576005240436643 134.43514529955428 0 0 0 0 -21.535644366237392 17.451968104470438 0 17.451968104470438 8.5736118990908778 0 0 0 0 -129.9377557560947 -29.781563212476613 0 -29.781563212476613 57.80504882108653 0 0 0 0 -174.42234805861335 192.30935556345048 0 192.30935556345048 -30.863866677886108 0 0 0 0 -59.843095680716942 44.537594825724227 0 44.537594825724227 -76.800672319688601 0 0 0 0 -126.59778922885016 3.6549920569304959 0 3.6549920569304959 -7.8174905842113276 0 0 0 0 -83.366272669532918 104.23333933610229 0 104.23333933610229 -9.8046891562989913 0 0 0 0 -95.496123124139558 42.873074113915209 0 42.873074113915209 21.523746303173539 0 0 0 0 -49.967038816793547 -7.4669018258447579 0 -7.4669018258447579 -5.0583882706152394 0 0 0 0 -19.620172956175324 56.9131463595659 0 56.9131463595659 -18.493809037680563 0 0 0 0 32.67412726231305 105.47148518539052 0 105.47148518539052 -98.570376124655013 0 0 0 0 -64.055515824649774 73.560967278590397 0 73.560967278590397 -12.525405995715118 0 0 0 0 -224.00385527503386 95.419962557079998 0 95.419962557079998 -25.833035056093649 0 0 0 0 -49.040821101509209 78.89934725848434 0 78.89934725848434 -81.835044185485458 0 0 0 0 -221.64256266520533 211.55473487422569 0 211.55473487422569 -57.634428276658582 0 0 0 0 9.6675267710628816 5.4120668835686416 0 5.4120668835686416 6.6181114673436809 0 0 0 0 986.74562772593345 356.79610695868541 0 356.79610695868541 -1514.2202294420131 0 0 0 0 -609.53512992699871 139.29144224687343 0 139.29144224687343 754.20834841782198 0 0 0 0 1056.6083103899139 -582.83688341689265 0 -582.83688341689265 -44.658195587842783 0 0 0 0 293.01790030112898 297.90528398630704 0 297.90528398630704 -111.51622772837436 0 0 0 0 11.574780817797546 420.52474670934595 0 420.52474670934595 -33.099717721746856 0 0 0 0 0.15190261120005744 413.12128943042171 0 413.12128943042171 116.51623988904339 0 0 0 0 5.176340743448236 557.61989060009546 0 557.61989060009546 -84.286651326670835 0 0 0 0 263.71159601763065 356.6799542753015 0 356.6799542753015 -160.27411625251898 0 0 0 0 -634.96561832583393 711.15757144394229 0 711.15757144394229 -78.052066793554332 0 0 0 0 -10.035668445414103 0.33877989341435111 0 0.33877989341435111 -0.42024350416140877 0 0 0 0 -454.98413896662532 137.1104715333986 0 137.1104715333986 210.97844844850988 0 0 0 0 -18.760670539792045 38.909591242889292 0 38.909591242889292 99.231002936857294 0 0 0 0 58.334521856217179 66.841393183701257 0 66.841393183701257 69.010725953610745 0 0 0 0 -297.00144733396883 281.22850362721601 0 281.22850362721601 127.40165717684795 0 0 0 0 168.24880339897936 344.60506509309016 0 344.60506509309016 131.41072997257425 0 0 0 0 14.174967520317296 79.939938843664095 0 79.939938843664095 65.466725550546471 0 0 0 0 73.524703225441044 14.870815328253684 0 14.870815328253684 17.452930004557857 0 0 0 0 199.06732627094607 235.98569068938741 0 235.98569068938741 177.52935795127723 0 0 0 0 306.55927018565126 233.38257530870487 0 233.38257530870487 98.866961232342874 0 0 0 0 412.70486120909482 228.07607867138722 0 228.07607867138722 95.354552611345298 0 0 0 0 470.06037322923657 690.75580794996085 0 690.75580794996085 455.87925917698612 0 0 0 0 65.927616341425164 359.87713746832651 0 359.87713746832651 202.73969232448508 0 0 0 0 139.82532338474994 653.32216354927959 0 653.32216354927959 382.46609385174816 0 0 0 0 0.22749928699340671 500.44249631085404 0 500.44249631085404 596.28530051225016 0 0 0 0 48.984353634536092 686.6996861379339 0 686.6996861379339 939.50337965308154 0 0 0 0 148.40615105347388 756.68532317357312 0 756.68532317357312 949.7676525148463 0 0 0 0 -0.27648272288206499 596.4385579958946 0 596.4385579958946 1351.8800577241336 0 0 0 0 -43.623695600574138 386.52720991222253 0 386.52720991222253 1280.4920258327268 0 0 0 0 214.73902677850856 548.44438795711608 0 548.44438795711608 947.24113516219302 0 0 0 0 -0.11073603429485843 575.25280358699092 0 575.25280358699092 963.41665129865453 0 0 0 0 831.63149143676856 691.23140474968818 0 691.23140474968818 704.29194056820143 0 0 0 0 571.02530348064465 1106.7492672748897 0 1106.7492672748897 1079.6558613856396 0 0 0 0 95.658679639323964 665.56069891852974 0 665.56069891852974 1194.2276243605452 0 0 0 0 1033.2655437493813 186.36869439921861 0 186.36869439921861 1434.6564739146559 0 0 0 0 882.60878609205974 1572.1389810262515 0 1572.1389810262515 1679.7366613199688 0 0 0 0 5.5756273118870183 8.3827751266044572 0 8.3827751266044572 11.714660487429347 0 0 0 0 -516.68862988116598 145.37922440324834 0 145.37922440324834 1711.7110560730121 0 0 0 0 216.9746386964689 1022.8612254817126 0 1022.8612254817126 1959.4291104987394 0 0 0 0 268.7398652643169 229.57719599921984 0 229.57719599921984 225.99265608678343 0 0 0 0 1807.3323964473311 892.50317838605861 0 892.50317838605861 231.2583959896574 0 0 0 0 -242.21498363012506 332.27135065177674 0 332.27135065177674 32.264416363359857 0 0 0 0 24.067818548661307 174.41633950357635 0 174.41633950357635 -22.75562326727362 0 0 0 0 14.267229369899724 246.97181229927872 0 246.97181229927872 -34.840684448156367 0 0 0 0 -171.41373832865793 189.96690052537994 0 189.96690052537994 737.55545027466223 0 0 0 0 -31.98582713099313 28.515929557984336 0 28.515929557984336 336.08362142277434 0 0 0 0 120.6370094979502 972.24659624762842 0 972.24659624762842 1212.7205698550083 0 0 0 0 51.388423628537566 771.39979309662135 0 771.39979309662135 1292.9385031048116 0 0 0 0 243.1286360281083 782.0069582860981 0 782.0069582860981 819.01266909647325 0 0 0 0 405.40188361466426 354.73867403753388 0 354.73867403753388 1344.1887184935922 0 0 0 0 288.98165926105867 607.19110448233096 0 607.19110448233096 807.79979726139004 0 0 0 0 350.70048084377777 773.53470945721688 0 773.53470945721688 1168.7204627463075 0 0 0 0 446.51425356107939 874.4752251506045 0 874.4752251506045 647.65565882872477 0 0 0 0 62.010456129573868 154.39936481925133 0 154.39936481925133 1187.4556840940052 0 0 0 0 561.08818746205361 617.36147726436275 0 617.36147726436275 919.72441622874794 0 0 0 0 274.74473635692266 1098.2055754064097 0 1098.2055754064097 1359.3391366127541 0 0 0 0 4.8973058563925065 4.4987213085898787 0 4.4987213085898787 3.5877572316369215 0 0 0 0 58.562963871707325 542.98360103346022 0 542.98360103346022 2557.4264922403345 0 0 0 0 109.99041890344233 460.90489353485452 0 460.90489353485452 -401.37284055056517 0 0 0 0 -177.81776309672568 121.25185392365121 0 121.25185392365121 0.18675177637567231 0 0 0 0 -135.98308862248086 18.400239963551158 0 18.400239963551158 48.60593852966818 0 0 0 0 13.805323290012893 324.70825102290951 0 324.70825102290951 279.38090363885863 0 0 0 0 18.955656212165422 91.916755232944411 0 91.916755232944411 40.714663680567568 0 0 0 0 -23.327403709670762 97.275379306761408 0 97.275379306761408 -21.775785978010276 0 0 0 0 -245.1081548409129 120.19881902855923 0 120.19881902855923 73.902460457536108 0 0 0 0 -110.75548547116341 41.450667717290287 0 41.450667717290287 61.79686236459014 0 0 0 0 -167.50406883809046 -17.137146615336803 0 -17.137146615336803 130.1232117185109 0 0 0 0 -97.134112936197198 37.792644735040142 0 37.792644735040142 55.520627632037986 0 0 0 0 -2.9995855651728789 -1.2992835749032281 0 -1.2992835749032281 -1.2315896620525941 0 0 0 0 484.57622264165548 966.32059096864464 0 966.32059096864464 -641.64008237460348 0 0 0 0 -49.192859579998185 -91.918385376136939 0 -91.918385376136939 158.04234226873996 0 0 0 0 -582.31838071730454 354.72979297958 0 354.72979297958 -61.981639902021698 0 0 0 0 -108.9545135962253 337.46035119968747 0 337.46035119968747 -87.72105508656233 0 0 0 0 -1095.8906368785538 -178.33602445425413 0 -178.33602445425413 -201.21753216178377 0 0 0 0 -250.51412404117582 55.643465794768986 0 55.643465794768986 -32.973956440201619 0 0 0 0 -25.636011588692782 173.58698231144837 0 173.58698231144837 -235.4238621286388 0 0 0 0 -79.950225006730761 108.57871800828718 0 108.57871800828718 -164.25487093939648 0 0 0 0 -389.77121023504515 -38.352348715426558 0 -38.352348715426558 -210.2773724911458 0 0 0 0 -88.575503596992348 146.69771765667622 0 146.69771765667622 -130.26562690415778 0 0 0 0 -71.568828941090032 100.70271467911698 0 100.70271467911698 -104.51210198820172 0 0 0 0 11.198772956881982 19.936174912366113 0 19.936174912366113 31.247873454059825 0 0 0 0 14.961253470471149 25.237944560388428 0 25.237944560388428 45.297310621812116 0 0 0 0 -40.102460770001926 96.505422117852504 0 96.505422117852504 51.655734953750652 0 0 0 0 -84.627920154009189 105.82527955304403 0 105.82527955304403 -82.760800582985667 0 0 0 0 -68.060033781861421 114.6122271359427 0 114.6122271359427 -92.206343934761435 0 0 0 0 -76.036150968109723 123.3444130152368 0 123.3444130152368 -68.589313321999498 0 0 0 0 -129.54782856279053 48.554961723534916 0 48.554961723534916 38.646329764521397 0 0 0 0 -38.481601847968705 64.918129228183261 0 64.918129228183261 39.385910134997175 0 0 0 0 -83.330050269069034 73.245535075092448 0 73.245535075092448 75.402392991261877 0 0 0 0 3.9082001006306371 40.621644782460294 0 40.621644782460294 51.539471263407663 0 0 0 0 -6.3898515497276094 19.796709950569493 0 19.796709950569493 37.413521605705682 0 0 0 0 56.942870731580115 54.08160497439394 0 54.08160497439394 39.23880215877216 0 0 0 0 -22.394335331628099 76.324398942888365 0 76.324398942888365 91.751655067197134 0 0 0 0 -79.682419302873313 102.19130078602029 0 102.19130078602029 -29.623755249529495 0 0 0 0 -23.963456227316783 7.8813460071407277 0 7.8813460071407277 0.83374281204149625 0 0 0 0 -12.165646051522344 29.33854944648192 0 29.33854944648192 13.307561005633033 0 0 0 0 -40.392484873651995 30.043668813235552 0 30.043668813235552 22.270967279422297 0 0 0 0 -35.357925522956066 45.83566970832544 0 45.83566970832544 -19.960345526499623 0 0 0 0 6.2616113965294176 24.546335588695086 0 24.546335588695086 -23.711772606263708 0 0 0 0 24.264995177276433 -74.958448658555426 0 -74.958448658555426 128.54455274193606 0 0 0 0 -3.8940926954676343 20.382330869164576 0 20.382330869164576 -4.3911648591506491 0 0 0 0 -44.261267739260802 59.787842943384021 0 59.787842943384021 -38.979389035459462 0 0 0 0 -46.33797349971428 69.75611492074313 0 69.75611492074313 -27.97400821622432 0 0 0 0 -42.79182507981659 54.892851160791437 0 54.892851160791437 -10.110595530447057 0 0 0 0 -81.596139795496128 97.896645009376243 0 97.896645009376243 68.295139036282876 0 0 0 0 -61.324768355392735 60.412282211089405 0 60.412282211089405 0.82314743763708975 0 0 0 0 -42.173692113210564 58.076605129563177 0 58.076605129563177 -35.853140175218869 0 0 0 0 -50.807538550621985 55.607307689821312 0 55.607307689821312 -21.052021202660743 0 0 0 0 135.02684258374939 127.71556850740802 0 127.71556850740802 -71.109258604991965 0 0 0 0 -31.17546245798485 104.15734755141459 0 104.15734755141459 -42.713231251281286 0 0 0 0 -31.229840472817614 98.996706117132362 0 98.996706117132362 36.00323580163149 0 0 0 0 -109.39678247572738 139.38328290524123 0 139.38328290524123 16.300379807864147 0 0 0 0 -71.754399895456231 84.379787056133495 0 84.379787056133495 -21.699714884171275 0 0 0 0 -189.19044908476644 164.6549650640892 0 164.6549650640892 -34.856116579626359 0 0 0 0 -176.17658345852396 158.73345703349696 0 158.73345703349696 -117.59885863315139 0 0 0 0 -299.111078194328 305.81088560544657 0 305.81088560544657 22.807711355298807 0 0 0 0 -45.280306957178254 50.129033761635547 0 50.129033761635547 12.958246395550603 0 0 0 0 -3.2596101282355221 27.082452117782509 0 27.082452117782509 -24.774233394299753 0 0 0 0 -212.79452589468565 334.35832589516997 0 334.35832589516997 -452.16412384673595 0 0 0 0 -209.75189016092918 289.62782293585946 0 289.62782293585946 -398.69080880116667 0 0 0 0 -256.57046894259111 374.36456289582134 0 374.36456289582134 -146.63179313161709 0 0 0 0 -11.244047462901392 19.343316849946035 0 19.343316849946035 -5.5128713391707054 0 0 0 0 -212.79452589459834 334.3583258953314 0 334.3583258953314 -452.16412384669638 0 0 0 0 -223.45026025334664 67.690767496281978 0 67.690767496281978 -300.97171892719643 0 0 0 0 -227.41557268206088 259.57372288937313 0 259.57372288937313 -342.46611323627917 0 0 0 0 -275.90727436955785 348.49862388062911 0 348.49862388062911 -279.12651492153054 0 0 0 0 -212.63635172866634 187.65005850184389 0 187.65005850184389 -78.564802872628206 0 0 0 0 -58.827129695942858 66.084860847794516 0 66.084860847794516 -33.688194088255841 0 0 0 0 -1.8160214379654462 20.820061425133417 0 20.820061425133417 -33.829817196546998 0 0 0 0 -174.09650239635084 143.20719685408403 0 143.20719685408403 -79.462655332814393 0 0 0 0 -114.46137330142665 237.88599960039573 0 237.88599960039573 -23.946333994177621 0 0 0 0 -107.48839994519949 757.05715965369018 0 757.05715965369018 305.13083191309079 0 0 0 0 -207.04370216728421 135.23400993698306 0 135.23400993698306 325.32248386540618 0 0 0 0 -32.360928299949336 28.582465768453119 0 28.582465768453119 24.134950186178415 0 0 0 0 -53.612360333449672 28.262738641065063 0 28.262738641065063 -11.986513448329788 0 0 0 0 -53.725452642149193 67.533116560958945 0 67.533116560958945 -20.427413868388612 0 0 0 0 -63.8866482382291 56.943498073620503 0 56.943498073620503 46.146669593585202 0 0 0 0 -46.974257276633466 36.046401270983011 0 36.046401270983011 -4.1788542214604396 0 0 0 0 -43.912083872972289 44.750231890622736 0 44.750231890622736 38.355354537795428 0 0 0 0 -46.65358160816686 46.682372486697226 0 46.682372486697226 37.673670927331955 0 0 0 0 -36.074121094105067 20.804621813501228 0 20.804621813501228 36.589784762184614 0 0 0 0 -54.567786915053148 115.06624817142688 0 115.06624817142688 123.22339324255825 0 0 0 0 -48.270677915774286 25.845663351742985 0 25.845663351742985 75.58761893167997 0 0 0 0 -257.93503056670306 32.119214793179481 0 32.119214793179481 242.04187758390583 0 0 0 0 -65.598697361405357 166.52277077593641 0 166.52277077593641 -95.594889867001143 0 0 0 0 -16.25513451959705 33.117991142091 0 33.117991142091 -49.096923215146944 0 0 0 0 -133.30786611339136 277.06071617255964 0 277.06071617255964 119.75542543030735 0 0 0 0 1.6723079006367811 0.54195089185904521 0 0.54195089185904521 -0.38697183366662014 0 0 0 0 -418.02878132186015 599.17534932556168 0 599.17534932556168 -149.38791489080108 0 0 0 0 -83.059193055349169 56.786295712282765 0 56.786295712282765 190.60628742905101 0 0 0 0 -455.23373623657972 -263.49399636236285 0 -263.49399636236285 162.73441693164932 0 0 0 0 -25.617042352700082 -208.15814702166449 0 -208.15814702166449 100.66380759507638 0 0 0 0 -917.85110525027267 359.8857501635639 0 359.8857501635639 81.080492597546368 0 0 0 0 -41.589345135027543 21.333408772132543 0 21.333408772132543 12.788171736649701 0 0 0 0 -16.352615976500516 22.792269185307561 0 22.792269185307561 8.5404244664835147 0 0 0 0 107.26240996793058 -12.525296867862322 0 -12.525296867862322 19.950022912147624 0 0 0 0 -50.088363743750961 6.3960291140090249 0 6.3960291140090249 48.427495261742024 0 0 0 0 -40.045690734805248 31.308579930566736 0 31.308579930566736 8.8099375648304203 0 0 0 0 -18.369169246258821 -4.5544268336617506 0 -4.5544268336617506 0.30937700993256367 0 0 0 0 -401.05958977394039 412.67922274224884 0 412.67922274224884 -399.8521995814815 0 0 0 0 -44.402967718458967 12.345466774080478 0 12.345466774080478 51.663845028165269 0 0 0 0 -734.69840515544638 252.61748798707913 0 252.61748798707913 -304.4972652339784 0 0 0 0 -675.12568397284485 -101.28149028012194 0 -101.28149028012194 -238.53473867777848 0 0 0 0 -225.00544121104758 367.3775665348951 0 367.3775665348951 -354.06016014280476 0 0 0 0 -212.7945258950931 334.35832589530128 0 334.35832589530128 -452.16412384672071 0 0 0 0 -49.916082710340561 7.0087406941163408 0 7.0087406941163408 49.095819173857308 0 0 0 0 1.1662301035830751 -10.554072093363686 0 -10.554072093363686 58.103496670542881 0 0 0 0 -31.779606054886244 21.371729533735561 0 21.371729533735561 49.619932980450074 0 0 0 0 -34.700108081131475 15.519359499279062 0 15.519359499279062 45.489289890938267 0 0 0 0 -61.071247997388127 50.499392295032692 0 50.499392295032692 32.526926930458274 0 0 0 0 -41.608782078058539 21.813984542892719 0 21.813984542892719 65.284943985375776 0 0 0 0 -77.413837098021759 9.0378699221910779 0 9.0378699221910779 93.972248429773231 0 0 0 0 -90.687835758610163 91.532851261036456 0 91.532851261036456 8.4345526851286365 0 0 0 0 -37.194426842295798 52.9957803125493 0 52.9957803125493 26.202374212862551 0 0 0 0 -27.30192708838149 41.140138120466439 0 41.140138120466439 27.522585435368505 0 0 0 0 -6.17325060620351 60.24469651668452 0 60.24469651668452 -4.3253690016576343 0 0 0 0 58.950763931949041 111.30122876791143 0 111.30122876791143 176.88483366678156 0 0 0 0 19.78952045677039 20.397740596125331 0 20.397740596125331 7.8072965645219643 0 0 0 0 -23.108488219440915 59.722439787853176 0 59.722439787853176 2.1025493450496242 0 0 0 0 -91.372678600666404 161.95213735263343 0 161.95213735263343 -141.49974313807502 0 0 0 0 -18.669208720151801 59.276576399771784 0 59.276576399771784 -42.370014341060028 0 0 0 0 -31.233096150535857 158.218163501459 0 158.218163501459 941.17122282025593 0 0 0 0 14.632578875859451 11.298731992349261 0 11.298731992349261 7.3469638556005217 0 0 0 0 22.850854747961421 300.99592719432633 0 300.99592719432633 746.95169591975719 0 0 0 0 -40.478419487852079 83.110679411282717 0 83.110679411282717 602.6543930170028 0 0 0 0 -44.044002500188071 432.88765458962052 0 432.88765458962052 606.47690764212291 0 0 0 0 -4.9877741085656453 439.84632291470598 0 439.84632291470598 466.91397724311901 0 0 0 0 -17.42229809264245 336.79463394541813 0 336.79463394541813 900.31840282785288 0 0 0 0 -796.37698489224567 375.31885264009679 0 375.31885264009679 -275.63599784468806 0 0 0 0 -1298.892959074823 5.136515104913542 0 5.136515104913542 44.863171543805947 0 0 0 0 350.07894542142458 491.35737931466383 0 491.35737931466383 65.929157474083922 0 0 0 0 135.77611406317737 344.28400725887582 0 344.28400725887582 333.14730734599834 0 0 0 0 -1.951814008392148 2.4888174840948238 0 2.4888174840948238 -3.1898787839094815 0 0 0 0 44.171015156287467 98.852283043921489 0 98.852283043921489 189.06065340041096 0 0 0 0 -848.54953633590048 116.81130640871118 0 116.81130640871118 -50.395435053806068 0 0 0 0 -758.75911907263799 -75.2597830652212 0 -75.2597830652212 22.583811765414339 0 0 0 0 -249.04627268719196 -172.87280703991701 0 -172.87280703991701 89.568593596361552 0 0 0 0 -947.01859592575056 361.43872692167361 0 361.43872692167361 -114.42032591722091 0 0 0 0 -1052.5913630615214 -56.747589330001858 0 -56.747589330001858 357.74604363485196 0 0 0 0 -436.62278181940201 102.49997511314518 0 102.49997511314518 16.733383745669471 0 0 0 0 -1.5474783398837957 10.726712927430043 0 10.726712927430043 -7.5411042732306939 0 0 0 0 -7.5870399113968574 3.5159468927373467 0 3.5159468927373467 1.6371411522693968 0 0 0 0 -16.295301209810262 25.394418224639224 0 25.394418224639224 11.452119743628256 0 0 0 0 246.51385443778418 289.66203766007527 0 289.66203766007527 -527.12824534995525 0 0 0 0 -518.22092143855116 -167.43299060562617 0 -167.43299060562617 738.39440499877219 0 0 0 0 -145.31364735386887 603.75438658036842 0 603.75438658036842 -537.88099017208856 0 0 0 0 -1135.0613580315112 191.78404463824586 0 191.78404463824586 711.41876153524709 0 0 0 0 -9.7598906906117122 3.2718632386584972 0 3.2718632386584972 -0.50244573897838496 0 0 0 0 -20.029124193330063 107.74030159911081 0 107.74030159911081 252.75596716702921 0 0 0 0 -16.159312104864512 470.99962252257239 0 470.99962252257239 510.36091000137452 0 0 0 0 -17.8923844177923 8.1480988283873756 0 8.1480988283873756 -1.7936584449527477 0 0 0 0 -190.18571949471516 122.09767445263878 0 122.09767445263878 377.27184706886328 0 0 0 0 -11.35135783469741 561.7365475897592 0 561.7365475897592 613.79527119702834 0 0 0 0 -220.63399711012607 -492.71382810649402 0 -492.71382810649402 485.63136672831706 0 0 0 0 542.6777514891437 86.727290114032257 0 86.727290114032257 43.278238957137546 0 0 0 0 -380.28291726717725 64.635472574513187 0 64.635472574513187 78.475624155222704 0 0 0 0 -434.15044500706426 397.82594333503721 0 397.82594333503721 -367.51481583938391 0 0 0 0 111.26297232531942 184.396805602933 0 184.396805602933 -345.64234506610046 0 0 0 0 -332.29039568504231 177.22468120652002 0 177.22468120652002 -257.36351753284589 0 0 0 0 19.308937908193911 574.50480845724474 0 574.50480845724474 -1217.7245485385256 0 0 0 0 -2.8017872404946047 -1.1045678161999462 0 -1.1045678161999462 -1.1482901005154176 0 0 0 0 -67.147841626574518 -50.433172609589747 0 -50.433172609589747 452.85746528104846 0 0 0 0 -95.933975613101211 61.421321830554007 0 61.421321830554007 103.76623050120725 0 0 0 0 -102.93887926828756 69.73427823901693 0 69.73427823901693 129.61999019098403 0 0 0 0 19.876789419559813 50.886693328797932 0 50.886693328797932 26.899193108951899 0 0 0 0 -18.770874816056903 10.368162757852929 0 10.368162757852929 6.6769924713832154 0 0 0 0 -80.746798959429725 88.722208828366547 0 88.722208828366547 107.20086607057237 0 0 0 0 42.550447609770345 -47.454639388488431 0 -47.454639388488431 148.6513333983778 0 0 0 0 168.1094363622542 154.5438574645982 0 154.5438574645982 -402.37956123118101 0 0 0 0 141.68244642677018 436.7686388710822 0 436.7686388710822 -483.29410761227257 0 0 0 0 -228.0846014499366 519.58169296086305 0 519.58169296086305 -466.34069411370547 0 0 0 0 -153.5606713014713 282.22968277377367 0 282.22968277377367 -438.23740378511684 0 0 0 0 -338.22642915835604 553.78434844463709 0 553.78434844463709 -199.03645240856213 0 0 0 0 -531.50664228384267 717.24431062189524 0 717.24431062189524 -290.68531213813003 0 0 0 0 -8.744839424643601 3.9220441450616619 0 3.9220441450616619 -1.0672216178629008 0 0 0 0 -638.47354840158368 93.332567710538115 0 93.332567710538115 759.46905930811818 0 0 0 0 -56.659667037136387 654.93224961477745 0 654.93224961477745 -703.46391162403711 0 0 0 0 -845.63847332391379 314.7088138367692 0 314.7088138367692 524.21491556359661 0 0 0 0 -270.60903317312477 198.02393317249766 0 198.02393317249766 144.53477224184974 0 0 0 0 312.12409893222502 -61.103424139647643 0 -61.103424139647643 258.69853565490166 0 0 0 0 -740.07381464225182 335.95829739207738 0 335.95829739207738 242.24031400472768 0 0 0 0 -631.48190662133857 130.58763981717971 0 130.58763981717971 610.32537946532875 0 0 0 0 -204.9953999229474 55.040086432758983 0 55.040086432758983 150.11129936957559 0 0 0 0 -579.02576995349955 210.67119846382184 0 210.67119846382184 286.46094959032126 0 0 0 0 -324.27239292144077 211.72250749513836 0 211.72250749513836 -370.54663151526199 0 0 0 0 -410.7691867340327 166.37102014462937 0 166.37102014462937 -76.578072202858152 0 0 0 0 -421.14622913883068 173.34692939760311 0 173.34692939760311 86.697192958998471 0 0 0 0 -569.80640342907282 210.32716123134767 0 210.32716123134767 -81.872958272344732 0 0 0 0 -387.36227608572517 216.1688625530781 0 216.1688625530781 -370.10998762889204 0 0 0 0 -533.59893114867009 307.91686077632892 0 307.91686077632892 -343.2015935130155 0 0 0 0 -142.79175005931756 258.02179655220402 0 258.02179655220402 -464.61159023091568 0 0 0 0 -140.61900453087583 195.6940404326096 0 195.6940404326096 -608.31393515832769 0 0 0 0 -136.56230472101015 186.98661600157982 0 186.98661600157982 -410.01969681677224 0 0 0 0 -260.64426370651927 108.84268382486772 0 108.84268382486772 -437.44760936454452 0 0 0 0 -241.13666911482869 204.54006627705382 0 204.54006627705382 -197.68574704581351 0 0 0 0 -293.60247835036716 132.32392353079601 0 132.32392353079601 -171.55916638045414 0 0 0 0 -219.25797626872372 160.25453278796471 0 160.25453278796471 -181.24802894372374 0 0 0 0 -204.75535106557072 65.645256262079442 0 65.645256262079442 91.942126343960496 0 0 0 0 84.216366293461761 177.67974811082735 0 177.67974811082735 -195.76892756922587 0 0 0 0 -64.958738826971967 368.46638801113909 0 368.46638801113909 -16.819957133378125 0 0 0 0 78.675928834971273 219.73422614121051 0 219.73422614121051 -259.13272308547511 0 0 0 0 160.48009516952879 224.73982334776068 0 224.73982334776068 -146.15658534634554 0 0 0 0 77.614259784531896 369.77921798097759 0 369.77921798097759 -294.80287285017016 0 0 0 0 -27.828463722078595 397.51414791329341 0 397.51414791329341 -242.83756272013648 0 0 0 0 -134.26070195023203 298.57540594242232 0 298.57540594242232 -331.56077760097503 0 0 0 0 -28.897147366893478 239.46792300887998 0 239.46792300887998 -301.70390422506159 0 0 0 0 0.30575375779574188 7.3359609447789893 0 7.3359609447789893 -7.9182450462238911 0 0 0 0 7.3865704993804684 224.78904334642036 0 224.78904334642036 -858.72221984557677 0 0 0 0 -4.2193005447954874 -1.7090454901705883 0 -1.7090454901705883 7.828256494839299 0 0 0 0 -12.960551523996401 179.27452681973836 0 179.27452681973836 -431.55490481945827 0 0 0 0 -270.81216911143019 355.71237447508207 0 355.71237447508207 -524.0310929609268 0 0 0 0 -98.897111003199825 355.02058828049013 0 355.02058828049013 -346.88675175609382 0 0 0 0 -56.27325602225028 159.87654342443324 0 159.87654342443324 -515.54339519446648 0 0 0 0 -50.135528613835049 35.8625566886667 0 35.8625566886667 -1.5241406791683403 0 0 0 0 -124.77077837544493 -21.771844836066293 0 -21.771844836066293 48.941672813577441 0 0 0 0 -28.275854919778453 25.312134653604303 0 25.312134653604303 16.98957993532915 0 0 0 0 -67.383148787565005 56.083749166489895 0 56.083749166489895 -13.561183091286351 0 0 0 0 -52.810220453407965 46.25660361395785 0 46.25660361395785 15.019181217583082 0 0 0 0 -43.54537181624687 34.634903862109141 0 34.634903862109141 -3.9148564592726052 0 0 0 0 -54.606503303599311 60.297831425143158 0 60.297831425143158 -29.244798425701447 0 0 0 0 -34.517833686884842 38.808086189366804 0 38.808086189366804 -11.207655468195298 0 0 0 0 -41.00636986568864 25.589260286164063 0 25.589260286164063 -11.475127096055481 0 0 0 0 74.192326494681765 -30.976600695408706 0 -30.976600695408706 1660.36603694108 0 0 0 0 -34.502154069574317 33.356268541038844 0 33.356268541038844 -0.039816352236812236 0 0 0 0 -93.885217221308267 300.52357716904226 0 300.52357716904226 1008.7560000155099 0 0 0 0 -1094.1502544129035 33.298377899260231 0 33.298377899260231 1218.0328149497218 0 0 0 0 -10.66051920325225 10.267492667433459 0 10.267492667433459 -13.133250528977229 0 0 0 0 -46.626752421667334 132.4754319022868 0 132.4754319022868 -465.43931453506957 0 0 0 0 -155.58449961595761 235.16750914926945 0 235.16750914926945 -472.62626666516962 0 0 0 0 -353.08383063960355 338.90367413815841 0 338.90367413815841 -451.36077515976353 0 0 0 0 -845.54475411356543 6.1323766529058048 0 6.1323766529058048 -289.85007727313496 0 0 0 0 -48.66004021996963 53.701516839841062 0 53.701516839841062 -46.334253450201984 0 0 0 0 -30.048189709029714 30.666032857775335 0 30.666032857775335 10.717382897145924 0 0 0 0 -244.58803852909477 137.55381544713941 0 137.55381544713941 -132.42068923427541 0 0 0 0 -158.16007652637199 425.88207680367543 0 425.88207680367543 -377.53865550748856 0 0 0 0 -469.64065890485654 563.57949741709308 0 563.57949741709308 -137.95530994571163 0 0 0 0 -735.84249014235684 486.45726841195574 0 486.45726841195574 8.8335591784270946 0 0 0 0 -309.23754900693893 431.11426219605346 0 431.11426219605346 -46.613823010251508 0 0 0 0 -291.20879453795351 500.20640090120833 0 500.20640090120833 160.92903223252506 0 0 0 0 -153.92200459999731 448.78971114827436 0 448.78971114827436 134.28719363004461 0 0 0 0 -65.748323759937193 395.63073941184848 0 395.63073941184848 -71.857856250382611 0 0 0 0 -229.22609310716507 453.08184558660651 0 453.08184558660651 -378.82687704738055 0 0 0 0 -66.140115674876142 215.27760350370227 0 215.27760350370227 -35.243026240985273 0 0 0 0 -564.42694999450032 721.09599265365796 0 721.09599265365796 -828.86728611100261 0 0 0 0 -355.20226360336528 338.89724377232778 0 338.89724377232778 -130.97903018373404 0 0 0 0 -1056.3047167879704 482.19997816210162 0 482.19997816210162 29.341051544492075 0 0 0 0 -6.8012442897349104 6.561540891500421 0 6.561540891500421 -3.9920356604403366 0 0 0 0 -656.3907850558171 -171.38010896215201 0 -171.38010896215201 -64.123987908416893 0 0 0 0 -18.442173620776884 -53.300158010862106 0 -53.300158010862106 -564.81777218927164 0 0 0 0 2.1162268399586424 0.90846657584392787 0 0.90846657584392787 -2.4357977495624397 0 0 0 0 -659.93797481869115 270.98273463374062 0 270.98273463374062 133.65484812208888 0 0 0 0 -9.8695754240043243 6.760964997716485 0 6.760964997716485 0.075286248663637423 0 0 0 0 -466.42983574842219 137.636549127732 0 137.636549127732 1544.1632463478018 0 0 0 0 -229.32024766083487 68.853654599570291 0 68.853654599570291 -82.646921671868768 0 0 0 0 -245.02972155623138 58.399002577498322 0 58.399002577498322 44.6040304474609 0 0 0 0 -101.38344220985891 246.49175530318098 0 246.49175530318098 1215.2045425295837 0 0 0 0 75.85774148220662 -693.26147325810234 0 -693.26147325810234 1495.5300665382038 0 0 0 0 -3.2845308552632275 -1.4421098286702687 0 -1.4421098286702687 0.58021573593735809 0 0 0 0 -80.360349451555521 -433.86983288779811 0 -433.86983288779811 2129.4710692011213 0 0 0 0 -87.036633370677009 795.32826971457689 0 795.32826971457689 -859.52665730743684 0 0 0 0 -371.02445760535193 281.01971163215785 0 281.01971163215785 -397.39129158800642 0 0 0 0 -494.11634704151584 521.8215670692307 0 521.8215670692307 -49.018550188236986 0 0 0 0 -197.15154002036434 781.64401885486586 0 781.64401885486586 280.5550958984968 0 0 0 0 -167.47014750895323 717.26418944465695 0 717.26418944465695 137.94012859309441 0 0 0 0 -484.55241734216179 593.40090760931525 0 593.40090760931525 77.314243189030094 0 0 0 0 -221.60810439736815 647.13878059928538 0 647.13878059928538 -188.03271401407255 0 0 0 0 -162.72660140437074 785.22384998160123 0 785.22384998160123 227.38075320092321 0 0 0 0 -88.742685359808092 1215.4336584049288 0 1215.4336584049288 254.28647666145116 0 0 0 0 553.41844827082241 236.70949920467683 0 236.70949920467683 1583.8127306623865 0 0 0 0 -110.62573139285087 1112.4766136508042 0 1112.4766136508042 -61.95146582398047 0 0 0 0 -59.059481944394065 39.404260238607094 0 39.404260238607094 -4.5732188398396829 0 0 0 0 -43.259775977456229 34.957260129452749 0 34.957260129452749 -20.851809397313268 0 0 0 0 484.57796835351019 1528.6402679464973 0 1528.6402679464973 68.141990142539726 0 0 0 0 -126.97432373595075 1103.9764176200115 0 1103.9764176200115 868.9126633220294 0 0 0 0 -97.94329113670392 548.03260684300039 0 548.03260684300039 1147.6470135700783 0 0 0 0 85.805612018040847 257.57641297897499 0 257.57641297897499 1098.3189891726106 0 0 0 0 -112.86074248817749 499.17043121010647 0 499.17043121010647 763.78440947650961 0 0 0 0 61.639686365670059 378.59647742770903 0 378.59647742770903 498.72853049074183 0 0 0 0 -115.90244696554146 627.27654047294345 0 627.27654047294345 323.07861425631563 0 0 0 0 -131.19913254416315 866.22755903846701 0 866.22755903846701 699.54596837384452 0 0 0 0 -162.06686273269588 656.83470955502708 0 656.83470955502708 442.16977110964945 0 0 0 0 -127.00935823307373 851.8863995574502 0 851.8863995574502 333.91321101395442 0 0 0 0 -36.587371198530548 8.0549567821853856 0 8.0549567821853856 28.799194069330625 0 0 0 0 -595.9573719627806 -991.52907980696909 0 -991.52907980696909 -784.27799666355713 0 0 0 0 -531.16074450667656 401.97407001990723 0 401.97407001990723 431.6738100160328 0 0 0 0 730.20759600125803 533.22148665245811 0 533.22148665245811 32.828233386055217 0 0 0 0 -9.7639293575128931 -0.53197643506187831 0 -0.53197643506187831 7.6395140066215106 0 0 0 0 488.60673784022038 628.77663008772379 0 628.77663008772379 -4.9373282569358707 0 0 0 0 146.09757358315983 300.46761755020998 0 300.46761755020998 25.241867590128095 0 0 0 0 180.0749098592205 197.1985800495313 0 197.1985800495313 304.92421205266282 0 0 0 0 -44.783791263471358 313.42328259286296 0 313.42328259286296 243.91694479923171 0 0 0 0 19.378775455988944 414.2555816990498 0 414.2555816990498 208.59141347881814 0 0 0 0 -156.07204017339973 465.46732442927896 0 465.46732442927896 424.8470198235882 0 0 0 0 33.764176293392666 340.01464632783973 0 340.01464632783973 506.12013135111192 0 0 0 0 179.02078195870854 340.03533418387087 0 340.03533418387087 301.53591785539174 0 0 0 0 437.93910445622168 -18.562644087796798 0 -18.562644087796798 746.63244040854624 0 0 0 0 214.68763086205581 224.68093729097745 0 224.68093729097745 626.42725296328717 0 0 0 0 719.9520185944566 32.18960345647065 0 32.18960345647065 408.58822993245849 0 0 0 0 608.77646773197921 207.84167466462532 0 207.84167466462532 177.21235251924372 0 0 0 0 381.48487127991393 338.22582708073605 0 338.22582708073605 136.19185775200458 0 0 0 0 383.90497560890799 153.00334958380063 0 153.00334958380063 -8.59594019150245 0 0 0 0 308.71832417663245 324.6754404718522 0 324.6754404718522 -253.13239906467788 0 0 0 0 -38.453893259400502 295.51070452549902 0 295.51070452549902 30.607868273884378 0 0 0 0 43.235304373753024 197.68879700219259 0 197.68879700219259 -287.74307005797891 0 0 0 0 176.65159697283525 126.93239109791466 0 126.93239109791466 -273.72349446068074 0 0 0 0 434.44230693663121 327.67125415750343 0 327.67125415750343 -273.24822215076711 0 0 0 0 95.326210416737013 192.7465752056487 0 192.7465752056487 -252.44714921590185 0 0 0 0 133.07944127928567 65.407807856122417 0 65.407807856122417 -374.55722632893594 0 0 0 0 155.25042633670091 485.66681696751584 0 485.66681696751584 -24.881510108501971 0 0 0 0 -69.167374332850159 383.47175604181029 0 383.47175604181029 -55.074759809474926 0 0 0 0 125.35483252705308 276.72655240660606 0 276.72655240660606 -88.416455557700829 0 0 0 0 -27.912937769462587 63.501112354679208 0 63.501112354679208 -30.235513100414209 0 0 0 0 -59.702871764427982 -30.543086697714898 0 -30.543086697714898 -231.68998903987085 0 0 0 0 -19.017643191938987 60.697701673620031 0 60.697701673620031 -43.965819445940724 0 0 0 0 -97.840424294685363 41.020359692261991 0 41.020359692261991 -184.92413592400044 0 0 0 0 -149.75327243868378 60.151891625726421 0 60.151891625726421 -158.9784671528123 0 0 0 0 -406.12353304644785 37.018310427250981 0 37.018310427250981 -152.46348788529576 0 0 0 0 -127.70868039583365 -54.327250281618035 0 -54.327250281618035 -443.53989061330503 0 0 0 0 -279.77064653401612 86.295896272604296 0 86.295896272604296 -324.51003799563841 0 0 0 0 -357.90558650732055 -145.9648730140907 0 -145.9648730140907 -960.31324306719034 0 0 0 0 -9.5792555478146824 20.48037961803675 0 20.48037961803675 -571.06508751869842 0 0 0 0 -27.134638651539717 398.05158000744086 0 398.05158000744086 -808.35177965474577 0 0 0 0 -995.26646621496184 81.099103938657208 0 81.099103938657208 -275.61589807374548 0 0 0 0 -636.41726900736103 602.86542246037425 0 602.86542246037425 -498.20005149143253 0 0 0 0 -60.586524443271628 243.77714807104621 0 243.77714807104621 -201.84383778381016 0 0 0 0 -456.05011613425449 365.0498086546213 0 365.0498086546213 -238.46530541114771 0 0 0 0 -273.71000641697901 137.49602224928094 0 137.49602224928094 -271.83716956167245 0 0 0 0 -208.87818876215351 52.396401243971013 0 52.396401243971013 -78.390619008896465 0 0 0 0 -151.46080904619885 249.30947482464035 0 249.30947482464035 -160.49934892484453 0 0 0 0 5.0293653241214997 168.82291232428759 0 168.82291232428759 -121.05497616770299 0 0 0 0 -181.82804824513005 1.630884568368856 0 1.630884568368856 -66.029314920007891 0 0 0 0 -67.323653855419252 74.88553929570844 0 74.88553929570844 -80.100452721217152 0 0 0 0 -88.714946132793557 -17.426945383918792 0 -17.426945383918792 -77.408177906821948 0 0 0 0 -21.43592705969786 -27.495595535887333 0 -27.495595535887333 -39.543890344641113 0 0 0 0 -101.41295647451989 -31.804168562882296 0 -31.804168562882296 -39.741337965453567 0 0 0 0 -28.830062369997904 -23.013864497545001 0 -23.013864497545001 -39.363592565903673 0 0 0 0 27.073645939526614 192.03558352655091 0 192.03558352655091 -104.41552686790601 0 0 0 0 -48.066114620785811 56.03596825843124 0 56.03596825843124 -62.25632958447386 0 0 0 0 86.041246279724874 82.480739173217444 0 82.480739173217444 -57.182367967634491 0 0 0 0 68.363964328807924 153.71237921183911 0 153.71237921183911 -70.290854062142898 0 0 0 0 132.93026705333614 192.2608069589769 0 192.2608069589769 -50.673195156785368 0 0 0 0 168.86149762127752 126.22633686293557 0 126.22633686293557 -8.9892465169396019 0 0 0 0 243.24477904386004 189.23904879411566 0 189.23904879411566 25.353510531498614 0 0 0 0 94.450024560945167 49.854939785225724 0 49.854939785225724 -8.483003030247346 0 0 0 0 192.61850527871866 122.05080680365791 0 122.05080680365791 -28.19146596473729 0 0 0 0 63.753353963315021 84.220972596460342 0 84.220972596460342 -34.369259041603073 0 0 0 0 -5.8703821852104738 -83.779169884081057 0 -83.779169884081057 -19.516267114646325 0 0 0 0 144.20076832269842 3.6270693774567917 0 3.6270693774567917 -38.858454100137465 0 0 0 0 296.62339914900804 126.17084395614074 0 126.17084395614074 11.626858143499703 0 0 0 0 210.04851976706414 -38.192796830513544 0 -38.192796830513544 -34.105640812034835 0 0 0 0 209.88256809086306 -29.679842180026753 0 -29.679842180026753 -59.711277541791787 0 0 0 0 355.75754233448242 115.88056558954122 0 115.88056558954122 -15.277850327923261 0 0 0 0 498.9944266914099 252.46398587708973 0 252.46398587708973 68.992553036932804 0 0 0 0 299.93318598598125 116.16195841450099 0 116.16195841450099 27.253143315030684 0 0 0 0 379.74457721468934 240.30948527948203 0 240.30948527948203 138.1452616834431 0 0 0 0 348.89232435588201 262.5327246508532 0 262.5327246508532 122.42820710631349 0 0 0 0 260.18956371538229 164.17325616397386 0 164.17325616397386 50.301671528664883 0 0 0 0 240.85986369336024 56.439447040516825 0 56.439447040516825 -35.794898919375555 0 0 0 0 -203.04248804009694 -181.20350611840331 0 -181.20350611840331 -36.144403029060413 0 0 0 0 -59.31059783094679 -90.482816844007175 0 -90.482816844007175 -92.285142208222169 0 0 0 0 -45.686609813579707 -125.55018618726535 0 -125.55018618726535 -21.367278476631327 0 0 0 0 -2.5066992881802435 -86.596090297611227 0 -86.596090297611227 -35.363562438928057 0 0 0 0 -118.23505621460208 -99.361420403125521 0 -99.361420403125521 -9.0626070667130989 0 0 0 0 -150.02326215557696 -51.791787416990701 0 -51.791787416990701 16.094135786166589 0 0 0 0 -408.43159913783893 -11.509384772150952 0 -11.509384772150952 41.18273088533897 0 0 0 0 -145.64551330231188 -37.110401142956107 0 -37.110401142956107 42.754398978971949 0 0 0 0 -129.25072931463365 -6.9833144825770432 0 -6.9833144825770432 20.966795201966306 0 0 0 0 -90.174672403176373 -43.697752687718094 0 -43.697752687718094 9.7559847037773579 0 0 0 0 -59.226112375123193 -86.312486530114256 0 -86.312486530114256 -11.74758260904855 0 0 0 0 -100.93721342388744 -61.552724049135577 0 -61.552724049135577 -19.844390203586954 0 0 0 0 -93.495211889618076 -46.680257587726373 0 -46.680257587726373 -16.699495169244983 0 0 0 0 -59.717438137551653 -18.444462091079913 0 -18.444462091079913 -83.254655085533159 0 0 0 0 -31.372741648301599 18.82296962023247 0 18.82296962023247 9.2267301903193584 0 0 0 0 1.8685014314833097 77.674809026779258 0 77.674809026779258 -28.144392791269638 0 0 0 0 -58.803975473640548 22.400207529455486 0 22.400207529455486 39.381900485241204 0 0 0 0 10.131095563501731 122.64042678971555 0 122.64042678971555 74.616043689202343 0 0 0 0 -44.776205085989204 13.959921443540225 0 13.959921443540225 91.586592102136819 0 0 0 0 89.336809431646543 239.99323631820153 0 239.99323631820153 187.83780856433441 0 0 0 0 217.06126172859513 135.69886326749474 0 135.69886326749474 34.414907685712024 0 0 0 0 21.527606749645201 116.77520528125388 0 116.77520528125388 38.58006131764796 0 0 0 0 -31.294211528442247 183.64876125044793 0 183.64876125044793 -26.990794857534638 0 0 0 0 90.275194065921823 190.10591707602543 0 190.10591707602543 -32.035314459681103 0 0 0 0 -41.588421626212948 29.085940465760359 0 29.085940465760359 6.1432435823662672 0 0 0 0 78.923983474713168 76.929498195548149 0 76.929498195548149 -2.8903461486988817 0 0 0 0 -94.253985683113569 98.850579295507487 0 98.850579295507487 -5.665118137510035 0 0 0 0 -230.51806859434146 71.246969576128322 0 71.246969576128322 -3.0402862728587934 0 0 0 0 -98.021455083049659 100.00282215820698 0 100.00282215820698 -32.038953411152761 0 0 0 0 -134.03951179863361 183.35675523387908 0 183.35675523387908 -61.512171366761322 0 0 0 0 16.710728408186696 149.17866593494182 0 149.17866593494182 -53.798955832724459 0 0 0 0 -21.089478676258295 214.28596466531781 0 214.28596466531781 -89.033633401897532 0 0 0 0 -24.263008292793529 123.55014440434388 0 123.55014440434388 -23.806438722007442 0 0 0 0 -329.89276725090167 138.27234064003278 0 138.27234064003278 -29.898582604588228 0 0 0 0 -247.97574621032982 145.37420086583734 0 145.37420086583734 -30.094363284799329 0 0 0 0 -125.25002143123857 304.52875049682734 0 304.52875049682734 -273.99355230005312 0 0 0 0 -166.6710260984546 201.19707801872573 0 201.19707801872573 -32.213510967674665 0 0 0 0 70.710804144884179 79.890237328427986 0 79.890237328427986 9.886090507247161 0 0 0 0 -9.1474236914509675 200.83730742342414 0 200.83730742342414 -90.233320212071703 0 0 0 0 -130.08313570772589 178.4567276583748 0 178.4567276583748 -52.181393008417217 0 0 0 0 -197.069493070514 277.52758796759917 0 277.52758796759917 -3.93194051536193 0 0 0 0 -94.492463428709016 191.266589666051 0 191.266589666051 -53.300081851339201 0 0 0 0 67.63089449096519 73.875549790011377 0 73.875549790011377 -2.3316160795160101 0 0 0 0 -26.030515474129061 174.41948640226474 0 174.41948640226474 -98.215566363396647 0 0 0 0 27.325090270649525 134.62760542306205 0 134.62760542306205 54.221824672080402 0 0 0 0 -39.558244797404768 256.15383883724917 0 256.15383883724917 179.33230896532768 0 0 0 0 -216.4852513930382 58.052037205434317 0 58.052037205434317 102.19970051585187 0 0 0 0 -50.294718207936967 166.97756376813413 0 166.97756376813413 -87.047276802448323 0 0 0 0 -117.34504339534033 42.402893154438061 0 42.402893154438061 20.294657069580353 0 0 0 0 -76.197177604990429 69.327440485762054 0 69.327440485762054 -3.6012187074156827 0 0 0 0 -80.307547521049855 68.244956316753814 0 68.244956316753814 -17.885964923654683 0 0 0 0 -16.697542393698853 13.933760482464976 0 13.933760482464976 -4.972882298804862 0 0 0 0 -67.603219621523749 59.119221161108726 0 59.119221161108726 -18.137001309964717 0 0 0 0 -72.376443650744477 56.503075785221881 0 56.503075785221881 -10.80290565197356 0 0 0 0 -10.26422101049954 13.247250726508184 0 13.247250726508184 -1.1670595365433769 0 0 0 0 -59.147488241913379 48.702103141087719 0 48.702103141087719 -13.659209890603961 0 0 0 0 -48.057697584175912 94.558205888066368 0 94.558205888066368 -55.63765228959528 0 0 0 0 1.6517256604962256 0.60775571506576398 0 0.60775571506576398 -0.49655597755392478 0 0 0 0 -56.984175196645083 -47.473185015973286 0 -47.473185015973286 214.77420316048529 0 0 0 0 -119.92842797422782 143.99179364620795 0 143.99179364620795 280.67733451302956 0 0 0 0 1.6329472791776851 1.3386704095113657 0 1.3386704095113657 1.659567517067785 0 0 0 0 320.79456375930749 70.717786166271253 0 70.717786166271253 -23.116216756177892 0 0 0 0 47.400613485027861 28.621323756022321 0 28.621323756022321 264.00659121210629 0 0 0 0 128.70789354585577 320.94951846508775 0 320.94951846508775 127.5233684194136 0 0 0 0 -118.62082636741252 201.69486619352392 0 201.69486619352392 94.681663936848054 0 0 0 0 61.917438582415343 123.18971670460814 0 123.18971670460814 -35.471008319407701 0 0 0 0 -1.2899003606071346 51.624773093908516 0 51.624773093908516 -19.318382208290132 0 0 0 0 0.42024296094314195 51.524053754503257 0 51.524053754503257 -22.340636023704064 0 0 0 0 -20.01787299152474 20.599053538437211 0 20.599053538437211 -16.039053604512297 0 0 0 0 -52.798286877824012 46.030480068365023 0 46.030480068365023 -17.216706831197371 0 0 0 0 -45.162521337231738 131.23160360327529 0 131.23160360327529 -36.071723910537457 0 0 0 0 -8.0965036315048167 5.9067870692261835 0 5.9067870692261835 -5.3948003541412035 0 0 0 0 405.06060352416534 -310.88331816863501 0 -310.88331816863501 -1745.2593049560287 0 0 0 0 -551.30428814092147 -15.987271089893909 0 -15.987271089893909 88.793109996666317 0 0 0 0 1118.747898033238 1148.7976676299986 0 1148.7976676299986 -1595.0919542902557 0 0 0 0 -158.53183038548013 11.641102962137666 0 11.641102962137666 -317.65592501296487 0 0 0 0 -69.703084837121423 124.98388979263655 0 124.98388979263655 -203.33264750237504 0 0 0 0 -56.903878213139251 288.33425617749526 0 288.33425617749526 -413.42325292129317 0 0 0 0 -79.694755886383064 55.563788462376579 0 55.563788462376579 -31.568336183270731 0 0 0 0 -177.14357317296526 159.66631459338532 0 159.66631459338532 -108.88556329006678 0 0 0 0 0.904541432403974 14.743379978538911 0 14.743379978538911 -11.549611152652261 0 0 0 0 -54.998313926131232 89.214166944539102 0 89.214166944539102 -139.79564683190074 0 0 0 0 -70.004796298795554 50.164724803000354 0 50.164724803000354 -35.486568938042183 0 0 0 0 -73.725307992805028 57.256543313062139 0 57.256543313062139 -31.08864462292695 0 0 0 0 -61.305734687169888 44.113480197093395 0 44.113480197093395 -22.242253694842049 0 0 0 0 -56.546425985427049 79.328016439621933 0 79.328016439621933 -58.911889059661917 0 0 0 0 -7.2361948381912953 21.132555058457342 0 21.132555058457342 8.2820644657340807 0 0 0 0 -75.300221153562234 63.273447758800103 0 63.273447758800103 -37.261456485091912 0 0 0 0 -46.449061049119337 79.995681870201224 0 79.995681870201224 -22.559453813701111 0 0 0 0 -69.026798478022101 37.595461461813102 0 37.595461461813102 -2.8609272097455687 0 0 0 0 -58.744149721387657 63.092054254284449 0 63.092054254284449 -34.638638641874422 0 0 0 0 -56.281034185667522 61.935628945268036 0 61.935628945268036 -37.184577473854915 0 0 0 0 -53.986975021740363 76.661982756344969 0 76.661982756344969 -41.938406776127522 0 0 0 0 -0.41673070664558054 12.062580954973953 0 12.062580954973953 11.519899011835292 0 0 0 0 150.49649230218347 -220.8435247560119 0 -220.8435247560119 59.630735891121731 0 0 0 0 23.377344080416265 18.768251545255339 0 18.768251545255339 -16.024186411572828 0 0 0 0 -151.75255701158312 104.98056526172695 0 104.98056526172695 76.50470713303821 0 0 0 0 -91.603323662406183 145.0881375654626 0 145.0881375654626 -78.799761891936214 0 0 0 0 -171.98825493981712 143.4723251369287 0 143.4723251369287 21.513850766050382 0 0 0 0 -225.50351578657501 434.5189517044181 0 434.5189517044181 -323.02684433810282 0 0 0 0 -204.4607015484944 247.10917740956938 0 247.10917740956938 11.773969008243512 0 0 0 0 -640.09154769392626 32.081243930315395 0 32.081243930315395 281.91731638732654 0 0 0 0 -490.51164825733395 604.04543488815852 0 604.04543488815852 -372.49233906626978 0 0 0 0 13.013468682795065 123.83422824021363 0 123.83422824021363 -273.00743367861287 0 0 0 0 -32.298638331092661 302.98850970828425 0 302.98850970828425 -896.07904324130141 0 0 0 0 -11.670755977751867 1.9794825319235771 0 1.9794825319235771 -1.0871059080341112 0 0 0 0 -546.25013453421707 268.92569565303711 0 268.92569565303711 226.55031243296071 0 0 0 0 -574.30740457626234 678.09934859868918 0 678.09934859868918 33.284235819955938 0 0 0 0 20.831062441902759 170.50596613245307 0 170.50596613245307 -436.52470367737624 0 0 0 0 5.6198414971489115 9.4166622390671009 0 9.4166622390671009 -2.4936061505741378 0 0 0 0 16.142247823210084 30.067366043408413 0 30.067366043408413 -6.1859330439571352 0 0 0 0 359.74404596555542 -330.44669488636828 0 -330.44669488636828 -325.28662791947499 0 0 0 0 -15.069360639085062 45.841086151227501 0 45.841086151227501 -24.547688684608147 0 0 0 0 -111.11043991437873 98.07981353596324 0 98.07981353596324 -67.532752823608462 0 0 0 0 -16.485471895342926 74.706042638543295 0 74.706042638543295 -30.76043635784481 0 0 0 0 -57.97932598066248 55.435192522294528 0 55.435192522294528 -18.105981459678411 0 0 0 0 51.616726303654659 71.448275514463802 0 71.448275514463802 -16.712216871538118 0 0 0 0 -257.51477500584951 160.37705038569675 0 160.37705038569675 33.440365695707442 0 0 0 0 101.51838787621818 5.6888982285981911 0 5.6888982285981911 -200.68978530416643 0 0 0 0 -184.86042191370507 285.86311987835506 0 285.86311987835506 -29.752901972571635 0 0 0 0 -252.16444236001553 449.00092073981068 0 449.00092073981068 -277.92170830861141 0 0 0 0 -130.20322138427582 247.37878197662576 0 247.37878197662576 -2.6780352185014635 0 0 0 0 -235.46649323047313 207.68333656475806 0 207.68333656475806 -9.5665403361090284 0 0 0 0 -152.05077785434696 155.31748733469067 0 155.31748733469067 -22.098843282939924 0 0 0 0 -282.99834341530004 108.04099191784644 0 108.04099191784644 1.5092781423372799 0 0 0 0 -171.00074061877967 120.16431582647419 0 120.16431582647419 -5.3434785897416077 0 0 0 0 -163.47887395853468 171.4890119572774 0 171.4890119572774 -13.23766822174548 0 0 0 0 -305.09758324227005 118.27863849329879 0 118.27863849329879 40.351369719941431 0 0 0 0 -503.63941814083955 993.68274687046869 0 993.68274687046869 -102.46616654166428 0 0 0 0 -363.52048083143745 147.61765219796507 0 147.61765219796507 143.75536819478293 0 0 0 0 -269.58757303147286 369.55163171845197 0 369.55163171845197 381.4266647421282 0 0 0 0 332.10200156814244 30.173033247611784 0 30.173033247611784 -44.88617320801859 0 0 0 0 -76.660851162792824 44.441373959796692 0 44.441373959796692 -23.864754471574997 0 0 0 0 7.3329651668482825 3.8887047621765305 0 3.8887047621765305 0.2223240919993259 0 0 0 0 -477.58111666583864 354.06171515455208 0 354.06171515455208 138.49983106607482 0 0 0 0 -235.64977986184022 -64.782094781681735 0 -64.782094781681735 -2.943577246631321 0 0 0 0 -3.1005176175385714 -30.777588556313276 0 -30.777588556313276 -116.38539896505608 0 0 0 0 90.260246925390675 35.440299237292493 0 35.440299237292493 -76.495420878676669 0 0 0 0 99.212588856185903 120.29667126835375 0 120.29667126835375 -19.257703676688834 0 0 0 0 94.924567717758691 62.063089612119711 0 62.063089612119711 24.09381872441736 0 0 0 0 9.2732016266934352 15.127225748852879 0 15.127225748852879 4.1404801353168068 0 0 0 0 -211.92419445695123 323.76613420224021 0 323.76613420224021 -416.52642899528291 0 0 0 0 -0.93523446590357651 9.222962545775431 0 9.222962545775431 -3.0000446371501255 0 0 0 0 -60.133637737482786 164.75969648267346 0 164.75969648267346 -634.68384306716325 0 0 0 0 -60.133637737482786 164.75969648273895 0 164.75969648273895 -634.68384306703229 0 0 0 0 -60.133637737366371 164.75969648276805 0 164.75969648276805 -634.68384306726512 0 0 0 0 -141.97406340291491 372.62054395426094 0 372.62054395426094 -479.41639869435312 0 0 0 0 -232.6344968177109 389.3229264050824 0 389.3229264050824 -319.20709695062396 0 0 0 0 -412.16646834604762 808.99562732601407 0 808.99562732601407 -564.50439343956532 0 0 0 0 -169.27347257817746 595.44477159866574 0 595.44477159866574 -821.30520106472977 0 0 0 0 -587.70286807889352 599.43649743939386 0 599.43649743939386 -429.97413334705561 0 0 0 0 -528.15759588654328 415.81786608909897 0 415.81786608909897 -149.39249583437049 0 0 0 0 -424.94493832242733 754.01852946046529 0 754.01852946046529 -333.6668812463904 0 0 0 0 -835.0604790194775 976.00291413338709 0 976.00291413338709 -287.84945464022167 0 0 0 0 -655.69880730762088 1147.938978768083 0 1147.938978768083 -400.99928154778172 0 0 0 0 -625.90272584173727 696.14420666904425 0 696.14420666904425 -664.85867860011786 0 0 0 0 -757.27710139655392 1064.6811085106383 0 1064.6811085106383 182.9267356446162 0 0 0 0 -402.02891550795175 1644.1742216820348 0 1644.1742216820348 20.069964196896763 0 0 0 0 -848.35972849608515 702.95376580786251 0 702.95376580786251 -728.28061278300811 0 0 0 0 -603.14406303859141 1192.9701187502578 0 1192.9701187502578 -529.27371867546026 0 0 0 0 -559.22143310508181 1387.6375805583812 0 1387.6375805583812 -312.77082224542391 0 0 0 0 -1.3328105743550362 1598.7375768648533 0 1598.7375768648533 -534.71170437298133 0 0 0 0 -139.44374386538402 1352.9988200352454 0 1352.9988200352454 -922.31381105002674 0 0 0 0 -313.19592436874518 1156.6808470244978 0 1156.6808470244978 -933.87177486296719 0 0 0 0 -0.11508834920823574 1353.4365469066543 0 1353.4365469066543 -1666.7136794533908 0 0 0 0 -270.14616380029474 1010.6989912717872 0 1010.6989912717872 -694.94127603464767 0 0 0 0 -231.06038577832805 1216.6059736532152 0 1216.6059736532152 -1314.236189027426 0 0 0 0 -55.408001871226588 234.04397399473964 0 234.04397399473964 -771.56985028089548 0 0 0 0 -14.911215884505225 9.9950196429929896 0 9.9950196429929896 -0.03014258721903218 0 0 0 0 -143.24938662456407 395.10201349941053 0 395.10201349941053 -709.32005561338156 0 0 0 0 30.775637205239036 371.85480505759188 0 371.85480505759188 -1230.82169205025 0 0 0 0 1.7228335271356627 48.362405499570741 0 48.362405499570741 54.786310005220002 0 0 0 0 -5.9090703352215996 1.9955207418194369 0 1.9955207418194369 -3.2092124377063129 0 0 0 0 178.26168418519228 491.81263346708147 0 491.81263346708147 -3093.7357672112048 0 0 0 0 13.082255584551604 62.647433353024098 0 62.647433353024098 33.392964675123949 0 0 0 0 0.026747103809611872 55.68579961501564 0 55.68579961501564 35.322686697370955 0 0 0 0 70.901061129683512 63.912270369772159 0 63.912270369772159 31.90997378216889 0 0 0 0 70.777873517276021 58.275809823197051 0 58.275809823197051 -10.231268934638138 0 0 0 0 9.6850317707030626 21.36416395459446 0 21.36416395459446 -10.456992152656312 0 0 0 0 -2.512021758636763 3.4733978784128396 0 3.4733978784128396 -3.2338103150020174 0 0 0 0 18.910636463042465 39.837331274171902 0 39.837331274171902 1.721558757519233 0 0 0 0 -54.214834682425135 7.5397475551508251 0 7.5397475551508251 41.800040821013681 0 0 0 0 22.460750880927662 57.573108479577058 0 57.573108479577058 19.154299125308171 0 0 0 0 1.9381897815765115 36.637308020730416 0 36.637308020730416 18.540464103774866 0 0 0 0 2.5774793183918518 17.218981452984735 0 17.218981452984735 -43.482564647689287 0 0 0 0 -1.8610533991535334 10.677981441695039 0 10.677981441695039 9.8172095462140163 0 0 0 0 -74.66850812138 79.057713772977877 0 79.057713772977877 -9.010511593103729 0 0 0 0 74.671328126292792 111.81312274221818 0 111.81312274221818 50.84006003421382 0 0 0 0 -25.802339245357075 13.533672094854616 0 13.533672094854616 -0.23020959996801338 0 0 0 0 -94.927381936075108 39.618442964712813 0 39.618442964712813 -41.048036672917078 0 0 0 0 -100.19673139200313 147.6490429409132 0 147.6490429409132 -192.17940142587031 0 0 0 0 -113.85454489727272 58.376261996243556 0 58.376261996243556 24.778215300491865 0 0 0 0 -315.58435793429089 72.369776454243947 0 72.369776454243947 147.16234445626105 0 0 0 0 -92.011542293912498 51.760610333507429 0 51.760610333507429 -47.094505767461669 0 0 0 0 -222.96655380164157 172.29832419255399 0 172.29832419255399 -35.253388750819795 0 0 0 0 -149.80552079807967 208.87607963577648 0 208.87607963577648 -69.543101158771606 0 0 0 0 -501.27264709860901 413.49933459926979 0 413.49933459926979 -130.07629020038348 0 0 0 0 -111.66449499422743 376.2187276413606 0 376.2187276413606 -447.15579300066747 0 0 0 0 -172.51385713061609 239.06406169815091 0 239.06406169815091 -109.29861558995435 0 0 0 0 -69.719976491731359 174.30859709381002 0 174.30859709381002 -148.6362804379969 0 0 0 0 -116.1956856972829 316.9473179213237 0 316.9473179213237 -581.9637986835296 0 0 0 0 -1001.7311916100589 669.14690162794614 0 669.14690162794614 8.7577179504332889 0 0 0 0 -121.253211481162 574.26420116881491 0 574.26420116881491 -985.94757117718837 0 0 0 0 1.6775751703693516 4.2719096118867128 0 4.2719096118867128 -2.2573252014498024 0 0 0 0 -450.68865122701391 426.06954570043308 0 426.06954570043308 -949.93902302475544 0 0 0 0 561.62377184059733 94.509827461988607 0 94.509827461988607 -110.01804131152312 0 0 0 0 181.4897715675761 62.433406996304257 0 62.433406996304257 38.109194081062014 0 0 0 0 0.24319899582769722 239.85775902350633 0 239.85775902350633 63.606517006388458 0 0 0 0 198.20529132866068 159.13478347126511 0 159.13478347126511 40.494176214575418 0 0 0 0 0.080892740611464814 98.886986787211711 0 98.886986787211711 41.654495461887564 0 0 0 0 109.68728401328553 146.61552415974074 0 146.61552415974074 40.59677958902131 0 0 0 0 80.185793823100539 74.875510158995894 0 74.875510158995894 5.8929526745705516 0 0 0 0 2.7839548095413704 5.3799124243720371 0 5.3799124243720371 1.6230934405539017 0 0 0 0 88.309566659940174 56.086008360896813 0 56.086008360896813 41.446569483206986 0 0 0 0 -511.48232409261982 1049.0352369534085 0 1049.0352369534085 -861.80808589714024 0 0 0 0 16.098153238785017 550.89982358296038 0 550.89982358296038 -838.86907083146798 0 0 0 0 -1015.0850446211989 860.655455293876 0 860.655455293876 -71.998002527849167 0 0 0 0 -487.95422396869981 783.65785679349938 0 783.65785679349938 -1039.301001723652 0 0 0 0 0.46225846934976289 -77.208210675067676 0 -77.208210675067676 428.11866282981646 0 0 0 0 21.023947114124894 -372.12670550966141 0 -372.12670550966141 400.14896526146913 0 0 0 0 415.16005350349587 -40.155375760805327 0 -40.155375760805327 -139.72694720744403 0 0 0 0 0.75818961568379706 6.4566833291399917 0 6.4566833291399917 -9.2029112316997157 0 0 0 0 567.68889648876211 -234.47514521221819 0 -234.47514521221819 -161.84901857432124 0 0 0 0 7.407589557900792 -50.926454762113281 0 -50.926454762113281 64.415638442878844 0 0 0 0 -292.88287950953963 71.521176204387302 0 71.521176204387302 120.64493634372775 0 0 0 0 95.276641550182831 1165.7632658963994 0 1165.7632658963994 -1314.2336231201916 0 0 0 0 -187.19080084422603 581.27216244197189 0 581.27216244197189 -495.8595259739559 0 0 0 0 436.88909837619576 594.65129581459041 0 594.65129581459041 -1020.9594647355225 0 0 0 0 435.49320843403984 -91.819293087588449 0 -91.819293087588449 -245.19849559505201 0 0 0 0 -6.9244007400467638 7.6917822773274835 0 7.6917822773274835 -6.1091328313459314 0 0 0 0 -587.10454164723342 1075.0877874895014 0 1075.0877874895014 -1260.7109982673464 0 0 0 0 -87.884035519895406 1051.4447413767884 0 1051.4447413767884 -1770.372387793439 0 0 0 0 -207.26766939798836 1260.9673383325789 0 1260.9673383325789 -1899.2946434293153 0 0 0 0 -125.00653736371351 1194.4239555562872 0 1194.4239555562872 -1881.8266000593576 0 0 0 0 -0.34433056589489297 16.309624770981117 0 16.309624770981117 9.784834136035812 0 0 0 0 -416.97053523948125 -320.5630417364664 0 -320.5630417364664 386.10096834712022 0 0 0 0 23.867953471213696 562.95090551452085 0 562.95090551452085 -478.65321097316337 0 0 0 0 -155.53144536892796 513.96728592893851 0 513.96728592893851 4.3124545868631685 0 0 0 0 278.82091700837191 -182.19279591225313 0 -182.19279591225313 -12.085106939615798 0 0 0 0 -464.08531208275235 1089.6922134650522 0 1089.6922134650522 -75.035610288769021 0 0 0 0 -459.60267459705938 1175.4681024911915 0 1175.4681024911915 -1767.3136420732335 0 0 0 0 -369.99308133767408 774.24789039188363 0 774.24789039188363 -2730.5812064767233 0 0 0 0 -490.52916575814015 1331.3696625857992 0 1331.3696625857992 -1759.3883464165083 0 0 0 0 -310.87625758907234 1072.8403114614302 0 1072.8403114614302 -1718.6300722151209 0 0 0 0 389.05905540466483 233.9151604979379 0 233.9151604979379 -659.3793755993247 0 0 0 0 -1104.0785430954493 1214.2467703934017 0 1214.2467703934017 -1178.1775054378231 0 0 0 0 -814.88813365694659 1442.9461594327149 0 1442.9461594327149 -2021.2282126409991 0 0 0 0 -0.20584400832674632 6.0065121060229387 0 6.0065121060229387 -6.8981596294750602 0 0 0 0 1.8504987519918359 1554.1897518410588 0 1554.1897518410588 -2997.8214162537479 0 0 0 0 -492.49662254340546 1284.8242248067295 0 1284.8242248067295 -2846.1309369294904 0 0 0 0 -464.95877470509731 867.05424729538208 0 867.05424729538208 -3090.2825197142956 0 0 0 0 -0.36626972891343712 4.4554021072864884 0 4.4554021072864884 0.57923639189802145 0 0 0 0 -321.24187047347368 1058.6585534054757 0 1058.6585534054757 -2861.6231454152348 0 0 0 0 -498.33095054779551 -83.185812958130555 0 -83.185812958130555 904.82534035448771 0 0 0 0 0.64565174063318409 520.50332672899822 0 520.50332672899822 217.65624265569568 0 0 0 0 64.649091161147226 208.73277740219783 0 208.73277740219783 -489.00098593949224 0 0 0 0 -397.57114236710186 -263.9991695814897 0 -263.9991695814897 305.80482582966215 0 0 0 0 -64.460012711640957 211.85612761945504 0 211.85612761945504 -1137.5877043777873 0 0 0 0 5.3245683929874303 3.0407748283794547 0 3.0407748283794547 -10.321675056469928 0 0 0 0 -428.99365052174835 524.60252832193146 0 524.60252832193146 -356.75824807468416 0 0 0 0 -0.10222620205604471 231.05093603766727 0 231.05093603766727 -318.81829066632054 0 0 0 0 -0.47286150486615952 230.7582265423116 0 230.7582265423116 -318.9130670416198 0 0 0 0 3.5862738745867091 3.5192945962182876 0 3.5192945962182876 -8.4251871993214138 0 0 0 0 -861.76952168429852 898.14230522953949 0 898.14230522953949 -549.09479443782402 0 0 0 0 4.9521244508921995 5.7460407946798568 0 5.7460407946798568 0.5198230387671714 0 0 0 0 -11.549366563209333 859.45747742964886 0 859.45747742964886 -1972.5059699062185 0 0 0 0 -1069.9066693053392 1417.1977837918676 0 1417.1977837918676 -1843.5088931468708 0 0 0 0 -816.51401419297508 840.0224032614143 0 840.0224032614143 -1303.8282672806235 0 0 0 0 -923.40091997223499 1145.0826152780137 0 1145.0826152780137 -566.98883465953259 0 0 0 0 -820.06609726320312 1292.1968296843297 0 1292.1968296843297 -1190.9531809950058 0 0 0 0 11.346468737623979 12.901347222789042 0 12.901347222789042 5.2842042753117227 0 0 0 0 -475.89362292225996 1302.9267483948552 0 1302.9267483948552 -2026.5149238558006 0 0 0 0 -922.49501932489511 1570.3685763852955 0 1570.3685763852955 -1493.0900060580898 0 0 0 0 -568.20910621101211 1410.2572999690265 0 1410.2572999690265 -1800.7936052605146 0 0 0 0 9.521980319422255 12.876008049581458 0 12.876008049581458 5.3488646447820685 0 0 0 0 -305.73967490964606 959.71916926798804 0 959.71916926798804 -373.94085416688904 0 0 0 0 -729.79388900116464 549.08226443040621 0 549.08226443040621 -768.99867442844698 0 0 0 0 450.58962386431813 -395.97326896979212 0 -395.97326896979212 -372.06840222123719 0 0 0 0 1.909137863063421 1.1497449687505252 0 1.1497449687505252 -3.9164133991479844 0 0 0 0 -155.17232782377687 275.31739584056777 0 275.31739584056777 -923.62206268450245 0 0 0 0 -826.01778668611951 588.89910687234078 0 588.89910687234078 -762.00658076852778 0 0 0 0 -799.47534818608256 1600.9765219028923 0 1600.9765219028923 -1837.4015653484912 0 0 0 0 -1228.0803110811685 1123.3786170413659 0 1123.3786170413659 -850.94360142303412 0 0 0 0 -4.5520800592588557 4.1083155856734948 0 4.1083155856734948 -0.67057334300307048 0 0 0 0 -248.75213655300286 957.14539368485521 0 957.14539368485521 -1210.9559550393897 0 0 0 0 -754.76479564711917 753.0818820635177 0 753.0818820635177 -1422.7935926897262 0 0 0 0 -1062.6328471842571 4485.1980489638518 0 4485.1980489638518 -5876.3552023156371 0 0 0 0 -1783.3979001268744 1099.076164525969 0 1099.076164525969 -186.16531608457444 0 0 0 0 -257.59082204136939 1729.2893536797928 0 1729.2893536797928 -1851.6385892906983 0 0 0 0 -1527.5025274026702 1844.2050364679999 0 1844.2050364679999 -1767.4361704811745 0 0 0 0 -948.62532100475801 1095.1198966367592 0 1095.1198966367592 -1827.3334191978079 0 0 0 0 -531.36703416860109 1397.2899040863304 0 1397.2899040863304 -1833.7249791987997 0 0 0 0 -1257.8111592154164 1300.1346496251317 0 1300.1346496251317 -912.89519692751492 0 0 0 0 -751.67822151694145 733.63222288236898 0 733.63222288236898 -540.74251376010943 0 0 0 0 -654.30959552738932 605.97866130521652 0 605.97866130521652 -950.41180701832968 0 0 0 0 -126.80754809589416 113.83260462315229 0 113.83260462315229 61.937489193835063 0 0 0 0 -38.518485199008865 179.81151827010035 0 179.81151827010035 90.709419086459093 0 0 0 0 -686.37769550481607 123.63233037928853 0 123.63233037928853 268.74723923326383 0 0 0 0 -1173.7958287128713 867.32911544743547 0 867.32911544743547 -1468.5817677691248 0 0 0 0 -2.1019137109919939 -2.6880957237032987 0 -2.6880957237032987 -0.54777440823966828 0 0 0 0 -181.52705822356802 -189.03951194130786 0 -189.03951194130786 461.08189259450592 0 0 0 0 446.65841625571193 620.71540286816526 0 620.71540286816526 -382.80577768911462 0 0 0 0 11.022723091940861 -438.4052192736508 0 -438.4052192736508 -130.22460281124222 0 0 0 0 -2228.4210491438862 953.25246626934677 0 953.25246626934677 876.36603808317159 0 0 0 0 -2957.7218145640072 2059.1177241124769 0 2059.1177241124769 -718.99416300586017 0 0 0 0 -647.48249371355632 1444.1093825201606 0 1444.1093825201606 -3798.6197314416349 0 0 0 0 -1851.4353093657701 2776.1071624373508 0 2776.1071624373508 -3099.9190247309525 0 0 0 0 -4697.7410023291159 1963.3289815090284 0 1963.3289815090284 -868.52002057350182 0 0 0 0 -29.574612344197021 19.863063698528684 0 19.863063698528684 -13.005797143560613 0 0 0 0 -434.49892510123755 -404.39476098904561 0 -404.39476098904561 62.8188063857815 0 0 0 0 393.99705112290394 97.559584602662653 0 97.559584602662653 -2183.1454573822994 0 0 0 0 -789.04636481334455 1683.4613590372683 0 1683.4613590372683 -2683.8234558186668 0 0 0 0 -112.39843266016396 490.52737641254862 0 490.52737641254862 -1438.7961642485898 0 0 0 0 -960.41247884182667 1447.9431610453066 0 1447.9431610453066 -1875.5959474337724 0 0 0 0 -1932.7408835014794 1740.6710890382601 0 1740.6710890382601 -1896.4066394872352 0 0 0 0 -975.45968648332928 1389.3467377999696 0 1389.3467377999696 -2052.8738001234742 0 0 0 0 -1664.3809253447398 1989.7733105531115 0 1989.7733105531115 -1798.0269395995274 0 0 0 0 -1213.5606333750184 1670.4009069346648 0 1670.4009069346648 -1682.2090020999749 0 0 0 0 -1353.7829103186668 1786.3282396211434 0 1786.3282396211434 -1620.2686026085721 0 0 0 0 -1853.5472059725143 1665.9704438403569 0 1665.9704438403569 -1428.5613207066017 0 0 0 0 391.97414414642844 71.39573263218881 0 71.39573263218881 -654.52912659428694 0 0 0 0 -0.05132409852267017 5.1407473948296456 0 5.1407473948296456 -11.384691720108435 0 0 0 0 -2000.5181887839572 1430.7283624239935 0 1430.7283624239935 -1639.925383923859 0 0 0 0 -12.483229376348277 1.0886053498889794 0 1.0886053498889794 0.3580387453790479 0 0 0 0 -1481.8247982485627 998.00266363019182 0 998.00266363019182 -1306.9306618512201 0 0 0 0 -1085.2230486356275 1339.8979233133723 0 1339.8979233133723 -1268.6679815690804 0 0 0 0 -1191.5916732145852 982.06935138023255 0 982.06935138023255 -1150.7202208808012 0 0 0 0 -701.20535140685388 1178.1351368543546 0 1178.1351368543546 -1131.5800994163947 0 0 0 0 -113.23070978981559 463.0803261765177 0 463.0803261765177 -743.37303875086945 0 0 0 0 -487.53102244826732 1297.5947462386466 0 1297.5947462386466 -1603.8153874249037 0 0 0 0 2.9380165154288989 381.90560984922922 0 381.90560984922922 -820.02498716129776 0 0 0 0 -602.80758477079507 577.03285808013243 0 577.03285808013243 -585.455125932589 0 0 0 0 -343.99941614447744 853.33568883648695 0 853.33568883648695 -1434.5709204328086 0 0 0 0 -386.28586861040094 -61.1850620977566 0 -61.1850620977566 441.00478192211813 0 0 0 0 -149.31176309005241 -133.14951741958066 0 -133.14951741958066 -45.095298064086819 0 0 0 0 11.677953791576101 26.241352175254917 0 26.241352175254917 17.180312274408976 0 0 0 0 40.87280398652365 419.58211123270667 0 419.58211123270667 -997.68539050987602 0 0 0 0 -293.42384698433307 401.11755337831346 0 401.11755337831346 -289.06399216576392 0 0 0 0 30.859207174928429 45.845740000102779 0 45.845740000102779 25.343840048260958 0 0 0 0 -128.54793100680399 259.23188929679054 0 259.23188929679054 303.50354067592343 0 0 0 0 -205.12060884579842 710.10633670698735 0 710.10633670698735 -1296.2753424553157 0 0 0 0 -748.7620590747938 640.14381025300736 0 640.14381025300736 -871.31243225353683 0 0 0 0 -740.2525374275865 1379.913725058308 0 1379.913725058308 -722.27646229537277 0 0 0 0 -536.15373322337109 1016.9765593776101 0 1016.9765593776101 -704.75460142756492 0 0 0 0 -144.0979004137007 496.5411540785808 0 496.5411540785808 -552.98666009589215 0 0 0 0 -47.799232053483138 151.75248765163997 0 151.75248765163997 -172.29050065782212 0 0 0 0 -483.67654057366599 625.37379583451911 0 625.37379583451911 -216.51324125623796 0 0 0 0 -571.99920330665191 687.34300872575841 0 687.34300872575841 -231.53904941221845 0 0 0 0 -239.65252656128723 452.71848648325249 0 452.71848648325249 -373.86514228782471 0 0 0 0 36.597385691753431 75.66352135505565 0 75.66352135505565 43.985380599283445 0 0 0 0 -660.75264691613847 406.36286352146999 0 406.36286352146999 55.780265629990026 0 0 0 0 -174.17961826991814 119.94442888445337 0 119.94442888445337 253.32494949585089 0 0 0 0 3.4112639853701694 221.03672660762095 0 221.03672660762095 7.0181697887455812 0 0 0 0 -55.001026581220486 7.5644861040572096 0 7.5644861040572096 9.2106352844288892 0 0 0 0 -1418.616636863524 1195.737959465936 0 1195.737959465936 -1051.2040836784727 0 0 0 0 -1706.6996920002566 1415.612644906385 0 1415.612644906385 -1168.147047071514 0 0 0 0 -1080.3871845879912 1340.6477050085305 0 1340.6477050085305 -1557.9702513359807 0 0 0 0 -2463.9047783886344 1362.8262510527675 0 1362.8262510527675 -1259.7938424720232 0 0 0 0 -956.3885175980904 1429.6811315590076 0 1429.6811315590076 -1582.6372213328068 0 0 0 0 -1270.9654925007017 1698.0738698882378 0 1698.0738698882378 -1650.0761133392734 0 0 0 0 -16.022341092081632 -1.4997905623411611 0 -1.4997905623411611 -1.6817635509080304 0 0 0 0 -1697.1091472127155 2572.6579232917538 0 2572.6579232917538 -3157.2316013404416 0 0 0 0 -460.38762140447216 -259.2604595399971 0 -259.2604595399971 695.57623748689366 0 0 0 0 14.387158256700786 203.25063218166542 0 203.25063218166542 -63.881304635229753 0 0 0 0 -1491.0388277900493 2025.9207995128454 0 2025.9207995128454 -1508.7325017343755 0 0 0 0 -1155.2591671474001 974.17855076949854 0 974.17855076949854 -1971.9927225907595 0 0 0 0 -1010.9978661245259 1321.2236502250671 0 1321.2236502250671 -1204.0192587787606 0 0 0 0 -765.93191669946827 1169.0316632074682 0 1169.0316632074682 -1289.9749489751994 0 0 0 0 -524.81975873670308 1069.5777769515407 0 1069.5777769515407 -982.39325323501544 0 0 0 0 -566.5455853704043 1048.9887952454446 0 1048.9887952454446 -941.22907860994746 0 0 0 0 -748.99906822871708 1230.9657675911294 0 1230.9657675911294 -1063.8565226341707 0 0 0 0 -420.09849043724535 1001.7931453554265 0 1001.7931453554265 -1264.8252147780149 0 0 0 0 -388.65364894466802 805.09278965692283 0 805.09278965692283 -885.34674900799291 0 0 0 0 -625.07672973081935 858.74521688326786 0 858.74521688326786 -994.75387563309778 0 0 0 0 -389.55525297451823 823.80040093268326 0 823.80040093268326 -1170.0702704823489 0 0 0 0 -389.06875156669776 841.54893979660301 0 841.54893979660301 -884.45654355789884 0 0 0 0 -621.53883146129374 968.16445395937626 0 968.16445395937626 -1608.0288890615266 0 0 0 0 -1186.9505087447033 898.3046699257975 0 898.3046699257975 -1069.2211099176711 0 0 0 0 -599.57688924983086 739.81269927758331 0 739.81269927758331 -615.9569697023253 0 0 0 0 -508.47801483367948 756.31916921160155 0 756.31916921160155 -1173.5727094444592 0 0 0 0 -527.21663116481068 803.44002164796984 0 803.44002164796984 -890.81111423305993 0 0 0 0 -482.43596343384706 577.03526638499898 0 577.03526638499898 -1008.0500613948716 0 0 0 0 -533.19151190755656 745.88114596412197 0 745.88114596412197 -468.52799770058482 0 0 0 0 186.27549114522117 121.45949661172926 0 121.45949661172926 -426.03517928509245 0 0 0 0 -513.69702598940057 246.57955196945113 0 246.57955196945113 -99.22217573290618 0 0 0 0 -75.216186397246929 854.6470038672287 0 854.6470038672287 281.42881351010874 0 0 0 0 12.151562755824386 20.398435812265262 0 20.398435812265262 30.535918527658822 0 0 0 0 -437.87730153135999 767.70593149281558 0 767.70593149281558 -603.74693014516379 0 0 0 0 -229.78755508275935 376.89939775325911 0 376.89939775325911 -840.56488623417681 0 0 0 0 -442.86573169246549 266.89822916215053 0 266.89822916215053 -415.96846746497249 0 0 0 0 -440.72163553333667 607.14689142379211 0 607.14689142379211 -915.24986427435942 0 0 0 0 -275.73805448025814 536.80468690496491 0 536.80468690496491 -895.90547894309248 0 0 0 0 -873.55009583898936 917.03638469057842 0 917.03638469057842 -873.5354560437263 0 0 0 0 -993.85876374223153 1055.1795258083221 0 1055.1795258083221 -971.56288977213171 0 0 0 0 -985.85417298230459 955.01195483050833 0 955.01195483050833 -1266.0929529204877 0 0 0 0 -1436.9156927813237 1478.1252629827577 0 1478.1252629827577 -1294.4112794905377 0 0 0 0 -1255.2339540983376 1718.6844248800262 0 1718.6844248800262 -1630.5924388321364 0 0 0 0 -1223.1088303631832 1557.3309101711375 0 1557.3309101711375 -1400.0074141789228 0 0 0 0 -1060.271178684503 1472.3637332507788 0 1472.3637332507788 -1602.8690099939777 0 0 0 0 -438.55384109949227 797.28929901586525 0 797.28929901586525 -1287.9388555616097 0 0 0 0 -652.17102950245317 998.91577384027187 0 998.91577384027187 -1224.4121279375049 0 0 0 0 -269.32686196239956 76.13623891617317 0 76.13623891617317 -632.27963293327048 0 0 0 0 -732.53253340791707 829.43231239349552 0 829.43231239349552 -867.62884194075014 0 0 0 0 -421.23365083990211 598.78592474656034 0 598.78592474656034 -1153.2615118761969 0 0 0 0 -387.11144898484963 391.82493866815958 0 391.82493866815958 -198.44998012187716 0 0 0 0 -362.47419459113598 -32.88852958108464 0 -32.88852958108464 -43.897424973794841 0 0 0 0 -26.625573824981984 26.190105020556075 0 26.190105020556075 -137.20015775409411 0 0 0 0 -340.4620257712304 9.7810922956923605 0 9.7810922956923605 327.29099404940644 0 0 0 0 -40.919136611426438 52.992599117493199 0 52.992599117493199 18.920555355410904 0 0 0 0 -556.63837569508178 390.18927915803943 0 390.18927915803943 484.06226562158554 0 0 0 0 -81.937220068495662 39.881969048519139 0 39.881969048519139 -12.583843348207637 0 0 0 0 -14.594607790247323 11.648876152864887 0 11.648876152864887 -4.9968392440238176 0 0 0 0 -61.54842133193597 104.00880127300115 0 104.00880127300115 67.12381312319485 0 0 0 0 -136.08124529001361 91.917500496034336 0 91.917500496034336 329.61466794599437 0 0 0 0 -21.416111118523986 54.590964191411331 0 54.590964191411331 28.142621372200665 0 0 0 0 -101.97228207134322 174.71937280412567 0 174.71937280412567 55.530843905362417 0 0 0 0 -76.645446295830027 43.856460756204768 0 43.856460756204768 11.809889707539597 0 0 0 0 -188.04363248343725 187.25242778290885 0 187.25242778290885 87.466407171436003 0 0 0 0 -160.46011390452259 122.29851932956171 0 122.29851932956171 90.034538536267064 0 0 0 0 58.179253379802063 87.735003811526298 0 87.735003811526298 22.50631079905466 0 0 0 0 -83.663904597895453 188.56112151946945 0 188.56112151946945 -45.949031205178471 0 0 0 0 -11.875640932908937 -1.4416039619500793 0 -1.4416039619500793 2.8546751511832085 0 0 0 0 -112.19347876977554 317.94670122514435 0 317.94670122514435 -474.4984569704684 0 0 0 0 36.01623801497044 30.325061164960061 0 30.325061164960061 -149.01623473500331 0 0 0 0 81.375833103047626 56.665047911359579 0 56.665047911359579 -98.734251301935728 0 0 0 0 -249.29959208311629 35.293998783334246 0 35.293998783334246 37.351432826708333 0 0 0 0 -5.5709376340529388 27.564140413368179 0 27.564140413368179 3.8720593686552078 0 0 0 0 14.992535852325091 99.240816184696087 0 99.240816184696087 67.561554614192573 0 0 0 0 -3.8713125349437121 51.916112082070725 0 51.916112082070725 20.995318481220608 0 0 0 0 -143.85533327690791 41.081997560344462 0 41.081997560344462 24.805149521984276 0 0 0 0 -263.6050181119208 -145.88227657583047 0 -145.88227657583047 85.434366261426476 0 0 0 0 -843.20179850645945 -577.88125040341401 0 -577.88125040341401 -232.20654740035752 0 0 0 0 -241.50094688794343 18.871081029032212 0 18.871081029032212 71.788406790772569 0 0 0 0 -501.03764656757994 -402.54848710628721 0 -402.54848710628721 -159.69767700518423 0 0 0 0 -713.43523595964507 209.09891458450511 0 209.09891458450511 178.93733108885135 0 0 0 0 -444.17089017487888 -85.64323679714289 0 -85.64323679714289 72.288305162001052 0 0 0 0 -428.58721576503012 -49.068166249948263 0 -49.068166249948263 62.865808282884245 0 0 0 0 -405.38365726509801 -17.855863241224142 0 -17.855863241224142 -26.040718628981267 0 0 0 0 -460.06510478354176 -79.889810717053479 0 -79.889810717053479 91.73924677510513 0 0 0 0 -708.82135428240872 205.89244728677659 0 205.89244728677659 31.159337486296863 0 0 0 0 29.19320919191523 179.17091750719555 0 179.17091750719555 69.874609349935781 0 0 0 0 -375.45041597144154 277.12581201505964 0 277.12581201505964 30.429279858624795 0 0 0 0 -7.1097630186696108 15.85456689148242 0 15.85456689148242 16.493096167767902 0 0 0 0 -321.25472329800323 97.166253612494984 0 97.166253612494984 270.28673740066006 0 0 0 0 12.664815087020315 36.748016650893533 0 36.748016650893533 59.569004748055363 0 0 0 0 230.75331805842143 -191.84751784501532 0 -191.84751784501532 -75.866360777567024 0 0 0 0 -166.75278298702324 375.90452436832129 0 375.90452436832129 -400.37579365825513 0 0 0 0 -196.23401957606256 62.301385351162025 0 62.301385351162025 -25.534275962651009 0 0 0 0 -674.71522365546844 99.26116135459597 0 99.26116135459597 416.31088167879352 0 0 0 0 112.34978607373705 674.86046280112532 0 674.86046280112532 622.96712686526007 0 0 0 0 168.35380165545212 519.29643100282919 0 519.29643100282919 335.16806782480853 0 0 0 0 1056.4685392205138 1039.709617263783 0 1039.709617263783 651.62339286260885 0 0 0 0 613.8700225281209 402.99997420392174 0 402.99997420392174 652.61050903041178 0 0 0 0 518.8348868762987 568.66846589230408 0 568.66846589230408 671.80424074277107 0 0 0 0 329.68156603095213 678.38103791389494 0 678.38103791389494 653.21837443727418 0 0 0 0 349.58847631742447 464.83373613945741 0 464.83373613945741 395.35682554148661 0 0 0 0 85.472689499118133 390.777141758379 0 390.777141758379 603.5310067997807 0 0 0 0 108.9591366842069 184.20576689499285 0 184.20576689499285 374.94833292507428 0 0 0 0 459.57690907330834 601.01972164092513 0 601.01972164092513 419.17698513827054 0 0 0 0 39.877781521368888 153.27889891889936 0 153.27889891889936 165.71690919240064 0 0 0 0 -56.915550546225859 290.04087668648572 0 290.04087668648572 632.93083663079028 0 0 0 0 -435.86543308840191 125.43045491036901 0 125.43045491036901 424.3969671397499 0 0 0 0 -655.78644132378759 50.692394572540252 0 50.692394572540252 229.7694152899785 0 0 0 0 -413.5506051244738 -53.434338811544876 0 -53.434338811544876 253.78398146668042 0 0 0 0 -1237.0877737207484 -232.01709584341734 0 -232.01709584341734 98.795653691282496 0 0 0 0 -774.98813805864484 492.90439175647043 0 492.90439175647043 -186.09750515308406 0 0 0 0 -118.21635786825209 62.624302988580894 0 62.624302988580894 77.748201239977789 0 0 0 0 -201.00857091096259 411.79479361183985 0 411.79479361183985 257.7105085914518 0 0 0 0 347.51606463172357 194.05079358312287 0 194.05079358312287 254.05037205549888 0 0 0 0 131.93150209587475 441.88656319318761 0 441.88656319318761 -25.83292726844229 0 0 0 0 62.139597002416849 -77.058603471010429 0 -77.058603471010429 -74.155980420386186 0 0 0 0 341.66649208708259 161.62080706148845 0 161.62080706148845 -83.498175844215439 0 0 0 0 254.40326571880723 -120.48362720289879 0 -120.48362720289879 -157.75159171365522 0 0 0 0 -614.39629978176526 -372.39934964349231 0 -372.39934964349231 -220.20202904081816 0 0 0 0 19.587544144444109 102.23620548891267 0 102.23620548891267 -682.73687581065315 0 0 0 0 -878.63311256658926 365.65227351231079 0 365.65227351231079 -83.477168765952229 0 0 0 0 604.94839507837605 430.59715283499827 0 430.59715283499827 242.63416940662137 0 0 0 0 462.27488042668847 346.87674992287066 0 346.87674992287066 471.41946102988004 0 0 0 0 348.47444669887773 280.41283194136122 0 280.41283194136122 242.51654288433929 0 0 0 0 368.3762136922378 74.526249891401676 0 74.526249891401676 61.276181967041339 0 0 0 0 314.96128267423774 104.01499140315718 0 104.01499140315718 197.98936738150951 0 0 0 0 536.08817233421723 249.41510932528035 0 249.41510932528035 65.844340512530607 0 0 0 0 500.19111897240145 181.0495818901727 0 181.0495818901727 261.67436404561158 0 0 0 0 612.49292700184742 480.69336458323232 0 480.69336458323232 391.3042545928547 0 0 0 0 610.98924657338648 216.13330534351553 0 216.13330534351553 97.927898142039339 0 0 0 0 489.20617297560966 509.96976429878123 0 509.96976429878123 473.65221248581656 0 0 0 0 728.5841975339863 451.58583627956978 0 451.58583627956978 430.41406036130502 0 0 0 0 615.91701624842972 618.5116188713364 0 618.5116188713364 881.66906948963879 0 0 0 0 761.39769992261427 734.02200216283381 0 734.02200216283381 738.38873286881426 0 0 0 0 580.83198498521324 959.96786713457709 0 959.96786713457709 1670.8175312124076 0 0 0 0 587.68993335815412 690.72893792138245 0 690.72893792138245 1146.7933512057061 0 0 0 0 654.22716192519874 316.65701075112884 0 316.65701075112884 650.35098430234939 0 0 0 0 686.6029195919491 655.11308353147683 0 655.11308353147683 595.93280728074024 0 0 0 0 543.04605745115259 306.77781983710156 0 306.77781983710156 1063.4038159148768 0 0 0 0 1256.5816024216474 1437.6063724077831 0 1437.6063724077831 1120.0280147910235 0 0 0 0 -145.79579339816701 -2.2785787130051176 0 -2.2785787130051176 251.13255565117288 0 0 0 0 -4.8656806984439527 1.7163481135140231 0 1.7163481135140231 17.409050941673058 0 0 0 0 -16.1573132253761 42.982715683110243 0 42.982715683110243 -37.852491035182823 0 0 0 0 -186.03659492386214 -230.8158393180056 0 -230.8158393180056 -427.98111756858998 0 0 0 0 -175.39694625388074 -232.04435843014653 0 -232.04435843014653 -434.46643056609901 0 0 0 0 1076.2326969688147 1167.6224688362054 0 1167.6224688362054 1021.6954145533382 0 0 0 0 825.8189470905927 1335.7843304815542 0 1335.7843304815542 1508.9847260772367 0 0 0 0 755.65033627743833 744.4664229296468 0 744.4664229296468 734.51127145347709 0 0 0 0 541.39291659592709 461.1772152112062 0 461.1772152112062 658.09939104272053 0 0 0 0 1150.6769954412594 775.56369510492368 0 775.56369510492368 765.6138180758644 0 0 0 0 747.74772948473401 736.11236704908515 0 736.11236704908515 813.06971980095841 0 0 0 0 1002.1682829373458 896.55821702629328 0 896.55821702629328 774.78801782353548 0 0 0 0 1066.9253751168726 1047.4983245032054 0 1047.4983245032054 924.39210207181168 0 0 0 0 957.56360347662121 913.19303942164697 0 913.19303942164697 836.69871738028451 0 0 0 0 1613.0643785834545 1047.0259090608306 0 1047.0259090608306 812.23500789799436 0 0 0 0 1306.057697590848 724.2607042027812 0 724.2607042027812 932.1922145269782 0 0 0 0 768.79930476474692 865.70495018725342 0 865.70495018725342 822.39719890375272 0 0 0 0 914.70160766597837 756.2252883050387 0 756.2252883050387 1097.8504579818546 0 0 0 0 860.50684905785602 760.44215257558972 0 760.44215257558972 651.15961050366604 0 0 0 0 842.15706119882816 685.53085189164267 0 685.53085189164267 859.96103761714767 0 0 0 0 875.08273740496952 814.91348605310486 0 814.91348605310486 938.96764179719321 0 0 0 0 759.44020778388949 871.1682969192334 0 871.1682969192334 1016.9217009833665 0 0 0 0 -207.67533767544501 -216.90014417996463 0 -216.90014417996463 -470.4415689772577 0 0 0 0 -11.921758456247886 27.911382447037674 0 27.911382447037674 -30.444836455582333 0 0 0 0 884.10915736330207 1181.728305948709 0 1181.728305948709 1059.5526312668317 0 0 0 0 -203.00941288815375 -242.20922568866808 0 -242.20922568866808 -435.22450665663928 0 0 0 0 -185.57565561549563 -236.06815341075708 0 -236.06815341075708 -435.33227146149147 0 0 0 0 -188.59012289851671 -230.63269914455304 0 -230.63269914455304 -433.4527842257703 0 0 0 0 -203.16564807092072 -239.45513765013311 0 -239.45513765013311 -430.25237070677395 0 0 0 0 -172.49064697104041 -232.30559486911079 0 -232.30559486911079 -484.46042510791449 0 0 0 0 -196.74191216888721 -244.06441787780932 0 -244.06441787780932 -454.56381088169292 0 0 0 0 -184.15589267373434 -221.07941938242584 0 -221.07941938242584 -466.34321937029745 0 0 0 0 -157.90239591670979 -210.73439096182847 0 -210.73439096182847 -452.8381935862235 0 0 0 0 -149.01769106771098 -169.45908427669201 0 -169.45908427669201 -453.90245522969781 0 0 0 0 -119.97535679522844 -161.27391958358203 0 -161.27391958358203 -526.68327060462616 0 0 0 0 -129.65578299710251 -21.805566790871126 0 -21.805566790871126 -397.79607829827 0 0 0 0 -128.98262777639502 -38.936618444468877 0 -38.936618444468877 -711.14459619193804 0 0 0 0 -200.38099758182943 216.33789689083642 0 216.33789689083642 -835.79015148468898 0 0 0 0 -216.58504226252262 144.53868937130028 0 144.53868937130028 -697.37654703581939 0 0 0 0 -217.63796136413293 104.75624436513317 0 104.75624436513317 -467.29508443831583 0 0 0 0 -129.43078274847721 -158.47849953841978 0 -158.47849953841978 -1000.8114492509922 0 0 0 0 -244.42528107528051 -198.7710059283927 0 -198.7710059283927 -479.06250478158472 0 0 0 0 -132.69260566747107 -124.18785917699279 0 -124.18785917699279 -528.76782521295536 0 0 0 0 -156.51880727155003 -202.15520545368963 0 -202.15520545368963 -583.43632196361432 0 0 0 0 -216.09937162983988 -248.5251662378214 0 -248.5251662378214 -489.66666125883057 0 0 0 0 -246.65963425762311 -318.18907819649758 0 -318.18907819649758 -567.48668108198399 0 0 0 0 -354.9535990805889 -754.98831785179209 0 -754.98831785179209 -1760.6027530861247 0 0 0 0 -5.6058643802469419 8.8778409200674986 0 8.8778409200674986 -13.31995845759846 0 0 0 0 667.61818570304604 1256.4570534677696 0 1256.4570534677696 713.82167452045542 0 0 0 0 156.34270785612171 571.76675527631596 0 571.76675527631596 575.78747060309979 0 0 0 0 197.23777326015988 1001.491050490964 0 1001.491050490964 980.16666277640979 0 0 0 0 5.7561618124292551 7.6795175038939192 0 7.6795175038939192 6.349283288813325 0 0 0 0 1434.8359546640277 -1056.7246827520867 0 -1056.7246827520867 -2201.106943481238 0 0 0 0 589.07352970684587 810.72585199627065 0 810.72585199627065 277.2051764747448 0 0 0 0 566.90798588178586 1323.6480107807729 0 1323.6480107807729 -659.80315828903986 0 0 0 0 209.44802701624576 369.73032763949595 0 369.73032763949595 -1985.1838038576716 0 0 0 0 -193.68391614681605 259.47077400833587 0 259.47077400833587 -684.75357330667612 0 0 0 0 -335.12287008712883 309.29512170721864 0 309.29512170721864 -693.2129505544126 0 0 0 0 -365.89504775064415 368.94896941643856 0 368.94896941643856 -455.00867699767696 0 0 0 0 -345.49413822735369 285.01890383776117 0 285.01890383776117 -110.61602943623438 0 0 0 0 166.50079870174523 165.3493280638213 0 165.3493280638213 -562.0239630950673 0 0 0 0 139.34279173790128 887.10898997083132 0 887.10898997083132 -1065.5489348147385 0 0 0 0 -245.97118445306842 500.70776342711906 0 500.70776342711906 -810.67148650231684 0 0 0 0 -437.0373476511013 619.58439509218078 0 619.58439509218078 -705.08382318257645 0 0 0 0 -522.72632754965161 682.30508643844223 0 682.30508643844223 -750.16009234575904 0 0 0 0 -271.31182706204709 807.01904548164384 0 807.01904548164384 -858.28520128462696 0 0 0 0 -423.53997253759735 373.91652150695154 0 373.91652150695154 -592.60053346041241 0 0 0 0 -322.32172949261439 260.67625739263895 0 260.67625739263895 -466.07311087923244 0 0 0 0 -494.41617337273783 451.32503651555453 0 451.32503651555453 -492.18138318057754 0 0 0 0 -441.40831205901486 282.85171624782288 0 282.85171624782288 -428.9410294102272 0 0 0 0 -373.88354466494638 254.48382319832308 0 254.48382319832308 -452.24470000599104 0 0 0 0 -376.78818276893799 258.62295475455358 0 258.62295475455358 -401.02545729916892 0 0 0 0 -242.45882809164505 215.29313416453078 0 215.29313416453078 -294.87594583534519 0 0 0 0 -247.31933711681631 190.50007578493387 0 190.50007578493387 -415.75274893618189 0 0 0 0 -192.699647947534 109.96507771358802 0 109.96507771358802 -330.8008759515069 0 0 0 0 -194.13556280842613 144.75031638057817 0 144.75031638057817 -523.5860566002666 0 0 0 0 -307.98699988994485 234.43241534917979 0 234.43241534917979 -492.6135683961038 0 0 0 0 -333.30482909663988 244.47203642275417 0 244.47203642275417 -496.35826703374914 0 0 0 0 -309.1888137794449 160.83830114609736 0 160.83830114609736 -380.54475390436164 0 0 0 0 -575.97531180921214 319.78605402069661 0 319.78605402069661 -452.87457486894073 0 0 0 0 -814.74290757284325 609.50079410718172 0 609.50079410718172 -509.00971267210844 0 0 0 0 -192.34074974683608 247.574407134387 0 247.574407134387 -441.48741828970378 0 0 0 0 -522.27582276061003 416.48650558845839 0 416.48650558845839 -294.97190013241197 0 0 0 0 -233.52356301607142 262.48953352261924 0 262.48953352261924 -431.37455416456214 0 0 0 0 -453.24377692714916 262.01698358633439 0 262.01698358633439 -337.88109049677223 0 0 0 0 -589.6094416996566 372.8038763685945 0 372.8038763685945 -393.88616731352522 0 0 0 0 -474.19091049178678 388.86823116153391 0 388.86823116153391 -477.74380517229838 0 0 0 0 -669.83095936082827 610.2493626728392 0 610.2493626728392 -610.64515911872877 0 0 0 0 -666.7824383720872 635.09760249441024 0 635.09760249441024 -563.20164189916977 0 0 0 0 -690.44836352069979 1031.3762997239319 0 1031.3762997239319 -777.98600958560564 0 0 0 0 -652.71595479230018 985.93420508883901 0 985.93420508883901 -903.54266992032353 0 0 0 0 -542.01871889285394 730.87650101747568 0 730.87650101747568 -664.26480247192376 0 0 0 0 -765.08063408983435 900.60712351344773 0 900.60712351344773 -691.03065894503379 0 0 0 0 -799.02776116803579 867.29533472596086 0 867.29533472596086 -723.18868407684204 0 0 0 0 -846.54078943983404 1091.0361364282162 0 1091.0361364282162 -800.72177852517052 0 0 0 0 -1000.6602997836017 1001.870482128521 0 1001.870482128521 -709.81382240409221 0 0 0 0 -889.82490458708344 921.87236323170873 0 921.87236323170873 -718.87400078940846 0 0 0 0 -1126.7744340349745 980.66530208264885 0 980.66530208264885 -676.37415284691087 0 0 0 0 -924.22775050367636 1096.4818476642286 0 1096.4818476642286 -764.40576000339934 0 0 0 0 -1080.089358663623 1109.6843155008246 0 1109.6843155008246 -757.57532463927055 0 0 0 0 -1000.1452914131805 814.5270788664784 0 814.5270788664784 -608.10356211253747 0 0 0 0 -792.33333920687437 618.59231386931788 0 618.59231386931788 -576.1021366432833 0 0 0 0 -1232.656698152161 823.2977836754435 0 823.2977836754435 -561.76879621742864 0 0 0 0 -1081.2954721126298 848.53814018735284 0 848.53814018735284 -722.09286031847296 0 0 0 0 -1138.9506559221627 867.9179030737323 0 867.9179030737323 -703.4040440350509 0 0 0 0 -1409.6158713327459 1157.2863622525547 0 1157.2863622525547 -945.75796541097225 0 0 0 0 -1447.4120933490622 814.00528345028761 0 814.00528345028761 -598.86203608076903 0 0 0 0 -1060.8664779152459 1158.3923281865282 0 1158.3923281865282 -882.77815265287063 0 0 0 0 -1174.9409720776457 1131.5461100247994 0 1131.5461100247994 -888.95726272406682 0 0 0 0 -1252.9468668374939 1131.6874699355867 0 1131.6874699355867 -814.43519381148508 0 0 0 0 -1100.4948771071358 1109.2961742594925 0 1109.2961742594925 -1033.1830307915661 0 0 0 0 -1394.0281234249705 1323.5173910438025 0 1323.5173910438025 -1092.6453449189721 0 0 0 0 -1094.6392394512586 1384.6835849289819 0 1384.6835849289819 -1510.3465247557033 0 0 0 0 -1196.1394960314647 1222.057280716559 0 1222.057280716559 -1322.3718846747797 0 0 0 0 -1083.2153127701604 1316.9498058551253 0 1316.9498058551253 -2270.2870199881727 0 0 0 0 -1389.8328393120173 1647.6039390006845 0 1647.6039390006845 -1739.2991680230552 0 0 0 0 -1092.2825539669338 1314.1600497692671 0 1314.1600497692671 -1566.8284849039046 0 0 0 0 -1291.8047308337191 1112.6271671180693 0 1112.6271671180693 -1154.7771966508008 0 0 0 0 -1690.4070067431021 1437.8762248242929 0 1437.8762248242929 -1159.4174096434922 0 0 0 0 -1513.2833715290253 1361.5064597938035 0 1361.5064597938035 -1651.7796964320733 0 0 0 0 -916.25474041486086 343.20530254323421 0 343.20530254323421 -581.45212283825094 0 0 0 0 -1326.2892048294452 981.0340112777485 0 981.0340112777485 -1345.8397474483645 0 0 0 0 -1956.3337260945409 1150.2482579298303 0 1150.2482579298303 -770.64650829137463 0 0 0 0 -1463.2820137089002 537.1495184051746 0 537.1495184051746 -638.04227434706991 0 0 0 0 -1191.2913206062804 847.34778008451394 0 847.34778008451394 -935.23319509087742 0 0 0 0 -1270.0064371068074 896.09891985865397 0 896.09891985865397 -597.14074961602455 0 0 0 0 -840.33760824556521 617.10210478667432 0 617.10210478667432 -480.53527706693512 0 0 0 0 -1017.7839345152388 501.89781176179167 0 501.89781176179167 -485.32082757422177 0 0 0 0 -370.50462158742448 480.98415348817434 0 480.98415348817434 -291.40009394921071 0 0 0 0 -518.33015783868177 272.16861287651045 0 272.16861287651045 -506.30837712115317 0 0 0 0 -337.52914421838068 636.74245925324067 0 636.74245925324067 -567.73425722522916 0 0 0 0 -599.22934048136813 873.54890045432694 0 873.54890045432694 -659.41721199696076 0 0 0 0 -332.32088146333103 489.38027202171565 0 489.38027202171565 -240.9520243080915 0 0 0 0 -419.26609450360047 476.45873541892252 0 476.45873541892252 -282.19924939918565 0 0 0 0 256.24391961071524 1137.2998851084922 0 1137.2998851084922 -524.70872417099599 0 0 0 0 -1001.3297821506967 1445.7111749456399 0 1445.7111749456399 -799.47185507102404 0 0 0 0 -681.82893370675083 727.22883575236847 0 727.22883575236847 -72.337543395726243 0 0 0 0 -2192.6601633399405 1764.8125284963462 0 1764.8125284963462 -1140.8041738241081 0 0 0 0 -1708.4859316784714 855.69034575090336 0 855.69034575090336 -1154.3600293511408 0 0 0 0 -1845.5208458503475 1411.2050906567129 0 1411.2050906567129 -3021.5050154561322 0 0 0 0 -2142.0283537834694 4343.9765242704962 0 4343.9765242704962 -3914.5372272143868 0 0 0 0 -2279.0068793091195 -1826.7579027366446 0 -1826.7579027366446 7904.8602230323522 0 0 0 0 -5.9269537405311894 11.638070977277039 0 11.638070977277039 16.16017083323203 0 0 0 0 -3465.8088324790733 3929.2966045010544 0 3929.2966045010544 -592.23286784016091 0 0 0 0 19.909921149257571 2084.2516141688393 0 2084.2516141688393 -633.67488556243916 0 0 0 0 -32.28873396950803 1659.2210425725243 0 1659.2210425725243 1815.6583410455496 0 0 0 0 -2686.5688918662927 1635.2333077446674 0 1635.2333077446674 2875.3377455522423 0 0 0 0 -333.47517823470116 -181.85729190496932 0 -181.85729190496932 4247.7573711516015 0 0 0 0 988.92994162474861 2005.7002021798071 0 2005.7002021798071 1653.6458532286779 0 0 0 0 -1534.9595719324425 1635.8567664491566 0 1635.8567664491566 5820.1592385378535 0 0 0 0 -2109.9569741361483 2802.9866255522647 0 2802.9866255522647 -1739.3513792515296 0 0 0 0 -494.86299036255514 1559.8022173060745 0 1559.8022173060745 -3078.8025700596627 0 0 0 0 -28.894783043416254 11.365371012478988 0 11.365371012478988 -0.63543059646278266 0 0 0 0 -4437.593177288858 2485.7993201124482 0 2485.7993201124482 8548.1848129787304 0 0 0 0 -1911.5114062900939 1229.073995141589 0 1229.073995141589 -338.39082596883236 0 0 0 0 -2439.4468365998837 3285.1110970920927 0 3285.1110970920927 2706.1038029626943 0 0 0 0 -2732.9931754213103 2445.2786410420958 0 2445.2786410420958 -679.38902842518291 0 0 0 0 -1958.2258672488388 1393.6925009227634 0 1393.6925009227634 -315.23384789023839 0 0 0 0 -1627.7747045553551 1717.5674737437075 0 1717.5674737437075 1.096340717151179 0 0 0 0 -1203.4537839893019 1088.0960223660513 0 1088.0960223660513 -1.2014902049850207 0 0 0 0 -1842.2368502084282 2007.2024380055373 0 2007.2024380055373 -1319.7636319355515 0 0 0 0 106.10905943540274 2247.4269652847361 0 2247.4269652847361 -3.9418380408314988 0 0 0 0 -137.85317736357683 2037.018493328942 0 2037.018493328942 -184.79177296339185 0 0 0 0 -91.741054403006274 1503.3687628363768 0 1503.3687628363768 -760.90781271430023 0 0 0 0 22.621662092722545 1086.7894408960783 0 1086.7894408960783 2317.5984660744289 0 0 0 0 159.35926443258359 1716.3831454667234 0 1716.3831454667234 -727.8555648993206 0 0 0 0 905.7256156251533 1898.8229341060578 0 1898.8229341060578 -486.56640268222691 0 0 0 0 204.13003075789311 2054.1308036286282 0 2054.1308036286282 -311.8502782524447 0 0 0 0 178.4997073579998 1953.1581084281243 0 1953.1581084281243 -516.97071450309886 0 0 0 0 0.9130749324909857 6.7656192569135101 0 6.7656192569135101 12.331115807519865 0 0 0 0 -136.06840226301574 -1543.532304607761 0 -1543.532304607761 1227.4581019991938 0 0 0 0 8.7979656911084021 1645.7197030533134 0 1645.7197030533134 1448.842257189317 0 0 0 0 210.33024374702654 -1185.9167582035734 0 -1185.9167582035734 4961.00943896014 0 0 0 0 694.09383779250493 77.043579361597949 0 77.043579361597949 1318.3742522522734 0 0 0 0 -18.207895025699742 29.69000923271301 0 29.69000923271301 41.278286146348819 0 0 0 0 67.350446164105961 624.84998922390878 0 624.84998922390878 839.80896717518772 0 0 0 0 -1685.9305160366348 2169.5502024032903 0 2169.5502024032903 -2330.7061765329854 0 0 0 0 -2353.8038247439035 1678.7378295729104 0 1678.7378295729104 -1583.8983811172366 0 0 0 0 102.36317467018671 345.30470045989932 0 345.30470045989932 -527.63399274399853 0 0 0 0 -615.04284492260194 289.95539466447372 0 289.95539466447372 275.21861254180112 0 0 0 0 12.072910943102272 24.646832025513788 0 24.646832025513788 31.748969150843209 0 0 0 0 -225.68208736987435 486.09435883752303 0 486.09435883752303 -256.18912146857474 0 0 0 0 -579.956957870927 374.89117467359029 0 374.89117467359029 159.79973001679173 0 0 0 0 -941.90375810294063 -105.31000482215313 0 -105.31000482215313 763.83664740660606 0 0 0 0 -1542.1562631406123 393.50952456075174 0 393.50952456075174 998.00066875762423 0 0 0 0 -697.74904270080151 628.62752291216748 0 628.62752291216748 100.79781245693448 0 0 0 0 -500.61849986208836 925.53488132245184 0 925.53488132245184 -83.807901480380679 0 0 0 0 -667.58888849202776 546.24864537075337 0 546.24864537075337 325.18419254067703 0 0 0 0 -481.49180984472332 336.50615003253915 0 336.50615003253915 99.928183489580988 0 0 0 0 -1261.5832945298025 1049.0405939852644 0 1049.0405939852644 -39.927548281586496 0 0 0 0 397.3436530551262 1199.7712689002583 0 1199.7712689002583 -4375.0394640157756 0 0 0 0 -376.8644341276995 1383.2224324838771 0 1383.2224324838771 -1343.9726590878272 0 0 0 0 -591.54414676032684 735.24823638826638 0 735.24823638826638 -511.71328002700466 0 0 0 0 609.30846072228451 -100.93453682024847 0 -100.93453682024847 -1756.8174383441365 0 0 0 0 422.15735924877845 484.13616478248514 0 484.13616478248514 -275.40238198140287 0 0 0 0 -1769.0719937603862 2637.2758742165315 0 2637.2758742165315 -2100.2659631932765 0 0 0 0 37.117245040783018 825.73015139457129 0 825.73015139457129 -2457.2781158740399 0 0 0 0 -3349.6318337453122 99.520509542737273 0 99.520509542737273 223.59865916325361 0 0 0 0 -1084.6029455555108 2596.2239279747664 0 2596.2239279747664 -703.93373429215717 0 0 0 0 -1700.5872226279025 921.50853408624971 0 921.50853408624971 317.34038713466725 0 0 0 0 -30.392437091542092 15.577601869876048 0 15.577601869876048 -4.2849967989288515 0 0 0 0 -1208.3651191022655 100.8648970072245 0 100.8648970072245 1530.458710867053 0 0 0 0 -637.2018181153253 -92.266229891727562 0 -92.266229891727562 66.257649179155123 0 0 0 0 150.38733732893888 -360.3438981740037 0 -360.3438981740037 146.76989275785309 0 0 0 0 5.2360455084156854 6.7193716516186157 0 6.7193716516186157 1.968544365058932 0 0 0 0 5.9913496715742554 12.812004806888524 0 12.812004806888524 -0.065501664721523412 0 0 0 0 -530.68255289653462 59.697718335293757 0 59.697718335293757 -561.99533553466608 0 0 0 0 236.686511883192 975.12851308274549 0 975.12851308274549 -1233.6374475672783 0 0 0 0 579.29530106530729 2201.3509316630661 0 2201.3509316630661 -424.63950004003709 0 0 0 0 -4.9855339026544243 53.484228556968446 0 53.484228556968446 -52.339954008813947 0 0 0 0 13.599311575962929 31.62178527447395 0 31.62178527447395 -27.997944934048064 0 0 0 0 -25.28954469616292 53.846301930250775 0 53.846301930250775 -24.399097353059915 0 0 0 0 12.613023817676492 11.844783298864513 0 11.844783298864513 6.7651929836260933 0 0 0 0 346.22038431331748 808.28523938876606 0 808.28523938876606 -931.36201203125529 0 0 0 0 -4.4816564687353093 30.043869034663658 0 30.043869034663658 0.12529515012283809 0 0 0 0 0.14804094287683256 29.363025706639746 0 29.363025706639746 -18.396111552003276 0 0 0 0 6.021542330649595 15.180087810842565 0 15.180087810842565 -16.225468839285895 0 0 0 0 -199.49947792917374 620.44487172837034 0 620.44487172837034 911.52925334077736 0 0 0 0 -82.053903190605212 30.068598813347734 0 30.068598813347734 -4.3985139783230807 0 0 0 0 -2421.457998464437 1761.6311266197299 0 1761.6311266197299 341.32284335741133 0 0 0 0 -516.57876536468029 684.7872886873356 0 684.7872886873356 -199.02363278967096 0 0 0 0 607.84228960951441 548.12212182789517 0 548.12212182789517 -262.94710815115832 0 0 0 0 -36.285752595355007 565.55017727712584 0 565.55017727712584 -117.14108518107969 0 0 0 0 -401.23674566115369 -572.20436087880807 0 -572.20436087880807 -189.59660421368608 0 0 0 0 -137.73595959732484 -989.75909322165535 0 -989.75909322165535 973.08791863286751 0 0 0 0 -1.0492585593354846 0.15449072556438637 0 0.15449072556438637 -26.246620604624866 0 0 0 0 1961.0099238633775 742.10572195164059 0 742.10572195164059 -2988.0158729649265 0 0 0 0 -1605.5469030204113 3181.867234860285 0 3181.867234860285 -2070.8410265941129 0 0 0 0 -1433.8897114654983 658.93961220551319 0 658.93961220551319 -451.66046847228426 0 0 0 0 2922.9567893366766 173.22316679442156 0 173.22316679442156 -1418.561758597687 0 0 0 0 952.77408201736398 479.97079686309735 0 479.97079686309735 -1218.9710293889948 0 0 0 0 757.13728301732044 444.71727385169652 0 444.71727385169652 -569.18225147027988 0 0 0 0 806.26986679947368 -225.61421245917654 0 -225.61421245917654 216.17364342176006 0 0 0 0 272.70769731572364 517.93577828515845 0 517.93577828515845 447.05552995144171 0 0 0 0 299.95472559359041 633.63078309797856 0 633.63078309797856 -151.51905739409267 0 0 0 0 -1840.7282524964539 812.89675168563554 0 812.89675168563554 -586.06928649493784 0 0 0 0 -1778.8296899322122 1150.5653326847114 0 1150.5653326847114 -534.75502204793156 0 0 0 0 -5134.4374058817048 2014.5937758913424 0 2014.5937758913424 -119.71575515794393 0 0 0 0 1.2283382151814806 5.0368704367332384 0 5.0368704367332384 -73.891742344465968 0 0 0 0 1799.3975364720682 -214.70018162318775 0 -214.70018162318775 -468.17153227885137 0 0 0 0 -1411.3539365592296 932.77675541770441 0 932.77675541770441 -666.45296647369105 0 0 0 0 -1728.0760700281826 561.37439444322172 0 561.37439444322172 -1135.0487936923746 0 0 0 0 -1749.9244695469388 1270.9075805839675 0 1270.9075805839675 -826.72744976624381 0 0 0 0 -1.8149114546254168 -1.3832351943351853 0 -1.3832351943351853 -8.5736814049211603 0 0 0 0 464.29375952752889 635.59666176938481 0 635.59666176938481 -798.68894330933108 0 0 0 0 154.15012734551419 -359.49852283328983 0 -359.49852283328983 -146.92487925611204 0 0 0 0 214.14474108599825 -330.71126400476351 0 -330.71126400476351 -179.56305862014415 0 0 0 0 26.075412419365328 13.676998159194397 0 13.676998159194397 -105.7958205061226 0 0 0 0 193.4560457256157 -456.01036866019422 0 -456.01036866019422 -530.70905267826311 0 0 0 0 157.65836570148531 -251.52208437608715 0 -251.52208437608715 75.197169350460172 0 0 0 0 -204.21506167536063 285.2536609145609 0 285.2536609145609 -211.37312621109595 0 0 0 0 -11.127846021403769 57.470795675290901 0 57.470795675290901 66.228817567643887 0 0 0 0 44.273651920768259 60.515238159015098 0 60.515238159015098 32.023732240180067 0 0 0 0 425.80644676406519 539.18639947177871 0 539.18639947177871 -1013.0772699850022 0 0 0 0 -290.84556626374251 454.23619412960397 0 454.23619412960397 -560.60833638921031 0 0 0 0 -348.0570543728827 785.89713518947246 0 785.89713518947246 -789.09398554897052 0 0 0 0 205.02939295370015 39.218876556464238 0 39.218876556464238 -834.30646697481279 0 0 0 0 -382.30136644552113 -137.86752128205262 0 -137.86752128205262 -841.43383352793171 0 0 0 0 -1184.9613977225963 136.49699293024605 0 136.49699293024605 -515.38971944293007 0 0 0 0 -1307.7770626186684 585.93495820081444 0 585.93495820081444 -111.54189927480184 0 0 0 0 -769.52973008621484 777.11901032368769 0 777.11901032368769 -113.6184384424414 0 0 0 0 98.038550048688194 349.65045005807769 0 349.65045005807769 15.256273193874222 0 0 0 0 798.83619037253084 824.19353773977491 0 824.19353773977491 -114.50031276664231 0 0 0 0 146.05204820408835 134.30644696939271 0 134.30644696939271 51.278283961466514 0 0 0 0 -43.666240546561312 524.25992679421324 0 524.25992679421324 -408.50251664989628 0 0 0 0 -244.84420400663657 1079.3614199149088 0 1079.3614199149088 -329.93994943838334 0 0 0 0 -268.77459843614633 634.08289101486298 0 634.08289101486298 -685.65528567542788 0 0 0 0 -308.03028546643327 663.61533758603036 0 663.61533758603036 -26.992802589171333 0 0 0 0 -159.18888234048791 1027.1827857302706 0 1027.1827857302706 -758.36670276848599 0 0 0 0 31.210473388511843 41.508027257676531 0 41.508027257676531 47.43258077929238 0 0 0 0 -656.25679463498091 1274.9663281323665 0 1274.9663281323665 -409.21151584523614 0 0 0 0 -351.97126875829417 314.61509195173858 0 314.61509195173858 -53.924320957419695 0 0 0 0 -497.8146440158016 395.03327791034826 0 395.03327791034826 -92.909685195656493 0 0 0 0 -20.735785317640051 37.524304592402473 0 37.524304592402473 53.452865703308646 0 0 0 0 -955.76775705537875 1393.3731484468008 0 1393.3731484468008 -1673.0159901011648 0 0 0 0 -340.24574180302443 27.57664645735349 0 27.57664645735349 203.41591000285916 0 0 0 0 2.6593164719815832 42.125118597206892 0 42.125118597206892 -155.25041966614663 0 0 0 0 289.45296016862267 174.8516533273214 0 174.8516533273214 -603.31515328852402 0 0 0 0 -800.43425219829078 1251.5325390574289 0 1251.5325390574289 -1712.5343788938517 0 0 0 0 -1056.093991663729 1280.7433931017076 0 1280.7433931017076 -1278.849060515844 0 0 0 0 -989.01418646643288 1126.9036321555031 0 1126.9036321555031 -1233.4592324061086 0 0 0 0 -1093.6102494483712 1258.5178410133522 0 1258.5178410133522 -1054.507221254491 0 0 0 0 -769.94690762038226 1019.231365341635 0 1019.231365341635 -1456.4460176246357 0 0 0 0 -995.16794315223524 1188.326071140561 0 1188.326071140561 -1079.7342004647944 0 0 0 0 -924.73918186427909 1127.7982638167741 0 1127.7982638167741 -1045.8586976735241 0 0 0 0 -1020.2975304073771 1207.5126039657771 0 1207.5126039657771 -914.7589287613373 0 0 0 0 -922.04220412216091 1107.2617003796549 0 1107.2617003796549 -900.46834161868901 0 0 0 0 -936.31740769621683 1159.349149772941 0 1159.349149772941 -896.74472736995904 0 0 0 0 -982.58240984698932 1140.8508972379204 0 1140.8508972379204 -814.83112000822439 0 0 0 0 -1042.7872995752405 1136.3565177511191 0 1136.3565177511191 -895.59411826284486 0 0 0 0 -738.65707224656944 983.39072573893645 0 983.39072573893645 -967.39702889494947 0 0 0 0 -16.544141902587825 44.485275370957652 0 44.485275370957652 63.141156314637442 0 0 0 0 -99.420601845198689 188.56718615879799 0 188.56718615879799 -198.38411940528022 0 0 0 0 -844.982694538543 1107.60030500844 0 1107.60030500844 -1018.8922463659837 0 0 0 0 -753.24868218434494 938.15069122803288 0 938.15069122803288 -1077.1871714721492 0 0 0 0 -786.66247051341634 1007.645082486255 0 1007.645082486255 -851.62119037043885 0 0 0 0 -910.566188232071 1095.4337823301612 0 1095.4337823301612 -739.45049230926088 0 0 0 0 -848.18379178270698 1080.1165147293214 0 1080.1165147293214 -850.18359760526027 0 0 0 0 -569.36280251841526 962.20163580580265 0 962.20163580580265 -923.57561408945185 0 0 0 0 -801.30431356525514 990.95556467585266 0 990.95556467585266 -682.04918831330724 0 0 0 0 -676.97515572560951 1035.2111032084213 0 1035.2111032084213 -950.38180447852938 0 0 0 0 -923.65520845836727 1099.7656671410805 0 1099.7656671410805 -585.61632286694658 0 0 0 0 -791.03985427369116 930.90122409050855 0 930.90122409050855 -558.66129574383376 0 0 0 0 -816.78127473520726 1046.0506516463865 0 1046.0506516463865 -706.44965289713582 0 0 0 0 -955.32168699175963 1176.2448429726028 0 1176.2448429726028 -752.40728341371869 0 0 0 0 -985.90982055393397 1219.0647076545938 0 1219.0647076545938 -598.39877340491512 0 0 0 0 -996.65195797380875 1254.928196982888 0 1254.928196982888 -715.48989350931879 0 0 0 0 -994.31070037843892 1186.2900896453502 0 1186.2900896453502 -641.69639357538108 0 0 0 0 -949.86025300328038 997.75112765640188 0 997.75112765640188 -417.38902862326358 0 0 0 0 -1022.1269438932504 1170.8562710439364 0 1170.8562710439364 -772.68334087755647 0 0 0 0 -1020.7026255964884 1209.4290655105142 0 1209.4290655105142 -848.84237720185047 0 0 0 0 -990.46483400158468 1214.8888510904799 0 1214.8888510904799 -792.12317070938298 0 0 0 0 -985.33519545618037 1180.9282431111642 0 1180.9282431111642 -691.45630632790562 0 0 0 0 -972.36295864066051 1243.9395151478238 0 1243.9395151478238 -769.28672699420713 0 0 0 0 -969.2494919601595 1112.8865219913569 0 1112.8865219913569 -739.16828388326394 0 0 0 0 -921.48427762086794 1203.0890796288804 0 1203.0890796288804 -762.60536856860563 0 0 0 0 -913.76329069194617 1269.1317670572389 0 1269.1317670572389 -777.30389915984415 0 0 0 0 -779.45439209225879 1248.7300257315947 0 1248.7300257315947 -977.32556609513995 0 0 0 0 -1101.6785777326386 1203.8506606010328 0 1203.8506606010328 -442.45219374267617 0 0 0 0 -1115.878382450026 1366.5750848568359 0 1366.5750848568359 -690.82207330070378 0 0 0 0 -932.40410751453601 1327.4690656902167 0 1327.4690656902167 -807.23725025830208 0 0 0 0 -1117.1469724341878 1533.8771487884587 0 1533.8771487884587 -986.68789088438643 0 0 0 0 -1102.2828772921594 1369.6331713901741 0 1369.6331713901741 -750.12824359604565 0 0 0 0 -1310.4105181450723 1445.1919342470792 0 1445.1919342470792 -686.93939731328283 0 0 0 0 -1508.4537880995194 1040.4983616506415 0 1040.4983616506415 -154.50283379422035 0 0 0 0 -1112.0866843755648 707.54716476824979 0 707.54716476824979 -9.6770579589519912 0 0 0 0 -2487.428620369421 1550.6635549130187 0 1550.6635549130187 -116.05381356288854 0 0 0 0 -1822.869474584033 423.20607153218225 0 423.20607153218225 372.00520865588624 0 0 0 0 -36.811584326060256 337.49198980053916 0 337.49198980053916 -104.60553945378342 0 0 0 0 -11.560116057124105 148.06928982817044 0 148.06928982817044 -60.218410849192878 0 0 0 0 -26.715061455133764 114.61855717559843 0 114.61855717559843 35.928547314106254 0 0 0 0 -1239.561456601994 547.03794985500281 0 547.03794985500281 143.42754886449256 0 0 0 0 -823.07534819925786 513.82190125198395 0 513.82190125198395 -120.32010756937234 0 0 0 0 -156.57912373269392 246.26552200613787 0 246.26552200613787 -99.65425240980403 0 0 0 0 -148.01470996264834 261.73537974077044 0 261.73537974077044 -253.35372720321175 0 0 0 0 13.373759564843731 27.085352468239194 0 27.085352468239194 -5.4202000361625267 0 0 0 0 182.09920861909632 207.11850919745484 0 207.11850919745484 -22.353813566733152 0 0 0 0 21.675844780495169 57.026078079219644 0 57.026078079219644 40.226958439691089 0 0 0 0 -98.539388823603076 180.47681285100589 0 180.47681285100589 -171.22483675353578 0 0 0 0 42.646429583479005 44.577257431917587 0 44.577257431917587 -17.516189004197173 0 0 0 0 349.373603960732 232.39781068411685 0 232.39781068411685 -361.91055930416042 0 0 0 0 139.19959859958013 135.55237429267979 0 135.55237429267979 -97.132432727325636 0 0 0 0 -611.90756953213713 305.36340730333177 0 305.36340730333177 -186.38863030751236 0 0 0 0 -712.04989142788691 933.29023809568025 0 933.29023809568025 -579.7914016701543 0 0 0 0 -818.27557573403465 652.98524129235011 0 652.98524129235011 -323.38072400723468 0 0 0 0 -1122.7085768791731 1131.0947574455495 0 1131.0947574455495 -503.60316220542882 0 0 0 0 -1069.761366886336 711.60534141126573 0 711.60534141126573 -80.587050767571782 0 0 0 0 -752.50645050502499 641.83139604815369 0 641.83139604815369 -337.9738156808744 0 0 0 0 -735.71448071266059 699.85615377264912 0 699.85615377264912 -374.43619757732085 0 0 0 0 -1049.6507769243908 701.58637176176126 0 701.58637176176126 -397.92351546292775 0 0 0 0 -951.9383878603112 774.51099025123403 0 774.51099025123403 -406.18462986008308 0 0 0 0 -881.45342915291621 830.19443020883045 0 830.19443020883045 -474.01518485354609 0 0 0 0 -1177.1460082273989 789.76487460346834 0 789.76487460346834 -448.33620365588285 0 0 0 0 -903.2126602476892 720.049881757207 0 720.049881757207 -438.19624902034411 0 0 0 0 -1104.7018996224142 675.12607479276994 0 675.12607479276994 -428.73384664182959 0 0 0 0 17.449628336821007 5.4571293910713621 0 5.4571293910713621 -31.978148821803416 0 0 0 0 -1096.7248468862817 689.72517830465222 0 689.72517830465222 -413.64420986130426 0 0 0 0 284.57045118350652 -58.592537145043025 0 -58.592537145043025 -57.420315622119233 0 0 0 0 258.53276174384519 -123.73547015738586 0 -123.73547015738586 -167.40916761472181 0 0 0 0 60.565761954473942 96.921987337259736 0 96.921987337259736 43.669820876205449 0 0 0 0 310.10904050292447 76.886770171811804 0 76.886770171811804 208.4927449603565 0 0 0 0 -23.273487344366231 10.231608923521549 0 10.231608923521549 23.637317719219965 0 0 0 0 -1069.092798760772 660.48750425446269 0 660.48750425446269 -434.73821840606979 0 0 0 0 -16.351697174922208 6.8257709344487978 0 6.8257709344487978 4.1516080896015524 0 0 0 0 56.940913849848982 76.597012465463024 0 76.597012465463024 45.356813978874413 0 0 0 0 -992.16451407506247 836.74505743436748 0 836.74505743436748 -460.09946657760884 0 0 0 0 -177.16012648565084 97.430108181812102 0 97.430108181812102 221.27308063357486 0 0 0 0 -40.680059492224245 187.84364567643206 0 187.84364567643206 -15.794983365864027 0 0 0 0 -1018.9111155878054 695.88639276238973 0 695.88639276238973 -493.73256557628338 0 0 0 0 -19.070272003795253 149.47633284796029 0 149.47633284796029 42.407368195359595 0 0 0 0 -41.205052784644067 157.471089603976 0 157.471089603976 70.451516324799741 0 0 0 0 -26.336887909492361 144.89636210876779 0 144.89636210876779 49.851867620513076 0 0 0 0 -860.56943993156892 725.05576148055843 0 725.05576148055843 -413.28424125968013 0 0 0 0 -1016.2938126720401 819.21498029975919 0 819.21498029975919 -294.41090830374742 0 0 0 0 -841.06889379695349 774.88144174511399 0 774.88144174511399 -364.56090528675122 0 0 0 0 -846.04144801785878 647.58292493945919 0 647.58292493945919 -193.44630043723737 0 0 0 0 -579.65638218505774 780.29445570800453 0 780.29445570800453 -377.07050719260587 0 0 0 0 -615.45882485678885 852.36323303516838 0 852.36323303516838 -312.62402815326641 0 0 0 0 -423.8090317130991 806.28236294694216 0 806.28236294694216 -309.8336405827722 0 0 0 0 -618.25280043802923 763.48148839368514 0 763.48148839368514 -355.04032762499264 0 0 0 0 -585.71825944559532 688.2522980037902 0 688.2522980037902 -60.177302531665191 0 0 0 0 -616.67837670142035 1052.8312132572137 0 1052.8312132572137 -82.226633368321927 0 0 0 0 -519.06241119856713 512.72243089094991 0 512.72243089094991 -95.438780362237594 0 0 0 0 -621.19835069072724 781.19480583168479 0 781.19480583168479 -262.97884378449817 0 0 0 0 -641.07583282365522 803.518679185785 0 803.518679185785 -424.49757867786684 0 0 0 0 -606.22745535238937 703.27156796407507 0 703.27156796407507 -497.0978267796454 0 0 0 0 -583.54126992259989 553.85200905227975 0 553.85200905227975 -353.0131412200426 0 0 0 0 -310.22616973693948 406.75672923393722 0 406.75672923393722 -628.36409355336218 0 0 0 0 -310.62012552488886 329.10054148388008 0 329.10054148388008 -360.18889367173688 0 0 0 0 -338.36112476867856 305.70480747860711 0 305.70480747860711 -298.35787191598502 0 0 0 0 -208.23732970840865 96.350616844407341 0 96.350616844407341 -250.81946213096671 0 0 0 0 -181.01434646260168 162.42090131356235 0 162.42090131356235 -497.80419129738584 0 0 0 0 -422.4560233594093 409.49540551721293 0 409.49540551721293 -530.10242018698773 0 0 0 0 -194.43261103818804 124.53879202182725 0 124.53879202182725 -374.8187992216117 0 0 0 0 -82.769467031699605 265.56500184453034 0 265.56500184453034 -688.66600465220836 0 0 0 0 -405.79878325320897 328.44757114542881 0 328.44757114542881 -691.83463554364334 0 0 0 0 -625.14717735651357 615.9001963166811 0 615.9001963166811 -1021.9146698574186 0 0 0 0 -633.39698211461655 636.110010818913 0 636.110010818913 -717.23947969428355 0 0 0 0 -374.70260446265456 491.41210383977523 0 491.41210383977523 -796.359086242388 0 0 0 0 -749.26608911983203 739.42762926804426 0 739.42762926804426 -633.19161690776673 0 0 0 0 -796.633442927734 680.81355984332185 0 680.81355984332185 -655.9669099249877 0 0 0 0 -880.64439879151178 852.08770454469777 0 852.08770454469777 -696.43092938986956 0 0 0 0 -594.3437926097231 688.2196339629354 0 688.2196339629354 -662.03613348765066 0 0 0 0 -787.09328203077894 687.0924220005254 0 687.0924220005254 -460.44447656506782 0 0 0 0 -2172.3542246982979 1410.4705166040221 0 1410.4705166040221 -769.11250673208269 0 0 0 0 -1733.758046722709 838.76177691276825 0 838.76177691276825 -469.95188273925305 0 0 0 0 -915.4419180835248 882.29488732897153 0 882.29488732897153 -924.70029970008181 0 0 0 0 -1080.5555607998394 698.45035742933396 0 698.45035742933396 -798.55336882582924 0 0 0 0 -1264.1333674344351 1154.2825948568498 0 1154.2825948568498 -1400.6352474639425 0 0 0 0 -1364.1295555742545 1033.3265175862471 0 1033.3265175862471 -1079.3954269467504 0 0 0 0 -1084.8433655739063 580.34617996547604 0 580.34617996547604 -998.58682259422858 0 0 0 0 -991.60701962694293 727.91028426293633 0 727.91028426293633 -781.4400211336615 0 0 0 0 -799.54007082656608 567.67114595725434 0 567.67114595725434 -783.0501764881592 0 0 0 0 -1115.914802061423 865.44471945569967 0 865.44471945569967 -726.68808339081443 0 0 0 0 -1480.1333660138771 895.95273049118987 0 895.95273049118987 -683.64497817188385 0 0 0 0 -397.55182294942642 394.24749521924241 0 394.24749521924241 -669.76072414871305 0 0 0 0 -1121.6070705064485 870.39680651517119 0 870.39680651517119 -625.28981225768803 0 0 0 0 -483.46423897251952 850.25767252802325 0 850.25767252802325 -925.36890841243439 0 0 0 0 -733.58993319730507 570.70992804982961 0 570.70992804982961 -315.93117718416033 0 0 0 0 -687.71342168049887 1011.3004437494383 0 1011.3004437494383 -1303.5054845957493 0 0 0 0 -101.64894788089441 441.25163227607118 0 441.25163227607118 -750.72978465922642 0 0 0 0 -619.72810084736557 698.73967692976294 0 698.73967692976294 -761.33570518123452 0 0 0 0 224.90660159883555 172.3265394155751 0 172.3265394155751 -479.71283784807747 0 0 0 0 -421.41129995003575 471.38489103017491 0 471.38489103017491 -406.69133422723098 0 0 0 0 -59.100735399348196 293.39550218192016 0 293.39550218192016 113.46333124373632 0 0 0 0 338.8083453043655 -179.92347299866378 0 -179.92347299866378 687.92040111980805 0 0 0 0 87.458990663521035 -79.763175405521906 0 -79.763175405521906 436.78557361612911 0 0 0 0 14.171844088876242 435.23904125862282 0 435.23904125862282 662.68668514833553 0 0 0 0 176.27328541001771 139.40891407313757 0 139.40891407313757 546.8347050321463 0 0 0 0 -190.03218421459314 98.262955293343111 0 98.262955293343111 180.02473391997046 0 0 0 0 -146.03068047517445 596.44077414133062 0 596.44077414133062 -597.33972169633489 0 0 0 0 -472.37598745228024 58.928579911706038 0 58.928579911706038 748.60756438880344 0 0 0 0 -372.73645765442052 662.53619626359432 0 662.53619626359432 -815.07290865428513 0 0 0 0 -95.974264000647111 24.514751049951144 0 24.514751049951144 0.4424831723320608 0 0 0 0 -839.98151762480848 -22.81636360547418 0 -22.81636360547418 2136.2518318146467 0 0 0 0 -47.276051833483507 36.480837752096704 0 36.480837752096704 -111.11356975339004 0 0 0 0 -0.51428900483696793 24.123609825330107 0 24.123609825330107 2.0457316592400616 0 0 0 0 -60.05803578463383 47.745817913644714 0 47.745817913644714 -45.843657623248873 0 0 0 0 99.821420464373659 419.86994414545188 0 419.86994414545188 851.56902131119205 0 0 0 0 -140.19346589043562 90.425031088729156 0 90.425031088729156 -108.69456946451101 0 0 0 0 -14.345791982632363 -59.836304414631741 0 -59.836304414631741 2196.7010767754982 0 0 0 0 -15.898333819852326 25.440583151383919 0 25.440583151383919 -1.4281685090265483 0 0 0 0 -4.0974754737981129 457.41714089860034 0 457.41714089860034 940.82007688481826 0 0 0 0 -78.465143646484933 27.502391568829125 0 27.502391568829125 -0.64703368435105801 0 0 0 0 -75.341348863963503 185.14518422725814 0 185.14518422725814 1202.4784951302718 0 0 0 0 -189.1516026119134 155.97415539518988 0 155.97415539518988 1.8595537009096006 0 0 0 0 -115.0546668326424 144.54721558000892 0 144.54721558000892 -114.83435566127218 0 0 0 0 -75.093342860011035 82.290703145838052 0 82.290703145838052 -17.862163180710922 0 0 0 0 -36.426931002562924 54.424839063292893 0 54.424839063292893 -0.60990406612108927 0 0 0 0 -883.1383310072124 667.66583281647763 0 667.66583281647763 -270.6923007933292 0 0 0 0 -629.350962417353 384.16095051221419 0 384.16095051221419 -8.2886626753024757 0 0 0 0 -517.31670751779166 473.37874233104958 0 473.37874233104958 -304.22353019133152 0 0 0 0 -296.09213341560098 458.81323729342694 0 458.81323729342694 -900.82110975933028 0 0 0 0 -59.524892117930108 18.954069048775352 0 18.954069048775352 -2.8646662442434163 0 0 0 0 -194.40854808309814 297.69099370582262 0 297.69099370582262 1612.6722222150929 0 0 0 0 -34.910702282213606 57.830536290857708 0 57.830536290857708 -328.74426454157765 0 0 0 0 203.35810886926174 -141.27578936700297 0 -141.27578936700297 52.800119934428949 0 0 0 0 197.85521114798064 530.49972224278929 0 530.49972224278929 663.48755575378891 0 0 0 0 61.662679660432332 74.170591348411108 0 74.170591348411108 632.83322119503282 0 0 0 0 0.3692797809781041 273.46321710060874 0 273.46321710060874 519.4178664417268 0 0 0 0 131.13056486545247 -84.823255085633718 0 -84.823255085633718 7.5566146084238426 0 0 0 0 71.91904449226422 -62.751116302832088 0 -62.751116302832088 -71.789090039746952 0 0 0 0 -160.84410908486097 131.49922380392309 0 131.49922380392309 -399.92339912606985 0 0 0 0 -59.526382808486233 254.76300682575675 0 254.76300682575675 -270.52563086552982 0 0 0 0 38.582610920995648 3.6288190123032109 0 3.6288190123032109 -373.40173960500397 0 0 0 0 -177.35219813982258 36.48543629780761 0 36.48543629780761 -38.659211464320833 0 0 0 0 -150.31092927045574 -72.837786446324571 0 -72.837786446324571 -196.3570988336287 0 0 0 0 -466.17563796442118 316.25645899596566 0 316.25645899596566 -345.98884675084264 0 0 0 0 -404.75812775192026 40.498229563483619 0 40.498229563483619 -239.14864098509861 0 0 0 0 -465.76270147685136 407.93836657650536 0 407.93836657650536 -105.33953027886855 0 0 0 0 -762.32855471715447 790.18538027713657 0 790.18538027713657 -439.34540438953263 0 0 0 0 -1041.9341382888706 1453.7742075732731 0 1453.7742075732731 -578.76252573572856 0 0 0 0 -1528.0334384039161 625.7312083637662 0 625.7312083637662 -58.73055260471665 0 0 0 0 -919.16964920076134 292.1978485075233 0 292.1978485075233 24.579176242579706 0 0 0 0 -979.87284251574602 35.694141048224992 0 35.694141048224992 258.00262637753622 0 0 0 0 -2832.9020515368029 1140.7858802150295 0 1140.7858802150295 516.71625092996692 0 0 0 0 -1852.5620317295106 -99.949053922209714 0 -99.949053922209714 1924.0805474691006 0 0 0 0 -24.236182976086525 8.052194765091059 0 8.052194765091059 -1.8268121214738287 0 0 0 0 -1921.5343047134229 1465.6549116088718 0 1465.6549116088718 -0.22935616668837611 0 0 0 0 -2965.4918694115549 3138.65003599388 0 3138.65003599388 -1951.8885089263204 0 0 0 0 -3545.1286101860169 1991.3243362816065 0 1991.3243362816065 -117.680794455664 0 0 0 0 -1306.6246124155587 1706.478324402924 0 1706.478324402924 -900.75828380158055 0 0 0 0 -885.25740157655855 1643.056784043627 0 1643.056784043627 -1976.3297239513049 0 0 0 0 -1320.1383461532359 2009.7919103928966 0 2009.7919103928966 -1841.5697228929785 0 0 0 0 -5.7039625591250456 7.2063993726792717 0 7.2063993726792717 3.2489988203288647 0 0 0 0 -628.68383372292737 2507.9053126146464 0 2507.9053126146464 -4324.2231048473914 0 0 0 0 -10.198105004886145 4.6023465679564879 0 4.6023465679564879 1.7234117110087368 0 0 0 0 -2339.7212136265443 3106.8498939366109 0 3106.8498939366109 -3467.1881677061065 0 0 0 0 -3792.0757335178496 2309.4428688133012 0 2309.4428688133012 -2218.4497825629587 0 0 0 0 1.4560197352402611 2532.5919704070948 0 2532.5919704070948 -2491.7424593613177 0 0 0 0 -1737.3764563328878 2672.1674755804488 0 2672.1674755804488 -781.06225638722754 0 0 0 0 41.411749626451638 2132.5717082358096 0 2132.5717082358096 -1007.0819300395524 0 0 0 0 -861.8488717044529 3354.7022641684016 0 3354.7022641684016 -1535.6104632332572 0 0 0 0 -1274.0216398798511 1053.5374695920545 0 1053.5374695920545 -913.59288685431238 0 0 0 0 -0.39883619726282404 5.9122041535626124 0 5.9122041535626124 1.2484258761770377 0 0 0 0 -1179.4374888053717 1756.437197409432 0 1756.437197409432 -66.130604457051959 0 0 0 0 -281.5043828869384 1182.8715280608958 0 1182.8715280608958 -482.88709451304021 0 0 0 0 -553.43208370811772 1739.9200747084542 0 1739.9200747084542 -1019.8681305585487 0 0 0 0 -0.7642499070498161 2249.8245454354219 0 2249.8245454354219 -1232.6506068516828 0 0 0 0 -174.62680327989801 2288.3609431547375 0 2288.3609431547375 -312.42400930434815 0 0 0 0 856.45597664588422 662.62692132227676 0 662.62692132227676 -1785.8738227100403 0 0 0 0 262.85149940110568 1902.2362195673923 0 1902.2362195673923 -2226.1264249987726 0 0 0 0 -4.6457824985498917 7.2841500761080411 0 7.2841500761080411 -7.4222023631731417 0 0 0 0 0.85767488764395239 879.85658930963109 0 879.85658930963109 74.696287317259703 0 0 0 0 21.904560621740529 856.93631947954054 0 856.93631947954054 42.81404958688654 0 0 0 0 903.59666921156168 102.0344494856181 0 102.0344494856181 -639.80494812745019 0 0 0 0 282.59038380056882 -103.01717203595399 0 -103.01717203595399 13.895042610922246 0 0 0 0 291.61103548636311 912.26540583786846 0 912.26540583786846 -1461.1019650531234 0 0 0 0 463.71380447931006 1375.3295286014691 0 1375.3295286014691 -916.11365254900011 0 0 0 0 122.68277287250748 373.39554854327071 0 373.39554854327071 -300.29029728565365 0 0 0 0 -3.4404471784073394 536.18431721966044 0 536.18431721966044 -503.86594574288119 0 0 0 0 -72.84144393367751 126.73187832844269 0 126.73187832844269 -257.40773516853369 0 0 0 0 -258.33357463691209 72.515385572369269 0 72.515385572369269 -153.47559244758304 0 0 0 0 -313.79970713790681 337.99209917237158 0 337.99209917237158 -41.160648702811159 0 0 0 0 507.39386859614751 824.43909010491916 0 824.43909010491916 556.05475308835048 0 0 0 0 258.48900827925536 33.045940133266413 0 33.045940133266413 70.796751202025916 0 0 0 0 31.979319929116173 300.06987820694485 0 300.06987820694485 -90.873756666354893 0 0 0 0 -702.13039168377873 545.73346636035421 0 545.73346636035421 262.91708122614364 0 0 0 0 -929.14883688032751 931.56284185122513 0 931.56284185122513 541.77555923454929 0 0 0 0 -297.30219943808333 127.70003106127115 0 127.70003106127115 615.59092305717058 0 0 0 0 236.75756696239114 241.40222034046747 0 241.40222034046747 496.47429499772261 0 0 0 0 291.38819211691134 -125.46303939930158 0 -125.46303939930158 87.069422734552063 0 0 0 0 -1.1054446744747111 -102.71143664071496 0 -102.71143664071496 -141.57341288412863 0 0 0 0 626.18232466949121 278.71839928005284 0 278.71839928005284 498.12721347118713 0 0 0 0 680.16239702933854 211.37360891931667 0 211.37360891931667 157.89931581982819 0 0 0 0 0.48188254208852932 4.256036018277598 0 4.256036018277598 -2.4972938416931925 0 0 0 0 -338.21710600466395 455.9971360633599 0 455.9971360633599 -10.976329984841868 0 0 0 0 -10.953085274988496 14.762093670282738 0 14.762093670282738 -14.294379488462198 0 0 0 0 614.94806407060241 533.5768535344323 0 533.5768535344323 412.383070284719 0 0 0 0 -43.173322138226069 43.779343487869909 0 43.779343487869909 -40.257663475089203 0 0 0 0 176.02724412019597 258.58704943454359 0 258.58704943454359 512.57879773030072 0 0 0 0 4.1972824586555362 145.42189350149783 0 145.42189350149783 217.73047985461017 0 0 0 0 -34.263469444119764 35.612254329406127 0 35.612254329406127 -32.739687126375998 0 0 0 0 10.746898725030405 875.019153245393 0 875.019153245393 524.23316388769308 0 0 0 0 93.071532068993292 135.15046205136741 0 135.15046205136741 466.63294368388597 0 0 0 0 12.000596771045821 451.45278992037856 0 451.45278992037856 22.873064411469386 0 0 0 0 -14.017385691106028 275.52456472706399 0 275.52456472706399 688.94320958252865 0 0 0 0 -614.09770275154006 630.91833386668077 0 630.91833386668077 506.77405423626624 0 0 0 0 3.8748577015189767 5.9822148813208003 0 5.9822148813208003 6.3180890494204789 0 0 0 0 -66.646415464132588 743.60482689745913 0 743.60482689745913 470.25533399640699 0 0 0 0 174.68723565448454 282.42542183653495 0 282.42542183653495 201.47127869357064 0 0 0 0 528.97300435037323 -11.520467011843721 0 -11.520467011843721 416.0313491066081 0 0 0 0 -48.200205294496328 47.510343290589994 0 47.510343290589994 -44.933576312990766 0 0 0 0 -62.87606848039286 373.48752564640745 0 373.48752564640745 260.67320776999441 0 0 0 0 -38.582359819929479 390.20146143890179 0 390.20146143890179 10.032014265845646 0 0 0 0 -48.307801331844189 53.22297711830447 0 53.22297711830447 -46.343281460050974 0 0 0 0 -83.748354613511765 274.98735091959679 0 274.98735091959679 -252.16049850227137 0 0 0 0 -98.535908183112042 300.83805900224252 0 300.83805900224252 -195.95915042990964 0 0 0 0 220.78154879861177 510.91827042070508 0 510.91827042070508 -58.212323861007462 0 0 0 0 218.67763090495646 330.22450781149382 0 330.22450781149382 -256.33978984205169 0 0 0 0 346.26990382746408 193.48406987735871 0 193.48406987735871 -130.51668508019065 0 0 0 0 354.05550058802328 618.92965410538818 0 618.92965410538818 397.10464136700466 0 0 0 0 395.36678622851127 279.24401661748198 0 279.24401661748198 -118.18128099062596 0 0 0 0 62.978928741398704 224.62568692936111 0 224.62568692936111 6.6585552161850501 0 0 0 0 286.04053796887092 155.74896099534089 0 155.74896099534089 -436.02793886956351 0 0 0 0 84.543460254964884 237.71340456944017 0 237.71340456944017 -452.284666119951 0 0 0 0 -56.645921730370901 141.25358325274283 0 141.25358325274283 -309.95871360015735 0 0 0 0 -500.88505898535732 344.28301979751268 0 344.28301979751268 -256.0732740903486 0 0 0 0 -63.120568072157766 209.18112838679372 0 209.18112838679372 -816.02753513331118 0 0 0 0 -512.62430600210791 443.5503061201307 0 443.5503061201307 -267.65065711610441 0 0 0 0 -244.42708266149566 252.37583254920173 0 252.37583254920173 -148.07762439762155 0 0 0 0 -256.50711954678991 342.69206106674756 0 342.69206106674756 81.219103594325134 0 0 0 0 -918.03960473468487 184.86303509311256 0 184.86303509311256 -10.672200514760334 0 0 0 0 -1154.6908491220347 585.07410954325314 0 585.07410954325314 -175.03193899634061 0 0 0 0 -624.81647914844143 564.30795084986312 0 564.30795084986312 -659.42660967063421 0 0 0 0 -497.10972061979191 363.10459010759223 0 363.10459010759223 -348.70606038309961 0 0 0 0 -842.0969101673254 443.13542229092855 0 443.13542229092855 -49.939104952373327 0 0 0 0 -517.24776452963943 472.49343768055314 0 472.49343768055314 -376.38599733813317 0 0 0 0 -823.47221226551665 441.54617299229358 0 441.54617299229358 -125.24238468322437 0 0 0 0 -771.98098564859174 423.91987829690333 0 423.91987829690333 -189.36630932566186 0 0 0 0 -516.90214417234711 493.13427489416426 0 493.13427489416426 -612.14255645661615 0 0 0 0 -519.85053726776823 503.22526606227621 0 503.22526606227621 -377.60844362465286 0 0 0 0 -719.69970830226521 529.29387237207266 0 529.29387237207266 -301.67038082066574 0 0 0 0 -859.75312254764867 595.09549953519308 0 595.09549953519308 -55.619934088444779 0 0 0 0 -761.43292548217141 611.24313303739109 0 611.24313303739109 -248.20735964931373 0 0 0 0 -689.91509618630516 758.81931751529919 0 758.81931751529919 -182.81338098680862 0 0 0 0 -894.29771730899665 1256.5719372713393 0 1256.5719372713393 -493.79264417165541 0 0 0 0 -311.32758302692673 1441.5738330622407 0 1441.5738330622407 -453.28545675782516 0 0 0 0 -190.10029113831115 946.25176970817847 0 946.25176970817847 -973.28870502447535 0 0 0 0 -561.16231466583122 922.83888763687355 0 922.83888763687355 -745.81016577745322 0 0 0 0 -609.57899497477774 894.92837008635979 0 894.92837008635979 -361.5182735954586 0 0 0 0 -589.8282598509104 751.1077314467766 0 751.1077314467766 -421.72558096740977 0 0 0 0 -563.53763373072434 657.97919572165119 0 657.97919572165119 -587.96333444328047 0 0 0 0 -344.69911304257403 837.44911200684146 0 837.44911200684146 -804.23269716017239 0 0 0 0 -401.2754089194932 754.79193410146399 0 754.79193410146399 -821.67895676331682 0 0 0 0 -382.18608477297676 758.1137913768689 0 758.1137913768689 -948.62529224986793 0 0 0 0 -101.42198184522749 516.19933622690951 0 516.19933622690951 -898.03841974106035 0 0 0 0 -190.70416149642915 769.23809047444956 0 769.23809047444956 -1498.1487650844501 0 0 0 0 -366.57286608969662 613.65650795813372 0 613.65650795813372 -788.91765785453026 0 0 0 0 -364.36589978431584 639.45333953379304 0 639.45333953379304 -752.06278122260119 0 0 0 0 231.98436349610347 710.93020875044749 0 710.93020875044749 472.28758299132824 0 0 0 0 -761.03072643374435 464.60090329839659 0 464.60090329839659 77.545583093204186 0 0 0 0 -777.41333513359859 467.47615939295065 0 467.47615939295065 251.47267572978308 0 0 0 0 -894.32134354045047 230.02923846081103 0 230.02923846081103 618.48128179396008 0 0 0 0 -1499.8817781109683 899.98558273394156 0 899.98558273394156 262.051701862154 0 0 0 0 -165.71877310278069 133.21238753990838 0 133.21238753990838 156.63891456601414 0 0 0 0 525.55564902938204 1190.5138772845094 0 1190.5138772845094 -3478.3918707136909 0 0 0 0 537.57457832301043 323.98486001657511 0 323.98486001657511 -3172.7379278940934 0 0 0 0 608.27465781291176 49.262791695902706 0 49.262791695902706 -2114.237584860588 0 0 0 0 -13.507278278815861 14.630237170921973 0 14.630237170921973 -15.890188667314675 0 0 0 0 481.27876551603003 1182.0631410701189 0 1182.0631410701189 -2192.0794484289072 0 0 0 0 384.150873273451 1305.500374991665 0 1305.500374991665 -2338.5572417040094 0 0 0 0 -714.14634879176447 1941.1022695179854 0 1941.1022695179854 -1830.0558186662965 0 0 0 0 -3597.8601486250627 253.27292684554413 0 253.27292684554413 -2653.8260131093557 0 0 0 0 -2831.7938156189266 1008.9774045618324 0 1008.9774045618324 586.95587423952156 0 0 0 0 -1541.8724990513983 2735.3753934408305 0 2735.3753934408305 -992.90646185094374 0 0 0 0 -578.23774636979215 2716.8591167341947 0 2716.8591167341947 -1761.8907297849364 0 0 0 0 -4.6204393895993974 3.5330928804210373 0 3.5330928804210373 -1.5635628696146568 0 0 0 0 14.917126867644001 47.80283755755201 0 47.80283755755201 41.418624607459336 0 0 0 0 -468.50013394619236 1185.1660249179222 0 1185.1660249179222 -2386.6537269402397 0 0 0 0 -8.6674794151331298 281.85249737484264 0 281.85249737484264 -273.10983179808386 0 0 0 0 -4.5686315049752011 240.96041027341562 0 240.96041027341562 -76.6253940109018 0 0 0 0 -35.45141993604193 129.57571119748172 0 129.57571119748172 -274.67840882747134 0 0 0 0 -126.24543958441245 68.283138170503662 0 68.283138170503662 -142.79744797990134 0 0 0 0 17.608221883256974 43.87444391795367 0 43.87444391795367 34.375676930917194 0 0 0 0 399.53383121374645 1788.8913578010834 0 1788.8913578010834 -3127.2295385602702 0 0 0 0 -698.83681013702153 1277.6605544743943 0 1277.6605544743943 -2338.5710778424182 0 0 0 0 76.359332254316541 1636.1468071095587 0 1636.1468071095587 -2197.1220715332602 0 0 0 0 358.33111379290494 1576.8467359741771 0 1576.8467359741771 -2491.2726288473204 0 0 0 0 -284.81128690674086 501.72567647664982 0 501.72567647664982 -889.85022562553422 0 0 0 0 19.117810147417217 58.30610444432773 0 58.30610444432773 33.73735207838952 0 0 0 0 106.97424654896895 100.92643230655813 0 100.92643230655813 -231.55489220780873 0 0 0 0 96.713797794066522 101.76117573488318 0 101.76117573488318 -203.33754583934206 0 0 0 0 67.105195290379925 99.17395690549165 0 99.17395690549165 -195.3793726110016 0 0 0 0 58.099182024016045 120.83614796921574 0 120.83614796921574 -204.02466292152531 0 0 0 0 103.84279727466128 135.09109959762282 0 135.09109959762282 -193.07730663270922 0 0 0 0 4.3483638547733392 16.500729827988209 0 16.500729827988209 8.5347099763642476 0 0 0 0 -437.68699382129125 1027.3886348941887 0 1027.3886348941887 -726.7171830762527 0 0 0 0 -220.70687623199774 774.5734536590171 0 774.5734536590171 -997.25590064996504 0 0 0 0 -224.15828367599079 810.12834211925292 0 810.12834211925292 -1256.3254932849668 0 0 0 0 -135.53897772362689 30.184831777267391 0 30.184831777267391 -2081.7010108464165 0 0 0 0 -365.53431546305364 1221.8010763795319 0 1221.8010763795319 -1100.3915342572436 0 0 0 0 -132.43411756469868 371.34135713760043 0 371.34135713760043 -1199.4601068891552 0 0 0 0 463.83122115566221 1039.773702053586 0 1039.773702053586 -1060.4767402765574 0 0 0 0 -971.22089781222166 2091.797063284117 0 2091.797063284117 -975.98966595355887 0 0 0 0 847.56734347354359 658.73614381556399 0 658.73614381556399 -1559.5596343781799 0 0 0 0 1046.863441754831 1877.8418132177903 0 1877.8418132177903 -1468.7918578498065 0 0 0 0 -1074.8828425450192 -1561.5061928018113 0 -1561.5061928018113 -4045.288901772059 0 0 0 0 -89.663786524935858 271.65872904800199 0 271.65872904800199 -145.15280425586388 0 0 0 0 97.450414115206513 207.40287630524836 0 207.40287630524836 -156.36335480206435 0 0 0 0 96.471941725067154 71.078652073578269 0 71.078652073578269 -102.02941289132559 0 0 0 0 -100.96399252637821 140.53006297773936 0 140.53006297773936 -97.548205162805971 0 0 0 0 76.680143801488157 43.733888003887841 0 43.733888003887841 -220.86142158684015 0 0 0 0 85.658314664633508 97.075834146569832 0 97.075834146569832 -113.82727143596276 0 0 0 0 172.37606575247628 106.2053026530557 0 106.2053026530557 -118.07730359746165 0 0 0 0 33.003969695018895 100.81993925479765 0 100.81993925479765 -91.226131640592939 0 0 0 0 25.833136454417399 70.499030001476058 0 70.499030001476058 -86.187883124643122 0 0 0 0 101.37235317114028 76.159818527652533 0 76.159818527652533 -182.91379837534623 0 0 0 0 174.27876749346979 190.0245759860336 0 190.0245759860336 81.039725459380861 0 0 0 0 90.915168953517423 22.592468599319545 0 22.592468599319545 14.428162598909694 0 0 0 0 556.42258240532101 382.31133033028527 0 382.31133033028527 50.565722103372536 0 0 0 0 65.397989846893324 152.98338605846948 0 152.98338605846948 199.76358528994024 0 0 0 0 1.4111163346472502 -1.6523730448846905 0 -1.6523730448846905 0.39138396590482216 0 0 0 0 -388.31588228352666 -95.984808737111962 0 -95.984808737111962 151.55079190064862 0 0 0 0 412.5118565023713 53.996185991645689 0 53.996185991645689 -4.56330016173888 0 0 0 0 167.94138283656685 42.060930339426704 0 42.060930339426704 159.76055026397808 0 0 0 0 0.43962785111216363 212.63678261084351 0 212.63678261084351 -269.59237602796929 0 0 0 0 -30.578492119879229 83.434180228068726 0 83.434180228068726 8.2715358070272487 0 0 0 0 -3.6005409765439254 168.61668529175586 0 168.61668529175586 -68.320567672984907 0 0 0 0 -152.20739046110248 161.13381973640935 0 161.13381973640935 -96.517299503131653 0 0 0 0 -44.250086901629402 163.40483103282168 0 163.40483103282168 -101.22450589650543 0 0 0 0 -190.95396628179878 144.04068591783289 0 144.04068591783289 27.345982980226836 0 0 0 0 -94.529436580574838 127.36692331374798 0 127.36692331374798 -93.112934340351785 0 0 0 0 -95.483715587237384 116.45534178043454 0 116.45534178043454 -9.8333380602634861 0 0 0 0 -99.038386928901673 76.313606207964767 0 76.313606207964767 -14.342896973786992 0 0 0 0 -74.682826124575513 130.64462224744784 0 130.64462224744784 11.781082772395166 0 0 0 0 -135.25182921923624 62.566011974144203 0 62.566011974144203 135.98834291445382 0 0 0 0 -4.297808859453653 106.00707662274726 0 106.00707662274726 70.998687741841422 0 0 0 0 45.412344145584939 246.66482801671191 0 246.66482801671191 214.95836273900932 0 0 0 0 -52.195294949200616 273.33129809487946 0 273.33129809487946 484.89968934576609 0 0 0 0 5.1943212267942727 177.27465213061078 0 177.27465213061078 62.454080452793278 0 0 0 0 -54.26865296982578 75.90692287802085 0 75.90692287802085 102.07197029268718 0 0 0 0 -33.197025552808554 192.73607282462763 0 192.73607282462763 182.61487925314577 0 0 0 0 -51.090487093038973 124.76504099248268 0 124.76504099248268 264.55451907528914 0 0 0 0 -4.1506315098648656 295.80978979637587 0 295.80978979637587 432.25785512037692 0 0 0 0 -5.9717470096802572 201.12301267187286 0 201.12301267187286 264.28106551059534 0 0 0 0 -29.766345505573554 262.2866833886219 0 262.2866833886219 512.7302029292623 0 0 0 0 -7.3758881697613106 358.11946876507682 0 358.11946876507682 579.4358979833487 0 0 0 0 -36.137320650770562 217.88687609034241 0 217.88687609034241 445.15219552646158 0 0 0 0 -66.027900840403163 344.83739813641296 0 344.83739813641296 706.33220618357882 0 0 0 0 -26.186806024241378 358.98654150014045 0 358.98654150014045 630.80893396981992 0 0 0 0 -82.668670991552062 367.98072740634962 0 367.98072740634962 839.52001922385534 0 0 0 0 -83.915300078151631 271.24713983162655 0 271.24713983162655 653.57320869175601 0 0 0 0 -20.120972590695601 254.86336435587145 0 254.86336435587145 475.38931736105587 0 0 0 0 25.716576763152261 218.58238059312134 0 218.58238059312134 297.50597403544816 0 0 0 0 -95.77178002531582 216.57058336249611 0 216.57058336249611 477.69846804444842 0 0 0 0 -57.601771974339499 127.51046175167721 0 127.51046175167721 299.44649560236576 0 0 0 0 -46.642938841599971 139.00081429214333 0 139.00081429214333 256.21806977440428 0 0 0 0 -83.083264021246578 239.66801471715735 0 239.66801471715735 435.17863468966971 0 0 0 0 -145.17880533512653 521.65742735512322 0 521.65742735512322 1276.3033907857025 0 0 0 0 -37.025630620511947 59.303029068832984 0 59.303029068832984 1064.2847240228984 0 0 0 0 -83.227724432654213 411.38459220196091 0 411.38459220196091 1072.4243070435186 0 0 0 0 -98.136178725995705 361.21377205052704 0 361.21377205052704 911.4042697167024 0 0 0 0 -35.281390026400913 380.82413776493195 0 380.82413776493195 777.99135357936029 0 0 0 0 -67.667213065098622 217.04587117867777 0 217.04587117867777 774.21224052709294 0 0 0 0 -9.7301335248339456 164.06649469882541 0 164.06649469882541 518.30894179592724 0 0 0 0 18.142426355567295 174.82294293807354 0 174.82294293807354 519.28584116443199 0 0 0 0 189.33788836140593 139.54579744287184 0 139.54579744287184 170.06497577788832 0 0 0 0 88.898616606078576 -397.02375040656625 0 -397.02375040656625 1264.231590835494 0 0 0 0 96.957392574142432 -88.003549347391527 0 -88.003549347391527 361.64637517169467 0 0 0 0 1021.5956080807518 2213.1143492108458 0 2213.1143492108458 -2735.4015878916744 0 0 0 0 61.361289743988891 239.02942536022601 0 239.02942536022601 189.28333954344271 0 0 0 0 -0.068813930372897403 3.2322819202790924 0 3.2322819202790924 -3.6907784099182237 0 0 0 0 25.960278854574426 1499.2808596908872 0 1499.2808596908872 -2562.9801371736212 0 0 0 0 -2795.8260171922448 574.463521137106 0 574.463521137106 -3244.5467499049264 0 0 0 0 15.662438879863245 34.063010134708833 0 34.063010134708833 25.432637160625745 0 0 0 0 46.575638745474862 958.39928051776951 0 958.39928051776951 -2744.2268152219549 0 0 0 0 -476.70012385159498 471.66568192245904 0 471.66568192245904 -2602.2587927931236 0 0 0 0 -1359.0400135198943 539.64648981203209 0 539.64648981203209 -2040.4916562791914 0 0 0 0 -1862.2806423550355 765.86143931391416 0 765.86143931391416 -2501.7432120210433 0 0 0 0 -137.0551630120317 -95.787262229496264 0 -95.787262229496264 -10.912622598137204 0 0 0 0 -60.417137984783039 39.540052549695247 0 39.540052549695247 114.8406633291961 0 0 0 0 -176.23382995050633 88.105555658548838 0 88.105555658548838 293.18839302193373 0 0 0 0 -35.952985741256271 77.861061768315267 0 77.861061768315267 -19.909278050326975 0 0 0 0 -157.82451570223202 153.69825190023403 0 153.69825190023403 279.84557507437785 0 0 0 0 -213.21345580778143 -27.646267909221933 0 -27.646267909221933 82.76711471346789 0 0 0 0 38.954577724041883 15.250844762078486 0 15.250844762078486 -249.50411400594749 0 0 0 0 -3.9372435679187419 5.2345466259460807 0 5.2345466259460807 -2.1489896447643844 0 0 0 0 -178.58878753354657 1876.7223442206596 0 1876.7223442206596 -2438.3798456083023 0 0 0 0 -463.62197325064335 1382.0882515176054 0 1382.0882515176054 -1787.0828681097773 0 0 0 0 112.7091469250081 1427.9563830690531 0 1427.9563830690531 -2108.0538669089729 0 0 0 0 -268.19478897369117 833.05726891035738 0 833.05726891035738 -1551.4082800967662 0 0 0 0 -1614.7740125475248 1025.0786463406548 0 1025.0786463406548 -1669.2355867601582 0 0 0 0 -1094.2250871839351 1191.7216139311931 0 1191.7216139311931 -1656.9784447755374 0 0 0 0 -925.50804390441044 1733.3206035376352 0 1733.3206035376352 -2025.1660591144173 0 0 0 0 -472.2877721660625 486.35330465809966 0 486.35330465809966 -1722.7021693786664 0 0 0 0 -368.63819392051664 728.14440785364422 0 728.14440785364422 -2005.9984772633979 0 0 0 0 -2.4712866479876539 761.39634608875531 0 761.39634608875531 -1875.4801845528418 0 0 0 0 -40.598994467785815 944.90584059087269 0 944.90584059087269 -2168.629269420504 0 0 0 0 -248.93217687033757 338.91272171798482 0 338.91272171798482 -1054.2931500193226 0 0 0 0 -117.6452631243701 773.65214133939298 0 773.65214133939298 -1528.1409590301046 0 0 0 0 -387.65936947002774 949.035796309342 0 949.035796309342 -1276.971489529853 0 0 0 0 -323.69691481959308 270.62702465629991 0 270.62702465629991 -41.567688381517655 0 0 0 0 -1.802064676732698 677.28143281193479 0 677.28143281193479 -719.21548100529617 0 0 0 0 97.69228189590649 316.07455296302214 0 316.07455296302214 -864.0918971998035 0 0 0 0 32.655363898898941 -103.02956932142843 0 -103.02956932142843 244.6819028108257 0 0 0 0 -13.881563970971911 791.81043066916754 0 791.81043066916754 -1259.498066689921 0 0 0 0 272.9695704908363 742.03893348097972 0 742.03893348097972 -1423.1269776106637 0 0 0 0 810.36204152988648 4.5467547227235627 0 4.5467547227235627 -288.61339548393153 0 0 0 0 1120.9016554466507 231.801516975509 0 231.801516975509 -504.15633096458623 0 0 0 0 366.5852138994378 101.10632451990386 0 101.10632451990386 -136.82080838860929 0 0 0 0 725.07869413146182 530.02323496984809 0 530.02323496984809 -237.44223588600289 0 0 0 0 157.55780181377304 274.19933364792632 0 274.19933364792632 -779.82267534908897 0 0 0 0 524.03763138043723 218.52568839629748 0 218.52568839629748 -621.70895719857072 0 0 0 0 126.2270052186359 444.61479549788783 0 444.61479549788783 -244.08264996967046 0 0 0 0 234.39971747103482 529.76818102136531 0 529.76818102136531 -863.3885931300465 0 0 0 0 300.77903699875606 673.95705794321839 0 673.95705794321839 -1328.5257411136117 0 0 0 0 -11.393224877385364 454.15786499462592 0 454.15786499462592 -1328.2911689598404 0 0 0 0 17.736518381090718 722.59977186155447 0 722.59977186155447 -866.24168864210151 0 0 0 0 67.287452071192092 911.5448150329612 0 911.5448150329612 -1711.1401851397241 0 0 0 0 143.05255243732245 655.06295224331552 0 655.06295224331552 -1301.0696126088151 0 0 0 0 522.45701238592301 697.22320987443527 0 697.22320987443527 -1356.1865727788681 0 0 0 0 451.00870177303295 678.00229361113452 0 678.00229361113452 -828.86609664162097 0 0 0 0 371.35100618909928 624.04068368203298 0 624.04068368203298 -798.79923257380869 0 0 0 0 344.73917194581009 416.03475258419348 0 416.03475258419348 -252.060980484428 0 0 0 0 213.87969078871538 675.73934135731542 0 675.73934135731542 -1245.1444677763502 0 0 0 0 -41.183230493727024 1187.6763964220518 0 1187.6763964220518 -1404.9311880837922 0 0 0 0 277.09624475663077 857.48348763007743 0 857.48348763007743 -1343.5241068383184 0 0 0 0 52.689171067380812 1275.6328427134431 0 1275.6328427134431 -2241.977969284264 0 0 0 0 122.36471067871025 1033.9907817241474 0 1033.9907817241474 -1740.0305548252363 0 0 0 0 144.4698044845718 1065.5639922504488 0 1065.5639922504488 -1706.8392699684482 0 0 0 0 45.909741402390864 1381.1024956257716 0 1381.1024956257716 -1950.9565232539026 0 0 0 0 -94.559926802452537 1233.3919708494359 0 1233.3919708494359 -1755.346050742919 0 0 0 0 126.0429871956876 1124.2787486346206 0 1124.2787486346206 -1827.1854175793123 0 0 0 0 -245.86155528390373 1455.4529867644305 0 1455.4529867644305 -1824.2693286292924 0 0 0 0 2244.1046668597264 2781.0896919466613 0 2781.0896919466613 -2523.182540731781 0 0 0 0 5.1170249137047676 14.09237633729191 0 14.09237633729191 11.056216135096506 0 0 0 0 -231.84317271073087 -219.09156608872945 0 -219.09156608872945 3036.8328520615178 0 0 0 0 -139.70143948387704 375.83749229753448 0 375.83749229753448 2167.280818094383 0 0 0 0 87.471233241434675 -372.17879619604355 0 -372.17879619604355 1627.5157038346515 0 0 0 0 -285.20073577315634 1947.4341757804759 0 1947.4341757804759 -950.94958619390673 0 0 0 0 18.3144972141381 2072.5676933833747 0 2072.5676933833747 -2527.7550134716657 0 0 0 0 -522.65642863043468 1548.6634796053986 0 1548.6634796053986 807.04287270877103 0 0 0 0 -780.09677225934865 912.18292623392335 0 912.18292623392335 -413.20882167392847 0 0 0 0 -77.634614426224289 800.76854367018313 0 800.76854367018313 -609.24961780614103 0 0 0 0 -601.53791794463905 292.06742471469624 0 292.06742471469624 -75.692683562789171 0 0 0 0 -3.1312968857416337 27.454677950056634 0 27.454677950056634 13.028083140774669 0 0 0 0 -107.64633253678039 193.60487482127428 0 193.60487482127428 -228.33904163134866 0 0 0 0 -808.56298646526557 923.26656570619889 0 923.26656570619889 -58.91032302095482 0 0 0 0 305.21841505718476 209.10378011478315 0 209.10378011478315 10.082378069951119 0 0 0 0 -159.89594184924499 299.01676893138938 0 299.01676893138938 -364.07473830699018 0 0 0 0 -38.328211626362759 72.114518603080199 0 72.114518603080199 -48.983121735568417 0 0 0 0 711.34650687650355 415.38682385646098 0 415.38682385646098 -432.16710712565691 0 0 0 0 -440.38936342652596 -319.66657603055501 0 -319.66657603055501 -1024.1601024414849 0 0 0 0 14.177339078174555 355.6689914312301 0 355.6689914312301 463.71099995651457 0 0 0 0 7.2079353421286214 314.47014958263753 0 314.47014958263753 344.32737945874305 0 0 0 0 10.838287973107072 284.58622037400346 0 284.58622037400346 273.66825999885441 0 0 0 0 -170.62977794851031 -657.89711815260671 0 -657.89711815260671 -614.22264139515755 0 0 0 0 -46.706076529764687 553.66679072373881 0 553.66679072373881 -447.29699044560402 0 0 0 0 797.09411646168519 -368.28239730411042 0 -368.28239730411042 -685.89779375359649 0 0 0 0 0.44227800088175684 -0.9975474561725548 0 -0.9975474561725548 -5.3997786522745628 0 0 0 0 661.24640142565477 698.90573443462927 0 698.90573443462927 -872.18573549486155 0 0 0 0 -364.40208821362467 578.90937203606882 0 578.90937203606882 -410.86281943892027 0 0 0 0 3.0471488527117003 5.2558490021180262 0 5.2558490021180262 4.78116092393131 0 0 0 0 429.20977886860055 247.14577139636276 0 247.14577139636276 -535.64849234976282 0 0 0 0 198.23578033304511 203.70482348186124 0 203.70482348186124 29.657996644244122 0 0 0 0 182.71327443276459 67.676004784874749 0 67.676004784874749 -594.70115152921062 0 0 0 0 674.70031614342588 75.552818049603957 0 75.552818049603957 -178.16913555543579 0 0 0 0 708.97733042469918 -145.10204672307736 0 -145.10204672307736 -282.65997271176457 0 0 0 0 1.4795867223733126 -0.12548843095677853 0 -0.12548843095677853 -8.7293921830584793 0 0 0 0 348.28454570458052 58.019660944337375 0 58.019660944337375 -60.50004931690637 0 0 0 0 49.430137733419542 246.25422996267298 0 246.25422996267298 -667.02984998785246 0 0 0 0 483.38891536732262 124.8768164955618 0 124.8768164955618 -376.05004134672708 0 0 0 0 18.688488422470982 438.51641810456567 0 438.51641810456567 -15.697063800194883 0 0 0 0 -1052.3764648548313 307.82531142425432 0 307.82531142425432 -279.48080190264591 0 0 0 0 715.43373294679623 160.7613491464972 0 160.7613491464972 -819.97439198810025 0 0 0 0 3.6250098549976713 2.5482048437877438 0 2.5482048437877438 9.5386725964106347 0 0 0 0 -395.21163692163827 351.32415718814445 0 351.32415718814445 -517.57623413365218 0 0 0 0 -404.95094693269061 639.47670723306226 0 639.47670723306226 -644.79716760176234 0 0 0 0 -590.84026857121353 711.51840477655787 0 711.51840477655787 -566.9970011383848 0 0 0 0 -392.67442216495692 323.39570703382196 0 323.39570703382196 -186.11083794703154 0 0 0 0 -170.81289884619036 841.6408083201095 0 841.6408083201095 -671.46800600535073 0 0 0 0 8.9029056415312198 11.195820209109968 0 11.195820209109968 8.7631296057426482 0 0 0 0 106.20244777794869 321.19087051169845 0 321.19087051169845 712.1433597711748 0 0 0 0 -21.027425435488112 395.5232479063925 0 395.5232479063925 1076.8919176891213 0 0 0 0 477.64645310473861 597.18846415638018 0 597.18846415638018 760.19214904973342 0 0 0 0 201.86777181937941 459.06448900568648 0 459.06448900568648 692.55804138997701 0 0 0 0 256.58106958847202 372.83320971023932 0 372.83320971023932 351.02626580556534 0 0 0 0 260.36559340156873 427.86112001272909 0 427.86112001272909 377.45999389607459 0 0 0 0 438.04389699790136 548.01635611679058 0 548.01635611679058 463.35901184825343 0 0 0 0 202.30344134290158 448.64522238133031 0 448.64522238133031 556.564536469421 0 0 0 0 102.33173499788245 384.09870021809184 0 384.09870021809184 567.82293704012409 0 0 0 0 161.51258897973457 390.8403379178344 0 390.8403379178344 536.51747601638999 0 0 0 0 171.15242225120164 380.39849494914233 0 380.39849494914233 409.28601591975894 0 0 0 0 118.77739124170694 373.89001530320456 0 373.89001530320456 570.32188790114742 0 0 0 0 106.30282644617546 379.31288267024865 0 379.31288267024865 747.08065761934995 0 0 0 0 7.8679402962370659 -421.30751516811142 0 -421.30751516811142 -841.32886431772931 0 0 0 0 58.245353568257997 385.01601924561146 0 385.01601924561146 687.00097620822635 0 0 0 0 -20.388996286097694 53.435076277880192 0 53.435076277880192 -41.390172882043686 0 0 0 0 73.644999367454147 389.26481725133272 0 389.26481725133272 448.80952341605007 0 0 0 0 135.89263448730344 324.93772683245697 0 324.93772683245697 393.70608472571257 0 0 0 0 152.86646527190169 290.31682182342047 0 290.31682182342047 513.21148479389012 0 0 0 0 -26.852705578919029 61.19318236291884 0 61.19318236291884 -47.476411278525141 0 0 0 0 65.62583045080828 413.50247157276681 0 413.50247157276681 492.62616468790839 0 0 0 0 479.12105751538184 23.95991470089939 0 23.95991470089939 -1109.173666222383 0 0 0 0 -115.73506550756429 -171.34086093643782 0 -171.34086093643782 -328.59500066433975 0 0 0 0 226.56668617350806 163.56151656022848 0 163.56151656022848 39.155846329093038 0 0 0 0 214.72309159263386 -448.96552467336369 0 -448.96552467336369 -96.72124332698877 0 0 0 0 -41.829843174979032 -140.17868194350558 0 -140.17868194350558 -139.8331788297146 0 0 0 0 -37.953978036966873 -41.991664345463505 0 -41.991664345463505 -391.42235754657668 0 0 0 0 -244.87238513269403 -139.73082739979145 0 -139.73082739979145 -344.89177624738659 0 0 0 0 -17.719962625014801 47.346799039455433 0 47.346799039455433 -36.16957671416715 0 0 0 0 -200.33780763278264 -368.00384388520206 0 -368.00384388520206 -638.67540376130637 0 0 0 0 -126.32463967481817 -246.22734239088459 0 -246.22734239088459 -403.25978351593949 0 0 0 0 -156.61081322477548 -152.11233384745719 0 -152.11233384745719 -292.3894833092636 0 0 0 0 -194.19566321892489 -200.84875486714009 0 -200.84875486714009 -430.55749749480492 0 0 0 0 -107.03963188930356 -190.92839273792924 0 -190.92839273792924 -433.60256968195972 0 0 0 0 -159.82855575951544 -213.42299762008224 0 -213.42299762008224 -412.38244783693517 0 0 0 0 -112.51236200406129 -164.10439457964821 0 -164.10439457964821 -518.50671533129207 0 0 0 0 -46.982769798123627 57.834275694491225 0 57.834275694491225 -300.60765766051918 0 0 0 0 -65.18752284549555 -6.261756788175262 0 -6.261756788175262 -496.98106774197367 0 0 0 0 9.2713963017740753 -18.511228548253712 0 -18.511228548253712 -419.50655191851547 0 0 0 0 -95.328390770700935 -113.117729971058 0 -113.117729971058 -434.8695101741032 0 0 0 0 -110.54830260481685 -111.2695559825479 0 -111.2695559825479 -334.91105743746448 0 0 0 0 5.9372816361792502 -76.945581627071078 0 -76.945581627071078 -306.48880172938516 0 0 0 0 -19.330323716858402 -47.367725528929441 0 -47.367725528929441 -340.88149484259338 0 0 0 0 144.70601136574987 64.82222278277186 0 64.82222278277186 -315.77387341499707 0 0 0 0 -12.284822324014385 36.448058114056039 0 36.448058114056039 -235.68652527038648 0 0 0 0 299.79175555349502 136.94343534496511 0 136.94343534496511 -262.79635816315931 0 0 0 0 116.40973133326042 96.203407123572106 0 96.203407123572106 -156.83049222041154 0 0 0 0 26.672157144072116 80.944090824970772 0 80.944090824970772 -175.35908004989324 0 0 0 0 237.89938541679294 107.75241637460567 0 107.75241637460567 -227.36907607636385 0 0 0 0 274.42985695041534 24.100407754640401 0 24.100407754640401 -69.85507623826561 0 0 0 0 279.904015514403 184.13917228869832 0 184.13917228869832 -125.18237351428979 0 0 0 0 276.13688724343956 182.97468617457343 0 182.97468617457343 -123.55252212040796 0 0 0 0 394.2272855238989 176.80542773241541 0 176.80542773241541 -152.918444647039 0 0 0 0 415.87586046923025 354.34600397378017 0 354.34600397378017 23.305830883022281 0 0 0 0 600.04960486880736 324.88387052388498 0 324.88387052388498 -21.34471429180121 0 0 0 0 532.01196745692869 466.97563870676095 0 466.97563870676095 136.83806919736526 0 0 0 0 481.95232045234297 319.68034033929143 0 319.68034033929143 -19.106979086820502 0 0 0 0 400.34722959481587 385.63990547411231 0 385.63990547411231 -63.9319084439976 0 0 0 0 280.28464616693236 231.98463470418938 0 231.98463470418938 -91.872255265872809 0 0 0 0 322.90008094858058 166.78009875624412 0 166.78009875624412 -107.32725155595108 0 0 0 0 291.93667284079129 228.1895789302871 0 228.1895789302871 -224.178722741417 0 0 0 0 -11.960619990568375 19.958651743159862 0 19.958651743159862 -268.31248842718924 0 0 0 0 111.28678235316693 167.36927464048131 0 167.36927464048131 -315.1911961279402 0 0 0 0 130.33547481048299 112.05421547454898 0 112.05421547454898 -166.43093290530669 0 0 0 0 97.286868265342491 179.44373359294332 0 179.44373359294332 -171.9978556936112 0 0 0 0 252.69361215406389 292.90917541691306 0 292.90917541691306 -223.30974601438538 0 0 0 0 -57.400130620226264 135.45730561303208 0 135.45730561303208 -403.30553341055929 0 0 0 0 40.711347536882386 267.1909020089879 0 267.1909020089879 -296.27632730021833 0 0 0 0 -53.863914762812783 110.99855513699003 0 110.99855513699003 -234.16149835647957 0 0 0 0 -1686.755876471354 40.317346190018725 0 40.317346190018725 452.62378134906612 0 0 0 0 -0.30824204096045804 2.2006624623691948 0 2.2006624623691948 5.4587700980048623 0 0 0 0 2170.5072884152833 1035.8755295763294 0 1035.8755295763294 471.66641869666 0 0 0 0 -925.22354987887229 760.66116757778946 0 760.66116757778946 728.66785642289324 0 0 0 0 -581.6463863151148 303.63209464939428 0 303.63209464939428 276.88335405001817 0 0 0 0 -24.804804836821859 824.77354674452363 0 824.77354674452363 578.45032282372995 0 0 0 0 -657.4036596278338 306.24443014217013 0 306.24443014217013 156.35824099442107 0 0 0 0 351.13120047782286 400.61827289050052 0 400.61827289050052 586.97966673388146 0 0 0 0 323.89561482807039 170.72441377951691 0 170.72441377951691 6.1801010447088629 0 0 0 0 930.67653582546336 -87.837382560021069 0 -87.837382560021069 -25.039520805687062 0 0 0 0 0.87098009593260173 -0.25875979324365517 0 -0.25875979324365517 -2.9923247792706889 0 0 0 0 102.06661996431649 288.01814628213833 0 288.01814628213833 -64.76755109817168 0 0 0 0 1097.526068936786 264.8698103167626 0 264.8698103167626 451.80249535819166 0 0 0 0 1376.6514241873156 199.91446673960127 0 199.91446673960127 -8.9426827586648869 0 0 0 0 945.96438668484188 667.50386001614243 0 667.50386001614243 371.30247637697903 0 0 0 0 769.5583744447722 339.59297683564 0 339.59297683564 32.542119576784899 0 0 0 0 473.11791752823046 461.80822969514702 0 461.80822969514702 9.081497755163582 0 0 0 0 1004.8536627438298 579.90907679099473 0 579.90907679099473 92.373705153877381 0 0 0 0 648.81341882724973 537.8579134255333 0 537.8579134255333 238.04275102085376 0 0 0 0 1638.0483938973848 723.37260135062024 0 723.37260135062024 65.719229525922856 0 0 0 0 1055.9673083453672 421.00921299334004 0 421.00921299334004 165.62311022241192 0 0 0 0 -356.57123097414296 324.1105924407384 0 324.1105924407384 7.5669113418989582 0 0 0 0 -549.97643028801758 112.57376264908817 0 112.57376264908817 19.75174133379187 0 0 0 0 -1.9328492540154585 7.284300301181986 0 7.284300301181986 17.773696791580704 0 0 0 0 -632.64377425691782 52.011265676941548 0 52.011265676941548 -170.55277311903774 0 0 0 0 -500.44905737113731 578.98726053011342 0 578.98726053011342 206.96475279490369 0 0 0 0 -334.99873617698904 652.42246547370451 0 652.42246547370451 -108.61465878976742 0 0 0 0 -270.89657719463867 522.23372855456546 0 522.23372855456546 50.656767187321748 0 0 0 0 -341.7763937117852 336.60736552146773 0 336.60736552146773 -93.042460756667424 0 0 0 0 -395.43573772300806 241.82085084839127 0 241.82085084839127 -57.51474667925504 0 0 0 0 -105.78172570108291 338.2145605124897 0 338.2145605124897 81.919666978916212 0 0 0 0 -26.477466845000503 37.023556012487475 0 37.023556012487475 -16.580909124415598 0 0 0 0 22.636165417810844 66.092410262579506 0 66.092410262579506 5.5170302887854632 0 0 0 0 -12.321724692224493 15.114543239818531 0 15.114543239818531 8.8886197176057067 0 0 0 0 464.8191748787649 226.93845240105293 0 226.93845240105293 -267.16432796919253 0 0 0 0 -2.2122469509574785 27.670767801442189 0 27.670767801442189 -43.426195085121037 0 0 0 0 -7.2209363927395387 38.174266319888922 0 38.174266319888922 -19.168838017088206 0 0 0 0 -46.157035686977906 76.752443901725201 0 76.752443901725201 -2.2055252771242522 0 0 0 0 22.706515004079847 104.76203432970215 0 104.76203432970215 -79.439679091476137 0 0 0 0 -157.4690358658263 181.31366214221634 0 181.31366214221634 -68.614381435676478 0 0 0 0 7.2010816039401107 61.449350353577756 0 61.449350353577756 -24.42541241192157 0 0 0 0 -19.185910056141438 49.764490937588562 0 49.764490937588562 -14.285668275835633 0 0 0 0 23.985685923456913 39.986389508369029 0 39.986389508369029 -18.222698281344492 0 0 0 0 -7.997917875899617 32.154820881373858 0 32.154820881373858 -32.394431673433729 0 0 0 0 12.263108627463225 69.400398825557204 0 69.400398825557204 -17.887367884250125 0 0 0 0 30.225728535697272 76.850193556307204 0 76.850193556307204 -36.052446013549343 0 0 0 0 -89.376332258536422 57.897048717575672 0 57.897048717575672 138.10490651957662 0 0 0 0 -8.9953682930009933 14.309818685094328 0 14.309818685094328 32.216293105273081 0 0 0 0 781.52916586278297 433.16267800631613 0 433.16267800631613 171.04699405933752 0 0 0 0 566.17289826794877 464.78939938225449 0 464.78939938225449 368.35875307589595 0 0 0 0 906.50279865071207 608.33638281255844 0 608.33638281255844 231.45453478230047 0 0 0 0 732.50154561137606 504.33583233804893 0 504.33583233804893 204.86980809632223 0 0 0 0 915.444822451871 625.6040024972026 0 625.6040024972026 124.47296520182135 0 0 0 0 668.2582053491642 635.95317822997458 0 635.95317822997458 495.23267123776168 0 0 0 0 1006.0074415662293 509.2266627445872 0 509.2266627445872 195.92069322342286 0 0 0 0 653.26424995843263 623.57545403198674 0 623.57545403198674 575.22598193443264 0 0 0 0 1015.1690163528112 855.36500165272162 0 855.36500165272162 476.59055279425229 0 0 0 0 682.57422877196223 556.29920404250151 0 556.29920404250151 221.00400784916928 0 0 0 0 -5.0258439903564636 13.986825193860398 0 13.986825193860398 -10.233289696030425 0 0 0 0 473.03938163278508 611.17678684553539 0 611.17678684553539 663.78595412769209 0 0 0 0 -4.3234521687263623 28.506428748834878 0 28.506428748834878 -15.156770268687978 0 0 0 0 -39.904301215078362 53.02888721937105 0 53.02888721937105 63.368055459149048 0 0 0 0 -261.70171347720316 -269.438420021208 0 -269.438420021208 -290.50016302941367 0 0 0 0 -39.101994167268458 44.120988002552316 0 44.120988002552316 -35.528659721746493 0 0 0 0 1.3314909121568235 73.906206745353302 0 73.906206745353302 -102.76929938804824 0 0 0 0 -14.829523091311785 63.96684306230236 0 63.96684306230236 -17.616797771726851 0 0 0 0 -25.106086679206555 89.429937822017848 0 89.429937822017848 -37.9301870263007 0 0 0 0 884.83280356742034 336.62013266344002 0 336.62013266344002 31.159820822365873 0 0 0 0 -9.3037996119482873 25.962243932637932 0 25.962243932637932 0.38822739886001045 0 0 0 0 -13.746166557248216 100.77335211868922 0 100.77335211868922 27.628546763735358 0 0 0 0 -46.28230147598515 121.23850248120289 0 121.23850248120289 14.757822316518286 0 0 0 0 641.18110764100129 729.36461317848261 0 729.36461317848261 409.47055106985499 0 0 0 0 -51.018212129882158 73.677562625336577 0 73.677562625336577 2.885768149208161 0 0 0 0 -34.925683846846368 31.429559717917073 0 31.429559717917073 4.7772385753924027 0 0 0 0 151.24230766478286 22.983756398934929 0 22.983756398934929 -22.503018141018401 0 0 0 0 -61.825241245259377 46.32117077197077 0 46.32117077197077 -29.504604075364739 0 0 0 0 32.40218988309789 209.71714897597849 0 209.71714897597849 90.388696440291824 0 0 0 0 61.713132284756284 86.994134325854247 0 86.994134325854247 -12.975196598923503 0 0 0 0 -17.457549452112289 134.36609667973971 0 134.36609667973971 45.215318937553093 0 0 0 0 -17.838831071610912 123.93840426512907 0 123.93840426512907 6.0932005333015695 0 0 0 0 162.12437682077871 171.13755882357509 0 171.13755882357509 5.8601086475215425 0 0 0 0 -147.7645069170394 -16.55724688313785 0 -16.55724688313785 54.400990777845436 0 0 0 0 -31.318097464099992 125.54531723781838 0 125.54531723781838 121.79247871712141 0 0 0 0 11.117758483384847 19.033143195739143 0 19.033143195739143 -16.907643892142147 0 0 0 0 -9.4737374892283697 94.173895939151407 0 94.173895939151407 53.366294811334228 0 0 0 0 -66.58734325014612 34.582237554357022 0 34.582237554357022 38.243262297933597 0 0 0 0 14.156734654476168 73.876041675859597 0 73.876041675859597 43.642335813143291 0 0 0 0 -10.913896795478649 107.89895450723998 0 107.89895450723998 37.557900150568457 0 0 0 0 -37.895629547493996 40.171672501148976 0 40.171672501148976 -2.6497934639522782 0 0 0 0 -12.58718858352789 51.474355138657586 0 51.474355138657586 -38.970187230550891 0 0 0 0 209.59587280151754 366.34959667213843 0 366.34959667213843 366.56798470053764 0 0 0 0 185.4358991886802 206.40534949847643 0 206.40534949847643 197.64996463990974 0 0 0 0 -23.180845040972116 31.340697151623772 0 31.340697151623772 -5.1834778585517682 0 0 0 0 -11.114041325575883 31.592205521173582 0 31.592205521173582 -3.4290825325574588 0 0 0 0 -10.174055619834689 44.675010117076454 0 44.675010117076454 20.832820165000157 0 0 0 0 -12.089999229672685 44.687147474985977 0 44.687147474985977 15.124607996200211 0 0 0 0 -11.62988104411852 45.33329419731308 0 45.33329419731308 13.292567687894916 0 0 0 0 8.3174832700606203 83.038602634405834 0 83.038602634405834 -106.01747088655247 0 0 0 0 1.2553854088201035 4.6176974185598567 0 4.6176974185598567 8.4882422847086616 0 0 0 0 9.4421053254565379 41.227553925601796 0 41.227553925601796 -3.6007756425854893 0 0 0 0 23.873180069116643 26.463192079112559 0 26.463192079112559 42.166528734465828 0 0 0 0 7.8108591131167486 91.114315396611346 0 91.114315396611346 -28.798177931952523 0 0 0 0 6.2830155033707058 36.678220974255254 0 36.678220974255254 5.2530734462471713 0 0 0 0 0.33565039420500398 90.195367197404266 0 90.195367197404266 -24.223221575579373 0 0 0 0 0.84575061712530442 100.76177316802205 0 100.76177316802205 -27.396715385126299 0 0 0 0 -14.656594308753938 123.01415320394926 0 123.01415320394926 30.36238792113727 0 0 0 0 -2.1447801193280611 97.059506970734219 0 97.059506970734219 34.890640609432012 0 0 0 0 -1.2310431984660681 79.35994379641852 0 79.35994379641852 -13.976672761578811 0 0 0 0 -32.851430426486303 39.572604856756314 0 39.572604856756314 15.376066000048752 0 0 0 0 58.631569018507435 304.74581147711524 0 304.74581147711524 -145.7497461278399 0 0 0 0 -89.846643398530432 433.86973868086352 0 433.86973868086352 -209.13634817709681 0 0 0 0 70.184825759439263 304.29261689467239 0 304.29261689467239 -241.38547535029647 0 0 0 0 -47.341830775461858 157.29263976999937 0 157.29263976999937 -334.28698032574903 0 0 0 0 -222.87123128020175 305.16458242301087 0 305.16458242301087 -260.98162947337551 0 0 0 0 65.261685715246131 275.10506543027441 0 275.10506543027441 -390.60140970988141 0 0 0 0 268.19539857182826 371.71980367940705 0 371.71980367940705 -262.87053542498688 0 0 0 0 265.53600914412891 348.63868548529717 0 348.63868548529717 -51.068078144686297 0 0 0 0 510.25279414400575 549.82354120914533 0 549.82354120914533 -144.38014831175315 0 0 0 0 339.79321417448227 465.49952707879129 0 465.49952707879129 -269.27343300915163 0 0 0 0 326.05078395257442 457.77652035913707 0 457.77652035913707 -75.054326221288648 0 0 0 0 472.95582250773441 580.3027974363431 0 580.3027974363431 147.81251094745676 0 0 0 0 608.60496782619157 561.68276378446171 0 561.68276378446171 -6.4633319398053573 0 0 0 0 430.6222128176596 433.04000294367142 0 433.04000294367142 -122.41471803857712 0 0 0 0 557.27464268912445 500.54869343499013 0 500.54869343499013 12.280727565666893 0 0 0 0 421.09555970537258 426.1648343378256 0 426.1648343378256 62.775463629528531 0 0 0 0 732.54459662410954 528.71110580991808 0 528.71110580991808 56.392128460225649 0 0 0 0 580.48406946931937 444.56910113949198 0 444.56910113949198 144.83389063448703 0 0 0 0 666.54033687789342 614.09669942301116 0 614.09669942301116 222.70187074138084 0 0 0 0 612.51940252339409 655.22544268018828 0 655.22544268018828 195.18794338091902 0 0 0 0 599.10320290317759 804.96045751568818 0 804.96045751568818 438.50785493143485 0 0 0 0 629.65249043227959 760.51644931247938 0 760.51644931247938 545.24771457161114 0 0 0 0 643.04894297249848 828.25031939221662 0 828.25031939221662 329.56793426005243 0 0 0 0 -50.088127146246023 46.018690519887663 0 46.018690519887663 -40.110612983278315 0 0 0 0 629.80168814979697 994.39760886249132 0 994.39760886249132 628.42828767322499 0 0 0 0 649.27820666293337 950.9199630940102 0 950.9199630940102 363.13829353293113 0 0 0 0 807.30813657263934 1064.6590914201697 0 1064.6590914201697 125.67298893109546 0 0 0 0 585.37704773612495 1052.1445661462058 0 1052.1445661462058 749.35330191341973 0 0 0 0 531.6550009941202 723.18462756632289 0 723.18462756632289 184.7352722165524 0 0 0 0 686.55560078501003 790.22561144155407 0 790.22561144155407 37.629837240689085 0 0 0 0 335.7640981890072 503.55293906372026 0 503.55293906372026 -64.487419192941161 0 0 0 0 593.75793488892668 742.70982017879578 0 742.70982017879578 -140.27594405644959 0 0 0 0 714.57016974811268 945.43952542055194 0 945.43952542055194 -205.21471729699988 0 0 0 0 592.03839773801883 946.40264276535163 0 946.40264276535163 419.3182131388312 0 0 0 0 318.83028830912735 672.90208361303667 0 672.90208361303667 11.081755980267189 0 0 0 0 331.66085052881681 750.45059015095467 0 750.45059015095467 -508.68465345303412 0 0 0 0 244.07358521690185 642.27954468488679 0 642.27954468488679 -273.34829712133796 0 0 0 0 103.39584394163103 386.48387191947404 0 386.48387191947404 -464.18115826664143 0 0 0 0 121.92013604509702 1989.5811861700495 0 1989.5811861700495 3568.0691117352435 0 0 0 0 -60.080689214507117 40.524566338808441 0 40.524566338808441 -15.134993078655299 0 0 0 0 1064.3844018781965 1164.2477588466427 0 1164.2477588466427 1574.2649057467206 0 0 0 0 945.70278225268703 1437.1168539005739 0 1437.1168539005739 67.52140694289119 0 0 0 0 215.12196822935948 1016.3652303683921 0 1016.3652303683921 328.03110931920673 0 0 0 0 725.09679738867271 1351.78492007358 0 1351.78492007358 64.300469679030357 0 0 0 0 760.51802625744313 1138.5253559346602 0 1138.5253559346602 440.40888510547666 0 0 0 0 697.28660889223465 1797.019206408957 0 1797.019206408957 986.60381898665219 0 0 0 0 604.24498305625457 1339.2237880465036 0 1339.2237880465036 1304.4100819512096 0 0 0 0 787.90220525825862 1107.2464979632641 0 1107.2464979632641 833.14179729366151 0 0 0 0 819.11533716661688 1545.411636857074 0 1545.411636857074 774.92224443567102 0 0 0 0 957.84217784588691 1173.9263624868763 0 1173.9263624868763 276.16827751819801 0 0 0 0 -3.1501854491758081 18.155843070339216 0 18.155843070339216 -10.80548590213931 0 0 0 0 883.05848251537645 1785.8675844674763 0 1785.8675844674763 1276.3534334203578 0 0 0 0 108.47526752683916 274.30769704439444 0 274.30769704439444 -128.3380226036461 0 0 0 0 -68.946574155043407 49.893701280449335 0 49.893701280449335 -25.535305028226844 0 0 0 0 -18.723226114059798 1360.7754629160772 0 1360.7754629160772 1918.0881503474739 0 0 0 0 113.4097434046688 3.8198217157570866 0 3.8198217157570866 -957.0916495937563 0 0 0 0 -8.5267285524581098 0.89421828733159714 0 0.89421828733159714 1.4924818199123138 0 0 0 0 -2066.1556388108002 79.654714543867158 0 79.654714543867158 2711.2049845420115 0 0 0 0 -2105.7323753633827 -670.49357854049595 0 -670.49357854049595 2563.1999698676227 0 0 0 0 863.19147710666584 1403.5053865953087 0 1403.5053865953087 749.52821042498476 0 0 0 0 -57.357233256525973 50.427757952235808 0 50.427757952235808 -40.366864982398965 0 0 0 0 -226.4340104301009 435.39429007064609 0 435.39429007064609 -74.479901869388414 0 0 0 0 -1430.4057004188508 743.25269856282102 0 743.25269856282102 -146.11511856658763 0 0 0 0 -414.89050190892885 243.13945888773014 0 243.13945888773014 -1.4162881924687554 0 0 0 0 -18.359847128106594 12.366085472692845 0 12.366085472692845 -7.9757249177279164 0 0 0 0 -1710.5267509386031 -564.32549906785425 0 -564.32549906785425 1181.0729093517439 0 0 0 0 46.12746918736957 498.26892358707846 0 498.26892358707846 -210.09531368446187 0 0 0 0 86.141650425932312 -745.95564805799222 0 -745.95564805799222 -624.01892086680164 0 0 0 0 -1164.1973562817147 1164.3768052690139 0 1164.3768052690139 -37.306190453527961 0 0 0 0 313.93428867678813 56.10106582258959 0 56.10106582258959 -112.28318525489885 0 0 0 0 -372.52619708667771 661.31436119155842 0 661.31436119155842 -262.97200456535211 0 0 0 0 -125.97048377388273 240.11466348743488 0 240.11466348743488 -143.70517042092979 0 0 0 0 4.7794627688999753 403.94348569867725 0 403.94348569867725 -285.44419830784318 0 0 0 0 -468.53916483654757 468.02059212207678 0 468.02059212207678 -207.61643107084819 0 0 0 0 -335.25121014909064 440.80254237265899 0 440.80254237265899 -212.90024910657667 0 0 0 0 -837.88324699684017 366.45668811166979 0 366.45668811166979 0.24148673201852944 0 0 0 0 -514.53327037573763 278.7412107951568 0 278.7412107951568 -217.09116818453185 0 0 0 0 -1441.4912967926793 -59.876437501025066 0 -59.876437501025066 -293.50910256009956 0 0 0 0 -710.99593932271091 726.80305699752353 0 726.80305699752353 -161.82142539226334 0 0 0 0 617.49429216053977 1721.8804005334605 0 1721.8804005334605 -529.32872191834031 0 0 0 0 633.64200438884654 395.41768580317876 0 395.41768580317876 -618.0171515669208 0 0 0 0 698.02299441909418 -98.427481380349491 0 -98.427481380349491 -1049.4680006820199 0 0 0 0 316.17328681834624 194.35113159087632 0 194.35113159087632 497.22714541698224 0 0 0 0 -207.55568166659941 552.51635249261744 0 552.51635249261744 -0.62000676264869981 0 0 0 0 -240.45498891684838 784.99447112297639 0 784.99447112297639 -519.72098501623259 0 0 0 0 -305.67653715427878 1330.9949611137417 0 1330.9949611137417 -779.74272951022431 0 0 0 0 372.10264118852501 926.71469970910402 0 926.71469970910402 -819.59722564305412 0 0 0 0 -9.1559163310081146 3.3867889222638325 0 3.3867889222638325 5.3384655349971695 0 0 0 0 -339.81355552084551 -108.05877932886824 0 -108.05877932886824 96.391862287753611 0 0 0 0 900.58800177467674 517.7826625094167 0 517.7826625094167 73.277458880882477 0 0 0 0 -0.24787217724952271 2.2911042353331332 0 2.2911042353331332 4.1134101576759576 0 0 0 0 725.25137209595778 392.94499994215585 0 392.94499994215585 142.71151777621708 0 0 0 0 574.07625471839856 621.5829391389907 0 621.5829391389907 243.38394616660662 0 0 0 0 522.14491116490717 512.24536247244032 0 512.24536247244032 198.03519749784027 0 0 0 0 304.26824805799879 587.63643147674884 0 587.63643147674884 242.57473592500901 0 0 0 0 428.37346741098008 439.15655062791484 0 439.15655062791484 249.06965929028229 0 0 0 0 328.48074510941296 296.06722106122834 0 296.06722106122834 125.87531692766061 0 0 0 0 145.53119511005934 260.37887549101652 0 260.37887549101652 301.12303479915136 0 0 0 0 -10.099700390435288 8.5406710699403163 0 8.5406710699403163 9.6731112092922444 0 0 0 0 -49.524888499290682 -48.201054209632275 0 -48.201054209632275 -14.279776272938761 0 0 0 0 -154.39398362101338 134.47553297084505 0 134.47553297084505 138.7399554658914 0 0 0 0 412.54392645863845 373.40498491062954 0 373.40498491062954 -7.8372276670997962 0 0 0 0 -102.00127657126723 19.659014798562566 0 19.659014798562566 105.22347279194219 0 0 0 0 -43.766854944850877 32.601805560352361 0 32.601805560352361 -23.463017557302862 0 0 0 0 -20.331108005560964 230.93477944282495 0 230.93477944282495 243.09463762756786 0 0 0 0 -72.203545442898758 246.04028179451416 0 246.04028179451416 385.32190779014491 0 0 0 0 2.7023316161503317 18.093818671783083 0 18.093818671783083 3.4342326693877112 0 0 0 0 -36.835688948754978 -20.879860535031185 0 -20.879860535031185 384.34114873360465 0 0 0 0 -367.48486074188622 -37.787748957140138 0 -37.787748957140138 130.49985010911769 0 0 0 0 -170.99499771336923 -56.178513927327003 0 -56.178513927327003 -91.592584411671851 0 0 0 0 -231.36080181376929 49.393752952673822 0 49.393752952673822 18.500443566299509 0 0 0 0 -10.059566471187281 162.4568974232825 0 162.4568974232825 -185.02901186485542 0 0 0 0 -351.61962436249451 164.91036514872394 0 164.91036514872394 -0.5343665086402325 0 0 0 0 -359.30140662224039 241.24583605540238 0 241.24583605540238 -157.190199527613 0 0 0 0 0.85812101217432968 -0.083876914541228587 0 -0.083876914541228587 0.56257896373199401 0 0 0 0 -563.99523913120356 -18.030008466397703 0 -18.030008466397703 -35.001510114430857 0 0 0 0 1197.1608611537858 533.03192804559512 0 533.03192804559512 0.099955652505741455 0 0 0 0 844.24042255075256 367.0753788151851 0 367.0753788151851 126.60149745483341 0 0 0 0 711.99810218492712 548.18233182262338 0 548.18233182262338 132.62196216779557 0 0 0 0 678.71175429068899 608.83067244656922 0 608.83067244656922 0.10817590686201584 0 0 0 0 269.28782242698981 621.81233588120085 0 621.81233588120085 -0.22724725688749459 0 0 0 0 419.70649337957548 438.63145639382492 0 438.63145639382492 23.185138647117128 0 0 0 0 -475.09643812803233 546.97953017309737 0 546.97953017309737 0.056169816001784056 0 0 0 0 13.372798850710751 558.50772756944934 0 558.50772756944934 -13.266512752692506 0 0 0 0 -133.25954828025897 228.99593467489831 0 228.99593467489831 -142.21909641646198 0 0 0 0 -860.24872990352378 380.6992353030073 0 380.6992353030073 10.005055797446403 0 0 0 0 -417.05613714843548 -3.3065076094353572 0 -3.3065076094353572 -183.85624786504195 0 0 0 0 75.168090076200315 475.08290279938956 0 475.08290279938956 -178.38714477576718 0 0 0 0 259.97525577278975 317.77173405967187 0 317.77173405967187 -105.8529764515406 0 0 0 0 387.6097625675593 761.10922222109366 0 761.10922222109366 309.37986440199893 0 0 0 0 15.780118160875645 765.28094914401481 0 765.28094914401481 -686.92144592586556 0 0 0 0 567.93487839015506 695.68867152416351 0 695.68867152416351 -26.669885878257446 0 0 0 0 455.8851919521428 734.87182391940132 0 734.87182391940132 220.1481392699643 0 0 0 0 486.41717153638274 448.62679927828867 0 448.62679927828867 -192.94918380859599 0 0 0 0 527.09225176463224 701.88293507417256 0 701.88293507417256 234.64595753359754 0 0 0 0 416.60770676908032 800.14590710729681 0 800.14590710729681 640.06259441444126 0 0 0 0 -51.834040205518249 269.26456375949056 0 269.26456375949056 623.41115067040937 0 0 0 0 -17.107514103700908 38.77866727552572 0 38.77866727552572 -5.7945542164219006 0 0 0 0 -47.9865438133711 118.81778454906453 0 118.81778454906453 -169.0174504112365 0 0 0 0 -115.14045065191749 31.460461546834267 0 31.460461546834267 52.735262838148628 0 0 0 0 -47.739059158552337 47.330956030060719 0 47.330956030060719 -14.135418195729969 0 0 0 0 870.57363952472588 677.21028588767513 0 677.21028588767513 316.58547247178649 0 0 0 0 -38.079031541768927 129.78463666589232 0 129.78463666589232 -207.02522293283982 0 0 0 0 88.699261422515519 665.96675958354899 0 665.96675958354899 1738.3542189902655 0 0 0 0 814.30312706744371 1120.3474396227539 0 1120.3474396227539 719.1899331350578 0 0 0 0 889.12425021036734 510.38907285216555 0 510.38907285216555 406.13982270131237 0 0 0 0 2.882976229357638 12.339123663418405 0 12.339123663418405 -11.646021203006228 0 0 0 0 145.96448044623321 713.09256360627478 0 713.09256360627478 1494.1092945445562 0 0 0 0 260.83795444378484 713.45553228670906 0 713.45553228670906 733.668006122105 0 0 0 0 -246.39935399906426 791.0223888548353 0 791.0223888548353 762.41259444633761 0 0 0 0 -43.064281324319921 39.552860447875219 0 39.552860447875219 -16.621981972178048 0 0 0 0 -365.33979992432523 1026.2537957551212 0 1026.2537957551212 2433.1787716867038 0 0 0 0 -376.62413372475748 1416.1690193876639 0 1416.1690193876639 1750.0132193127647 0 0 0 0 218.84532110559303 889.85380419137073 0 889.85380419137073 1399.6853983270703 0 0 0 0 -27.04980669797078 28.486534392024623 0 28.486534392024623 -397.59094998097862 0 0 0 0 -83.200509572714509 -31.305400941571861 0 -31.305400941571861 -481.5178742003045 0 0 0 0 63.910481625924149 8.449273957805417 0 8.449273957805417 -527.82650311852194 0 0 0 0 72.13264185162916 129.65148259541093 0 129.65148259541093 -351.91195449809311 0 0 0 0 135.98261167233431 94.529533789213019 0 94.529533789213019 -624.76419319737761 0 0 0 0 93.022434105463617 184.77424621419777 0 184.77424621419777 -327.76053674239301 0 0 0 0 158.1784608045964 198.73218664429805 0 198.73218664429805 -417.7330295725551 0 0 0 0 8.1488304824961233 337.03500986265135 0 337.03500986265135 -233.40074282462592 0 0 0 0 126.31304247627486 279.7500354086369 0 279.7500354086369 -289.33659234634251 0 0 0 0 -159.80523467823514 355.27273736721691 0 355.27273736721691 -255.6043604555507 0 0 0 0 -111.40882221741776 289.29389304842334 0 289.29389304842334 -195.49682908038085 0 0 0 0 -28.171875083092345 250.01337971825888 0 250.01337971825888 -177.01913834035804 0 0 0 0 -144.77991618821397 216.14042234265071 0 216.14042234265071 -186.35546261088166 0 0 0 0 -57.292012235338916 164.26926841984823 0 164.26926841984823 -161.84935726143885 0 0 0 0 17.028277717028686 120.44524798376369 0 120.44524798376369 -218.03963197508347 0 0 0 0 -20.479233303508408 231.47584920611826 0 231.47584920611826 -303.21814312852803 0 0 0 0 -23.625887687288923 166.9889617853114 0 166.9889617853114 -268.93167011147307 0 0 0 0 -10.312131113058172 8.1599266919342597 0 8.1599266919342597 -3.4275142119740281 0 0 0 0 1038.9900531166231 885.5603973500838 0 885.5603973500838 1386.86641835302 0 0 0 0 -536.54332990167313 960.43351572081156 0 960.43351572081156 1786.9396501700867 0 0 0 0 -889.28075537546101 1231.5810054392969 0 1231.5810054392969 -1797.3790067957889 0 0 0 0 -1402.8230638095156 875.98989583085313 0 875.98989583085313 -166.16165454492148 0 0 0 0 -786.88620142632135 735.71303617761805 0 735.71303617761805 -720.95871467061806 0 0 0 0 -130.75941215556668 426.52398446531151 0 426.52398446531151 -2468.7881552940744 0 0 0 0 -86.310126290431072 22.883515170433384 0 22.883515170433384 -1599.6218687780929 0 0 0 0 -105.36393916354791 -45.438078398394282 0 -45.438078398394282 -624.74422301076993 0 0 0 0 -114.07653985873185 -8.9418263576990284 0 -8.9418263576990284 -706.04777765551989 0 0 0 0 -33.965374321662239 -99.035812254114717 0 -99.035812254114717 -735.42372343899478 0 0 0 0 -34.22849349214448 -72.206270370828861 0 -72.206270370828861 -786.72776892439288 0 0 0 0 -869.90193336125594 400.03745600222464 0 400.03745600222464 2640.1350253989949 0 0 0 0 -31.29789096597829 24.764809596191242 0 24.764809596191242 -8.9171905932293072 0 0 0 0 -792.56831695590881 591.17861012087815 0 591.17861012087815 1571.0379210652609 0 0 0 0 230.02857447850329 -535.55725411697495 0 -535.55725411697495 2482.2924495898478 0 0 0 0 299.23279476345033 245.27843545516953 0 245.27843545516953 1392.956668673738 0 0 0 0 -1743.0500467994298 1066.7637004481439 0 1066.7637004481439 1065.9198336974659 0 0 0 0 -1000.6446580529828 -593.36058848105313 0 -593.36058848105313 150.17036491463659 0 0 0 0 863.7561659090934 -485.70510924664268 0 -485.70510924664268 142.66297257464612 0 0 0 0 516.5440034727435 -1081.2306141890658 0 -1081.2306141890658 1926.3047717814334 0 0 0 0 2392.7492961671232 -1037.4458465933567 0 -1037.4458465933567 257.99442200043268 0 0 0 0 1.2996855281597268 -2.4261441668822812 0 -2.4261441668822812 14.394238786041115 0 0 0 0 -173.05406624150601 -155.05353615898275 0 -155.05353615898275 772.66118820209522 0 0 0 0 640.23780849144896 -1125.2138119829906 0 -1125.2138119829906 -81.84007876139367 0 0 0 0 -389.7212048910709 -966.65181183769312 0 -966.65181183769312 711.7159011666372 0 0 0 0 173.42224344447868 -749.23410542689726 0 -749.23410542689726 754.67444773082389 0 0 0 0 -73.664583449504306 24.021353106419383 0 24.021353106419383 16.24982150514176 0 0 0 0 206.44189035433374 -677.20239832164225 0 -677.20239832164225 870.73986888385843 0 0 0 0 -246.99467286329309 39.229552479286212 0 39.229552479286212 -1.2698061528790276 0 0 0 0 -16.183873929947421 -0.8899647834750013 0 -0.8899647834750013 39.533192038337575 0 0 0 0 521.29157635307274 -378.43780258356128 0 -378.43780258356128 448.86805926410307 0 0 0 0 -11.244971682757456 5.7370320518958415 0 5.7370320518958415 -8.8517079177982509 0 0 0 0 -7.7237726458179168 14.152421736740507 0 14.152421736740507 -26.875947397056734 0 0 0 0 14.623696334927445 15.534247496834723 0 15.534247496834723 -32.760671789641492 0 0 0 0 3.6407733155240294 21.115293875249336 0 21.115293875249336 -35.595554119790904 0 0 0 0 11.893127633816221 -3.840764165543078 0 -3.840764165543078 -13.965445047360845 0 0 0 0 2.1072684887901629 -1.2269878490735948 0 -1.2269878490735948 -3.9235032724327539 0 0 0 0 -222.10102205835915 63.662163526998484 0 63.662163526998484 42.891075071645901 0 0 0 0 -62.810124348668069 221.29674882792096 0 221.29674882792096 -74.182313269760925 0 0 0 0 -865.15882494131165 -268.25987730915585 0 -268.25987730915585 -552.01374963579292 0 0 0 0 -313.56593261371211 -378.49012551217083 0 -378.49012551217083 -492.47896739066346 0 0 0 0 -19.153761883641486 -2.2244657185221115 0 -2.2244657185221115 3.3225078418543745 0 0 0 0 -1494.4930372149483 922.27907200014306 0 922.27907200014306 -553.77740965435441 0 0 0 0 -687.12393582302138 396.97014598020905 0 396.97014598020905 -249.36715008592 0 0 0 0 -1636.0856163845656 307.11512543271238 0 307.11512543271238 166.06083945842693 0 0 0 0 -1607.3857338351991 345.78794036891486 0 345.78794036891486 103.00221583180246 0 0 0 0 -1181.9574512203908 136.34707964268455 0 136.34707964268455 120.22304319991053 0 0 0 0 -2249.6207985179099 96.425525020822533 0 96.425525020822533 122.77255396236433 0 0 0 0 -1156.1209992269251 324.51189759434783 0 324.51189759434783 102.76966763052769 0 0 0 0 -1155.3624640516382 326.59023692796291 0 326.59023692796291 67.779220195952803 0 0 0 0 -1555.3054529305446 253.51438516326016 0 253.51438516326016 169.17708986690559 0 0 0 0 -1611.7762197817983 333.36959214279341 0 333.36959214279341 164.61656118390965 0 0 0 0 -1646.1575828614659 289.10345331204007 0 289.10345331204007 111.99061164777959 0 0 0 0 -1669.840156922055 296.61538630284485 0 296.61538630284485 179.27534468980593 0 0 0 0 -1591.9173342066533 502.44316246592643 0 502.44316246592643 -0.1178270999371307 0 0 0 0 -1655.0013112485158 289.36224024176045 0 289.36224024176045 119.45530032998067 0 0 0 0 -1665.8850339144174 296.61402344547605 0 296.61402344547605 139.66990996376262 0 0 0 0 -2732.083207177373 31.800158974176156 0 31.800158974176156 66.542408208799316 0 0 0 0 -1627.8085676551073 410.10475346293242 0 410.10475346293242 64.84329955161229 0 0 0 0 -1662.7309030506076 279.54693551795208 0 279.54693551795208 150.3259644896898 0 0 0 0 -1000.119959698628 206.03330769093736 0 206.03330769093736 21.555023698652803 0 0 0 0 -1083.7844662692823 415.04030309981317 0 415.04030309981317 -71.657177295594011 0 0 0 0 -35.667619073809419 27.411502750983345 0 27.411502750983345 10.496616780434124 0 0 0 0 -113.10466906010743 42.418485259237059 0 42.418485259237059 7.5887600492860656 0 0 0 0 27.002495927937616 36.66412008100815 0 36.66412008100815 -6.8613723547605332 0 0 0 0 -1673.7643278576252 292.97315073266509 0 292.97315073266509 155.55922170344274 0 0 0 0 -1.4414227921083309 -0.37319584191803301 0 -0.37319584191803301 -1.0259425612103428 0 0 0 0 -7.3923872933701205 6.2206891717069084 0 6.2206891717069084 14.399001989877434 0 0 0 0 16.013335459977725 48.348894857357664 0 48.348894857357664 0.022959996436838992 0 0 0 0 2.4717292042488044 -0.2399249902584728 0 -0.2399249902584728 -6.3089017994720393 0 0 0 0 37.628060748432063 61.322140162694268 0 61.322140162694268 -5.8491944835986942 0 0 0 0 80.143540425477113 21.883602256595623 0 21.883602256595623 7.5694302518386394 0 0 0 0 -0.9005846783099436 -0.069600213734617 0 -0.069600213734617 -2.0317443313205104 0 0 0 0 -47.53153581397271 32.887238022884048 0 32.887238022884048 -2.6026565399224637 0 0 0 0 -46.072897981053302 37.823319957737112 0 37.823319957737112 14.099181092809886 0 0 0 0 -82.056570830359306 55.330042441604746 0 55.330042441604746 -0.0053032759606139734 0 0 0 0 -79.15427362900482 75.497337030461495 0 75.497337030461495 -13.995653211313765 0 0 0 0 -56.458362030041371 90.706866663895198 0 90.706866663895198 -5.7504445882223081 0 0 0 0 -49.914659519283305 58.481403402147407 0 58.481403402147407 -61.681584566118545 0 0 0 0 -138.48471422411058 14.883222670992836 0 14.883222670992836 -22.061024893795548 0 0 0 0 -168.90432901422264 70.511866609900608 0 70.511866609900608 9.0042837916553253 0 0 0 0 -94.17554150212527 46.872359620952921 0 46.872359620952921 0.021164252294358633 0 0 0 0 -78.257708307523899 61.43810009241497 0 61.43810009241497 -13.248379952288815 0 0 0 0 -26.068555085722437 26.112907748702128 0 26.112907748702128 -3.8275265376723837 0 0 0 0 -56.94376833467777 74.808992624537495 0 74.808992624537495 -19.344882093355409 0 0 0 0 -302.1860368743146 265.79583742854447 0 265.79583742854447 1314.5466736367234 0 0 0 0 -187.36502230153928 -55.314675950576202 0 -55.314675950576202 106.66289356318885 0 0 0 0 -75.156889030416451 38.662742683271972 0 38.662742683271972 11.037831234468641 0 0 0 0 -5.597714769621426 0.35267181307193596 0 0.35267181307193596 9.3048878572961655 0 0 0 0 93.046320992009441 206.36947479194714 0 206.36947479194714 698.04948451682867 0 0 0 0 41.248784626588701 406.72235263455605 0 406.72235263455605 475.53362692476367 0 0 0 0 -159.95157127916173 610.05403648960782 0 610.05403648960782 542.97228257364259 0 0 0 0 -236.15816709588762 597.26699453024048 0 597.26699453024048 933.84741908954311 0 0 0 0 -132.66129114152864 380.20560250662675 0 380.20560250662675 597.27089669580164 0 0 0 0 -920.04705242700584 -570.82687011475355 0 -570.82687011475355 1807.3776454696344 0 0 0 0 106.64529048610893 63.197699147793173 0 63.197699147793173 704.70134885712469 0 0 0 0 -767.04442376953921 -243.71442825159465 0 -243.71442825159465 2153.3555186244485 0 0 0 0 -118.90059193602428 -510.87925186092616 0 -510.87925186092616 749.2382236430276 0 0 0 0 276.46994921779287 35.534318162858654 0 35.534318162858654 1217.80356182385 0 0 0 0 -84.342871706452115 44.644570224096242 0 44.644570224096242 102.5844927700673 0 0 0 0 -82.404990146320785 28.755637921699048 0 28.755637921699048 14.967169158139185 0 0 0 0 16.395367721084767 40.762728192912618 0 40.762728192912618 -1.7412354336702265 0 0 0 0 -79.368285551504641 94.602832903285162 0 94.602832903285162 0.551727421436226 0 0 0 0 -76.033826913245321 126.10473863112566 0 126.10473863112566 21.518579391311505 0 0 0 0 -18.169665910401818 18.581694132968551 0 18.581694132968551 43.094088996411301 0 0 0 0 -5.0618384597857613 5.2360675855216243 0 5.2360675855216243 -3.7342626190529131 0 0 0 0 -1.7490514770834125 9.5213523101410829 0 9.5213523101410829 7.2782364059239626 0 0 0 0 -3.4941226301452843 13.522285935785476 0 13.522285935785476 0.0074824199982685968 0 0 0 0 0.10717143250985828 7.5508086204208666 0 7.5508086204208666 0.0056875878071878105 0 0 0 0 -12.66439870852264 5.0258399756712606 0 5.0258399756712606 38.951876685328898 0 0 0 0 -0.5296902791046989 2.9874914902713954 0 2.9874914902713954 -2.2977694390841634 0 0 0 0 -1.507680811222599 12.076702870122972 0 12.076702870122972 11.215028182632523 0 0 0 0 -3.9214501498536265 25.385387122980319 0 25.385387122980319 0.87620536282338435 0 0 0 0 -11.555510163809402 14.546762450323712 0 14.546762450323712 5.2959282938336116 0 0 0 0 -49.072527564689153 16.941594311414519 0 16.941594311414519 27.61165541675291 0 0 0 0 -6.6854389094999789 1.9023021894998422 0 1.9023021894998422 7.3259933839123619 0 0 0 0 -23.742032935391762 24.736036019960011 0 24.736036019960011 25.385370366428106 0 0 0 0 -95.023765423062059 14.718997466057772 0 14.718997466057772 6.1606571732118027 0 0 0 0 3.4872868996644684 -1.6102525755486568 0 -1.6102525755486568 29.177247414081648 0 0 0 0 1.0151248509179887 -3.5626062822348175 0 -3.5626062822348175 1.0297525171171173 0 0 0 0 -50.54221888513166 681.51206795977123 0 681.51206795977123 3.5929913001600653 0 0 0 0 -53.98702188522293 39.229396183342033 0 39.229396183342033 -0.053241826467450237 0 0 0 0 -34.323668761917361 18.258084076835075 0 18.258084076835075 5.2269702431294718 0 0 0 0 -40.757441599504091 30.38189476718253 0 30.38189476718253 35.519550996366888 0 0 0 0 -30.332985691435169 6.2030417328642216 0 6.2030417328642216 18.617151994549204 0 0 0 0 -35.689026213410642 30.651015358294202 0 30.651015358294202 -12.154761462559378 0 0 0 0 -23.523524121769508 23.66604289846353 0 23.66604289846353 0.82371686419184442 0 0 0 0 -23.605096833711286 34.636270064031123 0 34.636270064031123 16.313465261391684 0 0 0 0 -19.660231328351074 23.622364744142033 0 23.622364744142033 -7.1512474147311877 0 0 0 0 61.68552024431574 380.61368820356438 0 380.61368820356438 461.36653913565533 0 0 0 0 -7.8231286347784348 21.577397874400617 0 21.577397874400617 -27.306602444015653 0 0 0 0 -6.4628908493574988 9.7381164811582437 0 9.7381164811582437 -6.8005225620418059 0 0 0 0 -18.299764270441301 26.925611907616258 0 26.925611907616258 -3.3587511875957716 0 0 0 0 -44.946721286796674 4.864951853734965 0 4.864951853734965 41.827781077910913 0 0 0 0 -16.142133100622232 26.520599210085493 0 26.520599210085493 -7.1403570215625223 0 0 0 0 -28.223506037839485 16.984878360136406 0 16.984878360136406 8.6407382691075725 0 0 0 0 -16.489931092961342 24.813904074559105 0 24.813904074559105 -12.364804059336166 0 0 0 0 -62.532386865217632 -3.8298379833431682 0 -3.8298379833431682 22.867633389110779 0 0 0 0 -11.455370501057132 31.930600733882784 0 31.930600733882784 -49.92604443084565 0 0 0 0 -287.28494173233048 24.451712146976206 0 24.451712146976206 32.166100936970906 0 0 0 0 -52.633145904400862 130.41793875642179 0 130.41793875642179 -95.914868593768915 0 0 0 0 -514.62148367104965 302.39969425113304 0 302.39969425113304 -181.19068327327841 0 0 0 0 -120.86650590414138 429.53059110640606 0 429.53059110640606 -312.3900746307263 0 0 0 0 -153.25915012571204 249.31514296968089 0 249.31514296968089 -246.62284567056486 0 0 0 0 -212.90491553474612 296.08964441348144 0 296.08964441348144 -196.91129943032865 0 0 0 0 5.4187314163053486 3.3753920216495317 0 3.3753920216495317 -10.874376914800848 0 0 0 0 -1.3797977251771298 7.6822743559224449 0 7.6822743559224449 -31.538250472515301 0 0 0 0 -118.77412827359512 178.11577136151027 0 178.11577136151027 -264.90826002295944 0 0 0 0 -480.98393472869611 179.1178254927072 0 179.1178254927072 7.2858428953768453 0 0 0 0 -1128.2588588558992 364.51504650196148 0 364.51504650196148 -27.075307273218641 0 0 0 0 277.86086025177178 270.1441141018804 0 270.1441141018804 220.27424698833056 0 0 0 0 256.79695662758479 336.13635256421549 0 336.13635256421549 228.35719832216273 0 0 0 0 557.9003234236684 357.96667409553356 0 357.96667409553356 34.094843149912776 0 0 0 0 250.45431252481012 373.21095627619707 0 373.21095627619707 14.472171354893362 0 0 0 0 295.53519035874871 169.41807863222039 0 169.41807863222039 -334.94279146735789 0 0 0 0 170.68671360252938 321.47802019783558 0 321.47802019783558 51.222304180530045 0 0 0 0 96.079205885120246 -12.974985470391402 0 -12.974985470391402 -276.15983344921551 0 0 0 0 281.7610087529938 -33.882845574975363 0 -33.882845574975363 -478.22744559679268 0 0 0 0 -4.7477771045229247 126.27261337280652 0 126.27261337280652 -563.80396727201878 0 0 0 0 72.070309755554717 -44.656160066475422 0 -44.656160066475422 -530.00620264554163 0 0 0 0 -300.52420672797234 420.84375305507274 0 420.84375305507274 -627.38573177019134 0 0 0 0 -264.85619697124639 108.26057967120141 0 108.26057967120141 263.84782830291442 0 0 0 0 -67.748906776835895 74.135090012719672 0 74.135090012719672 17.02212993022215 0 0 0 0 217.2524543761574 301.13045637098548 0 301.13045637098548 -878.62340326438425 0 0 0 0 589.63278769412568 -132.45714417911222 0 -132.45714417911222 -175.60883159935474 0 0 0 0 449.9218258239091 26.047471353333094 0 26.047471353333094 -705.27700693829684 0 0 0 0 94.498383809470397 922.75671890639205 0 922.75671890639205 -1034.9387850273342 0 0 0 0 273.17354007509721 184.51386875063326 0 184.51386875063326 -485.06302731586038 0 0 0 0 0.75948277622022875 -0.88085286256641382 0 -0.88085286256641382 -13.579696355887791 0 0 0 0 1200.8504007607507 364.80193040720405 0 364.80193040720405 -804.22806836540985 0 0 0 0 -1371.7281663367175 550.79061243052274 0 550.79061243052274 -28.23547373584006 0 0 0 0 -464.30247781766229 324.00910176307661 0 324.00910176307661 -289.00694765680237 0 0 0 0 -974.6797207897107 843.83196670002508 0 843.83196670002508 -607.12238786692615 0 0 0 0 939.68335689926607 1481.3556281275814 0 1481.3556281275814 -866.99206724911346 0 0 0 0 -14.439330462109009 -6.4051384860252369 0 -6.4051384860252369 24.862311220802837 0 0 0 0 -59.385010289182901 268.85076881291025 0 268.85076881291025 -191.62701456635841 0 0 0 0 -43.825293766234608 111.84941468058241 0 111.84941468058241 -119.36480159778148 0 0 0 0 -156.72054741066859 -779.61462732204745 0 -779.61462732204745 -1726.9626650979335 0 0 0 0 -638.52490002357808 78.367100706556812 0 78.367100706556812 -116.58342232881114 0 0 0 0 -20.79205096501601 11.891984388677287 0 11.891984388677287 -14.209407391037502 0 0 0 0 -119.06627360552375 217.27407924227737 0 217.27407924227737 -205.50512810746295 0 0 0 0 -29.600206405845075 84.335973683457766 0 84.335973683457766 -51.789790671111433 0 0 0 0 -247.29292956540667 611.07626764778979 0 611.07626764778979 -445.45651426078985 0 0 0 0 126.86349108405739 209.29164495340956 0 209.29164495340956 -279.19173828756902 0 0 0 0 -217.35511829754432 927.73706747543474 0 927.73706747543474 -1821.078135585165 0 0 0 0 -249.36589186070523 -594.88413413118542 0 -594.88413413118542 -1816.1566277802697 0 0 0 0 -119.55142793267623 -427.93190868171951 0 -427.93190868171951 -1514.9429992536607 0 0 0 0 -2109.0422732361731 -855.69502737594303 0 -855.69502737594303 547.92773350289644 0 0 0 0 -375.90022249202343 -248.05550461573381 0 -248.05550461573381 667.81179852917558 0 0 0 0 -1706.8132014823286 1183.572492465044 0 1183.572492465044 -138.37700852357375 0 0 0 0 -738.84046786860563 158.85631566120719 0 158.85631566120719 807.45291706997523 0 0 0 0 -71.360035249455905 363.03061983306543 0 363.03061983306543 -492.16223207569419 0 0 0 0 -468.43303287154913 900.56688419543207 0 900.56688419543207 146.46249261389312 0 0 0 0 -11.748024052818437 554.25003102532355 0 554.25003102532355 -108.93648511759966 0 0 0 0 88.745902557974659 360.45157680652483 0 360.45157680652483 14.187137332628481 0 0 0 0 180.79295519298444 204.46145803455329 0 204.46145803455329 -717.70802853601344 0 0 0 0 -54.734397567364795 -147.91608751614694 0 -147.91608751614694 -529.26643132323079 0 0 0 0 -88.13398014195991 -118.06899491494187 0 -118.06899491494187 -464.16067443387874 0 0 0 0 108.50744632598162 41.630985254465486 0 41.630985254465486 -463.7150407936133 0 0 0 0 55.971433881244593 -94.469869957509218 0 -94.469869957509218 -505.34976111006108 0 0 0 0 -127.76442149780814 -77.797718854693812 0 -77.797718854693812 -463.82532238307613 0 0 0 0 -9.8434016483970481 3.2293026675542933 0 3.2293026675542933 -552.73608363574021 0 0 0 0 -70.063522054317176 70.15959168962047 0 70.15959168962047 23.265886165840904 0 0 0 0 -33.49247783983725 51.219933526405399 0 51.219933526405399 -53.327703403590505 0 0 0 0 -118.95749897390124 -127.31196612059284 0 -127.31196612059284 -466.83035416482744 0 0 0 0 973.73354007032867 316.47538869912023 0 316.47538869912023 26.462606438522926 0 0 0 0 733.94490077239607 776.03773571492638 0 776.03773571492638 258.72957768727792 0 0 0 0 -23.891632489368931 170.01256817394824 0 170.01256817394824 343.34758945157228 0 0 0 0 -1767.3733103025806 819.99279761798971 0 819.99279761798971 278.84588113676 0 0 0 0 -10.006079023538071 14.886996584563306 0 14.886996584563306 -26.648114741757439 0 0 0 0 -823.71681506154619 1753.952846365979 0 1753.952846365979 -34.157443965086713 0 0 0 0 -1693.8015848410541 1860.7737051400763 0 1860.7737051400763 137.7171683867673 0 0 0 0 -993.81291500814405 1206.5102185084834 0 1206.5102185084834 -429.42202243754582 0 0 0 0 -785.07693023098909 316.50131816440989 0 316.50131816440989 156.74403802234156 0 0 0 0 -215.00892931407179 373.54952210979354 0 373.54952210979354 1105.0659771125065 0 0 0 0 -265.1172564886765 596.28885522500786 0 596.28885522500786 145.50817022947012 0 0 0 0 -220.7254900892367 -118.61542632657802 0 -118.61542632657802 208.77213504597876 0 0 0 0 611.892393296097 -299.79293139947549 0 -299.79293139947549 513.40081294417905 0 0 0 0 8.8453601288056234 209.86314535190104 0 209.86314535190104 115.52741881593829 0 0 0 0 -47.553032503466966 -91.523050311316183 0 -91.523050311316183 42.002574084297521 0 0 0 0 -81.361873887828551 38.544567991848453 0 38.544567991848453 -396.00780161730654 0 0 0 0 -206.00757345320017 79.031264152916265 0 79.031264152916265 -401.70993609218931 0 0 0 0 -691.95290177726019 235.95027044285598 0 235.95027044285598 -194.52087806109921 0 0 0 0 -565.04788238115361 101.49992409832339 0 101.49992409832339 104.51988036913099 0 0 0 0 -563.83085427098922 213.82238574764779 0 213.82238574764779 -195.83588959326153 0 0 0 0 -343.3099747083179 218.92312855833734 0 218.92312855833734 -437.07828324106231 0 0 0 0 -417.28841344951798 386.04801738502283 0 386.04801738502283 -538.70155171889928 0 0 0 0 -174.87101724519744 249.2604091513349 0 249.2604091513349 -626.34508796955924 0 0 0 0 -269.69344675258617 381.77334909397177 0 381.77334909397177 -695.67988072210574 0 0 0 0 -270.12608704750164 387.02786661595746 0 387.02786661595746 -755.87038341232983 0 0 0 0 -336.16564939704585 245.41777146683671 0 245.41777146683671 -613.69612761025201 0 0 0 0 -95.694726288129459 250.50054659375746 0 250.50054659375746 -780.2828907399271 0 0 0 0 55.369183293245442 135.99798020851449 0 135.99798020851449 -810.81333156026085 0 0 0 0 39.826061373758421 239.34133413722157 0 239.34133413722157 -805.67986326487153 0 0 0 0 85.446220228885068 185.96648028843629 0 185.96648028843629 -883.70910851666122 0 0 0 0 -181.10348484478163 518.45080258212693 0 518.45080258212693 -974.49162026291015 0 0 0 0 8.8462007825437468 565.44336354448751 0 565.44336354448751 -1247.1451009580051 0 0 0 0 28.356771521539486 335.67658280389151 0 335.67658280389151 -1107.1622925482516 0 0 0 0 -193.53165381843428 416.00049812837096 0 416.00049812837096 -832.06910504806001 0 0 0 0 -125.79488967044745 308.37819790955109 0 308.37819790955109 -881.69743421388557 0 0 0 0 -165.97951008067321 387.6383465295803 0 387.6383465295803 -808.14945585574606 0 0 0 0 94.039208721511386 141.11445630529488 0 141.11445630529488 -437.81216626704554 0 0 0 0 150.9022690263082 229.54248010720767 0 229.54248010720767 -438.24702216171136 0 0 0 0 299.59134873278344 168.51483723444107 0 168.51483723444107 -434.41046516592905 0 0 0 0 -199.40491917479085 460.00500860651664 0 460.00500860651664 -829.73995360147092 0 0 0 0 -427.80365948267217 4.7511448959412519 0 4.7511448959412519 -105.49840149344527 0 0 0 0 -215.2577603449754 436.94486384562333 0 436.94486384562333 -833.90021238513145 0 0 0 0 73.056414591360195 32.508643922340866 0 32.508643922340866 0.47125738222001701 0 0 0 0 -309.41262817375537 491.65210153984663 0 491.65210153984663 -653.2331321004749 0 0 0 0 -302.74901151720314 445.63487761206488 0 445.63487761206488 -749.32991389458766 0 0 0 0 1258.2965578346266 1786.7556660043992 0 1786.7556660043992 555.92702447052579 0 0 0 0 2.9156991482314716 -6.9330939207009976 0 -6.9330939207009976 11.986415842722465 0 0 0 0 905.9414032361201 403.75246455362503 0 403.75246455362503 -57.535926926648244 0 0 0 0 482.76406715907069 232.09337877454527 0 232.09337877454527 224.57262799874297 0 0 0 0 -32.708133957730752 324.19198919623159 0 324.19198919623159 231.28250387104345 0 0 0 0 -98.793232913179963 367.93576880198088 0 367.93576880198088 421.20841668662615 0 0 0 0 -143.88515197960805 22.861423239810392 0 22.861423239810392 -13.950258642515109 0 0 0 0 -182.5973011538772 465.5614968245718 0 465.5614968245718 -484.18717848032429 0 0 0 0 -288.58541626089209 362.39669836194662 0 362.39669836194662 -218.21093106978515 0 0 0 0 99.51023634533783 6.2202034201848164 0 6.2202034201848164 39.087468659476144 0 0 0 0 -714.03463039427152 261.76455382814311 0 261.76455382814311 -107.37366018343891 0 0 0 0 326.86455623584334 1236.6625889725983 0 1236.6625889725983 84.675348636345007 0 0 0 0 106.70891480061255 445.17965554866532 0 445.17965554866532 -1530.9495772824448 0 0 0 0 118.53853565974104 54.781566908768752 0 54.781566908768752 23.859393339395083 0 0 0 0 47.057313011922815 120.08752312892466 0 120.08752312892466 -999.3741627772979 0 0 0 0 -24.44206923978345 192.22422888739675 0 192.22422888739675 -789.97062370603089 0 0 0 0 108.38149029876513 290.72636689423234 0 290.72636689423234 -1106.5667551600782 0 0 0 0 162.57361666893121 200.6945271854056 0 200.6945271854056 -1365.1898809673075 0 0 0 0 90.400233628563001 185.01368035987252 0 185.01368035987252 -1214.8365370783285 0 0 0 0 -293.97214979535784 -112.28262820992677 0 -112.28262820992677 -1431.4445161480107 0 0 0 0 -1011.8229101915204 67.132199086772744 0 67.132199086772744 -916.23455871679471 0 0 0 0 -381.65225244016619 194.42847042917856 0 194.42847042917856 -688.7755486657843 0 0 0 0 -291.86519365898857 240.49982306359743 0 240.49982306359743 -880.9204707343597 0 0 0 0 149.87347589493947 1386.4346552333554 0 1386.4346552333554 -1322.1902247490507 0 0 0 0 -726.52854885073612 710.80114032968413 0 710.80114032968413 -574.44454297244374 0 0 0 0 135.47566323733338 62.483381652018039 0 62.483381652018039 23.733367117368886 0 0 0 0 337.54099438863341 443.32961201350554 0 443.32961201350554 -1529.473068153824 0 0 0 0 -1102.5334809403284 549.94881653954508 0 549.94881653954508 -642.25982075449429 0 0 0 0 162.06519902702712 -445.71574894341757 0 -445.71574894341757 -1822.4632072621171 0 0 0 0 -1407.2456751784048 -1610.4793672152591 0 -1610.4793672152591 -1084.0046265232959 0 0 0 0 -4319.4874897582777 -953.99992513755569 0 -953.99992513755569 2080.602784009825 0 0 0 0 -207.47021545801908 -262.93347578604153 0 -262.93347578604153 -250.06671517784707 0 0 0 0 -33.087162692376296 -113.40906279440969 0 -113.40906279440969 -455.18225778451597 0 0 0 0 -2426.4150416841294 745.12670305019128 0 745.12670305019128 2301.8142448184044 0 0 0 0 400.62640443136479 229.52027947801253 0 229.52027947801253 -1153.3270534682088 0 0 0 0 443.1240863328494 659.63907198347442 0 659.63907198347442 -80.479426544974558 0 0 0 0 328.12665533517429 313.4927559230855 0 313.4927559230855 -885.58467230618407 0 0 0 0 842.73735544987539 1190.3613623694691 0 1190.3613623694691 -1462.4935078670387 0 0 0 0 -208.19082543383411 970.96106051582319 0 970.96106051582319 104.99654541577911 0 0 0 0 -398.0529568745842 857.28054113277176 0 857.28054113277176 -216.48437241229112 0 0 0 0 -91.780276199409855 660.28880374378059 0 660.28880374378059 -580.63730239744473 0 0 0 0 -7.8438455647265073 997.42544260290742 0 997.42544260290742 -11.521259657194605 0 0 0 0 79.217979938330245 825.98359685804462 0 825.98359685804462 -230.29016615539149 0 0 0 0 449.7010494912829 971.69381893848185 0 971.69381893848185 121.92298902431958 0 0 0 0 -60.068364638893399 891.43190884246724 0 891.43190884246724 126.31626498070545 0 0 0 0 20.86240425048527 1199.0843429615416 0 1199.0843429615416 396.34395233861869 0 0 0 0 -126.07833505880262 890.8780168928497 0 890.8780168928497 532.89517435035668 0 0 0 0 124.17927689652424 1121.5511040817655 0 1121.5511040817655 77.758122038940201 0 0 0 0 26.465681160210806 37.468719834956573 0 37.468719834956573 -447.76506915334903 0 0 0 0 285.4713912381485 139.2083880660939 0 139.2083880660939 -815.87926646076812 0 0 0 0 46.778027558189933 462.98214260332315 0 462.98214260332315 -347.4259841152234 0 0 0 0 -7.4906374054116895 352.24910417283536 0 352.24910417283536 -214.07637643911585 0 0 0 0 -348.40410673278529 528.0001302187884 0 528.0001302187884 -296.94470925687347 0 0 0 0 -40.354687427781755 261.70932602984249 0 261.70932602984249 -697.92209907902725 0 0 0 0 279.79216614790857 622.02444119074062 0 622.02444119074062 -296.00093802728225 0 0 0 0 708.60447041516454 686.19468720440636 0 686.19468720440636 -80.044945094494324 0 0 0 0 141.24115348056512 810.62151853299292 0 810.62151853299292 483.29034138921998 0 0 0 0 394.1656677303472 205.33708235267841 0 205.33708235267841 -377.82069217419485 0 0 0 0 276.16472209446874 126.2845007294236 0 126.2845007294236 64.838415766978869 0 0 0 0 1221.5422092305598 566.80483776297478 0 566.80483776297478 212.48980196870616 0 0 0 0 713.57251027890015 559.36021040951164 0 559.36021040951164 531.85691000035877 0 0 0 0 552.06679532783528 730.58117614451476 0 730.58117614451476 1981.0228883245582 0 0 0 0 1.4031897286301529 13.141161980586105 0 13.141161980586105 -7.7848064084900841 0 0 0 0 0.070038020190601458 -4.3208710204175489 0 -4.3208710204175489 17.597087510913184 0 0 0 0 -135.41531708485854 -115.14053427476028 0 -115.14053427476028 242.48873950624329 0 0 0 0 454.63267020911371 1066.3913184927951 0 1066.3913184927951 403.02050783493905 0 0 0 0 2.477799198251887 28.777896652063646 0 28.777896652063646 95.322616495941475 0 0 0 0 16.110268966505828 10.145998407511797 0 10.145998407511797 -259.09452680803952 0 0 0 0 -274.6930391153146 99.046302636852488 0 99.046302636852488 -30.23575933893153 0 0 0 0 -3.036122388437434 -118.41956843138178 0 -118.41956843138178 46.307057203128352 0 0 0 0 -72.653400573063664 182.16560649471649 0 182.16560649471649 -341.42663540321519 0 0 0 0 -300.50431776232472 399.96504963571169 0 399.96504963571169 13.310143204551423 0 0 0 0 -567.88284986236795 740.49657760259652 0 740.49657760259652 -564.87556476519967 0 0 0 0 373.62850549629002 182.8513237841471 0 182.8513237841471 -588.65230392838566 0 0 0 0 103.5776195743523 49.317565236744457 0 49.317565236744457 25.316964283179004 0 0 0 0 -904.6763321093531 38.734915770772204 0 38.734915770772204 70.637560508024762 0 0 0 0 1445.9595222010066 558.78260766190215 0 558.78260766190215 -1505.4452187442075 0 0 0 0 2146.106014254794 -505.21281649166485 0 -505.21281649166485 -1045.5159389036271 0 0 0 0 -475.15494613253395 -520.45966583519476 0 -520.45966583519476 -89.576105457410449 0 0 0 0 63.198503736241562 40.040779169637815 0 40.040779169637815 -6.1357063696617331 0 0 0 0 -959.52572864301328 -779.10212650994799 0 -779.10212650994799 9.9044859412970254 0 0 0 0 491.10764079084765 826.25124094511921 0 826.25124094511921 93.296257245572633 0 0 0 0 -162.25141457422978 319.79397564101237 0 319.79397564101237 -191.22887510914103 0 0 0 0 -177.35466689968052 166.0324708512926 0 166.0324708512926 -118.48336679695751 0 0 0 0 221.24724346939911 396.86065863074327 0 396.86065863074327 -348.41431025342354 0 0 0 0 621.60154059444903 202.55934520985829 0 202.55934520985829 -1249.3469450787525 0 0 0 0 -660.73598580104954 -1120.431024150239 0 -1120.431024150239 -2751.6918687050638 0 0 0 0 -2491.0790023015797 157.55820522245995 0 157.55820522245995 -54.533698479703162 0 0 0 0 -359.61815647971889 1655.3347999590442 0 1655.3347999590442 -2141.8086758724385 0 0 0 0 301.55448643891577 622.87914918836032 0 622.87914918836032 -826.68916649128732 0 0 0 0 91.662360925096436 1094.2100284432599 0 1094.2100284432599 -703.97782839203683 0 0 0 0 694.600264011322 758.48889570158644 0 758.48889570158644 -1242.2373386904947 0 0 0 0 325.81159276622225 862.84341963159522 0 862.84341963159522 -720.70625479050796 0 0 0 0 835.53675174082309 801.52688816474983 0 801.52688816474983 -721.00116030991194 0 0 0 0 1106.2707430708979 1483.2985287584524 0 1483.2985287584524 -47.713314257496677 0 0 0 0 1222.7509557705635 483.23913685967273 0 483.23913685967273 18.513764388080745 0 0 0 0 214.94056161125263 815.73434627414827 0 815.73434627414827 -90.954707762488397 0 0 0 0 74.546565854627261 409.43453893767946 0 409.43453893767946 337.20544537280512 0 0 0 0 -1177.8175341090737 201.1106983731479 0 201.1106983731479 381.86222470701614 0 0 0 0 -228.93917384063388 440.64509362771423 0 440.64509362771423 1196.0340443536843 0 0 0 0 82.900422177452128 647.88862763962243 0 647.88862763962243 -1129.0618415274075 0 0 0 0 50.0964530597048 852.78940777333628 0 852.78940777333628 -665.44881776887269 0 0 0 0 41.008255490807642 760.42505097616231 0 760.42505097616231 -1481.6791293083224 0 0 0 0 -84.109688255055516 334.25324898274266 0 334.25324898274266 -831.914592538953 0 0 0 0 -78.978067006530182 337.94423580287548 0 337.94423580287548 -855.81215199065628 0 0 0 0 104.63200118549867 451.36450657551177 0 451.36450657551177 -509.15806373314717 0 0 0 0 123.47249788908812 449.45681390693426 0 449.45681390693426 -959.35837021635962 0 0 0 0 -207.37102617697383 516.67162467305025 0 516.67162467305025 -929.82162273296854 0 0 0 0 -270.75568152170126 382.67045150196282 0 382.67045150196282 -846.89955977734644 0 0 0 0 434.29994797847485 1258.4989595678708 0 1258.4989595678708 85.277739078897866 0 0 0 0 -170.2249837918207 158.62346763868845 0 158.62346763868845 -817.36301762168296 0 0 0 0 -274.21217016984883 323.71037892188542 0 323.71037892188542 -619.27608941818471 0 0 0 0 196.61369049927453 698.24180617670208 0 698.24180617670208 -298.77154268861341 0 0 0 0 -112.70392556517982 213.35201008678268 0 213.35201008678268 -1162.2753071955813 0 0 0 0 -705.88639858847296 -977.96700805019009 0 -977.96700805019009 1624.9986391657003 0 0 0 0 -1272.07726091717 1779.3615854759055 0 1779.3615854759055 555.00675890987623 0 0 0 0 -12.814325819141935 8.8562501549436945 0 8.8562501549436945 -1.4161618843734232 0 0 0 0 -610.3827724568946 40.089682523750525 0 40.089682523750525 2092.1794439393852 0 0 0 0 -733.04019349236569 559.9282425606234 0 559.9282425606234 880.4734622585529 0 0 0 0 -43.401664947254176 520.94779013424704 0 520.94779013424704 -504.39127084001666 0 0 0 0 -121.04113599431366 558.86255172785604 0 558.86255172785604 177.56383536641079 0 0 0 0 -293.12930301884626 660.55597498232964 0 660.55597498232964 197.676284465766 0 0 0 0 -104.12308618452153 385.1819356357737 0 385.1819356357737 597.2713497109653 0 0 0 0 -286.89135476786942 246.98578468193955 0 246.98578468193955 514.75028808839852 0 0 0 0 90.358948737652099 -31.464000314645091 0 -31.464000314645091 116.01288341279724 0 0 0 0 -391.49035643574462 97.753970373218181 0 97.753970373218181 1175.97036587006 0 0 0 0 -25.488073108394616 19.374946160566708 0 19.374946160566708 9.4721473118005264 0 0 0 0 150.44296791826491 -283.3055971122667 0 -283.3055971122667 566.908812616246 0 0 0 0 -0.68722187961775205 9.8746239262032098 0 9.8746239262032098 11.590020465492159 0 0 0 0 -351.99023903228317 454.13022524416192 0 454.13022524416192 450.80781779205427 0 0 0 0 -260.36877332031145 278.25302861264208 0 278.25302861264208 219.30985901175882 0 0 0 0 195.40372686960472 -591.90558591524314 0 -591.90558591524314 1073.5651892817623 0 0 0 0 -412.90132870707384 101.39325586851191 0 101.39325586851191 -5.9814372628752608 0 0 0 0 -522.85199739892141 372.4195339784128 0 372.4195339784128 499.11209634374245 0 0 0 0 -566.69963888915663 -67.927216964264517 0 -67.927216964264517 -132.0260391793563 0 0 0 0 0.76213803694804483 4.5601862445566042 0 4.5601862445566042 3.6357622615989555 0 0 0 0 -799.09080360872395 -655.09065180764446 0 -655.09065180764446 -403.43214893972379 0 0 0 0 -628.6265297287573 -187.14957376683014 0 -187.14957376683014 -33.17041304113809 0 0 0 0 -14.890466849362632 7.433916978011041 0 7.433916978011041 1.7420965562556745 0 0 0 0 -178.76756283418217 169.80249728624767 0 169.80249728624767 108.15074214745982 0 0 0 0 -625.44321843845319 -216.61200943411313 0 -216.61200943411313 141.64143461029744 0 0 0 0 -96.840007227830938 -47.956862366161658 0 -47.956862366161658 -255.67160156015598 0 0 0 0 -813.33000510133866 165.63337152049598 0 165.63337152049598 437.64230555504037 0 0 0 0 -748.62492733578983 -408.90193484416523 0 -408.90193484416523 -106.71737746272993 0 0 0 0 -343.84925963395654 -258.91765228280565 0 -258.91765228280565 -401.59314439621812 0 0 0 0 -14.310883801694651 17.813732818898274 0 17.813732818898274 -2.5698338912505818 0 0 0 0 -59.177894497214766 30.623722940243169 0 30.623722940243169 5.7723482588335173 0 0 0 0 -15.945149202054836 32.895296921762565 0 32.895296921762565 33.072432421613485 0 0 0 0 -39.475171738783146 19.826076428125617 0 19.826076428125617 19.721649929789422 0 0 0 0 53.654976094214362 -30.353868279711605 0 -30.353868279711605 -154.34814971813466 0 0 0 0 -10.235001704026374 27.940941134368995 0 27.940941134368995 10.948977316500873 0 0 0 0 7.0430367104527249 163.32328291587328 0 163.32328291587328 108.04949164911523 0 0 0 0 471.61332807593499 1188.5177944342213 0 1188.5177944342213 1042.5464239936855 0 0 0 0 395.30236201067476 289.58158536151382 0 289.58158536151382 447.80390593298944 0 0 0 0 316.66794915961327 1342.7468693025903 0 1342.7468693025903 703.81169023049006 0 0 0 0 -26.882392890043505 20.573168111751912 0 20.573168111751912 -6.285113599371158 0 0 0 0 -234.63050797887627 372.25491942487861 0 372.25491942487861 355.07890245458839 0 0 0 0 -946.29971897534324 943.08431352525076 0 943.08431352525076 1005.7220400119113 0 0 0 0 -252.34579910998218 182.21522064578312 0 182.21522064578312 215.7051694005786 0 0 0 0 -1867.0569127717645 -315.9956178931825 0 -315.9956178931825 349.28404441504244 0 0 0 0 1089.0219555764402 1230.5822609477859 0 1230.5822609477859 92.339600085040729 0 0 0 0 736.35349134185526 18.318944118564104 0 18.318944118564104 197.67288274322345 0 0 0 0 -520.58618021539223 -523.14095564239324 0 -523.14095564239324 -540.24188860065715 0 0 0 0 -773.00393404496208 1219.3309354543671 0 1219.3309354543671 -755.24984957873676 0 0 0 0 -1370.9977103989704 774.80521249629055 0 774.80521249629055 -52.227841963846004 0 0 0 0 108.25927814345141 32.526420240064908 0 32.526420240064908 -106.00717234426702 0 0 0 0 369.84560297283679 631.7625301988046 0 631.7625301988046 -48.114029004107579 0 0 0 0 427.07570797524329 224.59295024546827 0 224.59295024546827 -234.31227369443513 0 0 0 0 408.4420122515512 101.443078988872 0 101.443078988872 -353.93878233227588 0 0 0 0 -25.771503527271307 16.123211118519976 0 16.123211118519976 1.9118015412532259 0 0 0 0 -6.5220651790489548 9.0471643300757023 0 9.0471643300757023 9.6189991558320003 0 0 0 0 -2.0142032297196248 11.320235012568583 0 11.320235012568583 10.734931187089927 0 0 0 0 197.27934045149595 -60.816094409705329 0 -60.816094409705329 -437.40840120706707 0 0 0 0 -60.699778648638357 21.832694258981064 0 21.832694258981064 -4.4626014341483824 0 0 0 0 -613.34598741069567 217.43079931420652 0 217.43079931420652 5.7238703230759711 0 0 0 0 -284.90088648515302 439.80330266382953 0 439.80330266382953 -597.24274231441814 0 0 0 0 -1192.4405346258136 845.81492278516816 0 845.81492278516816 -336.3097936398517 0 0 0 0 -2.9029632027247345 4.8497930762537536 0 4.8497930762537536 -2.392992663743911 0 0 0 0 -1667.9298122415275 501.43530049136461 0 501.43530049136461 296.76090911498613 0 0 0 0 -927.67420615290212 790.31107596680522 0 790.31107596680522 -259.29660556565432 0 0 0 0 -3.5471713337228223 13.337241579392776 0 13.337241579392776 5.5499063052026258 0 0 0 0 -321.46061858034045 207.51431128672266 0 207.51431128672266 -124.38950967632991 0 0 0 0 -67.807456514910882 43.377719223797612 0 43.377719223797612 29.148919527622638 0 0 0 0 0.42879110172256502 28.431770798833458 0 28.431770798833458 12.141232101885038 0 0 0 0 -42.919232039421104 23.857618585197997 0 23.857618585197997 32.114414569601649 0 0 0 0 -1.9392294227800448 80.186550735499623 0 80.186550735499623 29.38092808714282 0 0 0 0 -82.070262963961795 -38.210064675313333 0 -38.210064675313333 -4.7102221905224724 0 0 0 0 -4.3579145995521635 13.707618219998714 0 13.707618219998714 -13.854201140716953 0 0 0 0 -9.5246985284832402 15.674212732433233 0 15.674212732433233 33.263186892441894 0 0 0 0 -87.327922652598318 59.70393643755142 0 59.70393643755142 44.825599289208185 0 0 0 0 -2.8492921658324812 16.655437685918532 0 16.655437685918532 6.4252094511913924 0 0 0 0 66.840215860214812 8.7917153040034464 0 8.7917153040034464 39.590385077754036 0 0 0 0 93.743057228961561 188.08950466659462 0 188.08950466659462 37.334660250853631 0 0 0 0 -193.40082159950543 -17.166812615498202 0 -17.166812615498202 75.910894637258025 0 0 0 0 -2.6760466831148015 5.4332526998907369 0 5.4332526998907369 -11.877527882546616 0 0 0 0 -84.149550078211178 -23.82215190240413 0 -23.82215190240413 13.758245110351709 0 0 0 0 -42.699155552776574 20.072305003028305 0 20.072305003028305 24.882441316942277 0 0 0 0 -7.7986839561035595 -30.08751801282051 0 -30.08751801282051 -61.270869807769486 0 0 0 0 96.568730898794456 148.26074192763917 0 148.26074192763917 79.163043552416639 0 0 0 0 53.601352800884342 -6.3662329105391109 0 -6.3662329105391109 21.830607970914571 0 0 0 0 -108.31828781675358 56.723393002622288 0 56.723393002622288 -1.449500627364614 0 0 0 0 -98.783379113960109 89.328212117685325 0 89.328212117685325 40.742516538331984 0 0 0 0 6.1689959667637595 5.4460604505511583 0 5.4460604505511583 -7.4837131646963826 0 0 0 0 -266.75233033315271 38.956740226371039 0 38.956740226371039 114.92335696521332 0 0 0 0 -0.60693533404590561 -1.6718045543281832 0 -1.6718045543281832 2.0027851223567268 0 0 0 0 72.21154761433354 -37.062751782825217 0 -37.062751782825217 -54.493172023419902 0 0 0 0 -170.75644745830505 19.297816715668887 0 19.297816715668887 -4.6034486569915316 0 0 0 0 -356.89159966456646 -199.18480366018775 0 -199.18480366018775 -94.846518401798676 0 0 0 0 -1.1531416059224284 -184.28733660256694 0 -184.28733660256694 -185.5435772449855 0 0 0 0 1.0292482631251687 0.96516862928745439 0 0.96516862928745439 -5.8662783618700587 0 0 0 0 219.4646877413943 39.658414134057239 0 39.658414134057239 -156.69501714475336 0 0 0 0 -127.98195232701983 23.94975684118981 0 23.94975684118981 -33.370216703231563 0 0 0 0 -159.74996643702252 -18.841255919978721 0 -18.841255919978721 -91.001705734030111 0 0 0 0 -436.02561180365956 -22.132252753181092 0 -22.132252753181092 -39.410613157357147 0 0 0 0 180.38959064575101 77.832996007738984 0 77.832996007738984 -76.945265421352815 0 0 0 0 152.666155090541 122.57344346639002 0 122.57344346639002 -131.60049120217445 0 0 0 0 -112.08453041634857 73.822463517419237 0 73.822463517419237 -44.663901848718524 0 0 0 0 -179.50458579851693 4.8288772627929575 0 4.8288772627929575 -20.694568664184771 0 0 0 0 -110.18281039132125 77.044827098234236 0 77.044827098234236 -88.84084551592241 0 0 0 0 -228.44616449366731 44.812158968605218 0 44.812158968605218 -80.953559552095612 0 0 0 0 -34.830766275626956 88.507382348689134 0 88.507382348689134 -143.91686485507671 0 0 0 0 -78.050983100758458 152.58112636013539 0 152.58112636013539 -165.82001031935215 0 0 0 0 20.671607679609224 88.601467987464275 0 88.601467987464275 -148.64593247623998 0 0 0 0 -39.718421001493738 69.526431608589547 0 69.526431608589547 -4.231624015255079 0 0 0 0 -509.879928886382 433.60505072723026 0 433.60505072723026 179.221146739299 0 0 0 0 -230.3721960258008 128.68598415948509 0 128.68598415948509 -9.5801126154692611 0 0 0 0 -24.351073237601668 149.6929992601581 0 149.6929992601581 -156.58825646952027 0 0 0 0 55.903670627958491 110.48861136582855 0 110.48861136582855 -199.54325936893292 0 0 0 0 -20.476749684545211 151.78459909862431 0 151.78459909862431 -176.50208819644467 0 0 0 0 -377.47296949991869 170.88191395524336 0 170.88191395524336 -75.024770121250185 0 0 0 0 -186.78172060027282 137.85308501445979 0 137.85308501445979 -148.41882275651733 0 0 0 0 -187.71751293633821 202.54256258062674 0 202.54256258062674 -168.75841189702624 0 0 0 0 -461.0528425100274 18.126872478227597 0 18.126872478227597 -23.650647605136328 0 0 0 0 63.826843814385938 166.04070552212215 0 166.04070552212215 -153.66408963993308 0 0 0 0 -221.51249587228085 117.6771993185248 0 117.6771993185248 359.7677689565171 0 0 0 0 340.26437910512686 147.32868428631627 0 147.32868428631627 -175.57846321279067 0 0 0 0 218.30436895742241 122.26343717538475 0 122.26343717538475 -131.89992672904918 0 0 0 0 345.1702633808527 22.015659903183405 0 22.015659903183405 -241.5494886476954 0 0 0 0 -952.30207473447081 -375.20347498761839 0 -375.20347498761839 -205.09887185837943 0 0 0 0 438.79777758586715 42.733036112811533 0 42.733036112811533 -292.94054278862313 0 0 0 0 5.5604129099502533 8.6661938295297318 0 8.6661938295297318 -8.3635973966723185 0 0 0 0 375.17671711608727 -390.09629666135879 0 -390.09629666135879 -29.147973649000051 0 0 0 0 -11.250145379673203 6.2435106040761639 0 6.2435106040761639 19.689820348263936 0 0 0 0 -60.910731171752033 68.862299870407469 0 68.862299870407469 -25.594922682272369 0 0 0 0 140.54713814975548 161.33590714560705 0 161.33590714560705 -65.165959052006656 0 0 0 0 -177.93308488011462 212.03426633629715 0 212.03426633629715 184.16610559253604 0 0 0 0 -172.7742013272582 78.04900349790114 0 78.04900349790114 -24.792254009051248 0 0 0 0 -39.236512957828381 91.105804253900715 0 91.105804253900715 26.158914285944775 0 0 0 0 -154.49999308383303 -5.7667395764874527 0 -5.7667395764874527 151.51394914192497 0 0 0 0 -18.119462792485137 36.981731413514353 0 36.981731413514353 33.080076256141183 0 0 0 0 -14.161737421081021 -3.4127400135526429 0 -3.4127400135526429 47.401517537858922 0 0 0 0 60.874552181634499 333.64793694628315 0 333.64793694628315 417.10049033116957 0 0 0 0 -46.790416169194941 252.31815004782402 0 252.31815004782402 417.70206516145117 0 0 0 0 -48.332453444088202 42.663447773866267 0 42.663447773866267 6.924036381275684 0 0 0 0 -157.96960542077068 -57.853951674071141 0 -57.853951674071141 -114.95527040709567 0 0 0 0 -10.58282134494948 49.918856032483745 0 49.918856032483745 81.652346621012839 0 0 0 0 -33.01044355987888 45.578122703426629 0 45.578122703426629 -4.8026434186873388 0 0 0 0 -74.739366650624561 38.806318409437836 0 38.806318409437836 48.281781745900133 0 0 0 0 -53.775285049003287 -6.2467083982555778 0 -6.2467083982555778 -100.55346819609986 0 0 0 0 -158.1225529135686 5.0418093172702356 0 5.0418093172702356 30.115894405083964 0 0 0 0 -14.216132897303396 22.535875691810361 0 22.535875691810361 5.437683731164725 0 0 0 0 -17.477329391384835 21.230070086082669 0 21.230070086082669 -7.2559412286895508 0 0 0 0 -44.117533722990629 -11.005507216650585 0 -11.005507216650585 4.2405697735084686 0 0 0 0 3.227307063880744 146.79798704543646 0 146.79798704543646 45.321550882203155 0 0 0 0 23.556603603807162 92.820854985184269 0 92.820854985184269 165.20968350893236 0 0 0 0 146.3562717726536 -5.7402164902578079 0 -5.7402164902578079 49.086356402025558 0 0 0 0 87.805653899951722 38.08919604660332 0 38.08919604660332 3.3152861245216627 0 0 0 0 66.544526420580951 72.759427586002857 0 72.759427586002857 -19.669657337813987 0 0 0 0 -103.32588906782257 117.04173266033467 0 117.04173266033467 -22.298948686293443 0 0 0 0 -65.964360097403187 -1.0264207303298463 0 -1.0264207303298463 -346.43566430829378 0 0 0 0 -153.00266248308253 16.814596215030178 0 16.814596215030178 42.097930880445347 0 0 0 0 -407.87847078808136 -5.6554131117882207 0 -5.6554131117882207 67.064774044709338 0 0 0 0 -272.37161823047404 239.48420216117302 0 239.48420216117302 -95.598543385247467 0 0 0 0 -28.999017693593487 135.661089753532 0 135.661089753532 14.729385326550073 0 0 0 0 -74.283842450913653 -99.76239917093335 0 -99.76239917093335 -31.00970029731252 0 0 0 0 1.0178035221225628 66.246418701472066 0 66.246418701472066 36.745457767392509 0 0 0 0 16.490345785766294 -23.392955051833269 0 -23.392955051833269 -23.521750487183454 0 0 0 0 -91.244054661246992 -7.2375910169721465 0 -7.2375910169721465 25.429768403613707 0 0 0 0 -92.983869005459496 -14.951006248706108 0 -14.951006248706108 37.162505081054405 0 0 0 0 -114.90391254059705 -2.9186730363289826 0 -2.9186730363289826 35.02293097441725 0 0 0 0 -174.82113954885335 -22.657327665954654 0 -22.657327665954654 42.274087489728117 0 0 0 0 -173.1271409282067 28.394717254454008 0 28.394717254454008 46.784911476526759 0 0 0 0 -107.28443830200104 35.841202836527373 0 35.841202836527373 44.228115685073135 0 0 0 0 -92.154051258297841 66.786659931625763 0 66.786659931625763 42.160507293560386 0 0 0 0 -120.04626129267513 105.58623166358302 0 105.58623166358302 9.192962999586598 0 0 0 0 -146.58331847956924 247.23746809937757 0 247.23746809937757 453.0356105164974 0 0 0 0 -180.68265334590251 -84.625241591500526 0 -84.625241591500526 -32.57377910042851 0 0 0 0 -9.5684161391654925 110.82367435703054 0 110.82367435703054 -222.7522158860811 0 0 0 0 12.438051068855309 7.3411124701896568 0 7.3411124701896568 -4.9573985484910565 0 0 0 0 -45.838287897902774 164.76091876989813 0 164.76091876989813 -250.13732926042576 0 0 0 0 220.36370414815246 -121.04129996418487 0 -121.04129996418487 -375.26962491188897 0 0 0 0 27.734134191268822 80.033130679439637 0 80.033130679439637 54.396643633263011 0 0 0 0 -174.11341274814549 8.2465785528074775 0 8.2465785528074775 102.41064828625531 0 0 0 0 -150.61170963452605 232.84230552127701 0 232.84230552127701 -190.976559726696 0 0 0 0 -446.1308953994594 249.68956642267585 0 249.68956642267585 403.9731454848079 0 0 0 0 -29.814497792176553 110.07412910219864 0 110.07412910219864 -140.75979382512742 0 0 0 0 -144.25721875861382 158.84586948914148 0 158.84586948914148 172.53547945333412 0 0 0 0 -58.174022614461137 57.228050568286562 0 57.228050568286562 137.2423148949747 0 0 0 0 -22.946850750558951 37.109307912745862 0 37.109307912745862 58.921658708510222 0 0 0 0 -86.635530075036513 -51.020778965670615 0 -51.020778965670615 194.166021844645 0 0 0 0 -143.02765360776357 97.640717948752354 0 97.640717948752354 99.853480849647895 0 0 0 0 -107.93387025369157 90.964097598436638 0 90.964097598436638 74.258476953225909 0 0 0 0 -1.4854896076797104 14.680644004737747 0 14.680644004737747 8.2860312610881692 0 0 0 0 44.992946488826419 57.919012664497131 0 57.919012664497131 75.75056480220519 0 0 0 0 -37.407242869266156 81.894739094467695 0 81.894739094467695 41.022528197965585 0 0 0 0 -27.857503789949533 156.41511809856092 0 156.41511809856092 -143.23381198961579 0 0 0 0 9.1090683856718897 66.798242028478853 0 66.798242028478853 -55.128150589967845 0 0 0 0 -4.3804244266502792 82.512483334869103 0 82.512483334869103 -93.611793651420157 0 0 0 0 11.226489113124741 45.016742272325743 0 45.016742272325743 -6.7240839413535127 0 0 0 0 -92.382447346787558 85.257413473220367 0 85.257413473220367 4.410518045326171 0 0 0 0 -53.35570907593501 69.607402812584041 0 69.607402812584041 35.501271805464057 0 0 0 0 -26.844044678917271 54.79976882840856 0 54.79976882840856 -9.6630062659678515 0 0 0 0 -67.266166776053069 199.99659930161579 0 199.99659930161579 -176.83842709714372 0 0 0 0 105.21985071648487 -22.395968044671463 0 -22.395968044671463 89.698685282666702 0 0 0 0 3.202221479769916 7.0768319039841856 0 7.0768319039841856 -0.91845032497009527 0 0 0 0 -29.028736603226207 26.414904748278786 0 26.414904748278786 -3.7549042500104406 0 0 0 0 -244.78579724294104 -21.812569606796387 0 -21.812569606796387 23.941907929605804 0 0 0 0 -0.46133167658523844 16.329221499594013 0 16.329221499594013 0.28466551543735363 0 0 0 0 32.25139360994217 -23.21003515299526 0 -23.21003515299526 -77.40103244119382 0 0 0 0 -26.471231576950231 39.249766176762932 0 39.249766176762932 9.0372721894818824 0 0 0 0 -43.215961253245595 39.40598456686817 0 39.40598456686817 13.440292450785927 0 0 0 0 -0.24332120256195289 12.58008527757012 0 12.58008527757012 -1.1260470814914045 0 0 0 0 -3.4212881500061485 31.736295836904901 0 31.736295836904901 2.0702671768376604 0 0 0 0 -28.625783326786404 65.125671034154948 0 65.125671034154948 6.573439054541268 0 0 0 0 -28.683625427464605 34.856528084611654 0 34.856528084611654 -3.7753393547242524 0 0 0 0 -35.409701622265857 38.650341771459352 0 38.650341771459352 10.285026535741054 0 0 0 0 -23.871143624888646 29.145072775005247 0 29.145072775005247 1.9999252130510285 0 0 0 0 -8.884000069618736 27.641261833341204 0 27.641261833341204 5.6312683819821814 0 0 0 0 -21.922400869693298 7.1774147887192328 0 7.1774147887192328 12.837709274988669 0 0 0 0 -19.500228503144456 8.7507981634374801 0 8.7507981634374801 2.5919237318764177 0 0 0 0 -73.888654530104731 23.75267951937974 0 23.75267951937974 3.2080869790183328 0 0 0 0 105.96149849436188 54.045199965934444 0 54.045199965934444 -33.170778647530824 0 0 0 0 86.478339866203896 171.97599835285655 0 171.97599835285655 75.398233263499151 0 0 0 0 -89.381679898826405 6.7373125504673226 0 6.7373125504673226 61.957086298140894 0 0 0 0 -23.626180019506137 -19.625583079774515 0 -19.625583079774515 -45.114899327309104 0 0 0 0 -26.754898524301424 39.656604066706649 0 39.656604066706649 11.330509288246162 0 0 0 0 -72.330108209724131 -16.05607505441003 0 -16.05607505441003 -1.682484042190481 0 0 0 0 -51.192938367766601 22.670999398564163 0 22.670999398564163 22.828580505185528 0 0 0 0 -22.883425860103671 -9.5056631107727299 0 -9.5056631107727299 -3.9410358792956686 0 0 0 0 -25.522197677267286 -83.075303519130102 0 -83.075303519130102 117.73074479270144 0 0 0 0 -91.804698171590644 35.779150694448617 0 35.779150694448617 162.45936297969274 0 0 0 0 -63.508073016485923 11.561191964025056 0 11.561191964025056 170.09282599970174 0 0 0 0 -77.796638097954201 133.31431690134923 0 133.31431690134923 -149.22943018774095 0 0 0 0 -92.955397451236422 3.3923761330115667 0 3.3923761330115667 14.197212259969092 0 0 0 0 130.26226230626708 -149.06514094209706 0 -149.06514094209706 -95.946010816503986 0 0 0 0 -45.056264063651724 -18.178491104248678 0 -18.178491104248678 128.73926499489608 0 0 0 0 -36.807288947713459 -191.07284282175533 0 -191.07284282175533 427.85585691090091 0 0 0 0 60.907633347275805 -172.23445571953926 0 -172.23445571953926 80.553939271980198 0 0 0 0 6.4879484284883802 180.70061965136483 0 180.70061965136483 65.418499777137185 0 0 0 0 265.56212141595233 202.06382121737624 0 202.06382121737624 3.913069248469224 0 0 0 0 335.61038290856641 475.51409443784723 0 475.51409443784723 174.77739148352703 0 0 0 0 -209.4282543762165 -42.35205211713037 0 -42.35205211713037 3.6795579343070415 0 0 0 0 33.119661418091255 159.78857675226027 0 159.78857675226027 20.622844313897076 0 0 0 0 -402.24052295136175 97.769993840020106 0 97.769993840020106 92.13052533150767 0 0 0 0 -285.30125719450643 -125.17173400914908 0 -125.17173400914908 -68.616281021291798 0 0 0 0 205.64992491420981 587.39601025241154 0 587.39601025241154 394.29489172249305 0 0 0 0 -67.102064745613461 133.61944743226923 0 133.61944743226923 137.00220991615788 0 0 0 0 151.43166040120286 533.00803354850359 0 533.00803354850359 505.15191251890428 0 0 0 0 221.21567853589886 564.49666842542683 0 564.49666842542683 441.92806308062427 0 0 0 0 1.9941088702229131 -0.23568819609457137 0 -0.23568819609457137 -0.46215925326894336 0 0 0 0 374.29548676499257 316.20298369230295 0 316.20298369230295 -589.67987085392087 0 0 0 0 81.038193851880351 408.89216188618957 0 408.89216188618957 642.95802225810621 0 0 0 0 672.43358543032264 478.27889884597971 0 478.27889884597971 -359.85909360048481 0 0 0 0 -646.06296208465028 -231.6018555020637 0 -231.6018555020637 -34.257864601157053 0 0 0 0 -78.859497438694234 535.84961002087584 0 535.84961002087584 -345.47613594969789 0 0 0 0 -9.9643940387874714 6.4443662223017384 0 6.4443662223017384 -2.1383099895912778 0 0 0 0 -964.42807850993086 71.178752310665004 0 71.178752310665004 871.37559398968006 0 0 0 0 -978.37005347033448 -477.20092582156366 0 -477.20092582156366 352.9835873210759 0 0 0 0 526.14752391775892 -3.969797022495186 0 -3.969797022495186 172.14429145894246 0 0 0 0 -256.41724541466829 302.47127508220728 0 302.47127508220728 572.24167500688054 0 0 0 0 -23.371963904778625 18.212444354108612 0 18.212444354108612 -7.5052769001843558 0 0 0 0 -274.95921306701348 409.82416590263529 0 409.82416590263529 757.83920957586088 0 0 0 0 -403.21531841728029 146.41534168376529 0 146.41534168376529 406.82388943573687 0 0 0 0 -33.042249733219251 56.281189043289487 0 56.281189043289487 103.07973575373035 0 0 0 0 -41.928076227244674 -24.940034867675422 0 -24.940034867675422 743.42946162966109 0 0 0 0 -602.10652637861494 276.28939384358091 0 276.28939384358091 807.29782173436979 0 0 0 0 3.5441380658077719 -1.0250725348887499 0 -1.0250725348887499 -4.574301584027296 0 0 0 0 -6.4431201567831522 -88.147883294848725 0 -88.147883294848725 233.13594640128576 0 0 0 0 437.51587858227185 486.83973201640219 0 486.83973201640219 223.56393200335879 0 0 0 0 -276.55430262509253 723.79200212664364 0 723.79200212664364 926.65647104383879 0 0 0 0 5.6542566958083462 6.3713157893370678 0 6.3713157893370678 6.2951483396123251 0 0 0 0 -60.422817411174037 24.002668473847734 0 24.002668473847734 66.86964912458825 0 0 0 0 2.6105210316530005 15.07538819346086 0 15.07538819346086 23.023707952842472 0 0 0 0 -47.784719569484878 26.043501628741069 0 26.043501628741069 9.8985514360028901 0 0 0 0 -106.6587916722732 43.61070549834767 0 43.61070549834767 80.748682955716504 0 0 0 0 -50.675338831212159 -5.0188436360268582 0 -5.0188436360268582 14.685546283278768 0 0 0 0 -60.60095099298178 -19.282552342466261 0 -19.282552342466261 131.26748811949801 0 0 0 0 -65.537137794856022 1.9779708013484196 0 1.9779708013484196 40.916551774986146 0 0 0 0 897.47720713274248 -1249.7591894549514 0 -1249.7591894549514 700.11860211860039 0 0 0 0 -59.260432740260683 0.77097175073782154 0 0.77097175073782154 30.435911268085846 0 0 0 0 -44.371629202571057 -9.0715101973182755 0 -9.0715101973182755 34.776350617034041 0 0 0 0 -51.594377841807727 -4.0888167382436222 0 -4.0888167382436222 37.538482346430101 0 0 0 0 -612.56945964244414 394.2622473813135 0 394.2622473813135 -40.714811665617162 0 0 0 0 -317.32521366411129 36.834574204258388 0 36.834574204258388 85.086833226092494 0 0 0 0 -13.502423338338986 2.9634942204866803 0 2.9634942204866803 -3.9421826746493593 0 0 0 0 -302.36050058158071 11.452489762476034 0 11.452489762476034 0.63381549720361363 0 0 0 0 -1946.9396365297762 1444.9859652432315 0 1444.9859652432315 774.50118176192336 0 0 0 0 -73.291761607046467 24.284335069889181 0 24.284335069889181 -1.7676322952961101 0 0 0 0 -24.089272652030211 13.656943866387394 0 13.656943866387394 -8.3962923315260696 0 0 0 0 -425.5272124110088 -99.303275775884686 0 -99.303275775884686 -86.197620160033694 0 0 0 0 -2195.8570048717756 -39.758431308899162 0 -39.758431308899162 10.279594266270578 0 0 0 0 699.68518533786118 802.48341847003758 0 802.48341847003758 -3399.0988112992563 0 0 0 0 962.42296181675192 1711.2686192752153 0 1711.2686192752153 -2871.7750606775371 0 0 0 0 -222.02228361232119 516.70259108756727 0 516.70259108756727 -149.98392581904773 0 0 0 0 -627.02861989712255 2392.8069436243968 0 2392.8069436243968 -2837.3025712440285 0 0 0 0 284.79827134421612 213.5441255897349 0 213.5441255897349 -3469.764185272812 0 0 0 0 640.79124704567221 114.31856782490649 0 114.31856782490649 -543.96887948953372 0 0 0 0 -1799.7682622911234 41.42832210011693 0 41.42832210011693 113.9445843604426 0 0 0 0 54.433324163256799 62.461293286610463 0 62.461293286610463 26.652659657686058 0 0 0 0 -34.051604227419475 30.035172087015695 0 30.035172087015695 -1.4591622719453028 0 0 0 0 -1261.0768094762097 -230.80880462740606 0 -230.80880462740606 34.213182302479254 0 0 0 0 -6.877832108970324 96.944338019042334 0 96.944338019042334 -185.19982103868824 0 0 0 0 -2.593940815745384 15.603479462129926 0 15.603479462129926 -22.712903648830888 0 0 0 0 8.2756734352197299 85.032584077768746 0 85.032584077768746 -50.859865122123296 0 0 0 0 745.68336531212844 585.2293142459821 0 585.2293142459821 265.55065253270732 0 0 0 0 -53.06477548567932 -0.14663682091145347 0 -0.14663682091145347 27.358667970998795 0 0 0 0 1092.3847340180509 1026.7065783128492 0 1026.7065783128492 188.02035511840404 0 0 0 0 1717.0880156137064 -1265.7719480813175 0 -1265.7719480813175 -183.5736452225683 0 0 0 0 -39.048968821632094 -10.705702333630157 0 -10.705702333630157 32.001353207187549 0 0 0 0 1814.474948156937 -286.54292367550306 0 -286.54292367550306 -3009.3692487103399 0 0 0 0 -4057.4276498288382 -366.24871441278083 0 -366.24871441278083 726.66774861328304 0 0 0 0 -357.55415310595708 2482.7657627616281 0 2482.7657627616281 -2648.1630425945459 0 0 0 0 -1555.3440642065452 2028.8645985988878 0 2028.8645985988878 -384.89149480257765 0 0 0 0 -1062.2290496202913 920.44063614982588 0 920.44063614982588 -112.34917121272883 0 0 0 0 -3628.1605677753323 1700.8799218546628 0 1700.8799218546628 -328.66912793810479 0 0 0 0 -407.59666690632002 838.32867895135132 0 838.32867895135132 -436.90764106009738 0 0 0 0 -638.05904198854114 865.02174554635712 0 865.02174554635712 -180.19514077703934 0 0 0 0 -658.22472732221649 1573.9226845095545 0 1573.9226845095545 -410.71650261858304 0 0 0 0 -247.62578963619308 1712.3827682494739 0 1712.3827682494739 -375.99212344056286 0 0 0 0 -900.39598470595229 1096.7795036794996 0 1096.7795036794996 -383.95382637638249 0 0 0 0 35.35223044902159 1407.2288202316195 0 1407.2288202316195 -543.37808251363458 0 0 0 0 1218.8206888554632 1157.8968904675712 0 1157.8968904675712 -1537.0218259780813 0 0 0 0 -52.699660050595412 477.18824547830445 0 477.18824547830445 -707.39028628353844 0 0 0 0 -18.816459983756602 1.3178808033360951 0 1.3178808033360951 28.942450784067006 0 0 0 0 -383.52074160746997 855.09859980794135 0 855.09859980794135 -316.56959293218097 0 0 0 0 -906.24133301631082 294.06545894210285 0 294.06545894210285 84.620356047304085 0 0 0 0 -133.57308824396932 -3.6754485121773541 0 -3.6754485121773541 -42.300030419719405 0 0 0 0 -2.0813853394465056 31.819452919133951 0 31.819452919133951 72.169776670987801 0 0 0 0 -27.752428581359709 48.525276905693318 0 48.525276905693318 98.617632934867288 0 0 0 0 -25.663051675219322 39.897897917035152 0 39.897897917035152 105.45654712543183 0 0 0 0 -8.4252940862788819 50.6962242841837 0 50.6962242841837 76.045400141796563 0 0 0 0 -14.620640218276094 54.489360735431546 0 54.489360735431546 106.34627709076449 0 0 0 0 -10.791266069934863 41.80358043265187 0 41.80358043265187 107.42279783678532 0 0 0 0 -21.224511483887909 52.909865116476794 0 52.909865116476794 131.94511367591622 0 0 0 0 -40.242156022555719 56.188924574555131 0 56.188924574555131 132.31296217871295 0 0 0 0 -46.470370584975171 98.964766495304502 0 98.964766495304502 42.887495079892687 0 0 0 0 -14.993021173126181 86.702044534415109 0 86.702044534415109 103.52844785964407 0 0 0 0 -53.045429959027388 -24.203568212476966 0 -24.203568212476966 124.03829022279751 0 0 0 0 -53.268046762468543 -3.1809058151752652 0 -3.1809058151752652 32.493619823129848 0 0 0 0 -21.766360046183927 -2.8164677996395504 0 -2.8164677996395504 8.6028080649635967 0 0 0 0 -31.159529420297076 -4.8724566577086392 0 -4.8724566577086392 40.235033004941926 0 0 0 0 -29.941334888491678 -11.412708365335675 0 -11.412708365335675 21.924424483405119 0 0 0 0 -51.875460854200355 -2.8889379581378307 0 -2.8889379581378307 32.513541518652346 0 0 0 0 -77.029295461338734 3.9992004167988853 0 3.9992004167988853 21.659415374320815 0 0 0 0 -56.66909035726831 23.884640128274654 0 23.884640128274654 6.4771254799740348 0 0 0 0 -51.630141276600625 23.789939951144333 0 23.789939951144333 94.976649733929662 0 0 0 0 -33.905071714176302 2.6777213499044592 0 2.6777213499044592 31.144384405950404 0 0 0 0 -81.298143229197876 21.298878779306506 0 21.298878779306506 23.758213543740567 0 0 0 0 -82.597977967541738 15.932765450786974 0 15.932765450786974 26.347572897648206 0 0 0 0 -52.211894528195671 33.846777514514542 0 33.846777514514542 25.685464367066743 0 0 0 0 -84.826912227501452 9.0646142610748939 0 9.0646142610748939 38.8945265498769 0 0 0 0 -78.616938186984044 10.109203166735824 0 10.109203166735824 21.717945660930127 0 0 0 0 -87.397668735021853 0.5140663100501115 0 0.5140663100501115 11.21382928735693 0 0 0 0 -85.554115052879752 -5.9174303440086078 0 -5.9174303440086078 25.559447639338032 0 0 0 0 -62.479094147846808 54.739324117641445 0 54.739324117641445 5.5404260217910632 0 0 0 0 -125.93482518361088 -4.9299355669718352 0 -4.9299355669718352 25.111895715759601 0 0 0 0 -3.8454370528524535 -3.6082620288814837 0 -3.6082620288814837 10.501786379089722 0 0 0 0 -84.748795178807086 22.271224406824331 0 22.271224406824331 11.176290868213982 0 0 0 0 838.501821442238 113.49755377209476 0 113.49755377209476 -107.29499160825799 0 0 0 0 139.34403253478013 244.55639089404576 0 244.55639089404576 -131.85771197667054 0 0 0 0 -13.189158199829503 6.6592195914724002 0 6.6592195914724002 7.7209869158306219 0 0 0 0 99.632473040590412 209.3753564104336 0 209.3753564104336 144.04814095173788 0 0 0 0 -55.958665907757677 41.733536410774832 0 41.733536410774832 -18.585690202613478 0 0 0 0 -54.2104089216067 37.511888182650793 0 37.511888182650793 -2.6594480875460533 0 0 0 0 -68.946581261548999 89.905275249089755 0 89.905275249089755 40.869551376265917 0 0 0 0 -27.089190212274843 30.980965839960845 0 30.980965839960845 -16.380698534030671 0 0 0 0 0.3531365246817586 83.206866639658983 0 83.206866639658983 36.428768321798998 0 0 0 0 -71.594809533198713 123.2576504104436 0 123.2576504104436 155.75682310292177 0 0 0 0 -0.0015735619295966785 0.86405090231173176 0 0.86405090231173176 3.249308327167455 0 0 0 0 -143.5971267535715 42.58520575411967 0 42.58520575411967 110.1345591687932 0 0 0 0 385.15942154041619 -224.15335065745154 0 -224.15335065745154 -186.23741267634614 0 0 0 0 377.49734399373654 151.62921092820346 0 151.62921092820346 73.006893464757013 0 0 0 0 41.328178090010624 61.702125552339567 0 61.702125552339567 100.36522522182349 0 0 0 0 40.561147254029493 53.728447592042357 0 53.728447592042357 64.460737317302119 0 0 0 0 17.590952375750931 8.1070893989508477 0 8.1070893989508477 171.43733444445388 0 0 0 0 86.47892867576229 4.4430805835727369 0 4.4430805835727369 98.48966821031172 0 0 0 0 -44.595625075578937 66.068972953073171 0 66.068972953073171 27.135438538345625 0 0 0 0 -316.30512729054863 552.80486809257673 0 552.80486809257673 -620.1865805980342 0 0 0 0 -69.465700896042108 94.304695767579688 0 94.304695767579688 61.564820222076378 0 0 0 0 -10.808337278067057 41.786097461376379 0 41.786097461376379 55.715548740836653 0 0 0 0 -34.737446208739129 67.711260253025102 0 67.711260253025102 213.35600886880638 0 0 0 0 -50.388315407055572 60.644211831067807 0 60.644211831067807 5.9124203306464409 0 0 0 0 -70.545590624741038 24.779263483344181 0 24.779263483344181 33.17694115954373 0 0 0 0 -41.727931494657241 110.90587688790401 0 110.90587688790401 94.850546615678468 0 0 0 0 11.136416812937256 72.056361466658416 0 72.056361466658416 83.274558087846657 0 0 0 0 20.831831602521561 198.67299107854342 0 198.67299107854342 136.20856025896501 0 0 0 0 19.982251835193892 130.4667325939663 0 130.4667325939663 -164.38968511865824 0 0 0 0 -2011.7364469293971 -226.48913344211905 0 -226.48913344211905 601.31601062821574 0 0 0 0 -33.673059396158351 396.8724648277057 0 396.8724648277057 -1882.0186687540991 0 0 0 0 -26.362427809600177 3.6226715819323658 0 3.6226715819323658 -1.1459819909772975 0 0 0 0 -32.014460961952864 1210.1829134816144 0 1210.1829134816144 -4308.0347140691883 0 0 0 0 -1390.2122409200056 410.7086743699092 0 410.7086743699092 -1540.9020645260753 0 0 0 0 -694.94986632049404 2015.3712701976037 0 2015.3712701976037 -1246.3692469510643 0 0 0 0 -278.42406877419853 576.31279288479709 0 576.31279288479709 -1044.7115500947548 0 0 0 0 -611.1794040672321 942.39322268161777 0 942.39322268161777 -31.915855969418772 0 0 0 0 -400.46362882267385 503.03463298916176 0 503.03463298916176 254.79230946532334 0 0 0 0 -362.37955648948991 486.44550972456636 0 486.44550972456636 -459.6102333739218 0 0 0 0 -470.79075873259899 719.19955647975621 0 719.19955647975621 -382.40401137752633 0 0 0 0 -655.75503472971104 586.9632604555627 0 586.9632604555627 -270.71194720052881 0 0 0 0 -622.55911858213949 666.56546621117013 0 666.56546621117013 -542.32336825704442 0 0 0 0 -603.8187955479525 547.47117808878465 0 547.47117808878465 -528.07105602925003 0 0 0 0 -4.0537699280845629 29.318397311709056 0 29.318397311709056 68.398896161198309 0 0 0 0 -664.43033347321034 755.00072654396354 0 755.00072654396354 -530.5136922391539 0 0 0 0 -652.03744667954925 680.9174024949225 0 680.9174024949225 -434.92081080662319 0 0 0 0 -7.5117082656171874 3.2692014151969033 0 3.2692014151969033 3.2762474147910581 0 0 0 0 -154.6354684725884 135.20172051688132 0 135.20172051688132 211.6470986919885 0 0 0 0 -57.752806090124068 270.96406896173721 0 270.96406896173721 -172.65972755728581 0 0 0 0 10.121111464070054 64.015659859265725 0 64.015659859265725 -23.504057518526679 0 0 0 0 16.325020501348867 27.4831999659296 0 27.4831999659296 -30.139523007144305 0 0 0 0 160.23470859448935 437.9235905471287 0 437.9235905471287 -644.05131612708647 0 0 0 0 -85.956724894462241 -17.92361149493172 0 -17.92361149493172 -164.31332094558456 0 0 0 0 -131.41164521286555 -402.33155562920729 0 -402.33155562920729 -327.38568288594251 0 0 0 0 47.867085834529462 252.90640827603784 0 252.90640827603784 -318.88827710101032 0 0 0 0 3.5564579100056761 5.5663344372054269 0 5.5663344372054269 6.6161382886706406 0 0 0 0 -506.21977202714515 -108.82140493203769 0 -108.82140493203769 523.19850993040018 0 0 0 0 344.14783748873015 561.26919962010288 0 561.26919962010288 -209.48507797783532 0 0 0 0 -63.638545394176617 236.38043483922957 0 236.38043483922957 -116.21711299673188 0 0 0 0 -194.95598158526263 310.47817631342332 0 310.47817631342332 -17.214813420112478 0 0 0 0 -134.98246477529756 498.81237836681248 0 498.81237836681248 -140.68343449367967 0 0 0 0 166.64436429257694 348.32601550374966 0 348.32601550374966 -188.16692672797944 0 0 0 0 85.741119881309714 243.59966289783915 0 243.59966289783915 -244.47287729612435 0 0 0 0 111.32143114481005 197.98467649373924 0 197.98467649373924 -176.6163760254276 0 0 0 0 38.184096683369717 51.90113881736761 0 51.90113881736761 -203.12355977023253 0 0 0 0 -85.724072534285369 100.68580899383232 0 100.68580899383232 -78.621502305613831 0 0 0 0 28.216924452368403 102.36870345656644 0 102.36870345656644 -172.95005261871847 0 0 0 0 172.47896367494104 5.3323432731558569 0 5.3323432731558569 -120.13169923500391 0 0 0 0 618.20770209845796 63.749372109974502 0 63.749372109974502 -177.54597107812879 0 0 0 0 361.15154187305598 221.87796658524894 0 221.87796658524894 -252.42209844836907 0 0 0 0 -0.2064073578294483 640.14570680270845 0 640.14570680270845 303.33650876340835 0 0 0 0 -108.23957835180045 677.67621316814621 0 677.67621316814621 1359.2685138888482 0 0 0 0 41.628247001106502 482.15011781050998 0 482.15011781050998 -133.17784916225355 0 0 0 0 26.712398235589774 24.541204103478762 0 24.541204103478762 23.11233124080951 0 0 0 0 -33.705130257825658 1019.6556123985501 0 1019.6556123985501 -686.7175137440754 0 0 0 0 -534.88775005726347 1041.840307244529 0 1041.840307244529 -677.82262322644237 0 0 0 0 -287.26976286178979 1588.3542498502211 0 1588.3542498502211 -761.25244825074333 0 0 0 0 605.23473074484355 1732.0360668300418 0 1732.0360668300418 -1577.5996456326102 0 0 0 0 360.49103529220884 1222.5067512067471 0 1222.5067512067471 -1066.5421124526256 0 0 0 0 -1022.7167197539311 2023.4166181630862 0 2023.4166181630862 -789.18974719149992 0 0 0 0 -352.94231004843459 1523.6459340869842 0 1523.6459340869842 -464.71410416680737 0 0 0 0 -608.30785671622652 878.81199023006047 0 878.81199023006047 -146.95846332606743 0 0 0 0 -1345.0210790034907 1144.5259373326844 0 1144.5259373326844 352.2286969882116 0 0 0 0 -3208.7317343954419 1943.0155065085273 0 1943.0155065085273 37.090343298041262 0 0 0 0 -562.78571463750995 3781.5426676933421 0 3781.5426676933421 -3298.2007994010928 0 0 0 0 1.3907656145750593 6.4284936388614966 0 6.4284936388614966 6.5524382139255408 0 0 0 0 -5715.9181210338866 1323.3812573868927 0 1323.3812573868927 -822.32367204182083 0 0 0 0 2.9848237673504627 16.050459675938328 0 16.050459675938328 -299.13427682657493 0 0 0 0 -178.39821335080342 -12.380471510259667 0 -12.380471510259667 -144.01552693272242 0 0 0 0 -306.54072158456984 44.83496437346912 0 44.83496437346912 430.87427344136813 0 0 0 0 -223.79095248280282 83.950309481715522 0 83.950309481715522 -2.4725910649285652 0 0 0 0 -207.07709773795068 342.21740167630196 0 342.21740167630196 271.11062072240748 0 0 0 0 -181.54362570405647 328.54335098349839 0 328.54335098349839 -147.7824926598114 0 0 0 0 -257.60532046699518 539.92020897028851 0 539.92020897028851 -247.214395280811 0 0 0 0 -68.885798039460497 430.96162169828312 0 430.96162169828312 -451.27561875466199 0 0 0 0 2.1604318062454695 342.70885038899723 0 342.70885038899723 -423.20621580410807 0 0 0 0 -61.73932050113217 336.34456638697884 0 336.34456638697884 -182.22847429847752 0 0 0 0 -74.073042026058829 430.29509813095137 0 430.29509813095137 -312.61269163753605 0 0 0 0 -61.445404797705123 335.69220199961273 0 335.69220199961273 -243.55164593597874 0 0 0 0 2.2848538160906173 351.02872837995528 0 351.02872837995528 -345.42028637064504 0 0 0 0 -2.5551267815535539 318.48547597021388 0 318.48547597021388 -310.23107175377663 0 0 0 0 -2.5493074374235221 317.13649136228923 0 317.13649136228923 -282.52725250829826 0 0 0 0 -22.090351442810061 304.03515246896495 0 304.03515246896495 -219.04504956435994 0 0 0 0 -14.202031514076225 278.90879073936958 0 278.90879073936958 -192.9033749634109 0 0 0 0 -82.734720631677192 214.03246013131866 0 214.03246013131866 -16.277888255252037 0 0 0 0 -57.151341450835389 269.97986901714103 0 269.97986901714103 -182.65169162786333 0 0 0 0 -3.8290676287870156 234.26783888007049 0 234.26783888007049 -165.31779031691258 0 0 0 0 63.384591127658496 281.47496530465287 0 281.47496530465287 -214.89235499099595 0 0 0 0 -2.0748732636748173 327.34303006178379 0 327.34303006178379 -187.22682175645605 0 0 0 0 -26.784845803467761 304.47879045221634 0 304.47879045221634 -207.57107976955012 0 0 0 0 -27.5471003860971 312.17930851574783 0 312.17930851574783 -196.51060975799919 0 0 0 0 -34.450704006354499 277.51877539795532 0 277.51877539795532 -248.89850664882397 0 0 0 0 3.6654344264752581 312.16322109664179 0 312.16322109664179 -255.28653782149195 0 0 0 0 -11.629170209635049 305.01273813040461 0 305.01273813040461 -257.24197885688045 0 0 0 0 3.4424105004000012 310.14361272456154 0 310.14361272456154 -304.49571830616333 0 0 0 0 -7.355019459126197 300.80768144056492 0 300.80768144056492 -284.20741243532393 0 0 0 0 -13.719225268127047 314.91071463471599 0 314.91071463471599 -271.97514617038541 0 0 0 0 -58.213402200788551 289.1596698883659 0 289.1596698883659 -256.9865711769562 0 0 0 0 -138.32029393233825 327.38164394233172 0 327.38164394233172 -250.92220237843867 0 0 0 0 -37.907243476387521 312.92028787195159 0 312.92028787195159 -295.83915982143662 0 0 0 0 -73.6210312375988 235.55637742582621 0 235.55637742582621 -214.87977750861319 0 0 0 0 -35.194015332417621 125.67236186831724 0 125.67236186831724 -115.0390572304168 0 0 0 0 12.353995037134155 58.594558652999694 0 58.594558652999694 -155.37256653575605 0 0 0 0 -60.773602180084708 155.65273559471098 0 155.65273559471098 -128.54492931273126 0 0 0 0 -40.503347890153236 278.57609322405187 0 278.57609322405187 -258.48338251621863 0 0 0 0 -139.38134771626028 219.03035185857152 0 219.03035185857152 -118.75699975411408 0 0 0 0 -6.6781275934990845 185.97731374436989 0 185.97731374436989 -234.07004556107131 0 0 0 0 -20.958992423486052 261.4913497625239 0 261.4913497625239 -255.18073409247154 0 0 0 0 6.6255852445901837 274.9204150402511 0 274.9204150402511 -309.91025801938667 0 0 0 0 11.80301280110325 176.7681179493884 0 176.7681179493884 -243.58668212234625 0 0 0 0 -8.2061003077105852 170.24451418663375 0 170.24451418663375 -243.59903238716652 0 0 0 0 -20.838482156170357 182.91821121975954 0 182.91821121975954 -232.69031757059565 0 0 0 0 -20.283007539437676 107.94646975745854 0 107.94646975745854 -199.73309477797739 0 0 0 0 -17.722820219925779 104.68944589142484 0 104.68944589142484 -230.02288597081497 0 0 0 0 39.004125008301344 96.381167243700475 0 96.381167243700475 -285.13288050574192 0 0 0 0 33.0499940026275 121.06091893625853 0 121.06091893625853 -315.9221337629715 0 0 0 0 16.664219019377015 186.93561847059937 0 186.93561847059937 -350.80285266847932 0 0 0 0 41.447443960540113 212.08497431695287 0 212.08497431695287 -329.45767217795947 0 0 0 0 25.383451383990177 275.77098918244155 0 275.77098918244155 -355.5066482432012 0 0 0 0 39.245777931933844 282.52366786943458 0 282.52366786943458 -404.73423845914658 0 0 0 0 45.158326058961393 271.34390952496324 0 271.34390952496324 -395.42137587747129 0 0 0 0 49.371594894706504 216.46450441792331 0 216.46450441792331 -458.57077278936049 0 0 0 0 48.990196176818699 288.82306768518993 0 288.82306768518993 -595.96307373914169 0 0 0 0 53.20220320232329 177.38277794946043 0 177.38277794946043 -529.08778334665112 0 0 0 0 -43.197045199282002 407.99415125367523 0 407.99415125367523 -478.7698672960978 0 0 0 0 -60.367759156615648 399.89065114293771 0 399.89065114293771 -427.87476571890147 0 0 0 0 14.507842841907404 227.76036049358299 0 227.76036049358299 -590.02851294465654 0 0 0 0 45.813206519938831 2.8720638912745926 0 2.8720638912745926 -670.55917899782071 0 0 0 0 27.34886751484737 204.16729825374205 0 204.16729825374205 -429.20885312244354 0 0 0 0 57.52609406895499 87.103789984845207 0 87.103789984845207 -464.27620668771851 0 0 0 0 26.581462985057442 66.701198293769266 0 66.701198293769266 -300.71679220613441 0 0 0 0 -77.780495780218189 -27.980953693018819 0 -27.980953693018819 -90.454842473191093 0 0 0 0 -10.140386609402825 18.88551040430653 0 18.88551040430653 4.1556853977094903 0 0 0 0 33.7828386870533 88.123370356261148 0 88.123370356261148 -287.59380899259122 0 0 0 0 -33.38398015009443 17.460164652780804 0 17.460164652780804 16.421460090088658 0 0 0 0 -8.253457542261458 22.677806703170063 0 22.677806703170063 0.020486399754960142 0 0 0 0 -9.0449448664476222 22.999009727722296 0 22.999009727722296 2.9261549944349099 0 0 0 0 25.645326911362645 11.076717027721315 0 11.076717027721315 -175.37812063469028 0 0 0 0 66.002402580783382 39.374748883939901 0 39.374748883939901 -286.83490977899055 0 0 0 0 -51.514610840677051 81.684182938595768 0 81.684182938595768 -91.014096919898293 0 0 0 0 -13.301326159761572 18.994445956328747 0 18.994445956328747 6.7882298058818975 0 0 0 0 -12.819619271744159 20.851977280661231 0 20.851977280661231 5.6792327828989073 0 0 0 0 9.2993152658673353 105.96369074245013 0 105.96369074245013 -234.79258824128192 0 0 0 0 -0.51078106021914493 1.2809651290899069 0 1.2809651290899069 8.2214080505048628 0 0 0 0 -13.799641896606772 19.195587961174169 0 19.195587961174169 2.8798084699665196 0 0 0 0 -11.136846654091642 20.375668885004416 0 20.375668885004416 0.0028313619113760069 0 0 0 0 -11.063299481505965 12.965432129785768 0 12.965432129785768 9.3081058437019237 0 0 0 0 -51.794734369945218 74.380785746026959 0 74.380785746026959 -22.706987545170705 0 0 0 0 1.763242814808109 27.780592671202612 0 27.780592671202612 22.506779703384382 0 0 0 0 -10.477867425838767 7.7251959587953252 0 7.7251959587953252 2.5942768901670661 0 0 0 0 -3.5510730214406863 16.121489847540801 0 16.121489847540801 4.2296554355125906 0 0 0 0 -343.25740303915518 1064.5373382010403 0 1064.5373382010403 -1331.262254111396 0 0 0 0 -580.31435547243746 1387.3761038123921 0 1387.3761038123921 -534.13704095188587 0 0 0 0 -497.21621436607165 953.75862846242671 0 953.75862846242671 -421.12954776718107 0 0 0 0 -451.12435948467828 843.93371410680993 0 843.93371410680993 -821.57395502983127 0 0 0 0 -501.27890198736941 638.29387347399006 0 638.29387347399006 -721.84469444696151 0 0 0 0 -585.98653080583608 685.03065092146426 0 685.03065092146426 -621.53694457834354 0 0 0 0 -532.79009266308094 444.17223408276186 0 444.17223408276186 -1231.2466117941221 0 0 0 0 -975.99894966717693 478.02442468613299 0 478.02442468613299 -586.70179959438792 0 0 0 0 -720.14472077997198 867.09245399256906 0 867.09245399256906 -859.67957641763496 0 0 0 0 -156.53871041511593 587.82174015744749 0 587.82174015744749 -773.88475489473785 0 0 0 0 73.361218323465437 215.48806165044516 0 215.48806165044516 -755.80019858753667 0 0 0 0 -112.28871611764043 28.034035294971545 0 28.034035294971545 -200.76489741945988 0 0 0 0 -117.89007678913185 -102.93253216972516 0 -102.93253216972516 -285.95246421219781 0 0 0 0 10.980878517148085 -406.32259723584139 0 -406.32259723584139 -1241.7116514803347 0 0 0 0 -78.355476415337762 581.17411265845294 0 581.17411265845294 -1540.0120854593988 0 0 0 0 0.29620697508961769 3.7546186832933017 0 3.7546186832933017 -10.984908963408827 0 0 0 0 -693.64725444042961 917.85886176875556 0 917.85886176875556 379.08260242862161 0 0 0 0 275.14105458472477 150.7892898835853 0 150.7892898835853 283.5489076929407 0 0 0 0 805.43453804965725 601.26634128787373 0 601.26634128787373 176.66075780696701 0 0 0 0 799.40865145708381 754.4614511129389 0 754.4614511129389 272.60558715980733 0 0 0 0 33.159318752172112 105.03517597858445 0 105.03517597858445 -209.82507043565784 0 0 0 0 1043.7820301922911 508.77211971927318 0 508.77211971927318 219.21265045600012 0 0 0 0 -1.3659024804356079 12.610218894290568 0 12.610218894290568 -20.289327221794849 0 0 0 0 29.751469452254241 -11.162914276079391 0 -11.162914276079391 -263.44646700417252 0 0 0 0 678.36821357948065 522.03561789519154 0 522.03561789519154 0.20194362546317279 0 0 0 0 928.01918894606206 417.99430415937968 0 417.99430415937968 43.534887999354396 0 0 0 0 450.85847004561219 459.57997520535719 0 459.57997520535719 441.89512042183196 0 0 0 0 -0.56167499958974076 3.2951441025934116 0 3.2951441025934116 -1.3808957660386625 0 0 0 0 1.0825119010833646 0.78489453041186152 0 0.78489453041186152 0.95368784077913915 0 0 0 0 94.494682001386536 364.82301487846871 0 364.82301487846871 204.78647394551081 0 0 0 0 106.76229919947946 444.61161744137644 0 444.61161744137644 309.02852332085604 0 0 0 0 518.45719369947619 324.85811698826728 0 324.85811698826728 134.32667576581662 0 0 0 0 491.21606164213154 549.46083394724701 0 549.46083394724701 523.55049629459972 0 0 0 0 -395.81505103360178 768.87633096420541 0 768.87633096420541 0.30496127807418816 0 0 0 0 -271.77060045008329 829.26315823066034 0 829.26315823066034 60.672547331676469 0 0 0 0 -555.10419688458205 992.10666468399722 0 992.10666468399722 -419.04321346695178 0 0 0 0 -565.84478432832111 746.08025425269443 0 746.08025425269443 179.4789384946198 0 0 0 0 -675.46170185482333 841.57220377492195 0 841.57220377492195 -6.983606988680549 0 0 0 0 -603.73676138696464 624.13845542518538 0 624.13845542518538 -44.169354920100886 0 0 0 0 -773.1277661765962 652.56390770792859 0 652.56390770792859 -121.11010419356171 0 0 0 0 -741.87376417347696 739.22951478148025 0 739.22951478148025 -0.14762339469281752 0 0 0 0 -762.10459877314679 672.38344907363353 0 672.38344907363353 -201.35602281785395 0 0 0 0 -708.85084069815639 651.57899810349045 0 651.57899810349045 -221.61279090344033 0 0 0 0 -760.58182994293747 769.85604717219394 0 769.85604717219394 -408.92684199975338 0 0 0 0 -632.26722360947315 749.11764813533591 0 749.11764813533591 -475.33220278515364 0 0 0 0 -676.4580101823085 760.25197602626577 0 760.25197602626577 -234.36300752599345 0 0 0 0 -714.39550700212567 657.47105593750166 0 657.47105593750166 -485.85351842132513 0 0 0 0 -584.88465280893433 663.06160586447368 0 663.06160586447368 -735.6165850366524 0 0 0 0 -518.46401438223256 788.56313334322476 0 788.56313334322476 -500.89278687510887 0 0 0 0 -923.27741560674622 704.81653950463806 0 704.81653950463806 -416.77948629426101 0 0 0 0 -849.34262746488093 590.78206827490067 0 590.78206827490067 -506.02054908491482 0 0 0 0 -444.56912064302014 974.90519462182419 0 974.90519462182419 -1215.7656056052074 0 0 0 0 -1012.3594253056217 1001.7862289600016 0 1001.7862289600016 -591.11335391062312 0 0 0 0 -15.564839428377056 34.666334183574996 0 34.666334183574996 64.790975282827787 0 0 0 0 0.29061931725138379 10.554771280466326 0 10.554771280466326 17.348377436966359 0 0 0 0 -566.23972899543151 621.52658473167685 0 621.52658473167685 -530.16726049259523 0 0 0 0 410.69908573137218 63.575297615949239 0 63.575297615949239 -34.278032566442562 0 0 0 0 -15.944234458482242 184.2976954662372 0 184.2976954662372 127.83584280041396 0 0 0 0 -101.07126967623481 57.186970329275937 0 57.186970329275937 5.3240579954763234 0 0 0 0 -55.850101825151484 61.45930541664859 0 61.45930541664859 -17.856207088427539 0 0 0 0 -535.37562150254962 445.63117656033137 0 445.63117656033137 145.57537986984244 0 0 0 0 -105.69088844789076 234.03966559100081 0 234.03966559100081 45.757899616843133 0 0 0 0 41.026404027715301 49.745691648856884 0 49.745691648856884 26.545964935846825 0 0 0 0 -451.55017022142897 592.88694665859771 0 592.88694665859771 -533.86878009320935 0 0 0 0 -50.621937923382575 -41.446874711032251 0 -41.446874711032251 63.931613302585902 0 0 0 0 704.07390949584078 235.89093909475923 0 235.89093909475923 -124.05002103599327 0 0 0 0 -561.56669768947177 585.44222187587002 0 585.44222187587002 -309.73980031954125 0 0 0 0 39.108672087480443 28.902685288240676 0 28.902685288240676 19.957199269229477 0 0 0 0 -606.77157359066041 685.82209648346907 0 685.82209648346907 -532.59814503054463 0 0 0 0 -734.08846082825767 563.13371867438764 0 563.13371867438764 -0.040579598367912695 0 0 0 0 -596.76658216823125 519.77871428319486 0 519.77871428319486 -305.10493973566827 0 0 0 0 -483.59085778419831 332.91842241888298 0 332.91842241888298 -0.6612473715795204 0 0 0 0 17.272039311244271 10.209916412217225 0 10.209916412217225 6.7349628276689657 0 0 0 0 397.44396871163917 2779.676375700612 0 2779.676375700612 0.14757473365172954 0 0 0 0 3925.0847731826871 -970.44464933716517 0 -970.44464933716517 -167.27302691875229 0 0 0 0 4248.5742133235781 1700.2014738643134 0 1700.2014738643134 -427.80725155181426 0 0 0 0 699.48551204496607 171.91937936226986 0 171.91937936226986 72.221798785147257 0 0 0 0 2603.5864152593167 2704.1277174563875 0 2704.1277174563875 -203.06614472630463 0 0 0 0 1016.2264636935579 3121.9374105143652 0 3121.9374105143652 147.86037476082129 0 0 0 0 302.59005404771597 3265.896917465725 0 3265.896917465725 1409.8865922801415 0 0 0 0 751.63928416452109 2396.2510227397761 0 2396.2510227397761 935.90473492469755 0 0 0 0 1160.0509327522595 1880.5884912414767 0 1880.5884912414767 1050.0242944754245 0 0 0 0 653.14980543853017 2457.2470452178895 0 2457.2470452178895 978.36220834436244 0 0 0 0 2150.8539026192739 1953.0586665367555 0 1953.0586665367555 300.24870609873324 0 0 0 0 1545.5794594647596 2499.4968902445034 0 2499.4968902445034 466.30541269496462 0 0 0 0 1148.559033577586 1526.1469990085625 0 1526.1469990085625 138.36989350887598 0 0 0 0 938.18988200261083 1652.6233931789902 0 1652.6233931789902 827.5032613090516 0 0 0 0 1363.1019870236923 110.67494109403924 0 110.67494109403924 -212.84949604358553 0 0 0 0 1757.0021129972592 1104.1280557494683 0 1104.1280557494683 129.68964184397191 0 0 0 0 1767.0246155843488 1338.4270953782543 0 1338.4270953782543 -473.78001824464081 0 0 0 0 1091.656501356716 1248.2312277934288 0 1248.2312277934288 610.51381052394572 0 0 0 0 934.99208437739435 715.04415269855235 0 715.04415269855235 -47.527240563806117 0 0 0 0 559.83060521549487 229.62211868793383 0 229.62211868793383 -23.369859448830539 0 0 0 0 534.35225146636003 409.38423313230305 0 409.38423313230305 177.1333535805752 0 0 0 0 746.15257275611293 709.96763138505776 0 709.96763138505776 289.41698904393706 0 0 0 0 185.23649740833207 304.27267987673258 0 304.27267987673258 229.70977570690502 0 0 0 0 482.94047222869631 745.3096188296895 0 745.3096188296895 597.82697608193848 0 0 0 0 301.904344262206 142.54521508776816 0 142.54521508776816 0.84849233823479153 0 0 0 0 -116.7456709585822 72.907953930785879 0 72.907953930785879 -78.778462490947277 0 0 0 0 129.50145333717228 -376.80015723747783 0 -376.80015723747783 212.86045409919461 0 0 0 0 -53.984714251525048 34.148398717318514 0 34.148398717318514 -17.259237263761605 0 0 0 0 891.63199714653456 1119.5227986814571 0 1119.5227986814571 803.36463521408587 0 0 0 0 704.01791622612654 834.45282406332262 0 834.45282406332262 267.47914448854135 0 0 0 0 798.09438636163395 1258.8150553901542 0 1258.8150553901542 1123.6627018258841 0 0 0 0 451.22135824752331 720.36888810520395 0 720.36888810520395 885.57567230500717 0 0 0 0 858.4854852432909 772.39532470939594 0 772.39532470939594 720.74615232906217 0 0 0 0 310.72109596145674 643.48329659196133 0 643.48329659196133 919.37838702904992 0 0 0 0 428.20382657065056 747.97175908828285 0 747.97175908828285 852.52932793790387 0 0 0 0 94.138302385017596 40.40641220544785 0 40.40641220544785 100.64995139506937 0 0 0 0 28.288807434513728 110.60364679894701 0 110.60364679894701 120.1578081556363 0 0 0 0 -50.189884498284272 25.585432367277889 0 25.585432367277889 -11.995827180326529 0 0 0 0 439.30230053486594 459.61171419361199 0 459.61171419361199 375.24578837994341 0 0 0 0 -74.817229354288429 205.54798894304986 0 205.54798894304986 -13.687978466878121 0 0 0 0 -6.8358737419403042 108.82209688393777 0 108.82209688393777 65.567616252141306 0 0 0 0 58.559803731553529 131.19446558606819 0 131.19446558606819 -6.0053168845624896 0 0 0 0 1.4544376311683891 1.1390772174019617 0 1.1390772174019617 -3.6777592203407607 0 0 0 0 -97.667279540910386 35.221233117277734 0 35.221233117277734 127.97802667641372 0 0 0 0 330.79741126717272 335.66840914252316 0 335.66840914252316 309.26139328473073 0 0 0 0 -249.85661352326861 341.6201237278874 0 341.6201237278874 -72.740074778354028 0 0 0 0 -56.159042601572025 28.350285429262243 0 28.350285429262243 -10.562401079775242 0 0 0 0 -37.405520981810696 65.41154723312502 0 65.41154723312502 110.53088250848668 0 0 0 0 -36.455854939100391 75.391726615278458 0 75.391726615278458 127.31649221892985 0 0 0 0 -77.732050610007718 102.13785414439917 0 102.13785414439917 125.84777271280473 0 0 0 0 -193.98459547136008 107.53203403795487 0 107.53203403795487 135.61543271782284 0 0 0 0 -22.207464316721598 91.30104672278685 0 91.30104672278685 80.044105447639595 0 0 0 0 -22.740152987607871 86.919654632823949 0 86.919654632823949 61.785741971863899 0 0 0 0 -2.9331294622461428 77.430845262017101 0 77.430845262017101 61.429568827282537 0 0 0 0 63.65396595026823 40.989799583682498 0 40.989799583682498 48.58635855288594 0 0 0 0 -4.6216179825132713 88.184529584123084 0 88.184529584123084 21.002568331401562 0 0 0 0 -49.621606393935508 70.411725303711137 0 70.411725303711137 77.92919922999863 0 0 0 0 -20.899654458509758 59.294527514030051 0 59.294527514030051 62.340189461523551 0 0 0 0 -32.097669082366338 82.973345971753588 0 82.973345971753588 86.908989919887972 0 0 0 0 -52.655846199158447 61.668322300616978 0 61.668322300616978 -17.186643407709795 0 0 0 0 -54.667707960825638 58.451317704720424 0 58.451317704720424 -20.548880965174462 0 0 0 0 -67.010068632458569 72.244136458808498 0 72.244136458808498 95.452547900697027 0 0 0 0 -48.498909880479914 72.434259231529722 0 72.434259231529722 50.56579864336527 0 0 0 0 -54.526348762057751 76.314680998309996 0 76.314680998309996 52.820573667515418 0 0 0 0 -65.835781051486265 96.008670970033563 0 96.008670970033563 56.012831489808377 0 0 0 0 -61.817203584446361 80.907916186828061 0 80.907916186828061 6.296633556150482 0 0 0 0 -67.378257620606746 112.84956621810124 0 112.84956621810124 6.0728721917494113 0 0 0 0 -19.298912006919636 116.97440347499287 0 116.97440347499287 -77.539566098887008 0 0 0 0 -28.00490709618316 87.460939013213647 0 87.460939013213647 -1.2536527289848891 0 0 0 0 9.5509383046126572 6.6093905615337576 0 6.6093905615337576 -9.7157587939910854 0 0 0 0 -90.032816927261592 60.155481186840916 0 60.155481186840916 65.639341296584462 0 0 0 0 -104.21907234987884 122.67821955653926 0 122.67821955653926 32.128848669570289 0 0 0 0 417.20251130753604 -110.74424844604073 0 -110.74424844604073 -158.52142980343342 0 0 0 0 -65.753991257834272 39.484636411418819 0 39.484636411418819 -22.366558351920418 0 0 0 0 -53.846250477916328 -34.296554894026485 0 -34.296554894026485 18.59880723189417 0 0 0 0 119.71132330114051 311.00237039092463 0 311.00237039092463 171.15796118199069 0 0 0 0 15.731544623260561 86.492541234314558 0 86.492541234314558 88.117905341990991 0 0 0 0 -12.62539070064912 1.0945189221081364 0 1.0945189221081364 0.5569787499495078 0 0 0 0 5.6900988449706347 48.451750365375119 0 48.451750365375119 47.362464423844358 0 0 0 0 -55.956532610725844 78.426383340964094 0 78.426383340964094 64.307353705480637 0 0 0 0 0.81837041626567952 1021.7029623372291 0 1021.7029623372291 2197.6534680178447 0 0 0 0 1125.8294766249019 800.78824290970806 0 800.78824290970806 1722.0921068117823 0 0 0 0 -190.78086670473567 779.15207000613736 0 779.15207000613736 1746.1029385518486 0 0 0 0 290.0748426951468 1046.7588614352862 0 1046.7588614352862 963.93239422117767 0 0 0 0 -336.89648156097974 861.53271228748054 0 861.53271228748054 922.49182654202014 0 0 0 0 0.74096874946553726 738.39654112559947 0 738.39654112559947 -218.13452515433892 0 0 0 0 -27.593504993157694 319.08968359586288 0 319.08968359586288 1775.8108490298473 0 0 0 0 -0.25143833304173313 1008.6597716166652 0 1008.6597716166652 766.95860324079695 0 0 0 0 176.23202645608399 111.17059342337598 0 111.17059342337598 3.3490308334694419 0 0 0 0 290.93087591025687 572.90755480582447 0 572.90755480582447 -408.12236792600015 0 0 0 0 -251.62861931309453 489.02842164911999 0 489.02842164911999 -409.76727090209897 0 0 0 0 -24.2775784346668 3410.4654378767973 0 3410.4654378767973 1820.6446484020998 0 0 0 0 -0.4378044055839812 1045.4382331565462 0 1045.4382331565462 -1527.0621555768303 0 0 0 0 449.99182808176556 785.05549673888891 0 785.05549673888891 -2557.4493054882769 0 0 0 0 11.958363520317278 8.4086557299898175 0 8.4086557299898175 0.33870097890814321 0 0 0 0 72.889792229892919 169.7804387149954 0 169.7804387149954 -1871.926174436514 0 0 0 0 -543.21448382289236 424.11091678121375 0 424.11091678121375 -261.10044593154453 0 0 0 0 -15.618016724765766 93.146805330907227 0 93.146805330907227 21.602096526868991 0 0 0 0 -280.81825108771591 872.49819884377575 0 872.49819884377575 -468.62999583594501 0 0 0 0 -180.39065171970287 485.75615217836457 0 485.75615217836457 -247.34099659994536 0 0 0 0 -417.46514712520002 706.38574471129687 0 706.38574471129687 975.89750327393995 0 0 0 0 28.569078471749265 19.662075855997188 0 19.662075855997188 3.7380040945617452 0 0 0 0 209.2738391290477 416.89303277745785 0 416.89303277745785 -1695.1530801630724 0 0 0 0 -409.77112128764293 484.33372280418212 0 484.33372280418212 728.13944335456472 0 0 0 0 -419.45145994657651 -68.064494464757445 0 -68.064494464757445 -69.60835167588084 0 0 0 0 -174.55949598993175 717.56097602097725 0 717.56097602097725 402.29259017659933 0 0 0 0 101.17209877888672 892.57030481674519 0 892.57030481674519 809.64309622382279 0 0 0 0 -238.32904195510491 462.35138667629508 0 462.35138667629508 1189.6294986395224 0 0 0 0 -347.95178385695908 960.60995314107276 0 960.60995314107276 1647.1327639573719 0 0 0 0 -503.69976065124501 1175.177317466907 0 1175.177317466907 2053.7483495981869 0 0 0 0 -387.75508445178275 940.65501281670004 0 940.65501281670004 1674.825766312686 0 0 0 0 -291.01246992484812 811.6447896577447 0 811.6447896577447 918.1716902036278 0 0 0 0 -220.78736402137292 1012.7833788869029 0 1012.7833788869029 896.99227229654207 0 0 0 0 -280.08010889796424 814.30591214801825 0 814.30591214801825 1095.7279694475583 0 0 0 0 -340.9499856987386 1168.906690519274 0 1168.906690519274 1540.9192559500807 0 0 0 0 -381.00117547746049 1102.6281033119594 0 1102.6281033119594 1622.9564258957107 0 0 0 0 -337.87057059403742 1333.318586620444 0 1333.318586620444 1824.6321347251069 0 0 0 0 -368.14703625041875 1223.3422716791247 0 1223.3422716791247 1976.0460908200621 0 0 0 0 -2977.0592738565829 66.68059117627854 0 66.68059117627854 3577.4790210744613 0 0 0 0 -60.599176018120488 1405.1832600302587 0 1405.1832600302587 2118.1366404182663 0 0 0 0 -342.42452142688489 1331.9173727007128 0 1331.9173727007128 2013.9630638179951 0 0 0 0 112.73765627527609 1276.4758499289601 0 1276.4758499289601 1454.8286130483684 0 0 0 0 -397.08114820640185 1257.474179637109 0 1257.474179637109 2076.6536307464412 0 0 0 0 -444.70516406610841 1242.1682286499199 0 1242.1682286499199 2311.6372603709606 0 0 0 0 1363.4000469201419 1056.8541017559473 0 1056.8541017559473 -554.4415627701128 0 0 0 0 3045.8221962176758 738.22923947947857 0 738.22923947947857 -494.31501394542283 0 0 0 0 -12.604494356606892 16.268573446352832 0 16.268573446352832 -9.7568947693639814 0 0 0 0 -364.86890824546572 1338.9702280940255 0 1338.9702280940255 1939.0040752841887 0 0 0 0 0.029409174065051502 31.228351705328038 0 31.228351705328038 -8.3490853361302086 0 0 0 0 1214.4225258547813 1243.5539572164853 0 1243.5539572164853 -439.24402597350127 0 0 0 0 662.02495715493569 1345.4941557408383 0 1345.4941557408383 -400.40120341021611 0 0 0 0 6.519776316120101 13.179653324374812 0 13.179653324374812 -2.4559419070833073 0 0 0 0 1535.9149759053398 -282.24408034938824 0 -282.24408034938824 -2627.2354486353724 0 0 0 0 660.57088685050257 2456.5008766734973 0 2456.5008766734973 4865.8314039082761 0 0 0 0 -929.57575195275422 -1056.761661521632 0 -1056.761661521632 1018.2589218553621 0 0 0 0 -25.320757416570302 27.478901369156802 0 27.478901369156802 -13.458104847911386 0 0 0 0 180.88659713132074 1732.2865479785505 0 1732.2865479785505 2647.1024518151389 0 0 0 0 178.77090362721356 2099.8472377569487 0 2099.8472377569487 2039.9518801022623 0 0 0 0 689.09646371618146 224.68187433520507 0 224.68187433520507 1558.7395272122812 0 0 0 0 1172.1405089616746 1315.9824091086848 0 1315.9824091086848 1269.0069813957671 0 0 0 0 -313.16906584160461 740.30385968283008 0 740.30385968283008 2459.0997214711533 0 0 0 0 -644.44884332498623 657.75298499960991 0 657.75298499960991 -4.2207028545963112 0 0 0 0 564.13345591228426 663.15790953279065 0 663.15790953279065 -370.37497057372821 0 0 0 0 116.73294057068415 -41.448575988601078 0 -41.448575988601078 903.59072492949781 0 0 0 0 -158.50752637974801 402.02496201405302 0 402.02496201405302 -645.64393101065798 0 0 0 0 30.123602948863777 23.712260685625921 0 23.712260685625921 5.5496357654351414 0 0 0 0 -369.66011606525353 626.10351302292474 0 626.10351302292474 2578.1403885999462 0 0 0 0 -322.97512349778845 750.45247261214536 0 750.45247261214536 2782.86537939751 0 0 0 0 13.172126021580084 13.363564797914506 0 13.363564797914506 3.7556572095433367 0 0 0 0 1371.5766668841025 1540.1700183853609 0 1540.1700183853609 -2148.9987902886642 0 0 0 0 1910.8247717993581 3185.5102143836502 0 3185.5102143836502 -1065.0525765396014 0 0 0 0 407.89401485856797 2508.1752898882405 0 2508.1752898882405 2819.8095193641639 0 0 0 0 -10.272042893841729 13.319810039651856 0 13.319810039651856 -4.287764679198915 0 0 0 0 4245.7434000092326 1900.6231182748452 0 1900.6231182748452 -392.28861978283385 0 0 0 0 214.42932273689439 3002.8122457734244 0 3002.8122457734244 1592.7303659942991 0 0 0 0 518.97987308081429 2178.6761892880168 0 2178.6761892880168 2260.3684647266928 0 0 0 0 828.44843307006522 1881.1770452851197 0 1881.1770452851197 1448.9107724047062 0 0 0 0 964.73807963810395 1458.1152932592959 0 1458.1152932592959 2685.4450242456514 0 0 0 0 1706.6722283783092 1790.219284026618 0 1790.219284026618 -845.20418183699076 0 0 0 0 1434.3397636986047 1236.1196327556754 0 1236.1196327556754 1693.3779118980019 0 0 0 0 1414.3111875053582 1436.443666816238 0 1436.443666816238 1443.3593790116211 0 0 0 0 2185.8194745761139 2532.7340831544971 0 2532.7340831544971 2295.2615435276966 0 0 0 0 935.66954165130278 1585.541334403461 0 1585.541334403461 1599.5087749813101 0 0 0 0 1337.0644172129469 1668.6677643156472 0 1668.6677643156472 1284.3905987062535 0 0 0 0 815.65535575829563 1186.003933113192 0 1186.003933113192 1618.8106620772269 0 0 0 0 1416.5116126210487 1242.9928584108566 0 1242.9928584108566 1845.9540947134956 0 0 0 0 1094.1464309146832 1470.5004010644298 0 1470.5004010644298 1695.4047110357642 0 0 0 0 749.85432876844425 1067.0357526743683 0 1067.0357526743683 1169.9432248805242 0 0 0 0 1272.4758427933484 1162.1424873772266 0 1162.1424873772266 1021.6182607118972 0 0 0 0 735.04813353668578 841.42551227044896 0 841.42551227044896 883.85285839030257 0 0 0 0 583.31064105542828 927.12636826061498 0 927.12636826061498 872.66321599515504 0 0 0 0 310.39919442185783 947.52666067976679 0 947.52666067976679 1223.7557271328988 0 0 0 0 848.63715009589578 1343.6222332565203 0 1343.6222332565203 1119.7252263761911 0 0 0 0 828.43101043936622 1350.2133797034767 0 1350.2133797034767 1120.3641283247052 0 0 0 0 1027.3859589174681 1596.2717309215586 0 1596.2717309215586 1100.7002689965029 0 0 0 0 713.67981551013509 1241.5842979611043 0 1241.5842979611043 1042.6735903913941 0 0 0 0 608.27937496851882 1516.0672718737387 0 1516.0672718737387 1297.6948784314154 0 0 0 0 530.27994793241669 1676.8305266719326 0 1676.8305266719326 1391.7089081136583 0 0 0 0 315.95827300893143 1580.3858858378953 0 1580.3858858378953 1646.0578685454166 0 0 0 0 389.80985507142032 1350.8911998053081 0 1350.8911998053081 1460.6531201906291 0 0 0 0 474.30710524340975 1507.7973129249876 0 1507.7973129249876 1596.6723902860758 0 0 0 0 496.0833813456702 1493.4611304915161 0 1493.4611304915161 1496.8677849876549 0 0 0 0 631.16177269135369 1624.4075861185556 0 1624.4075861185556 1111.6956112189509 0 0 0 0 963.54036605304282 1664.2847958768689 0 1664.2847958768689 1336.6051598061749 0 0 0 0 540.75978678350111 1655.4249281220791 0 1655.4249281220791 1382.5848808294104 0 0 0 0 1452.9875789360522 1552.0194733145545 0 1552.0194733145545 1173.154627596683 0 0 0 0 871.11703454697272 1518.8113348971528 0 1518.8113348971528 1798.341372962459 0 0 0 0 1596.3634597378477 1999.5194647068411 0 1999.5194647068411 2028.5334760179685 0 0 0 0 576.65911296389822 1005.4028269077244 0 1005.4028269077244 3276.1742232632605 0 0 0 0 585.29596381077135 961.96384959315765 0 961.96384959315765 1763.6880678228626 0 0 0 0 323.29713396634907 1094.7110708735709 0 1094.7110708735709 1775.9233316423342 0 0 0 0 457.92572223246225 1449.9262642933336 0 1449.9262642933336 1970.967084142525 0 0 0 0 -48.418025949627918 629.0022185238322 0 629.0022185238322 777.53746673905698 0 0 0 0 452.8074205289895 1373.9065730886987 0 1373.9065730886987 1051.2820093641494 0 0 0 0 25.403272104653297 927.09666307448788 0 927.09666307448788 1681.7521117651486 0 0 0 0 447.76916264648025 874.69213895324719 0 874.69213895324719 -857.63633413049683 0 0 0 0 -11.889321153359617 26.783251201839505 0 26.783251201839505 -6.2372602289462549 0 0 0 0 39.50695812185586 1350.1199160758188 0 1350.1199160758188 816.09337278943713 0 0 0 0 253.20481847612245 1620.103749972739 0 1620.103749972739 631.48553573551635 0 0 0 0 209.67492415721063 1529.6761164354029 0 1529.6761164354029 1286.3477053313618 0 0 0 0 553.88850753981751 1683.0373865814654 0 1683.0373865814654 997.0274880839861 0 0 0 0 -360.99753405011143 1933.8128630336068 0 1933.8128630336068 1262.1851958614861 0 0 0 0 167.4675748073787 1923.4414457135645 0 1923.4414457135645 1858.4098300796541 0 0 0 0 562.82281510894609 1619.3371090294513 0 1619.3371090294513 1315.6359446105344 0 0 0 0 371.39445107257052 1030.9398513816923 0 1030.9398513816923 1410.5415127333749 0 0 0 0 1977.6732117188003 2790.7103353718048 0 2790.7103353718048 1238.4093986911394 0 0 0 0 -3.6204469820024769 4.5911191914254061 0 4.5911191914254061 3.2081383262702161 0 0 0 0 -1011.8843018077059 630.01432601761189 0 630.01432601761189 1399.4523375667632 0 0 0 0 464.4191943318292 1049.6553313166223 0 1049.6553313166223 1878.611047034492 0 0 0 0 1013.2097757310403 2125.8912197785248 0 2125.8912197785248 2121.9812934574193 0 0 0 0 -10.526369551596304 7.4761712757004659 0 7.4761712757004659 10.622398623158603 0 0 0 0 733.20563040839625 1145.7750262785994 0 1145.7750262785994 1978.824817886969 0 0 0 0 839.59843661764171 1128.9198909503248 0 1128.9198909503248 1606.203725356725 0 0 0 0 0.24117826018482447 1384.5471942016702 0 1384.5471942016702 1770.853925240961 0 0 0 0 685.20584431261523 1098.2008531373067 0 1098.2008531373067 531.91064305768668 0 0 0 0 -1.4003841266094241 1806.0302772313116 0 1806.0302772313116 213.27995143429143 0 0 0 0 292.03959060815396 1602.4712308787748 0 1602.4712308787748 332.68434086291381 0 0 0 0 725.24101727439847 371.1296470849511 0 371.1296470849511 -2841.2564986540383 0 0 0 0 -5.1234878043719618 9.4182031475765484 0 9.4182031475765484 -1.8221953829159787 0 0 0 0 -269.0331076368675 541.27672594818796 0 541.27672594818796 3616.6728428374845 0 0 0 0 5.106173619045876 18.244509759591892 0 18.244509759591892 -26.082007761368914 0 0 0 0 54.738367331665359 57.329224874662032 0 57.329224874662032 -23.501146539732872 0 0 0 0 20.196662852002191 35.165486018442607 0 35.165486018442607 -15.474113783697248 0 0 0 0 17.745217864372535 27.574740421227034 0 27.574740421227034 -41.258325574141054 0 0 0 0 10.838470049486205 41.670868281342337 0 41.670868281342337 -17.132361301562923 0 0 0 0 16.448104417002469 19.996558593045847 0 19.996558593045847 -38.893443517823471 0 0 0 0 8.2997200865630987 16.667107881063743 0 16.667107881063743 -30.840297042161865 0 0 0 0 0.024078364651359152 24.568829504674795 0 24.568829504674795 -32.048403661872726 0 0 0 0 11.576025862959796 28.800902730410598 0 28.800902730410598 -48.727315121766878 0 0 0 0 8.104419376117562 7.2177115342275897 0 7.2177115342275897 -8.9085679599917711 0 0 0 0 299.07770361902658 2468.900360722444 0 2468.900360722444 6948.4270404593553 0 0 0 0 11.759199220643495 2902.9665486141894 0 2902.9665486141894 6307.2128036518261 0 0 0 0 24.718357238569297 1636.2096833109536 0 1636.2096833109536 8115.267271329707 0 0 0 0 825.54396146140061 1843.1935033918562 0 1843.1935033918562 5442.6511922016507 0 0 0 0 135.97977828003059 1569.9088283800411 0 1569.9088283800411 5626.5373734947352 0 0 0 0 1146.8599707954272 2210.7194166203044 0 2210.7194166203044 5576.6585781489412 0 0 0 0 933.02487690577982 2321.0088140799198 0 2321.0088140799198 5611.625643813386 0 0 0 0 1692.4036891635333 3177.5014420194639 0 3177.5014420194639 5221.0213194170428 0 0 0 0 1.6383006602054848 819.77681799446259 0 819.77681799446259 1507.5908074292238 0 0 0 0 -5.3890351463354591 5.7396223832301985 0 5.7396223832301985 11.295831671328529 0 0 0 0 1833.8001704310554 2668.1294879509369 0 2668.1294879509369 4299.654639537097 0 0 0 0 1586.794836057059 1959.5670463325077 0 1959.5670463325077 2468.1110328133145 0 0 0 0 -5.8508078981254812 32.951305711230191 0 32.951305711230191 -2.376396814755374 0 0 0 0 464.63808828400943 1568.2373232869322 0 1568.2373232869322 5190.3334793926333 0 0 0 0 446.41016038722591 1295.1906769453235 0 1295.1906769453235 4699.9232371254329 0 0 0 0 472.07389772730676 1435.6702748802018 0 1435.6702748802018 5148.3789750418946 0 0 0 0 773.7249599591305 1527.8178752245003 0 1527.8178752245003 4513.0527658116098 0 0 0 0 41.295450701225491 1084.2633277302448 0 1084.2633277302448 3908.4910967032774 0 0 0 0 15.772768334933403 36.468948592590522 0 36.468948592590522 -7.3539009689540222 0 0 0 0 40.687947038939456 52.352080953627592 0 52.352080953627592 -17.138625918767502 0 0 0 0 430.42645911486761 1060.2543765088103 0 1060.2543765088103 2879.8744766590826 0 0 0 0 734.6199003914121 1779.5434311200595 0 1779.5434311200595 2671.1479299032944 0 0 0 0 229.37484861134726 1461.7171768006156 0 1461.7171768006156 2538.5184991493152 0 0 0 0 367.74213619536022 1072.0887173027695 0 1072.0887173027695 2514.4508703473257 0 0 0 0 43.269626874782261 39.037302861570424 0 39.037302861570424 15.983685811021132 0 0 0 0 30.059534668613196 68.574771302320642 0 68.574771302320642 42.97208057147509 0 0 0 0 35.726685473593534 56.619709626451368 0 56.619709626451368 -9.4197942188366142 0 0 0 0 1.3614369543902285 49.754328665781941 0 49.754328665781941 0.67733946786029264 0 0 0 0 72.335454990432481 85.766463001877128 0 85.766463001877128 -10.080507657414273 0 0 0 0 31.79052417105413 65.981767776764173 0 65.981767776764173 3.6302606770914281 0 0 0 0 36.295892919195467 94.717143164576555 0 94.717143164576555 32.893832306352124 0 0 0 0 38.234301932439848 40.609333871001581 0 40.609333871001581 192.20097788973362 0 0 0 0 -13.460670518929589 38.366093693025334 0 38.366093693025334 60.580846801439833 0 0 0 0 51.138654719252372 69.08060796551581 0 69.08060796551581 210.23197549096449 0 0 0 0 178.49122273863759 144.04237567918608 0 144.04237567918608 208.95238684747824 0 0 0 0 50.701679171004798 57.398147935236921 0 57.398147935236921 119.47458179242676 0 0 0 0 97.612851653699181 121.17908709654148 0 121.17908709654148 145.43948199925944 0 0 0 0 -53.644640442937089 133.4108925049004 0 133.4108925049004 151.46631480459473 0 0 0 0 97.227718426162028 80.788529595985892 0 80.788529595985892 129.14635340640962 0 0 0 0 -202.23031659745175 184.99647047968756 0 184.99647047968756 61.046691445779288 0 0 0 0 142.03452570782974 128.27682803276184 0 128.27682803276184 -427.73746663417842 0 0 0 0 92.159123225981602 218.69670959110226 0 218.69670959110226 -168.75143304695666 0 0 0 0 -18.603865985332789 47.079430469946828 0 47.079430469946828 15.898879233111273 0 0 0 0 -6.7190364523848984 948.69460517598782 0 948.69460517598782 2968.8675549071486 0 0 0 0 44.416731983171644 47.486916155696179 0 47.486916155696179 -26.921158504450538 0 0 0 0 86.556326897552935 68.744552728756389 0 68.744552728756389 9.5300848693295848 0 0 0 0 232.47629010207311 1199.4824736850496 0 1199.4824736850496 2551.8493789198255 0 0 0 0 301.07947464777681 1093.0229216368753 0 1093.0229216368753 1686.4365973579697 0 0 0 0 78.212929465604248 707.19084208992717 0 707.19084208992717 2245.4846588095825 0 0 0 0 312.40287267060194 1014.2570524585062 0 1014.2570524585062 2128.0631421376602 0 0 0 0 375.70406225120678 1413.8449864423637 0 1413.8449864423637 1981.7516216380463 0 0 0 0 326.67995883939147 770.46879354270641 0 770.46879354270641 1112.3384368750703 0 0 0 0 390.62968435078801 1075.4236600867152 0 1075.4236600867152 1388.6073696249514 0 0 0 0 344.07597392445314 1174.787518971134 0 1174.787518971134 1763.1904403017834 0 0 0 0 173.36239698185818 632.19669684134715 0 632.19669684134715 1499.2208391934601 0 0 0 0 -41.41451904448445 69.282960535547829 0 69.282960535547829 -7.3781034791649489 0 0 0 0 -171.41449659556383 -52.109821541462225 0 -52.109821541462225 278.69381435717514 0 0 0 0 -1.5795815619591167 9.7620522502972733 0 9.7620522502972733 16.055755842633431 0 0 0 0 74.440514034416992 81.545633703615749 0 81.545633703615749 -186.35211510255613 0 0 0 0 40.139286868135969 104.50915532529689 0 104.50915532529689 -59.493268679798348 0 0 0 0 340.06373225122661 904.17341477037553 0 904.17341477037553 1284.5365730571211 0 0 0 0 298.64742942889279 454.83467734987789 0 454.83467734987789 614.66323790820752 0 0 0 0 -54.471436869925952 27.999959249695877 0 27.999959249695877 11.217050711107845 0 0 0 0 0.80871595002906815 62.631781655829826 0 62.631781655829826 -21.957142906005117 0 0 0 0 6.4528591145208338 121.355041422059 0 121.355041422059 152.15905809991818 0 0 0 0 45.249559175630566 135.70034741230484 0 135.70034741230484 75.038493088984978 0 0 0 0 19.475353317939152 206.23605999261781 0 206.23605999261781 166.84148150829424 0 0 0 0 72.565397395868786 192.45983417266689 0 192.45983417266689 -48.60472784331796 0 0 0 0 62.03820713586174 150.05299469335296 0 150.05299469335296 -35.428635842392396 0 0 0 0 81.545262839930729 169.64396621200649 0 169.64396621200649 -70.188661822641734 0 0 0 0 81.720986171450932 174.15965782520652 0 174.15965782520652 -7.4534308718430111 0 0 0 0 75.422306011547334 195.52312460917892 0 195.52312460917892 -47.715548895233042 0 0 0 0 50.40670585569751 170.01056739112391 0 170.01056739112391 -39.858786225187941 0 0 0 0 26.172215078535373 230.74633910875855 0 230.74633910875855 -11.222529244114412 0 0 0 0 39.489741932862671 159.02919871194172 0 159.02919871194172 127.60603679274209 0 0 0 0 14.118878112858511 140.07066756583663 0 140.07066756583663 173.70501423441965 0 0 0 0 41.092087708471809 66.278312401853327 0 66.278312401853327 273.96679229116125 0 0 0 0 68.816308072564425 141.19324114776828 0 141.19324114776828 113.62370982030552 0 0 0 0 16.295506827154895 68.967647439916618 0 68.967647439916618 137.53918786463328 0 0 0 0 34.083376989638055 50.694899676247587 0 50.694899676247587 48.379148417210672 0 0 0 0 -449.96528451604536 -459.37479544675443 0 -459.37479544675443 -179.23070433153771 0 0 0 0 38.113506208937906 39.497899465101909 0 39.497899465101909 -78.121432756481227 0 0 0 0 60.881292658712482 139.99913623188331 0 139.99913623188331 -47.040671185910469 0 0 0 0 51.414025848334859 174.19425831643639 0 174.19425831643639 -4.3562016526848311 0 0 0 0 55.766318251786288 139.31275257916423 0 139.31275257916423 81.972832722676685 0 0 0 0 64.966477435085466 65.802282956196251 0 65.802282956196251 -24.843201515800704 0 0 0 0 -9.0468790408155648 49.230483431074077 0 49.230483431074077 60.594580066417052 0 0 0 0 97.786437607952394 136.30407351971007 0 136.30407351971007 -23.989118485056679 0 0 0 0 -1.5072262170579052 165.37770995587925 0 165.37770995587925 241.44803994391259 0 0 0 0 4.730804292069962 16.722315009239907 0 16.722315009239907 7.9476046856129727 0 0 0 0 191.88136711638435 194.86360417635115 0 194.86360417635115 162.42852919814322 0 0 0 0 10.505446895418572 81.468099541994889 0 81.468099541994889 108.92386062440346 0 0 0 0 0.37171180904588397 20.855571925111661 0 20.855571925111661 3.095699262735593 0 0 0 0 -50.907668389198079 216.99859608781298 0 216.99859608781298 616.13203908544529 0 0 0 0 67.743012928345706 218.04429667165095 0 218.04429667165095 59.907734158761741 0 0 0 0 100.96448600542499 204.35442250832057 0 204.35442250832057 -536.90730277686816 0 0 0 0 3.1085250698013169 3.5966190287737589 0 3.5966190287737589 0.060730088333543542 0 0 0 0 -175.67476938047912 207.33628957059409 0 207.33628957059409 9.9033142152620712 0 0 0 0 -97.107946980540873 68.711304134849343 0 68.711304134849343 -110.54213162056112 0 0 0 0 -105.80375250172619 122.87952107780984 0 122.87952107780984 78.079769601026783 0 0 0 0 9.1773057229691517 29.356910011676803 0 29.356910011676803 10.553203318650018 0 0 0 0 126.7308782725886 141.02732172842661 0 141.02732172842661 -117.09549260714266 0 0 0 0 -18.474945318885148 117.17492004270025 0 117.17492004270025 78.922469424520386 0 0 0 0 -62.57570628664282 48.180976270201725 0 48.180976270201725 31.599204628080855 0 0 0 0 42.718085616787107 40.182108747705342 0 40.182108747705342 -12.746796279119735 0 0 0 0 162.03504413573683 74.988731336876299 0 74.988731336876299 -47.007048772284179 0 0 0 0 185.01174985604302 120.29054179169543 0 120.29054179169543 -11.812328618761967 0 0 0 0 -52.032147294645029 220.6306994422639 0 220.6306994422639 119.28564926360559 0 0 0 0 -34.669624114540596 120.71832737298234 0 120.71832737298234 17.487923094772157 0 0 0 0 0.97095602267654613 54.922594195559213 0 54.922594195559213 33.222283984541718 0 0 0 0 -109.89603148898459 201.40574956171622 0 201.40574956171622 37.738668545018299 0 0 0 0 134.36769624392036 204.23160360748807 0 204.23160360748807 -151.07747349941928 0 0 0 0 -19.049196973155077 125.41891377619066 0 125.41891377619066 -27.306198675669378 0 0 0 0 -96.07470186500359 213.66117025776384 0 213.66117025776384 -220.81697720140801 0 0 0 0 -229.62756812377484 79.580123364943574 0 79.580123364943574 -74.234463163629698 0 0 0 0 -158.11968804248318 173.95731448947117 0 173.95731448947117 44.788741548050893 0 0 0 0 -63.565831303261803 143.15674992967251 0 143.15674992967251 26.742684022028698 0 0 0 0 48.296763513732003 242.77202607643267 0 242.77202607643267 -8.4863858194985369 0 0 0 0 -166.82851133063741 280.73902701387851 0 280.73902701387851 136.38003934302833 0 0 0 0 6.5615711743950271 11.322969906917763 0 11.322969906917763 17.674958053203852 0 0 0 0 -352.15009872459814 489.00652543697038 0 489.00652543697038 277.46250210962899 0 0 0 0 -377.02055542026937 181.05292705687316 0 181.05292705687316 89.112036004029505 0 0 0 0 685.82722708812798 105.55595182799152 0 105.55595182799152 -48.020329811776037 0 0 0 0 413.85478886519559 137.3728856106427 0 137.3728856106427 -49.477683699446743 0 0 0 0 2082.3430145913881 83.034063059694745 0 83.034063059694745 -465.29574687606873 0 0 0 0 345.98320198601868 1886.5788887401868 0 1886.5788887401868 -283.12913097871933 0 0 0 0 13.306053995202532 15.359518041330432 0 15.359518041330432 -13.357159314761248 0 0 0 0 -783.66452424095769 -524.92797015212273 0 -524.92797015212273 -49.050066834650352 0 0 0 0 -237.9178202942785 204.20100352780537 0 204.20100352780537 -98.144315680110594 0 0 0 0 1932.049495588406 -1351.6532337678 0 -1351.6532337678 -370.11526205531038 0 0 0 0 502.29128000381752 940.62708872245275 0 940.62708872245275 157.17991203326892 0 0 0 0 159.87397968611913 594.74840022204808 0 594.74840022204808 -188.48319933386665 0 0 0 0 194.42779681629327 443.55929990264121 0 443.55929990264121 -157.21507185947848 0 0 0 0 3.0082280581991654 145.07510388851006 0 145.07510388851006 190.31638586800545 0 0 0 0 71.529604481590638 62.950300883924484 0 62.950300883924484 -19.340175459304568 0 0 0 0 30.40355506988999 147.42148355746758 0 147.42148355746758 391.68076031754026 0 0 0 0 -47.700524370477069 -245.80111757561099 0 -245.80111757561099 -277.37476130604045 0 0 0 0 2.2609109354523014 -2.8657563890608344 0 -2.8657563890608344 -19.118334526396506 0 0 0 0 406.63620001566596 336.18841900029292 0 336.18841900029292 -481.43452862271806 0 0 0 0 77.18889145051071 57.51176673205336 0 57.51176673205336 -34.145476747934637 0 0 0 0 64.326516640612681 75.608703831523599 0 75.608703831523599 43.568640072830021 0 0 0 0 506.782515228173 -198.45870057622597 0 -198.45870057622597 -725.84200322502147 0 0 0 0 95.254506078519626 16.459980379990157 0 16.459980379990157 157.85266094145481 0 0 0 0 307.01079227609807 294.77922283950102 0 294.77922283950102 -186.24895832099719 0 0 0 0 -8.6705381493811728 146.51276676482667 0 146.51276676482667 18.561378330829029 0 0 0 0 -0.064480350294616073 87.937283836963616 0 87.937283836963616 113.37097542672564 0 0 0 0 6.0798531156956983 11.576533320705607 0 11.576533320705607 10.512463919047555 0 0 0 0 46.204934110981412 102.87631620161483 0 102.87631620161483 38.510288687175489 0 0 0 0 80.735665540516493 128.39382710025166 0 128.39382710025166 -24.514778080556425 0 0 0 0 194.9905676941853 24.511327842597893 0 24.511327842597893 -0.73093178601993714 0 0 0 0 93.540231468548882 136.96462157928181 0 136.96462157928181 -38.861708539276151 0 0 0 0 309.15983638466423 -102.29534418615549 0 -102.29534418615549 -117.72801126914419 0 0 0 0 100.74731667248125 185.03888131483109 0 185.03888131483109 -271.93875634991855 0 0 0 0 0.51813646938535385 205.23385646956012 0 205.23385646956012 -68.023063842701958 0 0 0 0 29.822169294187916 179.59312194168524 0 179.59312194168524 -244.87672343934537 0 0 0 0 -189.61259335503564 122.07294417297817 0 122.07294417297817 28.513875232252758 0 0 0 0 -99.535974024736788 321.73945860526146 0 321.73945860526146 -385.26270245670457 0 0 0 0 -170.25459256669274 -304.81076745278551 0 -304.81076745278551 -817.88088805010921 0 0 0 0 10.33797842504282 50.329516091826008 0 50.329516091826008 -160.65597981614701 0 0 0 0 127.38978469268477 -85.181697227006225 0 -85.181697227006225 -216.66954002049897 0 0 0 0 -1273.8497779025929 136.23289559303157 0 136.23289559303157 169.64235933986492 0 0 0 0 -237.4040187754581 51.299109854895505 0 51.299109854895505 99.14190923521528 0 0 0 0 224.18418326844403 556.64444101715526 0 556.64444101715526 279.74953534651286 0 0 0 0 243.20022683430579 149.67590607274542 0 149.67590607274542 118.86640705182981 0 0 0 0 169.54609976166103 -95.341635226894141 0 -95.341635226894141 114.85627819088768 0 0 0 0 258.36611781612737 -16.392042710009264 0 -16.392042710009264 -9.235698778895312 0 0 0 0 133.24099976403522 -42.379947045978042 0 -42.379947045978042 -7.9773250513972016 0 0 0 0 261.76067863973094 -100.53209355206388 0 -100.53209355206388 29.6144816656888 0 0 0 0 311.03914470838936 -2.5149823832143738 0 -2.5149823832143738 -36.335704406883451 0 0 0 0 279.83449807563738 -73.584337773962034 0 -73.584337773962034 -198.07697081875813 0 0 0 0 239.90587680555473 16.328728449352639 0 16.328728449352639 -168.30506047361996 0 0 0 0 159.30794301026617 -71.685681820235914 0 -71.685681820235914 -249.4730657957698 0 0 0 0 7.6571626517696529 15.610944093239652 0 15.610944093239652 -23.976083026699911 0 0 0 0 0.20796443962899502 16.643281702581589 0 16.643281702581589 -23.047164815165161 0 0 0 0 395.82776582226506 -65.460143200596576 0 -65.460143200596576 -170.71050385156559 0 0 0 0 1.5008090031187749 17.887248246508534 0 17.887248246508534 -21.553897175168458 0 0 0 0 0.28423968743300065 17.740836235359893 0 17.740836235359893 -21.516660817984302 0 0 0 0 1.2861245156091172 16.633477385679726 0 16.633477385679726 -21.643498922651816 0 0 0 0 0.11146427388302982 16.390732062063762 0 16.390732062063762 -21.670709838514995 0 0 0 0 0.00013206958101363853 17.423614747305692 0 17.423614747305692 -23.241562596595031 0 0 0 0 1.452647665690165 18.18518271920766 0 18.18518271920766 -26.082384220823769 0 0 0 0 1.0161292773118475 16.786913775205903 0 16.786913775205903 -25.972741320656496 0 0 0 0 7.44912290053216 15.851501122822413 0 15.851501122822413 -27.891734969337392 0 0 0 0 189.85388755437452 81.041722845548065 0 81.041722845548065 -42.885380446587078 0 0 0 0 3.0262652274177526 18.575298517798728 0 18.575298517798728 -26.735597972161486 0 0 0 0 -0.001392501589203127 18.950151999202664 0 18.950151999202664 -25.593464208621299 0 0 0 0 1.6544677142082946 19.760170591966016 0 19.760170591966016 -26.310286769948107 0 0 0 0 10.384995810578403 -67.451799541173386 0 -67.451799541173386 -1124.7806302939134 0 0 0 0 -12.360646305474674 8.0565114846638863 0 8.0565114846638863 -6.9268449231217204 0 0 0 0 -99.231762086787057 -5.9903628192714677 0 -5.9903628192714677 -263.04772664174379 0 0 0 0 47.871770873854985 46.864465846301755 0 46.864465846301755 -353.24857559516386 0 0 0 0 -136.52914516734018 -104.03959206138279 0 -104.03959206138279 39.957482767073088 0 0 0 0 65.556781189232424 178.72205338029016 0 178.72205338029016 4.0104498540167697 0 0 0 0 -599.89057504163065 -86.952291419889661 0 -86.952291419889661 71.682564664988604 0 0 0 0 -775.484849807297 -267.03472531445368 0 -267.03472531445368 15.512072615580109 0 0 0 0 -753.80655926116742 8.9781745775835589 0 8.9781745775835589 259.26933177850151 0 0 0 0 -1124.3443773428735 103.65999435343838 0 103.65999435343838 189.19798923284543 0 0 0 0 -622.36990750423138 -9.6547930059896316 0 -9.6547930059896316 212.89570564759924 0 0 0 0 -692.30881142784165 149.20677915930719 0 149.20677915930719 231.49029648325813 0 0 0 0 91.50553197410045 226.01346654449299 0 226.01346654449299 -147.71851428957598 0 0 0 0 718.00307827250072 263.33643068517267 0 263.33643068517267 -86.103262500131677 0 0 0 0 53.381365379187628 287.33762096855207 0 287.33762096855207 -45.041095361088082 0 0 0 0 598.75972650645781 413.88686970222989 0 413.88686970222989 -267.70309899919084 0 0 0 0 121.90814085635793 133.18069815554918 0 133.18069815554918 117.41869463149123 0 0 0 0 141.49566181379669 210.18730523361501 0 210.18730523361501 -943.59665369320282 0 0 0 0 -690.78657647700311 588.73319459154663 0 588.73319459154663 -315.79993076601022 0 0 0 0 -939.01798575366411 -278.49527574166132 0 -278.49527574166132 232.72040715179901 0 0 0 0 -116.46298243050478 -555.79599436463832 0 -555.79599436463832 -582.70299466525466 0 0 0 0 21.804279862408293 -235.81363282345046 0 -235.81363282345046 78.310891666274983 0 0 0 0 63.760274301293975 -117.28044928369081 0 -117.28044928369081 130.2879921971471 0 0 0 0 -188.06325705805648 -147.38073300104952 0 -147.38073300104952 673.8566492913651 0 0 0 0 14.836903373703535 -123.75800926649026 0 -123.75800926649026 218.8531649383367 0 0 0 0 -458.57665954953154 393.63760538218594 0 393.63760538218594 1074.7450875145805 0 0 0 0 -124.91831058845491 -38.534509803639594 0 -38.534509803639594 350.47720622585621 0 0 0 0 -634.96003659979124 646.99420674087105 0 646.99420674087105 -447.54574494524422 0 0 0 0 61.239280192254228 -27.803945605839544 0 -27.803945605839544 -291.19118430411982 0 0 0 0 114.46783193804549 400.76856901767587 0 400.76856901767587 -101.09483587861905 0 0 0 0 -41.019369493409897 63.282341196685792 0 63.282341196685792 -18.847053455385208 0 0 0 0 -85.726124880296993 332.45209022104245 0 332.45209022104245 779.63878371983174 0 0 0 0 90.945372605487222 110.89995013527351 0 110.89995013527351 22.196521216552355 0 0 0 0 89.359326659873688 309.87752387486398 0 309.87752387486398 67.766907714991248 0 0 0 0 -17.696222062440938 92.187148588811397 0 92.187148588811397 124.12587249484022 0 0 0 0 -68.941602341248654 243.88538091401642 0 243.88538091401642 486.71697819461406 0 0 0 0 -22.630824302157379 61.294983256833746 0 61.294983256833746 -18.68165246231964 0 0 0 0 24.932191983818484 70.394622557374532 0 70.394622557374532 103.76310732565616 0 0 0 0 80.198354508931516 226.63525599735294 0 226.63525599735294 43.022249746223679 0 0 0 0 86.936599021675647 155.39608273086196 0 155.39608273086196 35.263710836108658 0 0 0 0 48.605122652021237 111.05228068293945 0 111.05228068293945 -128.09800685500159 0 0 0 0 61.14710731820378 166.52890248443873 0 166.52890248443873 16.975069290379906 0 0 0 0 64.080745582810778 219.33280473545892 0 219.33280473545892 -115.98981882209773 0 0 0 0 -26.808171280965325 92.037398090702482 0 92.037398090702482 -31.460357921412651 0 0 0 0 -42.401909830645309 5.675258055300219 0 5.675258055300219 -221.92597648424908 0 0 0 0 66.595827015444229 246.21723613871654 0 246.21723613871654 -245.30051247218216 0 0 0 0 22.151569735156954 179.08837242808659 0 179.08837242808659 31.168750776201705 0 0 0 0 -182.76806317523005 -5.5823476368532283 0 -5.5823476368532283 480.83939505238959 0 0 0 0 112.20553529712925 40.703536807959608 0 40.703536807959608 -662.61321764098102 0 0 0 0 1.3915723332801235 5.9395159444272849 0 5.9395159444272849 -3.3842366954844181 0 0 0 0 56.148356631310889 69.962870926465257 0 69.962870926465257 -159.79176073598501 0 0 0 0 -271.12878001441277 6.5543367287464207 0 6.5543367287464207 518.96434137532924 0 0 0 0 -0.2844769489967689 8.1613750133275289 0 8.1613750133275289 -5.7562316085349181 0 0 0 0 158.6249285233207 269.51690571921063 0 269.51690571921063 200.03391117676802 0 0 0 0 17.860007044520898 127.56328975841097 0 127.56328975841097 -128.14893306540034 0 0 0 0 71.589080850106257 147.54781293952692 0 147.54781293952692 -92.263247238093754 0 0 0 0 24.409505727497162 204.01436683557404 0 204.01436683557404 -36.845052872726228 0 0 0 0 61.117192832258297 59.58344828432746 0 59.58344828432746 -320.23232667283446 0 0 0 0 16.779822200071067 31.994182998023462 0 31.994182998023462 -280.84033729988914 0 0 0 0 185.37270722952235 120.76341863702328 0 120.76341863702328 -291.53707161164493 0 0 0 0 -72.141743315951317 297.25677152709977 0 297.25677152709977 -296.95700400124042 0 0 0 0 -71.071004475619702 66.770718374165881 0 66.770718374165881 -203.73340155042388 0 0 0 0 -25.409754699425577 37.080001367374834 0 37.080001367374834 -8.0827675476820033 0 0 0 0 -18.731017365113075 163.61192847239727 0 163.61192847239727 80.719764180095808 0 0 0 0 1.8633656332618216 9.6311793864636144 0 9.6311793864636144 -1.5031539862354926 0 0 0 0 19.877542190180975 172.0714933622512 0 172.0714933622512 101.98527130260481 0 0 0 0 29.593546488526044 5.0801477442873875 0 5.0801477442873875 -362.83674206768774 0 0 0 0 -38.285200730138911 23.414143023944916 0 23.414143023944916 -7.655407064502441 0 0 0 0 -34.581146025284397 53.046538945414795 0 53.046538945414795 -319.37383166541986 0 0 0 0 29.117762762609345 31.478321343929565 0 31.478321343929565 2.3738470822827367 0 0 0 0 14.260209653959464 5.8801801776244247 0 5.8801801776244247 -18.049421590898419 0 0 0 0 -10.623375929761096 92.389324235853564 0 92.389324235853564 131.06807933659184 0 0 0 0 -16.850336441377294 12.230918439068773 0 12.230918439068773 18.095296043386043 0 0 0 0 -33.587462244628114 45.662452942378877 0 45.662452942378877 134.92224513080509 0 0 0 0 -35.990778029293111 2.4482076232413874 0 2.4482076232413874 10.629759893154414 0 0 0 0 -102.27784570710719 -4.0168240412531304 0 -4.0168240412531304 61.981958445117925 0 0 0 0 -23.255836334723426 46.239932241557199 0 46.239932241557199 69.159032135219604 0 0 0 0 76.261473177820335 -76.732294042340072 0 -76.732294042340072 276.25041899534699 0 0 0 0 11.933573024776706 51.737984747691371 0 51.737984747691371 208.4833670930675 0 0 0 0 40.455597752134054 -41.624787663015013 0 -41.624787663015013 91.050594089028891 0 0 0 0 -35.445442998072906 -0.64140791038327905 0 -0.64140791038327905 -0.13269662436640051 0 0 0 0 -155.51538612186414 82.564080473144713 0 82.564080473144713 654.73910534006427 0 0 0 0 -65.025300594148575 322.38381663046312 0 322.38381663046312 378.45120600816517 0 0 0 0 8.2481933863355152 70.36190742166832 0 70.36190742166832 199.19631057571678 0 0 0 0 -38.671124176667035 77.721892025854686 0 77.721892025854686 66.08763157944486 0 0 0 0 -27.776813058377314 41.866028904776471 0 41.866028904776471 10.407383564423418 0 0 0 0 -60.371680162716075 64.541398615077924 0 64.541398615077924 97.210685579375422 0 0 0 0 -58.511955878086439 7.4836872163278088 0 7.4836872163278088 8.7403926094438873 0 0 0 0 -20.851258667145885 46.398564052527945 0 46.398564052527945 89.354885029926663 0 0 0 0 -11.038340246692314 45.718224782316611 0 45.718224782316611 53.18242070145061 0 0 0 0 -50.78404614400803 11.511616777191804 0 11.511616777191804 5.5988041843426979 0 0 0 0 -134.01510008992591 115.82012840649259 0 115.82012840649259 314.94726440253726 0 0 0 0 6.8591666917304792 130.86091571008001 0 130.86091571008001 259.32994722152944 0 0 0 0 -127.05810113914777 69.847516865294892 0 69.847516865294892 233.68126950495207 0 0 0 0 -169.69440467928143 139.81558280825993 0 139.81558280825993 273.80070589940442 0 0 0 0 -152.02876978314089 95.063223174765881 0 95.063223174765881 301.15864691365277 0 0 0 0 -112.72109831638772 98.470447574916761 0 98.470447574916761 251.1099491941859 0 0 0 0 -126.02590421107743 135.84861136879044 0 135.84861136879044 201.59206986187201 0 0 0 0 -104.53881962977175 155.61319181156068 0 155.61319181156068 44.958268209444213 0 0 0 0 -71.215026113777654 60.410118948841017 0 60.410118948841017 26.732428934021414 0 0 0 0 -17.510710422426484 79.481897666458138 0 79.481897666458138 24.025400086222557 0 0 0 0 -11.488630154110979 84.827595546459634 0 84.827595546459634 59.452597263079952 0 0 0 0 -284.82468733665883 183.70081648723499 0 183.70081648723499 218.68400223008211 0 0 0 0 -154.32521012095276 309.59961850549007 0 309.59961850549007 58.657198044849792 0 0 0 0 -196.25410760222621 76.058708189953904 0 76.058708189953904 204.39541639402887 0 0 0 0 -148.79579428760189 105.05703780882322 0 105.05703780882322 215.74669587171593 0 0 0 0 -574.690920387814 145.58628559130011 0 145.58628559130011 194.56017088989029 0 0 0 0 -207.48479031085662 312.78434861664937 0 312.78434861664937 -355.34354454744607 0 0 0 0 -177.28887168521942 177.62911936818273 0 177.62911936818273 59.759594493567221 0 0 0 0 13.482990366068407 -105.86436641242835 0 -105.86436641242835 -32.121146644833061 0 0 0 0 -132.91040601938766 -164.39967598685689 0 -164.39967598685689 10.166603322257288 0 0 0 0 -48.723027611296402 -232.16849596215025 0 -232.16849596215025 -293.30589320072613 0 0 0 0 -4.2606623793349172 -0.4857485514066866 0 -0.4857485514066866 57.414220031656441 0 0 0 0 9.0992897491669282 -67.180132982968644 0 -67.180132982968644 87.323399611730565 0 0 0 0 -73.374684668256123 -67.286996508904849 0 -67.286996508904849 106.78072151918605 0 0 0 0 10.554471845392982 -168.70699745239835 0 -168.70699745239835 75.360123642833059 0 0 0 0 -41.555096759624575 -20.553876059835602 0 -20.553876059835602 171.36472785996739 0 0 0 0 -256.96642417633484 -148.67900325164919 0 -148.67900325164919 94.942644907292561 0 0 0 0 -109.40261537764673 -116.5727804239832 0 -116.5727804239832 82.762176920252386 0 0 0 0 -55.294359720239299 -69.840540584467817 0 -69.840540584467817 90.34695507192373 0 0 0 0 -173.90949515811735 -68.603099330524856 0 -68.603099330524856 205.81275338509295 0 0 0 0 -77.490650014791754 14.541249654619605 0 14.541249654619605 190.56634534733894 0 0 0 0 98.433334580193332 193.17283639605012 0 193.17283639605012 220.00283592093911 0 0 0 0 -113.06290338027611 50.09387207650434 0 50.09387207650434 238.02363392820553 0 0 0 0 -222.59473192115183 201.41283671681595 0 201.41283671681595 302.52294098892889 0 0 0 0 -424.3052165073168 41.671854085980158 0 41.671854085980158 194.74682265658703 0 0 0 0 -18.69333339798176 0.30460384198460133 0 0.30460384198460133 2.513192012947826 0 0 0 0 -180.4883491418459 -69.718968673663767 0 -69.718968673663767 124.51779036417065 0 0 0 0 -47.050731757117319 321.19712398470074 0 321.19712398470074 417.20089174760642 0 0 0 0 -106.18716380198748 14.6088612848107 0 14.6088612848107 129.32072412097477 0 0 0 0 -187.87971105972974 163.81910359286121 0 163.81910359286121 254.35539079476439 0 0 0 0 54.622231972622103 -65.967217295888986 0 -65.967217295888986 471.22669152299932 0 0 0 0 382.04875426406579 83.113005586543295 0 83.113005586543295 -35.399780811247183 0 0 0 0 -7.256248088562046 -0.89020866828852263 0 -0.89020866828852263 0.29268855567502605 0 0 0 0 89.454777711487623 103.98869391508924 0 103.98869391508924 -771.21531075253006 0 0 0 0 288.29418084034114 190.3237714316856 0 190.3237714316856 -157.79061631395598 0 0 0 0 -81.980062480215565 20.702008868378471 0 20.702008868378471 -141.72767594153538 0 0 0 0 -82.251043499432853 108.54243723062245 0 108.54243723062245 -53.83509914791648 0 0 0 0 -637.13576189316518 291.22852626899112 0 291.22852626899112 -73.521731617758633 0 0 0 0 -496.96050760548314 -215.56913702018937 0 -215.56913702018937 6.5396996476629283 0 0 0 0 -251.76911354540789 -401.3785048964055 0 -401.3785048964055 464.62075651216583 0 0 0 0 -412.15558100319504 -183.01857581494551 0 -183.01857581494551 691.17745912491228 0 0 0 0 -13.526458447490128 -0.83535593745780545 0 -0.83535593745780545 0.31390439337665677 0 0 0 0 139.26384095178582 319.096409087957 0 319.096409087957 -173.49658920558431 0 0 0 0 -492.63821556276525 -416.12808413489256 0 -416.12808413489256 1050.8796891104312 0 0 0 0 -357.477111422093 -637.28914530430484 0 -637.28914530430484 762.51415539790469 0 0 0 0 -580.28137122407134 213.0963596946458 0 213.0963596946458 -89.469543435727246 0 0 0 0 -844.18216611423031 112.22808538794106 0 112.22808538794106 201.26048196956981 0 0 0 0 -746.38387797019095 -6.5518362319417065 0 -6.5518362319417065 158.27805059019011 0 0 0 0 -92.723505449015647 50.408117551138275 0 50.408117551138275 -36.593508536723675 0 0 0 0 -158.22555322443804 144.94753898635099 0 144.94753898635099 -285.14404113319574 0 0 0 0 -104.13871906935674 56.619538007864321 0 56.619538007864321 1.8523232678865043 0 0 0 0 49.424560715262487 113.43795335578034 0 113.43795335578034 -79.682558998712921 0 0 0 0 -9.264929652435967 -29.527958753566054 0 -29.527958753566054 -88.088716997430311 0 0 0 0 433.38343054956204 531.97084270963387 0 531.97084270963387 103.97211622082614 0 0 0 0 638.45702310755223 265.58071083716277 0 265.58071083716277 -49.120878415036714 0 0 0 0 534.45107843486039 33.506858669883513 0 33.506858669883513 -63.994601387385046 0 0 0 0 2.5135184439395815 2.9421655681539214 0 2.9421655681539214 3.3415864819700118 0 0 0 0 423.94528685751357 569.39165044416586 0 569.39165044416586 197.30351162275474 0 0 0 0 -102.4132402456089 34.27321932779887 0 34.27321932779887 450.2661071679322 0 0 0 0 -221.7665045329195 223.60914087724814 0 223.60914087724814 184.44428979875738 0 0 0 0 -458.4220903183159 -57.990723251736199 0 -57.990723251736199 151.49254502581607 0 0 0 0 -803.47796180517435 -99.917400459878081 0 -99.917400459878081 192.5855132630677 0 0 0 0 5.403268478632981 382.2519036959788 0 382.2519036959788 208.71215590108477 0 0 0 0 -344.07974240784824 379.78439899440127 0 379.78439899440127 988.20930106984451 0 0 0 0 8.9182477808062686 189.6640437265014 0 189.6640437265014 -466.07869843146909 0 0 0 0 -310.68103686309507 851.65149139375967 0 851.65149139375967 424.53986380451533 0 0 0 0 248.5028329493507 66.900876116647851 0 66.900876116647851 286.51132467617208 0 0 0 0 242.50559568437166 30.94111313673784 0 30.94111313673784 97.873650217318755 0 0 0 0 262.53702830612019 228.05300451806397 0 228.05300451806397 301.17679472395139 0 0 0 0 264.85755465334478 225.89691117336042 0 225.89691117336042 78.061055265541654 0 0 0 0 289.06942052691011 177.77498206532618 0 177.77498206532618 -37.749251433284371 0 0 0 0 97.577980976871913 -102.23116510992986 0 -102.23116510992986 -82.817471837155608 0 0 0 0 328.40616495758877 91.256904655347171 0 91.256904655347171 -21.972590920689981 0 0 0 0 212.27778980212315 74.980116839105904 0 74.980116839105904 33.780286002220237 0 0 0 0 38.548305866454029 14.870317875189357 0 14.870317875189357 33.944668183503381 0 0 0 0 30.179486076878675 1.513134123000782 0 1.513134123000782 -67.583061841432936 0 0 0 0 76.194362287867989 58.549737571076548 0 58.549737571076548 -468.24331629740482 0 0 0 0 22.803713358865934 -55.549240249230934 0 -55.549240249230934 73.744153223495232 0 0 0 0 -636.96959158459504 48.882394878415653 0 48.882394878415653 238.10168920351134 0 0 0 0 -412.81089335432625 278.13272632434382 0 278.13272632434382 -133.06551262385619 0 0 0 0 191.31490845585358 143.07736397939152 0 143.07736397939152 -148.35254163340505 0 0 0 0 43.181643382212314 377.02343999502773 0 377.02343999502773 25.102171493446804 0 0 0 0 296.39992898178116 443.97410713191948 0 443.97410713191948 -43.362072924719541 0 0 0 0 -422.46298182894679 -232.54630206819274 0 -232.54630206819274 -26.01733679678 0 0 0 0 -16.910121104822238 2.7808769035462291 0 2.7808769035462291 0.56251988756260607 0 0 0 0 -3.5369105602207611 2.118216407925587 0 2.118216407925587 0.83213061532657662 0 0 0 0 -163.06275769748027 65.281873418134637 0 65.281873418134637 -144.80782097260317 0 0 0 0 -72.864452003800153 16.157713271829195 0 16.157713271829195 -0.19778017542000725 0 0 0 0 -349.28128543015919 152.0184086668487 0 152.0184086668487 276.18347111373441 0 0 0 0 257.61414294384304 43.614404128187743 0 43.614404128187743 -288.6800078402739 0 0 0 0 0.95148857680032961 71.378264431084972 0 71.378264431084972 61.260373343004176 0 0 0 0 -49.77431957936642 -10.23896805188997 0 -10.23896805188997 50.036722758726683 0 0 0 0 -72.899545365032282 81.922271474039007 0 81.922271474039007 -7.6130805022876302 0 0 0 0 -390.7335620580634 -62.597743418664322 0 -62.597743418664322 272.04700818911078 0 0 0 0 -145.51393812144215 32.265847030506848 0 32.265847030506848 160.22321326158999 0 0 0 0 -81.281207563051794 181.12872058853463 0 181.12872058853463 243.45086717529557 0 0 0 0 -132.10727571519101 48.912550847246166 0 48.912550847246166 332.65948745884089 0 0 0 0 -47.857588353119354 72.092524357241928 0 72.092524357241928 149.7916132637165 0 0 0 0 -76.012378968938037 33.516855151043274 0 33.516855151043274 161.348346504441 0 0 0 0 -120.45609403056733 116.38913342565502 0 116.38913342565502 328.92813584281498 0 0 0 0 -72.973193435130725 91.469696023974393 0 91.469696023974393 125.42669856222346 0 0 0 0 -73.321884002259551 32.061022041637131 0 32.061022041637131 102.125764082768 0 0 0 0 12.0340864417592 85.542141616506342 0 85.542141616506342 104.21791360074712 0 0 0 0 -29.811754672959523 156.38104192445462 0 156.38104192445462 255.12473890938782 0 0 0 0 -51.629064304717758 84.014064316204895 0 84.014064316204895 159.45421145547152 0 0 0 0 117.99549308056044 306.85567392889789 0 306.85567392889789 26.321298758863122 0 0 0 0 -29.286812334476735 374.51486982105416 0 374.51486982105416 647.2153889437177 0 0 0 0 -110.46526447308088 226.2359298539659 0 226.2359298539659 520.89542650748626 0 0 0 0 -122.75367610153899 137.00056061962459 0 137.00056061962459 574.22207908154087 0 0 0 0 -88.896779520780228 108.37554844471015 0 108.37554844471015 449.64900335103448 0 0 0 0 238.04750366707822 273.588929846459 0 273.588929846459 503.87501880054333 0 0 0 0 -50.269403944509577 -9.3763591277966043 0 -9.3763591277966043 808.13043658049901 0 0 0 0 55.244064718960999 218.95318621346451 0 218.95318621346451 -29.931265005830937 0 0 0 0 45.292355964945273 74.834313158360601 0 74.834313158360601 179.43389918643516 0 0 0 0 -46.588101960958284 156.50719322450459 0 156.50719322450459 397.631559461297 0 0 0 0 -68.202331964385849 40.135817742542713 0 40.135817742542713 380.76725698503287 0 0 0 0 26.541113379849776 289.03145390551799 0 289.03145390551799 -57.15759863254425 0 0 0 0 -41.234402727058296 68.524023375077377 0 68.524023375077377 582.89565542104901 0 0 0 0 -230.75271532986505 461.20212766622353 0 461.20212766622353 -34.677713103068527 0 0 0 0 -289.27741806687618 101.77655180647344 0 101.77655180647344 624.80094741512585 0 0 0 0 -51.044411108172426 212.11206013371702 0 212.11206013371702 583.96907123312121 0 0 0 0 3.784667990963039 10.420679189482627 0 10.420679189482627 5.3375007317568688 0 0 0 0 -175.17986413199264 213.71964636267876 0 213.71964636267876 747.89269401233469 0 0 0 0 -8.325279531086835 36.917370193315946 0 36.917370193315946 750.56983188848244 0 0 0 0 -130.24035832731488 20.096490270638242 0 20.096490270638242 762.88387989121838 0 0 0 0 124.37438094718163 165.87192324650823 0 165.87192324650823 726.47170342520258 0 0 0 0 -128.90235446777251 -132.81897665658107 0 -132.81897665658107 1454.472290048594 0 0 0 0 3.1787207016653269 1.2163219033580788 0 1.2163219033580788 1.1320162831064735 0 0 0 0 72.119750493475749 197.21798038671113 0 197.21798038671113 -223.65546746466862 0 0 0 0 -69.668315983343746 41.147763728971768 0 41.147763728971768 -44.791711653990205 0 0 0 0 -83.688351986999237 52.722634931065841 0 52.722634931065841 65.252515282321838 0 0 0 0 -61.207390191573488 15.918250189877824 0 15.918250189877824 2.2920790434831986 0 0 0 0 -44.465570774863863 98.992342677589477 0 98.992342677589477 86.990306823645369 0 0 0 0 -103.66303949648307 47.736154185260602 0 47.736154185260602 64.405672384658828 0 0 0 0 -35.698560360179044 90.197108176638721 0 90.197108176638721 -25.868012474096759 0 0 0 0 -47.713839609776187 45.050293806652917 0 45.050293806652917 251.93203187682957 0 0 0 0 -20.033025851334969 16.534075804491295 0 16.534075804491295 27.522003833189956 0 0 0 0 -32.609035744588624 9.2546009383632821 0 9.2546009383632821 3.5757112249517036 0 0 0 0 -45.901197188481831 4.6608901890136565 0 4.6608901890136565 8.5194735132113806 0 0 0 0 -29.602261066740358 27.794181297204389 0 27.794181297204389 2.6225126602342712 0 0 0 0 -2.836516947751079 28.479900243517477 0 28.479900243517477 221.67069489241112 0 0 0 0 -73.766156583278644 -51.560301161684038 0 -51.560301161684038 233.63771266137337 0 0 0 0 -78.9599339037959 -14.931527003369411 0 -14.931527003369411 226.52965285662503 0 0 0 0 22.680209367023053 28.586788123706356 0 28.586788123706356 -12.978332799517375 0 0 0 0 -19.045451630183379 -19.287618911788741 0 -19.287618911788741 221.09320144560115 0 0 0 0 -12.575626442270611 -0.4769314197040444 0 -0.4769314197040444 -3.5917379799184914 0 0 0 0 -102.62235548577428 -61.444016293365166 0 -61.444016293365166 234.87263722545322 0 0 0 0 21.694282946056092 18.70506839404743 0 18.70506839404743 -104.18783476126555 0 0 0 0 -2.3538202359282963 -3.4341955765012386 0 -3.4341955765012386 -2.0657318243205012 0 0 0 0 -8.8132660742915547 4.2586419960671691 0 4.2586419960671691 -2.1915704022233484 0 0 0 0 -533.96447646905654 717.03963807014952 0 717.03963807014952 -626.04257260839222 0 0 0 0 -869.40752411832909 -136.56104868124385 0 -136.56104868124385 35.983027532689448 0 0 0 0 -176.60310186927836 355.30525035062419 0 355.30525035062419 -278.32721506716916 0 0 0 0 88.205039478678373 -253.94008832735562 0 -253.94008832735562 -110.99058311742556 0 0 0 0 -24.578721406731347 -14.590522132511978 0 -14.590522132511978 7.9369294121261191 0 0 0 0 -9.3005309865620802 -96.626570960419485 0 -96.626570960419485 221.20244225096394 0 0 0 0 -25.22582609079819 8.4512970806270715 0 8.4512970806270715 -3.1349531275838416 0 0 0 0 -169.90193777833338 225.83405157455127 0 225.83405157455127 899.03937365107777 0 0 0 0 11.513761859648184 381.88450897441544 0 381.88450897441544 844.51029055142135 0 0 0 0 -8.806368607853635 4.973219197344207 0 4.973219197344207 2.9269216233135325 0 0 0 0 -77.906731829641103 29.213598843241016 0 29.213598843241016 65.752250908692076 0 0 0 0 -755.88540922227548 284.26726344423514 0 284.26726344423514 -139.81216878093983 0 0 0 0 -840.33039745054339 262.9407105877508 0 262.9407105877508 175.18642264228038 0 0 0 0 -1062.3723786195897 216.57175884065146 0 216.57175884065146 172.63575270122783 0 0 0 0 -411.60959663391441 679.77767024516106 0 679.77767024516106 -350.77423438453116 0 0 0 0 -13.924477521770314 163.21585001813219 0 163.21585001813219 233.20903956948314 0 0 0 0 160.25519749710065 142.72763119348338 0 142.72763119348338 40.916898017159838 0 0 0 0 188.37350040474712 164.40506784916579 0 164.40506784916579 -732.95216052463365 0 0 0 0 -1058.0867197987218 542.03155645608422 0 542.03155645608422 116.57664161369757 0 0 0 0 -514.18213125110924 -278.23916971317522 0 -278.23916971317522 -121.3677886899095 0 0 0 0 -734.30702627007486 909.59583603515057 0 909.59583603515057 -403.26018296994152 0 0 0 0 88.439878271423368 380.74277555544904 0 380.74277555544904 382.78702972437713 0 0 0 0 -312.57867979834009 158.20040091365809 0 158.20040091365809 283.28431388711033 0 0 0 0 -54.571950276807002 52.2701354952369 0 52.2701354952369 163.59062822084525 0 0 0 0 52.658635141140621 -42.204012719463208 0 -42.204012719463208 237.24149412770203 0 0 0 0 -125.15905996145193 23.684087980625918 0 23.684087980625918 581.06237453999347 0 0 0 0 -183.27068892685111 98.62883524935387 0 98.62883524935387 755.8297740220296 0 0 0 0 598.74514879885191 1019.2101255850648 0 1019.2101255850648 -84.926416199312371 0 0 0 0 -562.66258618094434 102.20155531360797 0 102.20155531360797 -267.06611898491974 0 0 0 0 -292.15140496141248 1330.3231902675179 0 1330.3231902675179 667.29407991099288 0 0 0 0 -1.5929981047538355 2.6094668568141799 0 2.6094668568141799 -2.0720061762640256 0 0 0 0 -1086.2915402653161 774.75479139471281 0 774.75479139471281 -451.88879869390075 0 0 0 0 -915.33451752510882 1024.6871171914609 0 1024.6871171914609 -214.01482022363052 0 0 0 0 1921.0840238858937 557.0221459898803 0 557.0221459898803 -314.82130450403929 0 0 0 0 1.5097680186375855 5.9722297528172197 0 5.9722297528172197 -0.98540724678974811 0 0 0 0 460.83539010770619 972.76413164092082 0 972.76413164092082 -220.14425231292853 0 0 0 0 38.366024731611105 1815.4208080628887 0 1815.4208080628887 459.50295221066335 0 0 0 0 -2126.7490760883388 1556.2523356132078 0 1556.2523356132078 94.278343644857614 0 0 0 0 -1266.0059688667066 262.45935996096341 0 262.45935996096341 128.03269687799184 0 0 0 0 700.81180971983849 34.245569757811609 0 34.245569757811609 129.77623468007369 0 0 0 0 403.50309133835981 111.56780230255026 0 111.56780230255026 -15.453114576510416 0 0 0 0 -1181.1129092613132 702.35644327445789 0 702.35644327445789 -219.49110852634476 0 0 0 0 4.8599446443180137 13.78252570170179 0 13.78252570170179 -5.9964673675389122 0 0 0 0 55.85178025129062 159.18935786342627 0 159.18935786342627 226.3731163407283 0 0 0 0 216.4304702059535 128.95317877177513 0 128.95317877177513 139.65747751614936 0 0 0 0 223.7624418450132 237.11515375670206 0 237.11515375670206 54.437389021237323 0 0 0 0 45.157811663588973 160.25574539084778 0 160.25574539084778 38.705303087255743 0 0 0 0 96.729151813773569 215.36451332310025 0 215.36451332310025 19.400882023492159 0 0 0 0 25.910917043805057 145.05681989131335 0 145.05681989131335 -33.864794880930276 0 0 0 0 195.53224449018671 146.10826084756263 0 146.10826084756263 -54.370820676493167 0 0 0 0 62.778052341034709 153.71485268243487 0 153.71485268243487 -30.570520346234844 0 0 0 0 48.64070007106784 215.37951541325674 0 215.37951541325674 -54.390816237489162 0 0 0 0 100.48937781085716 84.746157637474369 0 84.746157637474369 52.778328853690866 0 0 0 0 -23.161529426206471 153.09183559730991 0 153.09183559730991 15.714512655147701 0 0 0 0 157.19478566567341 85.883417583976552 0 85.883417583976552 -16.81126178161503 0 0 0 0 119.40606850218683 116.70176419184645 0 116.70176419184645 -17.483955828265607 0 0 0 0 121.73042593500759 107.40528215845188 0 107.40528215845188 -29.690079849671747 0 0 0 0 7.1096012866813787 20.761017691753583 0 20.761017691753583 -16.062987450315973 0 0 0 0 144.34573561218531 80.288098146776974 0 80.288098146776974 -29.521803306379297 0 0 0 0 -452.52023615115746 427.03415893673446 0 427.03415893673446 -339.15958810207667 0 0 0 0 -583.30703400058519 419.86861557388875 0 419.86861557388875 -171.1788413884351 0 0 0 0 -225.64588505191068 430.05347196964249 0 430.05347196964249 -229.24360539886402 0 0 0 0 -539.0819239557236 308.31305990380679 0 308.31305990380679 -200.17634194724087 0 0 0 0 -188.20330510340705 419.41538381137434 0 419.41538381137434 -394.87239886776297 0 0 0 0 -202.72946292053439 422.01821319969167 0 422.01821319969167 -246.55519556746731 0 0 0 0 -48.216274986619283 516.9973704441436 0 516.9973704441436 -239.62314226493072 0 0 0 0 -17.699121562367964 451.9323074095264 0 451.9323074095264 -299.00823073600623 0 0 0 0 66.839500675247564 605.73800329788719 0 605.73800329788719 -78.083046226049191 0 0 0 0 20.960342877129733 263.72978456903547 0 263.72978456903547 5.1219965388154378 0 0 0 0 -66.358631735733411 424.08569718507079 0 424.08569718507079 -136.96358383959887 0 0 0 0 -209.11497596833919 339.64351744871965 0 339.64351744871965 -127.48917136429009 0 0 0 0 2.2425542343187317 203.00521005548217 0 203.00521005548217 -121.67053843990288 0 0 0 0 29.916396660022883 272.5915185552949 0 272.5915185552949 40.099490547458117 0 0 0 0 -168.44892373917082 264.27720131842034 0 264.27720131842034 51.046581014090407 0 0 0 0 -134.58100256122702 327.80410195058357 0 327.80410195058357 -325.61119924212471 0 0 0 0 -505.77831378459132 324.39435302256607 0 324.39435302256607 -445.80228997638187 0 0 0 0 -506.8212316175734 298.01990224323526 0 298.01990224323526 54.530599028948927 0 0 0 0 -626.45966238582923 316.38554065429707 0 316.38554065429707 -162.92508514590713 0 0 0 0 -565.09725595395776 466.50124231957034 0 466.50124231957034 -108.02706363973994 0 0 0 0 3.0550211255831528 11.003241391556003 0 11.003241391556003 -15.451374092819606 0 0 0 0 0.085822062079387251 12.483989222897435 0 12.483989222897435 -14.467959171694019 0 0 0 0 -3.425642383841776 9.0241156688059618 0 9.0241156688059618 -16.623309235973537 0 0 0 0 5.8770902039395878 13.077732619924063 0 13.077732619924063 -16.203865409341233 0 0 0 0 158.03959761834267 117.67683290104924 0 117.67683290104924 -33.987916641395714 0 0 0 0 3.3026353263703641 13.199643414525781 0 13.199643414525781 -15.123201729540597 0 0 0 0 2.8374469848640729 13.22548476477823 0 13.22548476477823 -15.120448678280354 0 0 0 0 2.9058094872743823 12.722577739772532 0 12.722577739772532 -15.083235946540299 0 0 0 0 3.2888087475164411 12.65385430677685 0 12.65385430677685 -15.070914373121923 0 0 0 0 2.880125600786414 14.396382997238106 0 14.396382997238106 -18.162586982092762 0 0 0 0 -0.01988159241677321 14.853105005686732 0 14.853105005686732 -16.382591692403366 0 0 0 0 0.0073879835990263232 16.801869229336877 0 16.801869229336877 -20.136715337233909 0 0 0 0 1.4752262377733132 17.48530699965886 0 17.48530699965886 -20.549926298812352 0 0 0 0 2.9323130268801378 17.762824650368628 0 17.762824650368628 -20.786224033035978 0 0 0 0 9.3752792949671857 14.752580207701612 0 14.752580207701612 -19.425398735082126 0 0 0 0 74.815179989338503 -30.139294169644927 0 -30.139294169644927 75.696468760714197 0 0 0 0 353.39774258104444 -20.796396681471379 0 -20.796396681471379 -41.267738843605912 0 0 0 0 4.1365545359515181 14.817050237873218 0 14.817050237873218 9.6263499634524123 0 0 0 0 2.3131599523079274 10.202718280347682 0 10.202718280347682 -18.750101659654689 0 0 0 0 6.412419023881526 16.993663603586384 0 16.993663603586384 -18.454592803155379 0 0 0 0 143.47691690614738 -102.58111255835684 0 -102.58111255835684 91.61825325983591 0 0 0 0 317.82486857252297 -76.470005643750483 0 -76.470005643750483 23.976155089316308 0 0 0 0 6.3765278176385607 1.4003652208160133 0 1.4003652208160133 1.2632734666712793 0 0 0 0 605.56634927260166 25.522696792944771 0 25.522696792944771 -91.5266354065825 0 0 0 0 419.95745393246762 129.31731272296383 0 129.31731272296383 -104.58666277983139 0 0 0 0 378.54938693468648 -100.62629884391072 0 -100.62629884391072 -33.410189567468478 0 0 0 0 495.70895585708786 -63.559973263249049 0 -63.559973263249049 -40.113271419155353 0 0 0 0 423.86319633248786 52.629757030503242 0 52.629757030503242 -28.690048715534431 0 0 0 0 258.28588452119584 -196.95199311007309 0 -196.95199311007309 84.439955873545841 0 0 0 0 22.151442970774951 88.18585169816015 0 88.18585169816015 14.396902054737438 0 0 0 0 -13.666833799172309 -87.176467198150931 0 -87.176467198150931 -32.214302334127751 0 0 0 0 220.41673124382214 171.03415263217721 0 171.03415263217721 228.83580497504954 0 0 0 0 -125.26515003728127 109.50220386790534 0 109.50220386790534 81.752865531139832 0 0 0 0 5.0032209332699722 13.276072113713667 0 13.276072113713667 12.177234256434275 0 0 0 0 840.79241890790581 437.25425480058766 0 437.25425480058766 266.76795746684184 0 0 0 0 15.480519040622426 5.687248789983343 0 5.687248789983343 4.4886986271939122 0 0 0 0 -59.561874054910732 -61.099624874481378 0 -61.099624874481378 367.09033971324152 0 0 0 0 1185.5419750738074 190.22313861971725 0 190.22313861971725 -189.22671771421301 0 0 0 0 46.279119544393325 530.90198853796937 0 530.90198853796937 571.20816110082887 0 0 0 0 1237.1897576016927 179.98805276162966 0 179.98805276162966 -154.3844770745709 0 0 0 0 414.16811591080113 76.89902051441436 0 76.89902051441436 545.25218442297773 0 0 0 0 607.77663858664164 -248.07370040062597 0 -248.07370040062597 259.12776030480018 0 0 0 0 530.29190837496571 170.42220322378762 0 170.42220322378762 -197.50802587652288 0 0 0 0 278.5233236431668 200.28332524672805 0 200.28332524672805 -66.166673770290799 0 0 0 0 213.95348822783126 345.61617092344386 0 345.61617092344386 -237.11773674158758 0 0 0 0 359.35733706170868 115.41344955735985 0 115.41344955735985 -254.62597398396611 0 0 0 0 361.71796815877315 151.58391590664905 0 151.58391590664905 -113.36252868810698 0 0 0 0 -15.335950278831888 70.965736519469658 0 70.965736519469658 68.931789194227804 0 0 0 0 -420.35918720004702 517.27483875782491 0 517.27483875782491 140.94378453042009 0 0 0 0 -360.34783964222879 391.76990775220111 0 391.76990775220111 -117.93729291394266 0 0 0 0 -195.39153420492585 69.46507702726376 0 69.46507702726376 -3.5427052147570066 0 0 0 0 30.604574591621201 32.357798804064956 0 32.357798804064956 45.87498991474402 0 0 0 0 273.62414539397741 410.95894560275701 0 410.95894560275701 -121.9865734503619 0 0 0 0 -197.13578707622219 305.64043037178271 0 305.64043037178271 -107.91826667032001 0 0 0 0 -6.8033573393552098 136.13125935986548 0 136.13125935986548 -63.599248023553656 0 0 0 0 665.49284264240305 236.51551220197507 0 236.51551220197507 -384.47410328815022 0 0 0 0 725.26495559875366 -234.50979476314751 0 -234.50979476314751 -71.054198510837523 0 0 0 0 -81.95925664343622 24.939327690673849 0 24.939327690673849 5.9472146172511486 0 0 0 0 -166.92232686276839 168.53238156943917 0 168.53238156943917 -25.648243782887221 0 0 0 0 -148.65639375183673 162.16751307072809 0 162.16751307072809 -68.279379208594037 0 0 0 0 -274.64178567645649 254.2977911130929 0 254.2977911130929 153.33788506774727 0 0 0 0 160.80300425559744 17.904815697249433 0 17.904815697249433 -7.4729236062703421 0 0 0 0 -538.14322158550203 113.53410659366455 0 113.53410659366455 308.23989620825523 0 0 0 0 -24.238477328722713 163.87115624171946 0 163.87115624171946 19.748026977377606 0 0 0 0 51.178346313819361 205.4214449168112 0 205.4214449168112 -37.886214037338505 0 0 0 0 -324.48738767117175 22.77540540317932 0 22.77540540317932 7.7322058780537191 0 0 0 0 -17.38513350005087 399.92309331496836 0 399.92309331496836 15.736319396492036 0 0 0 0 -25.208028439733994 30.143218664806255 0 30.143218664806255 25.645082274087741 0 0 0 0 -5.7360410525214354 163.8312261792731 0 163.8312261792731 23.532345104200914 0 0 0 0 -56.835824997946474 216.97237027966548 0 216.97237027966548 84.566782305777451 0 0 0 0 54.144473875109611 227.73163236973301 0 227.73163236973301 15.751022841825034 0 0 0 0 -76.920224337009131 245.19461174332901 0 245.19461174332901 25.458105050322047 0 0 0 0 -0.16633532389310446 109.62222081645534 0 109.62222081645534 8.5400913412381954 0 0 0 0 32.487398667471979 96.80417933287319 0 96.80417933287319 49.59862641641385 0 0 0 0 -129.83732546955434 124.49648631093078 0 124.49648631093078 19.680570628024725 0 0 0 0 -16.306479567960196 137.00038543206938 0 137.00038543206938 2.4170789846884873 0 0 0 0 -12.504335684381658 178.13525619349639 0 178.13525619349639 25.487471783198998 0 0 0 0 -181.45080200280063 -75.464090903002216 0 -75.464090903002216 15.334045442853949 0 0 0 0 -346.74384746889245 89.848697683164005 0 89.848697683164005 153.15198185018016 0 0 0 0 153.51613103595446 374.07043830942348 0 374.07043830942348 -25.710143132178928 0 0 0 0 1027.026846623412 439.7993456120912 0 439.7993456120912 -11.855252398025186 0 0 0 0 4.4727862495616364 3.5956415326118361 0 3.5956415326118361 1.9038234394102034 0 0 0 0 -66.905547768285032 9.7120713633503328 0 9.7120713633503328 285.59692289509258 0 0 0 0 14.38056107754619 415.25050427537735 0 415.25050427537735 504.53296339138615 0 0 0 0 1338.9376756435013 -59.45669107571166 0 -59.45669107571166 -59.230639982262801 0 0 0 0 990.81328781011689 481.59771851072583 0 481.59771851072583 234.58690707439018 0 0 0 0 1069.2249559312336 -82.914831923610961 0 -82.914831923610961 30.272455898440967 0 0 0 0 916.38360521797586 189.07539676012311 0 189.07539676012311 -107.31375894568919 0 0 0 0 16.346659681861638 188.69912554646362 0 188.69912554646362 36.254178043203865 0 0 0 0 224.82409378490411 136.16811284945288 0 136.16811284945288 27.426979916730488 0 0 0 0 764.60222570817859 22.482470568662393 0 22.482470568662393 -197.59237169861444 0 0 0 0 947.52375265260343 152.2796080977314 0 152.2796080977314 -67.436160899831975 0 0 0 0 534.18818379450386 72.975385587216806 0 72.975385587216806 -78.983528576183744 0 0 0 0 43.771562085297774 -42.326570084929699 0 -42.326570084929699 -30.824502313324047 0 0 0 0 -27.315619956119917 151.75528153671803 0 151.75528153671803 22.773036858914566 0 0 0 0 -6.4930482903000666 77.836455022101291 0 77.836455022101291 -111.36512771602793 0 0 0 0 -247.71711230402434 101.47135047820848 0 101.47135047820848 65.165166505201341 0 0 0 0 4.5908598697271685 10.94883480211243 0 10.94883480211243 8.5851704964628368 0 0 0 0 1609.6005895950802 294.02676178210459 0 294.02676178210459 288.04613042603523 0 0 0 0 2.7905121115185523 5.2511092261792385 0 5.2511092261792385 2.4930670082108577 0 0 0 0 97.605433480246575 519.05144193733213 0 519.05144193733213 192.02946956201959 0 0 0 0 41.950384250594652 347.78600100052063 0 347.78600100052063 -192.10037159820422 0 0 0 0 -351.9147988321929 198.28850564923869 0 198.28850564923869 -5.6884214334313583 0 0 0 0 15.6721779898362 2.3943846474594466 0 2.3943846474594466 -79.324274812559452 0 0 0 0 -1.5049424442672716 4.102431315887884 0 4.102431315887884 -4.5431949092208441 0 0 0 0 285.25949255238811 -66.711143197091587 0 -66.711143197091587 -227.88098127596095 0 0 0 0 159.50700563424471 104.67404617391185 0 104.67404617391185 -442.41873123590995 0 0 0 0 59.326124699815409 446.39539259693629 0 446.39539259693629 -537.42468144659779 0 0 0 0 -168.54611562607897 518.26696707935139 0 518.26696707935139 -190.6524801144551 0 0 0 0 -246.67597576510161 89.740660684785325 0 89.740660684785325 -244.94934862342416 0 0 0 0 -0.034421176991600078 332.97522103669326 0 332.97522103669326 -702.67917416578166 0 0 0 0 -397.71099654419959 302.01267484750315 0 302.01267484750315 -192.76513253084704 0 0 0 0 -0.34877144737401977 16.339833576485034 0 16.339833576485034 -33.150252171599277 0 0 0 0 277.95196724461857 147.51789214038763 0 147.51789214038763 -66.466908426464215 0 0 0 0 -8.3973195005128218 59.709402647319166 0 59.709402647319166 116.61370109886775 0 0 0 0 -2.1511860069121411 7.280163714925493 0 7.280163714925493 -12.613129061211382 0 0 0 0 -8.8242285929045465 19.303334456492848 0 19.303334456492848 -18.252061375627818 0 0 0 0 30.868776400195202 412.47482687187949 0 412.47482687187949 52.452808264756527 0 0 0 0 176.61115930471715 519.09487855653197 0 519.09487855653197 -31.84018338927126 0 0 0 0 149.24495225201099 272.49583007208912 0 272.49583007208912 -21.815638474925436 0 0 0 0 -0.027246878293226473 523.57365534415112 0 523.57365534415112 -132.19034890416151 0 0 0 0 -1.1235616995833766 -0.48186444350817226 0 -0.48186444350817226 0.71895717835242934 0 0 0 0 -214.01325684356561 368.01492931732537 0 368.01492931732537 664.2547470497193 0 0 0 0 189.4150756450108 358.50436171533602 0 358.50436171533602 -518.8320820952722 0 0 0 0 0.13893225851961769 476.43646242741238 0 476.43646242741238 68.869450742258778 0 0 0 0 59.454950830870075 279.83666884765989 0 279.83666884765989 -1.0679600745606876 0 0 0 0 62.64646431573351 463.65559044704844 0 463.65559044704844 -166.63061928596289 0 0 0 0 -0.96934040977083669 -0.16491898232487756 0 -0.16491898232487756 0.41458592422992169 0 0 0 0 330.82263099549164 610.18644330501957 0 610.18644330501957 484.46568740872453 0 0 0 0 353.03785197498655 419.93604310254341 0 419.93604310254341 -605.60197933675954 0 0 0 0 847.51346316288254 276.86151039927927 0 276.86151039927927 -40.789171410044219 0 0 0 0 741.63911625502806 800.61328416007927 0 800.61328416007927 -235.49723919055396 0 0 0 0 541.66983960620564 412.50530995786039 0 412.50530995786039 -91.130028957106333 0 0 0 0 593.64923181301128 445.34392911779742 0 445.34392911779742 -139.39615545105698 0 0 0 0 451.4141935583757 381.32024801502575 0 381.32024801502575 -15.057594525998866 0 0 0 0 335.35248842226429 428.24294685169662 0 428.24294685169662 -6.6100600373592897 0 0 0 0 278.20637924481707 304.24591293158574 0 304.24591293158574 -43.044370315313472 0 0 0 0 234.15846461395267 302.86908308914872 0 302.86908308914872 19.752099070399709 0 0 0 0 80.897660776230623 170.72608338268583 0 170.72608338268583 -0.15528040311892255 0 0 0 0 127.96158162654319 153.91659335182885 0 153.91659335182885 -34.715667721823593 0 0 0 0 345.0442079063796 165.83359994673447 0 165.83359994673447 -64.777568495890591 0 0 0 0 103.59759075496913 163.00590270498981 0 163.00590270498981 -24.55410144556663 0 0 0 0 306.88105835836905 222.67529955120517 0 222.67529955120517 -97.953236645647848 0 0 0 0 730.6023189847765 236.20490436968612 0 236.20490436968612 -131.74784098969576 0 0 0 0 397.24128125045536 1.9355147820942875 0 1.9355147820942875 -46.64118487554515 0 0 0 0 -109.50563955801772 26.444794237533642 0 26.444794237533642 -62.745605977914238 0 0 0 0 13.354180327389486 9.5316323491243224 0 9.5316323491243224 4.9025574193452854 0 0 0 0 -13.754438286123332 78.352856113506277 0 78.352856113506277 -57.629233095645759 0 0 0 0 333.04577196481114 95.073372252648824 0 95.073372252648824 -56.352482753718505 0 0 0 0 109.67380566969223 18.853706922996935 0 18.853706922996935 -33.360035828889522 0 0 0 0 -12.261208460440173 103.97536742404746 0 103.97536742404746 -2.6432964620292978 0 0 0 0 -280.28055885266804 48.335479282033702 0 48.335479282033702 12.445213898792645 0 0 0 0 -34.711322040448579 26.576668860588811 0 26.576668860588811 14.130718459401635 0 0 0 0 -389.56127514462605 21.111664803485837 0 21.111664803485837 45.236860259610694 0 0 0 0 -137.68123308502254 105.14710778832887 0 105.14710778832887 -68.981818975595161 0 0 0 0 -18.128517590512111 100.32126181382621 0 100.32126181382621 3.0916370499118528 0 0 0 0 -11.83351891321945 139.99910613020438 0 139.99910613020438 23.390652577036235 0 0 0 0 -12.832776130525417 145.22527226385614 0 145.22527226385614 15.618659339903388 0 0 0 0 89.492633077126811 145.55516957350483 0 145.55516957350483 -68.19521260338297 0 0 0 0 -19.195158173402888 215.10438239699761 0 215.10438239699761 -20.117712980500073 0 0 0 0 58.587656075171253 152.17084639011591 0 152.17084639011591 25.092636350178509 0 0 0 0 160.50979301668667 161.99257302569913 0 161.99257302569913 -141.13401117193644 0 0 0 0 188.03936511131906 50.022868407662827 0 50.022868407662827 13.547171470270769 0 0 0 0 -55.718306607626602 14.982385350846513 0 14.982385350846513 6.1484129199588367 0 0 0 0 88.378317510801935 92.881359298103348 0 92.881359298103348 -5.1264778888617002 0 0 0 0 -12.222911961107457 143.67383009242712 0 143.67383009242712 0.65261532133627043 0 0 0 0 -58.2907814111677 138.29766435172041 0 138.29766435172041 18.181084356008796 0 0 0 0 -281.14256001555987 131.64470276015732 0 131.64470276015732 169.50977495231928 0 0 0 0 -16.37355455087755 110.22540799449784 0 110.22540799449784 14.73855529178298 0 0 0 0 -30.596133801409451 102.84637794514674 0 102.84637794514674 150.05968463981844 0 0 0 0 87.787745271023596 107.97424034666437 0 107.97424034666437 -78.427932855582185 0 0 0 0 90.460806405264293 14.340991466759306 0 14.340991466759306 27.998090040695388 0 0 0 0 -27.231084396909864 94.249715969960562 0 94.249715969960562 12.661616966382098 0 0 0 0 41.914391896352754 80.436465012688132 0 80.436465012688132 -33.554871741373063 0 0 0 0 -106.13025925898546 160.24686766934065 0 160.24686766934065 -3.1121134299464757 0 0 0 0 -105.73210961783298 174.45169468886826 0 174.45169468886826 68.27317274169036 0 0 0 0 -17.728422244784628 109.2338617579217 0 109.2338617579217 18.593071639727761 0 0 0 0 -170.16368665639311 82.912358426550043 0 82.912358426550043 46.7001844153001 0 0 0 0 20.13439678348368 86.037189848317212 0 86.037189848317212 7.0181623586177011 0 0 0 0 -15.961669584015908 103.61016583493665 0 103.61016583493665 63.098392086597414 0 0 0 0 -59.538523238079506 162.94163319634572 0 162.94163319634572 58.527002412998627 0 0 0 0 24.441005216009216 139.51565537136685 0 139.51565537136685 -26.97025248092541 0 0 0 0 -13.88481828754816 110.05979460934357 0 110.05979460934357 21.125357084484055 0 0 0 0 -17.909525892070352 108.81611536972642 0 108.81611536972642 20.42978973721495 0 0 0 0 -66.035703598965483 137.00268741265245 0 137.00268741265245 43.706930376144101 0 0 0 0 -48.085764344330528 181.46356826159627 0 181.46356826159627 52.168195811838459 0 0 0 0 -51.090098190645222 101.26971655253124 0 101.26971655253124 71.481988171140983 0 0 0 0 -166.23673540309483 22.907618710592061 0 22.907618710592061 52.851998198974798 0 0 0 0 2.842526658278075 31.831390886537065 0 31.831390886537065 146.65098353466965 0 0 0 0 4.8664582262717886 199.52599590431691 0 199.52599590431691 158.66470508180237 0 0 0 0 -42.803342383711424 158.49267534942555 0 158.49267534942555 145.5668121172921 0 0 0 0 92.123704487356008 231.5818776772303 0 231.5818776772303 -2.3286133932097073 0 0 0 0 15.846089033395401 134.5827461649742 0 134.5827461649742 15.024041389184276 0 0 0 0 91.376634102878597 229.28339730411653 0 229.28339730411653 17.748475944980783 0 0 0 0 155.62066167918965 442.24766054043039 0 442.24766054043039 36.77802645258771 0 0 0 0 151.43006925757254 331.3542667328523 0 331.3542667328523 146.24023720704463 0 0 0 0 123.23018162978406 366.405228692121 0 366.405228692121 180.04863802529599 0 0 0 0 153.94776796517544 318.84332690273231 0 318.84332690273231 145.87092289001339 0 0 0 0 74.732602354939445 185.5382946524478 0 185.5382946524478 96.798407572101041 0 0 0 0 20.055757148656994 110.68486855237433 0 110.68486855237433 351.75486657114311 0 0 0 0 85.665997991985932 133.52066582494172 0 133.52066582494172 249.91606788540821 0 0 0 0 93.230118846215191 256.15755390053619 0 256.15755390053619 341.02684114185467 0 0 0 0 69.147135560673632 134.962006666354 0 134.962006666354 529.52454965427478 0 0 0 0 2.2119945668292189 1.1087267270551244 0 1.1087267270551244 0.46925699861340681 0 0 0 0 5.3046785818733042 361.77521353545353 0 361.77521353545353 983.05336796075676 0 0 0 0 154.72227989166277 279.83761448219479 0 279.83761448219479 421.53728526217787 0 0 0 0 0.095348038892552722 325.986872903115 0 325.986872903115 428.49061560139899 0 0 0 0 154.94871714211331 343.83303703146589 0 343.83303703146589 245.75017112777914 0 0 0 0 101.08355140106869 383.5293665804893 0 383.5293665804893 412.83241234726302 0 0 0 0 157.03269561180787 429.79330070955666 0 429.79330070955666 53.638869141077009 0 0 0 0 0.12347346677250527 436.41522890487238 0 436.41522890487238 213.16970890401899 0 0 0 0 -75.405103666642162 243.27852755966705 0 243.27852755966705 103.33299608698144 0 0 0 0 166.2164122792575 153.39160238283148 0 153.39160238283148 8.974200441105495 0 0 0 0 3.6630254599003469 10.511740681779472 0 10.511740681779472 32.495360749594695 0 0 0 0 283.39092946091512 200.69101720816616 0 200.69101720816616 -10.163856570230564 0 0 0 0 175.40726251553247 246.89070721052121 0 246.89070721052121 22.052889493661496 0 0 0 0 142.52815507294883 183.39129830138336 0 183.39129830138336 165.22963109452394 0 0 0 0 -116.17072875228359 270.53266731684926 0 270.53266731684926 40.901258130768838 0 0 0 0 -120.60594455449274 296.60617282805947 0 296.60617282805947 -96.685338606999721 0 0 0 0 -105.22437225960721 365.73425434466844 0 365.73425434466844 -28.183060411371116 0 0 0 0 -46.347169766184038 309.36071267394846 0 309.36071267394846 -51.898967149136297 0 0 0 0 -46.796178342474377 402.10090098673209 0 402.10090098673209 -150.75561824895703 0 0 0 0 -93.911126346378296 324.05709497239695 0 324.05709497239695 -186.47088762572821 0 0 0 0 15.727593214005537 422.10369293218173 0 422.10369293218173 -282.73893874121677 0 0 0 0 -63.072028484539914 432.97486047202153 0 432.97486047202153 -256.08754544489057 0 0 0 0 -63.551900949108742 398.72035149548287 0 398.72035149548287 -151.2355022968768 0 0 0 0 -162.56431760828377 489.78406401781467 0 489.78406401781467 -233.59725915774197 0 0 0 0 -197.01826016202887 310.62984527572007 0 310.62984527572007 -38.416644248281955 0 0 0 0 -133.70092273196929 217.86823336007001 0 217.86823336007001 38.679677939764588 0 0 0 0 -33.871521621128636 54.237986851821915 0 54.237986851821915 -24.404902225192927 0 0 0 0 -259.36760118909575 308.06759899168901 0 308.06759899168901 -23.968437019590056 0 0 0 0 -506.65391155594227 566.62583567264664 0 566.62583567264664 -241.62744314347947 0 0 0 0 5.2156519907040568 8.326326192958085 0 8.326326192958085 3.551141791788254 0 0 0 0 -679.73343299515466 88.361786754369859 0 88.361786754369859 119.34923134218116 0 0 0 0 -5.8221051535818376 44.290543551579034 0 44.290543551579034 -38.465131449967771 0 0 0 0 1.7423363718198743 147.95886141477604 0 147.95886141477604 -10.282849871387953 0 0 0 0 80.618866952227108 65.810135014293337 0 65.810135014293337 -32.219241999559017 0 0 0 0 75.209589183081903 115.85618357100839 0 115.85618357100839 2.0452490432580817 0 0 0 0 113.62788256155727 148.86730242987687 0 148.86730242987687 24.942901416128734 0 0 0 0 26.271628378307994 59.947183870289351 0 59.947183870289351 -34.392854706990278 0 0 0 0 1.0094610927818155 24.187773390379689 0 24.187773390379689 54.225139639519199 0 0 0 0 -82.357444727337679 124.84492386540614 0 124.84492386540614 65.810583200673136 0 0 0 0 1.9259397974528838 156.19543298461213 0 156.19543298461213 16.098166215033416 0 0 0 0 119.0962702186589 121.73153665977952 0 121.73153665977952 -17.918508113361895 0 0 0 0 121.66202109571714 134.86430297464176 0 134.86430297464176 -14.855184649738476 0 0 0 0 97.803489106462806 96.969014939939029 0 96.969014939939029 56.131756327062902 0 0 0 0 15.689716759894509 131.19556884324538 0 131.19556884324538 58.448705737544515 0 0 0 0 -32.415435104099743 174.67082008967009 0 174.67082008967009 78.255668160735695 0 0 0 0 20.772981606106242 21.393350226982747 0 21.393350226982747 6.5109299473909914 0 0 0 0 49.58729008895898 189.81599838832153 0 189.81599838832153 -113.29316429577739 0 0 0 0 116.24280555092264 112.88016328407866 0 112.88016328407866 -160.0786390208541 0 0 0 0 126.47345478222451 75.287644176943331 0 75.287644176943331 -72.925417347882103 0 0 0 0 69.384171143381536 144.50057052683132 0 144.50057052683132 -21.810371217601642 0 0 0 0 -42.551056768454146 157.87330695450964 0 157.87330695450964 27.417645601050026 0 0 0 0 0.60978849109415023 97.57522517326197 0 97.57522517326197 -24.663082546567239 0 0 0 0 -249.67631748596727 174.6674449419113 0 174.6674449419113 10.638253717512271 0 0 0 0 99.955866821849654 78.29983557135148 0 78.29983557135148 11.726686816745783 0 0 0 0 86.007413705578074 133.61294010026177 0 133.61294010026177 -16.028601754879674 0 0 0 0 -280.94545575617667 89.480034625641565 0 89.480034625641565 -47.013948579950011 0 0 0 0 111.30762288313304 90.018484417924526 0 90.018484417924526 36.592655377998241 0 0 0 0 135.83463390609541 161.53454772738314 0 161.53454772738314 -38.724666608881307 0 0 0 0 45.743322524293035 184.51586019310253 0 184.51586019310253 -30.645962017861166 0 0 0 0 30.349477054951421 142.95773247582929 0 142.95773247582929 58.341839153032197 0 0 0 0 73.213739008315315 79.666850385013277 0 79.666850385013277 3.5201773050503107 0 0 0 0 41.335914703988237 76.737464145553531 0 76.737464145553531 28.218149278396595 0 0 0 0 73.528318415796093 129.86482185799287 0 129.86482185799287 -15.41514832793473 0 0 0 0 103.92805960631631 99.592118013322079 0 99.592118013322079 10.52526630311695 0 0 0 0 113.42043177034066 132.60297070187335 0 132.60297070187335 39.403797526723793 0 0 0 0 96.654916471627075 58.163455162752143 0 58.163455162752143 44.226777101504922 0 0 0 0 14.171751201827647 95.867704791690585 0 95.867704791690585 27.014026123642907 0 0 0 0 -10.518097240979841 120.73937917135618 0 120.73937917135618 112.67589002960267 0 0 0 0 282.61665260529844 67.336880511887557 0 67.336880511887557 59.986085174351501 0 0 0 0 78.142696567691019 67.714843398135372 0 67.714843398135372 285.5604684050686 0 0 0 0 52.545918091178464 140.98440608121837 0 140.98440608121837 84.141043589344918 0 0 0 0 10.544551180246344 114.88523580853234 0 114.88523580853234 85.12389267540857 0 0 0 0 208.95031512699643 264.43459075261399 0 264.43459075261399 138.3475356404565 0 0 0 0 1.2644131734258508 6.8073512605436077 0 6.8073512605436077 9.5286137311531185 0 0 0 0 7.7404758177508484 167.63606003747009 0 167.63606003747009 385.62913592425502 0 0 0 0 38.198100142995827 142.85308007928734 0 142.85308007928734 157.44751723227091 0 0 0 0 22.853931208456544 32.457030565454509 0 32.457030565454509 17.490120798675832 0 0 0 0 53.069619244321075 72.981357120247594 0 72.981357120247594 44.124735071901569 0 0 0 0 65.565965415490354 44.157792011464934 0 44.157792011464934 10.465312632184677 0 0 0 0 33.08442519899836 70.215468158294243 0 70.215468158294243 -7.1450453630850461 0 0 0 0 50.686094219352526 49.915970258361995 0 49.915970258361995 15.913389783594539 0 0 0 0 62.297218471018432 40.037555315063699 0 40.037555315063699 10.846314778045169 0 0 0 0 36.298852603808086 45.9910185262288 0 45.9910185262288 70.039070171202184 0 0 0 0 -20.004323138620066 177.60661764504221 0 177.60661764504221 -57.255121704336489 0 0 0 0 40.857937941508723 60.495439839079523 0 60.495439839079523 44.964177011187608 0 0 0 0 -26.779622158533641 42.131982710020438 0 42.131982710020438 30.837411180547271 0 0 0 0 -1.6514822552362602 115.90229390375418 0 115.90229390375418 100.72723385536301 0 0 0 0 -83.7654349070026 812.93472115928307 0 812.93472115928307 265.89822847877804 0 0 0 0 112.59533737110287 109.48643864942244 0 109.48643864942244 55.911121574743134 0 0 0 0 3.1364530027940418 239.2856269278393 0 239.2856269278393 73.081243940025161 0 0 0 0 36.284680617667512 23.918768769762448 0 23.918768769762448 5.7113797983939776 0 0 0 0 -84.746231392156233 182.4679508280642 0 182.4679508280642 12.467838506025146 0 0 0 0 -487.14104873957467 -583.08952980631102 0 -583.08952980631102 740.39960949740635 0 0 0 0 478.54705178647328 856.21432170780827 0 856.21432170780827 -475.1740247918915 0 0 0 0 -124.06637739781536 63.166800160788625 0 63.166800160788625 58.6010560281793 0 0 0 0 -50.92457498785825 286.88406376648345 0 286.88406376648345 175.10335336518619 0 0 0 0 -647.19321404214747 363.42245938575252 0 363.42245938575252 -92.081742695037974 0 0 0 0 1247.1379852218802 22.392829391102168 0 22.392829391102168 -283.63644046663831 0 0 0 0 1.3633240604940944 3.9832322981065387 0 3.9832322981065387 10.051369936971795 0 0 0 0 -74.634211388884296 210.31131051771172 0 210.31131051771172 -109.7431871522349 0 0 0 0 -102.88117870103315 228.84282956737479 0 228.84282956737479 -53.503502835621475 0 0 0 0 -54.763492045317435 167.26420388974293 0 167.26420388974293 -21.09803215050124 0 0 0 0 -83.55954879905812 188.35775741209727 0 188.35775741209727 -33.916953414045565 0 0 0 0 -34.341781614849879 119.46231493333471 0 119.46231493333471 -223.3051544357877 0 0 0 0 -34.066445675395244 183.02936447781394 0 183.02936447781394 -50.445192045270232 0 0 0 0 -63.044939456342973 282.76612523808194 0 282.76612523808194 -184.84596248589514 0 0 0 0 -67.280017336544006 209.5669797111259 0 209.5669797111259 -109.92374020938587 0 0 0 0 -45.633021351726939 218.86278810677504 0 218.86278810677504 -108.70127090365713 0 0 0 0 -19.477650130322672 161.9216677514778 0 161.9216677514778 -83.048665207575141 0 0 0 0 -59.410739712285704 211.36293171499892 0 211.36293171499892 -129.89350510841541 0 0 0 0 -38.178616789194166 161.37456279574872 0 161.37456279574872 -21.376826105173677 0 0 0 0 -27.164341933548258 120.61155051022797 0 120.61155051022797 -55.110260488600034 0 0 0 0 78.779685671622246 66.924765128616855 0 66.924765128616855 -39.505744665864768 0 0 0 0 -23.150363314520519 104.10992221597189 0 104.10992221597189 -116.81706121348543 0 0 0 0 -44.671679131534347 177.74579842440653 0 177.74579842440653 -314.8789963576055 0 0 0 0 -104.13274011731846 189.43293890471068 0 189.43293890471068 -171.82643827463107 0 0 0 0 -91.980597624161987 151.80366659269203 0 151.80366659269203 -269.31986543639141 0 0 0 0 -97.200491514671285 210.04574888488241 0 210.04574888488241 -131.91962244523165 0 0 0 0 -81.564993663976111 205.02483113553171 0 205.02483113553171 -185.59864987390392 0 0 0 0 -82.97029543192798 191.10714754458058 0 191.10714754458058 -113.19993689508556 0 0 0 0 52.737917008339082 404.21067793932161 0 404.21067793932161 -114.17478655556624 0 0 0 0 -23.151479866472073 162.01887076608546 0 162.01887076608546 -74.774381201818414 0 0 0 0 -79.537382310355497 198.34264217022428 0 198.34264217022428 -152.87746560394226 0 0 0 0 -66.283822006070295 229.64526558963371 0 229.64526558963371 -169.17642034891469 0 0 0 0 187.48123417113311 190.21640797745567 0 190.21640797745567 -218.73131650097275 0 0 0 0 -6.0804520843981251 285.65720155362442 0 285.65720155362442 -265.7867157471228 0 0 0 0 -5.1801388624871834 208.14454919364107 0 208.14454919364107 -174.78570562417735 0 0 0 0 -67.880791732352918 250.23595421097161 0 250.23595421097161 -202.90744473080122 0 0 0 0 -71.030474515847345 300.11370179273399 0 300.11370179273399 -174.40765421791093 0 0 0 0 -64.926242907380583 302.41870627379285 0 302.41870627379285 -229.49721287489774 0 0 0 0 -58.127663482014555 329.07375692404503 0 329.07375692404503 -265.12664727849551 0 0 0 0 -79.340642940422185 230.25733582760222 0 230.25733582760222 -128.71331962047407 0 0 0 0 -95.902613013350219 227.28671845603094 0 227.28671845603094 -109.75709345682844 0 0 0 0 -92.09190440925795 231.79940051002995 0 231.79940051002995 -136.31706915173481 0 0 0 0 -118.07693742756783 262.40564105037629 0 262.40564105037629 -123.18345434890489 0 0 0 0 -135.29208182252432 345.67063567300829 0 345.67063567300829 -126.71734300543494 0 0 0 0 -124.97550619366848 284.0932088184727 0 284.0932088184727 -114.68333243346569 0 0 0 0 -162.39094852965127 312.91504443141821 0 312.91504443141821 -123.93353556792135 0 0 0 0 -112.05147849976493 269.38360817144348 0 269.38360817144348 -115.28119555828016 0 0 0 0 -116.49706529372799 315.2883118149 0 315.2883118149 -160.11458298966318 0 0 0 0 -149.81795228039232 352.88409877964295 0 352.88409877964295 -163.35528223333677 0 0 0 0 -41.332518737438477 382.99852724184348 0 382.99852724184348 -221.54172013351672 0 0 0 0 -131.25505348031766 422.27908223785744 0 422.27908223785744 -236.25137965497197 0 0 0 0 -5.2153993010797421 589.99623824647642 0 589.99623824647642 -49.521080153157527 0 0 0 0 -128.18245853230383 384.42407830542106 0 384.42407830542106 -125.91669176310097 0 0 0 0 -239.45000168239457 251.37263275451591 0 251.37263275451591 -275.9111722848902 0 0 0 0 2.6409534194572473 1.9281849451907931 0 1.9281849451907931 -0.0469214729565266 0 0 0 0 -238.6840981071486 373.36479164975697 0 373.36479164975697 101.37479796733533 0 0 0 0 -2.3164425260483767 546.11353360688008 0 546.11353360688008 -435.82439211024484 0 0 0 0 4.3677849841489902 4.0041150637523728 0 4.0041150637523728 1.3893224549866403 0 0 0 0 -236.63841157390107 407.52232421923327 0 407.52232421923327 -391.63333682597477 0 0 0 0 -257.31714432824992 304.1424785561303 0 304.1424785561303 -251.48035786337232 0 0 0 0 -50.14203013552742 273.35849258659346 0 273.35849258659346 -447.39809546594915 0 0 0 0 -207.75789256878579 371.16385450324015 0 371.16385450324015 -112.3940664425445 0 0 0 0 -189.47229352124532 257.16198200863255 0 257.16198200863255 -259.91693095514347 0 0 0 0 -4.9096892701895669 4.593221189970393 0 4.593221189970393 -3.4079042072381753 0 0 0 0 -137.62956087662769 340.32102421401123 0 340.32102421401123 1149.0843011459219 0 0 0 0 -10.29396034998792 13.179960273733826 0 13.179960273733826 -9.4897238682923728 0 0 0 0 53.01864495682139 953.29083231677214 0 953.29083231677214 857.41646467073588 0 0 0 0 324.67845499155555 587.79065049968085 0 587.79065049968085 541.9036566628638 0 0 0 0 -90.771304148182026 515.55887354952574 0 515.55887354952574 1130.6247072541009 0 0 0 0 -171.54248942453341 252.40183454116413 0 252.40183454116413 517.65557022075109 0 0 0 0 -245.88226843124994 396.18861770392323 0 396.18861770392323 556.06571474417615 0 0 0 0 -296.85203052478391 556.95109900820535 0 556.95109900820535 49.128650331713288 0 0 0 0 -61.445364120902923 624.25274594902658 0 624.25274594902658 -173.06554851817782 0 0 0 0 -72.06252437636158 448.38500182339885 0 448.38500182339885 -28.933283474756536 0 0 0 0 -331.0877123066266 772.00274180065389 0 772.00274180065389 186.46150216170645 0 0 0 0 -46.905698794362252 478.30155876006847 0 478.30155876006847 -813.64568225607218 0 0 0 0 -536.62360319141862 198.07585733880114 0 198.07585733880114 -238.44778280358514 0 0 0 0 92.53480210376847 477.40039650288509 0 477.40039650288509 -364.52745772121852 0 0 0 0 -113.65462165452664 267.92467691718048 0 267.92467691718048 -366.15471380045835 0 0 0 0 -200.86090585486727 349.69338039894865 0 349.69338039894865 -219.23613459063927 0 0 0 0 74.45688204898579 -6.3288261674406385 0 -6.3288261674406385 -1665.5345657552607 0 0 0 0 -447.93146638096903 624.32360419900783 0 624.32360419900783 -683.86306184289424 0 0 0 0 73.800643831584807 99.874237270435771 0 99.874237270435771 -568.04633872837076 0 0 0 0 -131.46350784024344 172.05314250325137 0 172.05314250325137 -101.62558321484721 0 0 0 0 -334.90554322560638 511.74394427420339 0 511.74394427420339 146.17842545877647 0 0 0 0 -292.66298053462742 422.48234441860768 0 422.48234441860768 -173.25228085937488 0 0 0 0 -356.5569132067385 422.10661669263209 0 422.10661669263209 -160.34016934472675 0 0 0 0 -29.735163864810602 531.22783758735568 0 531.22783758735568 -251.46675731052892 0 0 0 0 -261.23400430439415 347.37572628326052 0 347.37572628326052 -217.94948404884508 0 0 0 0 -279.97752481137104 442.86400145093103 0 442.86400145093103 -222.12916135935848 0 0 0 0 -67.49818187551864 419.44659395311828 0 419.44659395311828 -241.13651524018496 0 0 0 0 80.262638286279866 461.97165163512545 0 461.97165163512545 -266.33581750785015 0 0 0 0 -781.85891173934397 567.84752528602667 0 567.84752528602667 -27.927119420728559 0 0 0 0 -1.3252124061330637 3.6580511362259465 0 3.6580511362259465 -2.3874510552495849 0 0 0 0 656.32533334815889 206.47297973802415 0 206.47297973802415 -162.385106983078 0 0 0 0 -254.90416162103247 528.31190928726437 0 528.31190928726437 -241.31916230083152 0 0 0 0 -298.86868322242208 490.12334709166134 0 490.12334709166134 -253.75198533639195 0 0 0 0 -338.47520257373162 711.37901852963478 0 711.37901852963478 -386.72323650121143 0 0 0 0 -284.61683017237101 523.16841956498229 0 523.16841956498229 -241.20894317450438 0 0 0 0 -515.13402028498786 435.27635386192378 0 435.27635386192378 -196.48902164030733 0 0 0 0 -283.2041920850279 459.0628738153664 0 459.0628738153664 -195.30343613450168 0 0 0 0 -198.77901818089231 251.72261193713712 0 251.72261193713712 -209.44782346557804 0 0 0 0 -419.42461305377037 289.44210248856507 0 289.44210248856507 -116.98196180985542 0 0 0 0 -463.12909780856353 322.85433383246345 0 322.85433383246345 -142.3231757023641 0 0 0 0 -564.3775122218467 332.37834913011648 0 332.37834913011648 -117.77142750404164 0 0 0 0 124.800821335195 -105.62206590535243 0 -105.62206590535243 -275.5950589676504 0 0 0 0 -32.850432492466098 159.30526797727725 0 159.30526797727725 -176.64496337136006 0 0 0 0 -38.844502135630151 56.066018894331208 0 56.066018894331208 -51.245040500459382 0 0 0 0 -404.82786601105681 53.337907387423002 0 53.337907387423002 -19.187931518499681 0 0 0 0 -65.918071731684904 595.78474146019016 0 595.78474146019016 -303.46862195440553 0 0 0 0 128.73314825402827 181.7919737658417 0 181.7919737658417 -150.28540679260186 0 0 0 0 41.804074879131804 148.49335285620964 0 148.49335285620964 146.55544034263539 0 0 0 0 -12.919808178760833 13.532243919306778 0 13.532243919306778 -3.8672712381711527 0 0 0 0 -222.37862008551474 -114.07661506813679 0 -114.07661506813679 117.64829889504472 0 0 0 0 -121.32512620296575 -4.4010101719504746 0 -4.4010101719504746 47.552911988728738 0 0 0 0 9.9914993904101266 71.348986809673079 0 71.348986809673079 -25.89185296607684 0 0 0 0 -18.570864252166494 38.184676617267826 0 38.184676617267826 8.9865065611440329 0 0 0 0 7.0641274878203149 19.416461422645654 0 19.416461422645654 2.9619143818491409 0 0 0 0 -217.37972841091323 159.80667520617317 0 159.80667520617317 -167.81153144301152 0 0 0 0 -100.85651468953313 -65.702265065281836 0 -65.702265065281836 231.48469382796247 0 0 0 0 -10.318996012957996 255.60927535591554 0 255.60927535591554 226.99905859409046 0 0 0 0 -14.584329634776807 21.358737188405485 0 21.358737188405485 -15.166099092617927 0 0 0 0 120.85326107017499 -63.740816819183237 0 -63.740816819183237 105.79320260391432 0 0 0 0 -368.34463396188039 498.6863221190124 0 498.6863221190124 -495.31889235898416 0 0 0 0 -14.627143265567611 120.74908070666424 0 120.74908070666424 67.223017099793651 0 0 0 0 -270.93283238156164 -157.06954006315209 0 -157.06954006315209 -191.30272786932983 0 0 0 0 -9.6728397840852267 -200.28739379200488 0 -200.28739379200488 491.47571709468411 0 0 0 0 117.8475935911556 508.87785870600783 0 508.87785870600783 106.98057150387103 0 0 0 0 5.0443208275508447 2.8179940549475901 0 2.8179940549475901 4.4440619702120827 0 0 0 0 -134.37884708207594 321.78574448789323 0 321.78574448789323 -329.29875058142352 0 0 0 0 -290.63726933829344 -108.55388622277911 0 -108.55388622277911 130.08335593366701 0 0 0 0 0.091217274251327751 0.38898293256059091 0 0.38898293256059091 -0.92164999429298433 0 0 0 0 -244.40305754072688 80.642024985065518 0 80.642024985065518 246.26187398671573 0 0 0 0 -29.593235762878919 32.114866261780122 0 32.114866261780122 -31.678129131680144 0 0 0 0 345.95764215015515 545.37703007601658 0 545.37703007601658 427.03451002212751 0 0 0 0 -31.336531057950197 230.55922173280146 0 230.55922173280146 169.65976116126387 0 0 0 0 146.55843689168432 -19.368907693819779 0 -19.368907693819779 -170.21409690875043 0 0 0 0 78.633099052776743 116.41865356145172 0 116.41865356145172 138.89193314836712 0 0 0 0 223.73976865087752 29.927454865170603 0 29.927454865170603 46.414548622333996 0 0 0 0 344.66907186567641 172.74863366126328 0 172.74863366126328 -137.219212506031 0 0 0 0 120.74769547148207 146.56571196026471 0 146.56571196026471 -83.873421041632355 0 0 0 0 175.41552436774327 237.113495268821 0 237.113495268821 -155.52059404655461 0 0 0 0 140.9535582019671 83.536868789027267 0 83.536868789027267 -96.993005945091511 0 0 0 0 86.421818558588711 160.85753821160188 0 160.85753821160188 -206.05431610435016 0 0 0 0 -102.91771951995543 122.93534985511997 0 122.93534985511997 -31.644979184094382 0 0 0 0 24.780116914105747 107.87838370103145 0 107.87838370103145 -31.5969373291598 0 0 0 0 46.906026384655888 65.709488638602011 0 65.709488638602011 35.690767813498042 0 0 0 0 85.208710743539086 130.30465664656833 0 130.30465664656833 40.157854689689884 0 0 0 0 3.0701936279583606 75.329276394601948 0 75.329276394601948 70.925190541864822 0 0 0 0 14.331220618085354 112.88302506884338 0 112.88302506884338 92.001020603164307 0 0 0 0 18.432305941079903 58.821780886717988 0 58.821780886717988 26.909813410011338 0 0 0 0 8.4125109830092697 121.36105978943897 0 121.36105978943897 -46.196801836103077 0 0 0 0 -41.440198353730011 16.664221472753525 0 16.664221472753525 -16.786974440077302 0 0 0 0 -18.018389304292214 111.12390221782925 0 111.12390221782925 53.859590252437556 0 0 0 0 13.79853658150023 69.384862791873275 0 69.384862791873275 102.48639522837402 0 0 0 0 -18.066839337812397 98.652598372172108 0 98.652598372172108 138.23045764806011 0 0 0 0 45.800408200637321 90.455487121991382 0 90.455487121991382 99.36883142491115 0 0 0 0 -3.6247115507848875 6.7457466070132348 0 6.7457466070132348 -12.221478173696756 0 0 0 0 -84.392605032040592 26.872572423354313 0 26.872572423354313 -12.402954559636328 0 0 0 0 -19.667016435314341 41.920517703473585 0 41.920517703473585 -67.314259288792385 0 0 0 0 13.316214282339486 169.87441651299076 0 169.87441651299076 72.20352804104914 0 0 0 0 -5.1140473514944063 -103.67482991515135 0 -103.67482991515135 -90.617665383488202 0 0 0 0 -112.83872031604963 97.159581425985721 0 97.159581425985721 152.64700132285725 0 0 0 0 -4.3648404733245068 5.4161440662599603 0 5.4161440662599603 -9.0371798010589686 0 0 0 0 -768.12931304936285 -125.75030346859785 0 -125.75030346859785 62.788061527950049 0 0 0 0 240.65102524349177 410.42294180771978 0 410.42294180771978 -785.13793061842443 0 0 0 0 -769.03997647050858 834.92924237692205 0 834.92924237692205 81.790181707045122 0 0 0 0 199.83577597529703 807.52353669623449 0 807.52353669623449 -77.499057835015265 0 0 0 0 32.1759149172658 99.315454913837129 0 99.315454913837129 -200.58844766964447 0 0 0 0 -21.056133117780707 41.865758162261152 0 41.865758162261152 -79.88395313868503 0 0 0 0 60.494003893861191 216.31488648971796 0 216.31488648971796 -223.75700902591007 0 0 0 0 85.30478076237705 182.60137751185016 0 182.60137751185016 -180.74950379810457 0 0 0 0 62.359650350323136 246.99255815320066 0 246.99255815320066 -176.83967494859985 0 0 0 0 42.368975478537322 293.45209263976335 0 293.45209263976335 -279.77947968348508 0 0 0 0 -17.940540541712835 315.95901821433608 0 315.95901821433608 -109.05999147014836 0 0 0 0 108.35521747272105 210.03059405163071 0 210.03059405163071 -275.50286007517525 0 0 0 0 153.38744887479515 267.9148201798746 0 267.9148201798746 -640.55957342100282 0 0 0 0 53.208205182296297 -14.288858419936332 0 -14.288858419936332 -200.48074266682306 0 0 0 0 5.7059037581487928 6.0556474205529245 0 6.0556474205529245 -0.31555151831723549 0 0 0 0 -322.08082499356169 112.2395646236605 0 112.2395646236605 -25.826472218861454 0 0 0 0 -17.752753817027269 59.337074151824908 0 59.337074151824908 -17.685918963206859 0 0 0 0 -7.4805191401137563 174.3094532559312 0 174.3094532559312 -16.911822925277647 0 0 0 0 24.687458423237359 28.021488223825941 0 28.021488223825941 6.402560965594871 0 0 0 0 -3.5436115548218368 183.80464237076444 0 183.80464237076444 -162.88732737727966 0 0 0 0 -7.317073227172715 45.407846416245569 0 45.407846416245569 -81.571475702893707 0 0 0 0 535.11701081916522 267.4181432130863 0 267.4181432130863 -278.04634099955001 0 0 0 0 58.134208240102453 16.64575314513786 0 16.64575314513786 -35.050915280124173 0 0 0 0 156.06754661176853 -50.637954809022631 0 -50.637954809022631 -110.51385065162867 0 0 0 0 55.886705289662927 16.016097169604834 0 16.016097169604834 -39.729704043491353 0 0 0 0 -6.4382284737408781 131.76340449340933 0 131.76340449340933 70.009579088071291 0 0 0 0 76.025242002352684 -110.91157723351898 0 -110.91157723351898 32.949251408092096 0 0 0 0 132.9547252680523 -31.449336327568744 0 -31.449336327568744 -32.549284987348074 0 0 0 0 449.53705566748687 -127.42595654825391 0 -127.42595654825391 -929.62640782822564 0 0 0 0 -232.5988709177069 -325.48891623951749 0 -325.48891623951749 -258.00709251716762 0 0 0 0 -444.23549756792056 61.908974582595874 0 61.908974582595874 65.73632780049229 0 0 0 0 122.72489134125112 358.269251843436 0 358.269251843436 -755.25813490333258 0 0 0 0 2.4343420835280298 17.696868925189776 0 17.696868925189776 -14.005907489181411 0 0 0 0 44.156781663637958 53.076172545703457 0 53.076172545703457 -24.091962261030858 0 0 0 0 135.31320117074733 106.77639504508488 0 106.77639504508488 -20.671234548339271 0 0 0 0 52.213581363171443 36.539058988620852 0 36.539058988620852 -9.4206701300986282 0 0 0 0 38.525836944209004 116.62760033307859 0 116.62760033307859 -36.997932195497924 0 0 0 0 132.4998897882906 196.27094843857412 0 196.27094843857412 -19.972356941918406 0 0 0 0 80.592381456372095 207.13508179656492 0 207.13508179656492 -58.514468391804257 0 0 0 0 -11.181916068064758 29.402468486606928 0 29.402468486606928 -18.160965252700677 0 0 0 0 66.041885753194947 28.245774166340198 0 28.245774166340198 -68.287480914794287 0 0 0 0 63.695858662573535 27.337269701419544 0 27.337269701419544 -23.822830290602653 0 0 0 0 54.850113517605223 -60.104864864180286 0 -60.104864864180286 -177.50110389805559 0 0 0 0 247.61887072825994 40.790311255001143 0 40.790311255001143 -164.72671020568623 0 0 0 0 -13.680394463963694 5.2654799445250688 0 5.2654799445250688 -2.599122809811206 0 0 0 0 -525.77050849110549 188.51137244789061 0 188.51137244789061 123.59789252965129 0 0 0 0 -13.802046424068976 0.66517087803913455 0 0.66517087803913455 101.50647854627869 0 0 0 0 -383.57031216891085 285.12727449619501 0 285.12727449619501 -105.93099268544029 0 0 0 0 247.8125456039661 339.83295097992595 0 339.83295097992595 -495.62662169889518 0 0 0 0 -85.743847301715505 215.78558785411406 0 215.78558785411406 -517.62976738524958 0 0 0 0 205.49556788704012 159.23314373480753 0 159.23314373480753 -697.62334760072554 0 0 0 0 266.5339851290837 460.16861901957418 0 460.16861901957418 -512.05786909708695 0 0 0 0 128.61894954322349 228.5056404005386 0 228.5056404005386 -384.04205745169747 0 0 0 0 107.38380158076495 407.57938590928825 0 407.57938590928825 -706.35119203806971 0 0 0 0 186.02416020026703 231.20119820444097 0 231.20119820444097 -1052.9247353240789 0 0 0 0 -6.1185133841559747 3.6674633848921445 0 3.6674633848921445 -3.9230472660093056 0 0 0 0 -317.45713573870762 237.80240259434868 0 237.80240259434868 115.92090317642942 0 0 0 0 82.215732947724973 6.2151317588604797 0 6.2151317588604797 -82.648153232072218 0 0 0 0 -75.66576328058818 348.08331401849864 0 348.08331401849864 -223.98632860967882 0 0 0 0 -297.62450738649204 568.40429361301176 0 568.40429361301176 -397.23611728562355 0 0 0 0 -21.891972935786896 171.29233831096212 0 171.29233831096212 -404.78344177383769 0 0 0 0 -216.37561487237872 147.51897969893616 0 147.51897969893616 103.30941410014111 0 0 0 0 -2.6465589166596359 0.24632823407382176 0 0.24632823407382176 -1.3516349017936875 0 0 0 0 -49.327137092782323 4.4455343066874775 0 4.4455343066874775 -23.617991928684205 0 0 0 0 1.7527049121828853 13.15486489740951 0 13.15486489740951 10.900099188445353 0 0 0 0 50.212383951637094 33.328706062030051 0 33.328706062030051 -21.904317936889129 0 0 0 0 9.6519372628918063 57.886575630731386 0 57.886575630731386 83.275490186646493 0 0 0 0 5.3163535262631285 50.65015990923348 0 50.65015990923348 134.55117447934754 0 0 0 0 67.855065753454255 41.808219422091497 0 41.808219422091497 81.658438777474657 0 0 0 0 1969.4728618560839 -554.18783773739415 0 -554.18783773739415 1304.2343083614978 0 0 0 0 -20.895581045462414 18.827785795657391 0 18.827785795657391 -15.428449524816131 0 0 0 0 -145.07923320877762 244.01128011064247 0 244.01128011064247 82.07931876314251 0 0 0 0 12.798869849241783 125.57781749846981 0 125.57781749846981 60.603222846031713 0 0 0 0 168.70996216345793 99.440537657275854 0 99.440537657275854 -464.45427373315761 0 0 0 0 -31.858327327110601 315.58586779652614 0 315.58586779652614 -334.29617971978587 0 0 0 0 130.70258031930371 102.7569537282543 0 102.7569537282543 -581.14544798897441 0 0 0 0 132.12659231317775 73.040554609617175 0 73.040554609617175 -303.80306780028332 0 0 0 0 -794.98639259813535 1034.5407532761747 0 1034.5407532761747 2224.2358200473682 0 0 0 0 -524.13904801472017 867.77572935605713 0 867.77572935605713 858.55556900965166 0 0 0 0 -321.40098907443644 -295.38301148006212 0 -295.38301148006212 926.93620338877372 0 0 0 0 1.7620803504040605 7.5669526584890043 0 7.5669526584890043 19.261385360557455 0 0 0 0 707.65970084950095 1592.0702415771957 0 1592.0702415771957 -70.353132127012941 0 0 0 0 -503.01833836794322 64.426957218020107 0 64.426957218020107 1806.766838633579 0 0 0 0 -128.67945490576403 -250.59615329305598 0 -250.59615329305598 59.109429705174989 0 0 0 0 1680.0191343057249 1686.2728301014613 0 1686.2728301014613 -1054.4762502925041 0 0 0 0 2132.6125460408566 720.05813792849403 0 720.05813792849403 -306.99628790703719 0 0 0 0 601.67923359416454 1612.5303705688057 0 1612.5303705688057 564.36957460852864 0 0 0 0 -42.752796236738504 852.88718336809688 0 852.88718336809688 -313.6041153439437 0 0 0 0 176.76241870447939 222.56790547697437 0 222.56790547697437 121.77071787577734 0 0 0 0 -34.802764521906902 40.499447609531373 0 40.499447609531373 3.5935321400597005 0 0 0 0 -1.4664345814944681 75.737690252462926 0 75.737690252462926 139.34681416330568 0 0 0 0 234.20679770827701 199.20225838661281 0 199.20225838661281 116.35813725450134 0 0 0 0 30.344379894998045 42.06205887485077 0 42.06205887485077 32.250070740295882 0 0 0 0 -10.045691628503846 95.358931734892394 0 95.358931734892394 94.88892173824388 0 0 0 0 5.8010389016010624 12.779497244739474 0 12.779497244739474 17.45710367918781 0 0 0 0 -58.640745477805922 58.174490635487018 0 58.174490635487018 117.14174342700426 0 0 0 0 9.1338457946880318 71.699805470114782 0 71.699805470114782 70.344549684666958 0 0 0 0 -153.87579628615242 220.03247988796466 0 220.03247988796466 1095.929135488288 0 0 0 0 -30.359150309278448 -162.00185328654334 0 -162.00185328654334 1151.9067122133711 0 0 0 0 86.990061199121556 -209.82749850053733 0 -209.82749850053733 1168.1352672692592 0 0 0 0 117.4186089413206 -473.35016808335422 0 -473.35016808335422 3445.7452842511848 0 0 0 0 1297.9494457016499 -571.53265862164699 0 -571.53265862164699 39.70325655178749 0 0 0 0 14.791369169526789 12.023714340823226 0 12.023714340823226 12.352851738410095 0 0 0 0 1056.2991735974592 1108.2100124782519 0 1108.2100124782519 1806.8700484921501 0 0 0 0 557.77835155576122 370.51137136748002 0 370.51137136748002 719.61958638971555 0 0 0 0 -595.96411333130982 186.62876605717975 0 186.62876605717975 1958.9756667315742 0 0 0 0 -566.01104124609242 381.4974179744413 0 381.4974179744413 950.94290897776227 0 0 0 0 -919.71244350304084 445.30253017720679 0 445.30253017720679 1077.6425205892228 0 0 0 0 -306.78719136835309 266.2760893836039 0 266.2760893836039 134.19831539406732 0 0 0 0 -512.16407817372146 129.49439568029993 0 129.49439568029993 676.23075728875392 0 0 0 0 362.38562819154049 91.090248914435506 0 91.090248914435506 11.263769676879747 0 0 0 0 380.42445918297472 -555.52345510755913 0 -555.52345510755913 378.50581515694284 0 0 0 0 870.54530509582946 -481.35313984257664 0 -481.35313984257664 308.30034159451316 0 0 0 0 0.056301323856216001 1.5642428719247921 0 1.5642428719247921 16.300449412612238 0 0 0 0 372.48330921620618 -958.56498904409455 0 -958.56498904409455 -106.6325447409472 0 0 0 0 548.02593916307978 -1075.2500765166697 0 -1075.2500765166697 -129.05658102210145 0 0 0 0 -1728.5711653989574 433.13150811555352 0 433.13150811555352 1279.2708306587156 0 0 0 0 -0.52189290614073336 7.0460559696179619 0 7.0460559696179619 36.403676179115507 0 0 0 0 -550.92091734464475 147.0574051079011 0 147.0574051079011 51.021568926051259 0 0 0 0 2058.6469129407305 -274.01079884737192 0 -274.01079884737192 -269.25067308383586 0 0 0 0 -383.49020973664483 -1596.2602319319631 0 -1596.2602319319631 3188.420379077812 0 0 0 0 26.649833344505168 364.15226591405371 0 364.15226591405371 -30.102373819840068 0 0 0 0 348.94506162323796 816.86267927850349 0 816.86267927850349 -833.52198738156585 0 0 0 0 43.169320548749965 -245.32259866745153 0 -245.32259866745153 -817.59548729509697 0 0 0 0 -19.537240711732949 56.655810432630098 0 56.655810432630098 -53.324153724112669 0 0 0 0 -163.78343395126285 -83.492869896224875 0 -83.492869896224875 173.68812697710382 0 0 0 0 -74.95306335481655 776.77491056013969 0 776.77491056013969 289.72917767514809 0 0 0 0 59.385190904873525 -802.65976489992318 0 -802.65976489992318 705.22310484752234 0 0 0 0 -207.53752740054369 80.440162079532456 0 80.440162079532456 1646.3802987410381 0 0 0 0 359.54761888997018 -703.20957393733261 0 -703.20957393733261 -388.13093137578471 0 0 0 0 901.9855968164004 1263.0103629871628 0 1263.0103629871628 531.78834995841316 0 0 0 0 -26.118116460430475 80.175674720218268 0 80.175674720218268 -45.490407009804649 0 0 0 0 -82.462816853949789 318.09689937809162 0 318.09689937809162 -131.71207276019413 0 0 0 0 -1104.4136063399496 607.84585286803849 0 607.84585286803849 1683.8833874603697 0 0 0 0 -994.86834491340392 160.94083169263831 0 160.94083169263831 1373.6521523961273 0 0 0 0 -861.93370927228534 289.93261519715998 0 289.93261519715998 -389.34867238980223 0 0 0 0 -1470.1941415425422 232.28845409688438 0 232.28845409688438 1396.879531095743 0 0 0 0 1896.9744777862647 1270.934384449547 0 1270.934384449547 223.68474524830526 0 0 0 0 2.4765815985333752 8.7182514442086685 0 8.7182514442086685 24.657425852654427 0 0 0 0 363.75197963456048 476.37359884488251 0 476.37359884488251 -794.04337873050099 0 0 0 0 1102.7551712392842 1658.264071119338 0 1658.264071119338 946.57272707558877 0 0 0 0 1038.3871075345705 2096.7437116869914 0 2096.7437116869914 2538.6727449511018 0 0 0 0 1549.3485566156196 705.08067390028009 0 705.08067390028009 -98.596830051435973 0 0 0 0 5.9781642767615111 2.0464709308623696 0 2.0464709308623696 0.069766516114981414 0 0 0 0 269.05821809679765 -22.755287358471833 0 -22.755287358471833 -1103.025826412093 0 0 0 0 -51.685472230832602 122.70338966833515 0 122.70338966833515 -402.99449208501028 0 0 0 0 70.843388937941199 635.83865322489874 0 635.83865322489874 -36.94896276106374 0 0 0 0 -381.28123969397711 246.95690268755789 0 246.95690268755789 362.6069960269524 0 0 0 0 0.095097668839082772 -0.96494255348699198 0 -0.96494255348699198 2.5450440660208926 0 0 0 0 643.81417872927796 391.9650336758823 0 391.9650336758823 209.62716395194002 0 0 0 0 88.410464909205984 614.0398954279699 0 614.0398954279699 1437.2441716292378 0 0 0 0 832.78453376104153 935.89525726073043 0 935.89525726073043 1324.5520019769901 0 0 0 0 814.5067503595692 909.77667255959568 0 909.77667255959568 1489.6691011272342 0 0 0 0 723.07997193253686 942.44540189270629 0 942.44540189270629 1534.8815674950602 0 0 0 0 866.85652333335383 1071.154925978044 0 1071.154925978044 1493.1796510101994 0 0 0 0 674.22752145907907 937.95464124475984 0 937.95464124475984 1484.0089932446281 0 0 0 0 1067.7713532948001 982.50516163622524 0 982.50516163622524 933.58925934607123 0 0 0 0 817.83452482232133 296.64639533641457 0 296.64639533641457 488.42572006874252 0 0 0 0 7.6528269356385863 23.997018974776438 0 23.997018974776438 418.09545392626023 0 0 0 0 258.23245214064218 -194.99099738778932 0 -194.99099738778932 411.82715470650874 0 0 0 0 268.92429580737007 -137.63545807291666 0 -137.63545807291666 -34.288133883579576 0 0 0 0 1.0005715479619539 -19.244889581299503 0 -19.244889581299503 296.79623251857265 0 0 0 0 435.97282881386855 485.83639932394726 0 485.83639932394726 882.42076577713578 0 0 0 0 -260.60397333837682 -159.93205578107882 0 -159.93205578107882 97.084922961905249 0 0 0 0 -19.481727082273665 -126.28350465596441 0 -126.28350465596441 -10.863644538643712 0 0 0 0 -115.58447016675564 13.40557519307913 0 13.40557519307913 672.09951996034943 0 0 0 0 -454.91426856256476 385.21706501082917 0 385.21706501082917 431.40756721975777 0 0 0 0 7.3243011450440658 23.003872593663857 0 23.003872593663857 57.078533172471197 0 0 0 0 -972.46494982075785 823.42174061326659 0 823.42174061326659 41.540900912528741 0 0 0 0 -359.81726787781372 -0.2759764900420123 0 -0.2759764900420123 132.40165749305743 0 0 0 0 6.1636840768924177 28.163429033539263 0 28.163429033539263 72.689372116351223 0 0 0 0 -385.56425925779149 191.34376848643296 0 191.34376848643296 14.654843535739928 0 0 0 0 -420.55979282276621 192.83076508578233 0 192.83076508578233 213.52746266422037 0 0 0 0 -127.90910252721278 50.400619838652347 0 50.400619838652347 45.281733759562485 0 0 0 0 -3.5175787718758489 9.8190131185621965 0 9.8190131185621965 13.932836230384339 0 0 0 0 -48.064663189463317 -29.560025037113519 0 -29.560025037113519 23.245926190027603 0 0 0 0 -8.1096900538352283 28.058053037519713 0 28.058053037519713 42.033659847231263 0 0 0 0 -37.178534828355168 26.250598017755692 0 26.250598017755692 33.004760040625115 0 0 0 0 -11.252998727257165 -1.0410505157577106 0 -1.0410505157577106 2.8574124797867739 0 0 0 0 -133.87934043898531 17.396635198787408 0 17.396635198787408 3.9970676519151311 0 0 0 0 -71.451911252777791 -39.760115749562829 0 -39.760115749562829 48.981005450055818 0 0 0 0 -21.007173943169619 7.245762323938834 0 7.245762323938834 12.025841290745575 0 0 0 0 -205.07763588557464 -72.116590931940664 0 -72.116590931940664 41.14896758426039 0 0 0 0 15.381217770027433 -147.69622781308863 0 -147.69622781308863 41.327078614842321 0 0 0 0 24.53281962870642 -26.931783984191497 0 -26.931783984191497 -51.274373828113312 0 0 0 0 57.995643803974872 -57.001913541600516 0 -57.001913541600516 -64.635825198311068 0 0 0 0 -0.17191922283961425 -0.61475949518820983 0 -0.61475949518820983 4.0200909014359922 0 0 0 0 101.4517726050799 17.363920570758637 0 17.363920570758637 -42.633277961314889 0 0 0 0 -47.031148991389273 153.95325987127217 0 153.95325987127217 67.770362496254165 0 0 0 0 164.69659698865962 36.347507458109249 0 36.347507458109249 -59.932778292131843 0 0 0 0 408.81498953913433 126.21090871091292 0 126.21090871091292 -63.426806959148962 0 0 0 0 -130.36078394387278 -330.3647895150807 0 -330.3647895150807 308.60479926328117 0 0 0 0 729.19787771942902 247.9788334082441 0 247.9788334082441 -224.40074722823192 0 0 0 0 -505.733368841215 -734.71855620756105 0 -734.71855620756105 1417.2039816719553 0 0 0 0 605.53605970832587 -14.568264306653873 0 -14.568264306653873 -372.38471019771532 0 0 0 0 -0.23930736540897435 0.54914215933091981 0 0.54914215933091981 -1.9421085512840364 0 0 0 0 -827.46660630365841 -310.66304588536514 0 -310.66304588536514 -36.146639077633154 0 0 0 0 -1322.2153034204357 729.55774458528322 0 729.55774458528322 67.706486262657108 0 0 0 0 -804.78028402298787 838.88237975336233 0 838.88237975336233 -588.64805014302692 0 0 0 0 -3013.1340031594286 142.82888687440027 0 142.82888687440027 335.72616805532743 0 0 0 0 -2.9648425066169857 3.2260547535405522 0 3.2260547535405522 -13.080955884102423 0 0 0 0 265.46205604185388 252.43376972170881 0 252.43376972170881 -462.54259921114863 0 0 0 0 -616.09199356213594 736.87784357608689 0 736.87784357608689 -1281.1482931002938 0 0 0 0 -867.02869318045532 -190.37788839965651 0 -190.37788839965651 94.451656416640617 0 0 0 0 -942.15293207058403 -16.99422040088939 0 -16.99422040088939 -202.73331531278382 0 0 0 0 -1287.0646335657002 292.59706477705186 0 292.59706477705186 -21.218935505268746 0 0 0 0 -1362.1785026034722 274.48053859471293 0 274.48053859471293 101.24730329179147 0 0 0 0 -4.0659909400446876 20.842309807974171 0 20.842309807974171 -34.247434313176427 0 0 0 0 36.710909481947965 8.7953545825221227 0 8.7953545825221227 77.887712056806777 0 0 0 0 123.38516900164154 304.53164504638698 0 304.53164504638698 -114.72589642187813 0 0 0 0 -1264.2896641547741 356.70739365454938 0 356.70739365454938 -56.892774712769096 0 0 0 0 -14.412224636078214 13.397982959904922 0 13.397982959904922 55.102129436448934 0 0 0 0 -1276.1527519831498 322.89217446343855 0 322.89217446343855 303.58325128825527 0 0 0 0 -1147.060572731104 42.898592183373694 0 42.898592183373694 396.14161466747464 0 0 0 0 256.91892518090845 780.82740780302993 0 780.82740780302993 -659.16949868783558 0 0 0 0 -199.41726242256982 213.85091156755698 0 213.85091156755698 161.30573347597237 0 0 0 0 -2.9004243358030326 6.3477440889103249 0 6.3477440889103249 -3.8228084748212723 0 0 0 0 260.63257586465988 548.65287979473578 0 548.65287979473578 -8.2042500479183218 0 0 0 0 194.61612332733966 225.65803441813841 0 225.65803441813841 -230.76463097358919 0 0 0 0 170.75903204856968 192.60181111248312 0 192.60181111248312 162.52367395185138 0 0 0 0 433.0407263078323 360.57438585969612 0 360.57438585969612 -465.91513180782931 0 0 0 0 0.49054801187728714 0.59419749428046487 0 0.59419749428046487 0.039948008612547881 0 0 0 0 11.287607938467772 153.23625622205873 0 153.23625622205873 371.86686297992856 0 0 0 0 -66.42611114656529 -116.02012951739425 0 -116.02012951739425 305.27706524953101 0 0 0 0 -65.327271586295865 40.690685510495314 0 40.690685510495314 352.34432408787688 0 0 0 0 -11.532671487456355 -49.898206132582345 0 -49.898206132582345 496.31404180085519 0 0 0 0 328.95131384580259 212.64665714367857 0 212.64665714367857 182.41466579856205 0 0 0 0 280.95220644310393 165.93432156583003 0 165.93432156583003 341.46919754370174 0 0 0 0 872.20347150582711 -162.42156854493624 0 -162.42156854493624 130.62688252810767 0 0 0 0 200.27809652699762 -377.30726485854757 0 -377.30726485854757 1024.5085807273208 0 0 0 0 -49.615158183913081 9.1554477001118357 0 9.1554477001118357 495.16087977466782 0 0 0 0 -103.93986119254669 -41.961997181022525 0 -41.961997181022525 577.35064589871035 0 0 0 0 -57.875516379257533 169.10199989372995 0 169.10199989372995 422.14130347648461 0 0 0 0 -70.783416129055695 233.46141897989946 0 233.46141897989946 461.53081173565806 0 0 0 0 -215.08857057881505 306.81402028736193 0 306.81402028736193 1020.0992308331656 0 0 0 0 14.390330851687395 15.681559233085864 0 15.681559233085864 416.65743256791757 0 0 0 0 -94.059742205215116 95.842101317219203 0 95.842101317219203 371.35864526105433 0 0 0 0 -78.916285435851933 57.611432072888419 0 57.611432072888419 400.48705553829859 0 0 0 0 -138.33902855383894 74.207887013268191 0 74.207887013268191 660.93405333627015 0 0 0 0 -137.57940498846256 82.411758049667696 0 82.411758049667696 466.65825944946846 0 0 0 0 -108.97067908390727 -5.3496828416828066 0 -5.3496828416828066 499.80128040723503 0 0 0 0 -102.62609001513533 -23.409100819814739 0 -23.409100819814739 483.39026627069688 0 0 0 0 -111.97015064423795 1.2038288083676889 0 1.2038288083676889 520.75472339392218 0 0 0 0 -27.79730997506158 -1.8600734823485254 0 -1.8600734823485254 461.79483952935698 0 0 0 0 -81.70643552335423 -48.620174706727994 0 -48.620174706727994 424.63467917757953 0 0 0 0 -201.91769835769446 -13.608117633222719 0 -13.608117633222719 499.07054238515866 0 0 0 0 -49.59035856524315 161.68554890549422 0 161.68554890549422 -60.322358805982731 0 0 0 0 2.0014568855546919 1.1586879822524878 0 1.1586879822524878 0.3175019796582319 0 0 0 0 163.28001455156846 246.43343555177489 0 246.43343555177489 -374.07810941590833 0 0 0 0 -212.93870015411449 115.19996669257307 0 115.19996669257307 433.51552627081401 0 0 0 0 204.60896562430435 541.45447546684045 0 541.45447546684045 736.75538353878073 0 0 0 0 -62.117554785292668 -12.939574097697914 0 -12.939574097697914 946.41504560318572 0 0 0 0 2.217668409283224 6.4030385461110058 0 6.4030385461110058 4.7475193718630067 0 0 0 0 32.080805678337128 357.3912892092485 0 357.3912892092485 1043.1338449336399 0 0 0 0 60.511150912533594 -192.08009532135475 0 -192.08009532135475 651.35306487997877 0 0 0 0 198.24841855624436 228.74004224915552 0 228.74004224915552 459.56168272065406 0 0 0 0 538.98728506634018 483.25975735596302 0 483.25975735596302 645.83707401214633 0 0 0 0 -31.849292866030737 10.235305471647735 0 10.235305471647735 476.16594155747589 0 0 0 0 548.09524867673645 -131.2254488571416 0 -131.2254488571416 429.11142244904113 0 0 0 0 -122.82903158335557 170.88718440267257 0 170.88718440267257 505.03781111673015 0 0 0 0 -103.91165353692031 11.070283748231304 0 11.070283748231304 361.55077982135117 0 0 0 0 -112.4940472894441 27.709593253606727 0 27.709593253606727 347.00514074284001 0 0 0 0 -93.406816709437408 186.21502253911603 0 186.21502253911603 597.66977013912083 0 0 0 0 -42.025646694079114 10.908232875182875 0 10.908232875182875 462.8223068034913 0 0 0 0 -130.30751478277375 27.401314963573896 0 27.401314963573896 608.2938118151651 0 0 0 0 -89.889119140674211 153.45659586574766 0 153.45659586574766 702.72727568418486 0 0 0 0 34.582880074937748 355.48129326687194 0 355.48129326687194 700.10464063132133 0 0 0 0 -60.505614974052151 222.68143980211971 0 222.68143980211971 517.40755727903161 0 0 0 0 -143.17685826493198 174.38902500234872 0 174.38902500234872 521.28912727333955 0 0 0 0 -138.71501959019497 137.39125988037631 0 137.39125988037631 583.48534339119942 0 0 0 0 -100.92893031095082 232.72192338872264 0 232.72192338872264 601.18620791791182 0 0 0 0 -61.535390983537582 227.54604152596221 0 227.54604152596221 465.70563945841059 0 0 0 0 98.996060942094573 222.94654983620967 0 222.94654983620967 356.69553016721329 0 0 0 0 -58.219527514385845 244.4369462274808 0 244.4369462274808 519.54531413445829 0 0 0 0 -6.6122262697140286 209.08548365565002 0 209.08548365565002 355.42589092434991 0 0 0 0 -46.259844578694697 159.96238323414264 0 159.96238323414264 391.47850474002917 0 0 0 0 32.342828061240652 221.59067081833928 0 221.59067081833928 194.52618826678008 0 0 0 0 -13.389945818727938 96.99049662678226 0 96.99049662678226 369.10326259808062 0 0 0 0 269.16301664343473 -9.4867606740081101 0 -9.4867606740081101 400.80887910519232 0 0 0 0 94.363641673669008 254.64271920923056 0 254.64271920923056 453.14064792232602 0 0 0 0 71.45651929227347 206.69053802887265 0 206.69053802887265 239.08604378146265 0 0 0 0 -16.874563659183877 76.986688782897545 0 76.986688782897545 353.02021789165519 0 0 0 0 -126.09780357466434 123.48264089114673 0 123.48264089114673 271.75143450364703 0 0 0 0 -15.103024527598791 113.76632891779809 0 113.76632891779809 269.52434623039881 0 0 0 0 -85.316138699100975 205.04701032484445 0 205.04701032484445 241.51685637697665 0 0 0 0 -32.238231619299313 199.95785819842968 0 199.95785819842968 149.61523094569566 0 0 0 0 56.834286881554135 235.98827853322655 0 235.98827853322655 6.8687787696762825 0 0 0 0 14.735433660754552 252.43781825591213 0 252.43781825591213 206.70913487765938 0 0 0 0 -127.5883329443177 307.38113876414354 0 307.38113876414354 121.92601170727812 0 0 0 0 11.110208665784512 283.90052978877975 0 283.90052978877975 116.48863879130658 0 0 0 0 151.39777104509039 375.1546061242334 0 375.1546061242334 -13.390740565906071 0 0 0 0 51.331022489118595 449.06442591880841 0 449.06442591880841 116.5241494414222 0 0 0 0 -221.14406812594279 365.39031406013237 0 365.39031406013237 167.22873076305586 0 0 0 0 -115.57742475265968 309.0029665733291 0 309.0029665733291 96.857121009205002 0 0 0 0 -249.67036525054846 154.64494634010953 0 154.64494634010953 5.0276238675287459 0 0 0 0 103.17352755722544 443.77425525912372 0 443.77425525912372 -481.66264749729089 0 0 0 0 2.605039963953546 1.9312161050752934 0 1.9312161050752934 0.14370617487712423 0 0 0 0 -100.77364694016478 176.30431827077246 0 176.30431827077246 -27.321394166872778 0 0 0 0 -210.57153514345373 177.49555268490076 0 177.49555268490076 146.84271253153929 0 0 0 0 -215.07602565036677 374.63543171706988 0 374.63543171706988 -380.4055398764649 0 0 0 0 -274.99470634062391 227.59833825042551 0 227.59833825042551 -20.17693955883442 0 0 0 0 -139.67536298185405 189.48009935208029 0 189.48009935208029 -252.03164328766525 0 0 0 0 -174.84825604944444 238.7351882002622 0 238.7351882002622 99.522675547872495 0 0 0 0 -164.62129778006602 127.64100034494004 0 127.64100034494004 154.89127750133048 0 0 0 0 -51.338047136438036 110.92600841947933 0 110.92600841947933 64.065119177715133 0 0 0 0 -77.413838712333927 86.461810556991622 0 86.461810556991622 127.09143718626365 0 0 0 0 -127.19891496013952 179.79475754803934 0 179.79475754803934 169.82540294174214 0 0 0 0 -140.38833129125078 171.96929406595427 0 171.96929406595427 245.1370132222728 0 0 0 0 -29.056149692591589 200.98170003212363 0 200.98170003212363 482.13033536016155 0 0 0 0 -78.384491945815171 73.315575770429859 0 73.315575770429859 359.45997311739848 0 0 0 0 -506.24267600777171 2.3545220089329177 0 2.3545220089329177 718.29978204792133 0 0 0 0 -151.5651166722746 -49.710193835351674 0 -49.710193835351674 316.170337271069 0 0 0 0 -143.25814376964809 84.009306608302722 0 84.009306608302722 624.52937953837318 0 0 0 0 -61.849957143096617 -33.574771288673219 0 -33.574771288673219 70.781987433769245 0 0 0 0 -89.116259411195642 147.81659926386055 0 147.81659926386055 -133.51503119386143 0 0 0 0 -37.172312111097199 33.125551066648768 0 33.125551066648768 189.84262694069912 0 0 0 0 -28.180977828698815 56.507420842412103 0 56.507420842412103 164.97938271547901 0 0 0 0 -1.6507397707632663 86.934664821203114 0 86.934664821203114 116.61755444565642 0 0 0 0 7.6868822434425965 104.51828631598073 0 104.51828631598073 -13.21819722847431 0 0 0 0 -80.988936141000522 146.93142152068322 0 146.93142152068322 79.026502430941036 0 0 0 0 -134.44576119553494 -37.474251943349373 0 -37.474251943349373 -72.135762852791231 0 0 0 0 -73.099171667756764 423.36041026594376 0 423.36041026594376 338.2835663959122 0 0 0 0 17.627110943984007 176.74256088395487 0 176.74256088395487 -109.14796314070281 0 0 0 0 1.2835238182739204 327.70375461909703 0 327.70375461909703 314.5772936325593 0 0 0 0 14.218202039440484 206.16479320974895 0 206.16479320974895 166.93178483755037 0 0 0 0 -2.6666360839008121 139.34865438495399 0 139.34865438495399 68.3829109821163 0 0 0 0 -43.184796509399348 154.95263858071485 0 154.95263858071485 283.54470378676342 0 0 0 0 -49.621531427157606 121.22023565001655 0 121.22023565001655 324.83795743020528 0 0 0 0 -43.366652345504917 123.67870095759099 0 123.67870095759099 151.05257312146932 0 0 0 0 -83.155286794850781 86.397940497954551 0 86.397940497954551 235.78115561369486 0 0 0 0 9.1563912530182279 99.915793342453981 0 99.915793342453981 129.08341648389978 0 0 0 0 
</DataArray>
<DataArray type="Float64" Name="cross_section_updated" format="ascii">
1 1 0.0084088985273276379 1 1 1 1 1 1 1 0.0059979522594346898 0.0051590888806755039 1 1 1 1 1 1 1 0.0097366297583357034 1 1 1 1 1 1 1 1 1 1 1 1 1 1 1 1 0.010804097222241793 1 1 0.0088472091889106388 1 1 1 0.0071595737331860976 1 1 1 1 1 1 1 1 1 0.0086324938314922724 1 1 1 1 1 1 1 1 0.015164286031039913 1 1 1 0.0053017650907784576 1 1 1 1 0.0043813451127335985 1 1 1 1 0.0084484414557618459 1 1 1 1 1 1 0.0094479908248433601 1 1 1 1 1 1 1 1 1 1 0.0060204994536616208 1 1 0.0048129349454124701 1 1 1 1 1 1 1 1 1 1 0.0099073388556890057 1 0.01019393760406071 1 1 1 1 1 1 0.008254045396495803 1 1 1 1 1 1 1 1 1 1 1 1 1 1 0.010862210637139158 1 1 1 1 1 1 1 1 1 1 1 1 1 1 0.010966523554476852 1 1 1 1 0.010211343055682567 1 0.011095643468197441 1 1 1 1 1 1 0.01099634501466696 1 0.0098498667657514177 0.009999998716341392 1 1 1 1 0.011272029432648482 1 1 1 0.0095160245350652747 0.0095475019391155214 1 0.011449281590246149 1 1 1 0.010766672506610141 1 1 1 1 1 1 0.01049543007271523 1 1 1 1 0.017620790168790659 0.004948200374169872 1 1 1 1 1 0.010351420181002276 1 1 1 1 1 0.015211353181351382 0.0062291422884584377 1 1 1 1 1 1 0.0087068934904144593 1 1 1 1 1 1 1 1 0.011635361006997254 1 1 1 1 1 1 1 1 1 1 1 1 1 1 1 1 1 1 1 1 1 1 1 1 1 1 1 1 1 1 1 0.010855790877310818 1 1 1 0.01234542276590947 1 1 1 1 1 1 1 0.010560998411498199 0.0096242502579969684 0.010293230254022963 0.0096675609338708942 1 1 1 1 1 1 1 1 1 1 1 1 1 1 1 1 1 1 1 1 1 1 0.010900677118098348 1 1 1 1 1 1 1 1 1 1 1 1 1 1 1 1 1 1 1 1 1 1 1 1 1 1 1 0.010938563327152519 1 1 1 1 1 1 1 1 1 1 1 1 1 1 1 1 1 1 1 1 1 1 1 1 1 1 1 1 1 0.0090099898917885279 1 0.0070998596957267783 1 0.010820765232122546 1 1 1 1 1 1 1 0.0051573991705083054 1 1 1 0.01284656711974095 1 1 1 1 1 1 0.012161965810974666 1 1 1 1 1 1 0.010117751226268292 1 1 1 1 1 1 1 1 1 1 1 1 1 1 1 1 0.010266361980922742 0.0056819473436811145 0.011396503976118194 1 0.0081312767094501234 1 1 1 0.0099147071957257707 0.017424166460597974 1 1 1 1 1 1 1 1 1 1 1 1 1 1 1 1 1 1 1 1 1 1 1 1 1 1 1 1 1 1 1 1 1 1 0.0087096511747742494 1 1 1 1 0.0092608168699120641 1 1 1 1 0.011979373470591463 1 1 1 1 1 0.0030721814335685667 1 1 1 1 1 1 1 1 0.011090418998620601 1 1 1 1 0.010503275852470371 1 1 1 1 1 0.0011894130801968703 1 1 1 1 1 1.5892697574626524e-10 0.010072184555391368 1 1 1 1 1 1 1 0.0099030344358955729 1 1 0.001924557089474652 1 1 1 1 1 0.0093672335159055709 0.00072075321139970783 1 1 1 1 1 1 0.0070900078150756361 1 1 1 0.0081903459573586194 1 1 1 1 1 1 1 0.0095302173832933282 0.0098144174685539792 1 1 1 1 1 1 1 1 0.0093339961240360494 1 1 1 0.010194498403287511 1 1 1 0.010045802594081797 1 1 1 1 1 1 1 1 1 1 1 1 1 1 1 1 1 1 0.011286014172569532 1 0.011436716468346021 1 1 1 1 1 1 0.0097804225310881635 1 0.0099194950057233285 1 1 0.010206235400879234 1 1 1 1 0.010620677603182846 1 0.0092452693474436368 1 1 1 1 0.0096915689776396717 1 1 1 1 1 1 1 1 0.010086076884453607 1 1 0.010055110709528088 1 1 1 1 1 1 1 1 1 0.010160483870013469 1 0.015580417627319813 1 1 0.0069345544448352458 1 1 1 1 0.014868620016181531 1 1 0.0099283288225156668 1 1 0.010053821468777152 1 1 0.01014662736372874 1 1.3400183324074888e-09 1 0.011498980356896969 1 1 0.0043963168749762364 0.011244016453922513 1 1 1 1 1 1 1 1 1 1 1 1 1 1 1 1 0.014112621030013907 1 1 1 1 1 1 1 1 1 1 1 1 1 1 1 1 0.0090332732217927245 1 1 1 0.0072744014565604281 0.013217137436779594 0.01011315841727306 1 1 1 1 1 0.0053163566523280244 1 1 1 1 -4.7400563855937161e-10 0.011690664153717646 1 1 1 1 0.0098822143935401729 1 1 1 0.0017401502431053928 1 0.010169758531439817 0.0099207015705035824 1 1 0.0077900536331596704 1 1 0.0059387644800488453 1 1 1 1 1 0.010063167144393856 1 1 1 1 1 1 1 1 1 1 0.010651633382513861 0.0037306660137445338 1 1 1 1 1 1 1 1 0.0062639887621316545 1 1 1 1 0.010018780792007178 1 1 1 1 1 1 1 1 1 1 1 1 1 1 1 1 0.0089873489995169632 1 1 1 1 1 1 1 1 1 1 1 1 1 1 1 1 1 1 1 1 1 0.0088724743723479545 1 1 1 1 1 1 1 0.016293365161948924 0.010379073400137641 1 1 1 1 1 1 1 1 1 1 0.016487974875367212 1 1 1 1 0.0099930872011164129 1 1 1 1 1 1 1 1 1 1 0.01105723877285641 1 1 1 1 1 1 1 1 1 0.010153376989217233 0.0084686053297969716 1 1 1 1 1 1 1 1 1 1 1 1 0.0077995257543113138 1 1 0.018119120823148212 1 0.007079420530684305 1 1 0.01763163574251269 1 1 1 1 1 1 1 1 1 1 0.012670445479151266 1 0.010799659896048339 1 0.013626574339382767 1 1 1 1 1 1 0.0073324326499352062 1 1 1 0.010006313730279503 1 1 0.010215128849587517 1 1 1 0.010044187076676599 0.0089718014402806918 1 1 1 1 1 1 1 1 1 1 1 1 1 1 1 1 1 1 1 1 1 1 1 1 0.011183468104496368 1 1 1 0.013575267780982652 1 1 1 1 1 0.01039527745583122 1 1 1 0.015958152063845481 1 1 1 1 1 1 1 0.0011993189005672401 1 1 1 1 1 1 0.010481177531058452 1 1 0.010029837924491886 1 1 1 1 1 1 0.0099941721073223133 1 1 0.0099449271023084596 1 1 1 1 1 1 1 1 1 0.0097953745867449208 1 1 1 1 1 1 1 1 1 1 1 1 1 1 1 1 1 1 1 1 1 0.015694917309195297 1 1 0.010046809206918549 0.011037790398461627 1 1 1 1 1 1 1 1 1 1 1 1 1 1 1 1 1 1 1 1 0.011898622981808132 1 1 0.009997255505807004 1 1 1 0.0091955979349941635 1 1 1 1 1 1 1 0.01407716024843755 1 1 1 0.011107861326593138 1 1 1 -8.5467122962201714e-11 0.012685617711760215 0.0054150742876408284 1 1 1 1 1 0.014542930524015752 1 1 0.0057519684594077945 1 1 0.011869842592812156 1 1 1 1 0.0056519406422111847 1 1 1 1 1 0.011305670160573631 1 1 0.0073494984664935429 1 1 1 1 1 0.0090512535936049989 1 1 1 1 1 1 0.015745245622738734 1 1 0.0096990914585513566 1 0.009913211609945901 1 1 1 0.01044440186460552 1 1 1 1 1 1 1 1 1 0.0060689406866943716 1 1 1 1 0.009980409073065237 1 1 0.0088897043325406478 1 0.0074943257146019276 1 1 1 1 1 1 1 0.0091384737718207282 1 1 1 1 1 1 1 0.010657757360924749 1 1 0.015037813874692539 1 1 1 1 1 1 0.007757133372701867 1 1 1 1 0.015370147678887289 0.014406616495487454 0.0092315304617424168 1 0.0071890247376490135 1 1 1 1 1 1 1 1 1 0.0098389084934715123 1 1 1 1 1 1 0.009754583098245501 1 1 1 1 1 0.025753048642365363 1 1 1 1 1 0.0089866391556220858 1 1 1 1 0.0088932788945367165 1 1 1 0.010333430118194131 1 1 1 1 1 1 1 1 0.0097326604164210424 1 1 0.023115459712466924 0.011329762020638014 1 1 1 1 0.010011853470525871 1 1 1 1 1 1 1 1 0.0095839152956711925 1 1 0.016670111207496494 1 1 1 1 1 0.0073961425818991171 1 1 0.0074750305103826603 1 1 1 1 1 1 1 1 1 1 1 1 0.0099422480022318925 1 0.011444426240317964 1 1 1 1 1 0.01134037177917537 1 1 1 0.013336934012088344 1 1 0.0080208185754501102 1 1 1 1 1 1 1 1 1 1 0.010784308540693607 1 0.010627153658729536 1 1 1 1 1 1 1 1 1 1 1 1 1 1 1 1 1 0.0084709494732212731 1 1 1 0.0090270639706600958 1 1 1 0.0096672026625299473 1 1 1 1 1 1 1 1 1 1 1 1 1 1 1 1 1 1 1 1 0.012559497410407449 1 0.012197720281691332 1 1 1 1 1 1 1 1 1 1 1 1 1 0.012984571769505598 1 1 1 1 1 1 1 1 1 1 1 1 1 1 1 1 1 1 1 1 1 1 1 1 1 1 1 1 1 1 1 1 1 1 1 1 1 1 1 1 1 1 1 1 1 1 1 1 1 0.010334980417829142 0.0044820311826382466 1 1 1 1 1 1 1 1 1 1 1 1 1 0.013009479238807055 1 1 0.0064190375526695896 1 1 0.009562760931297978 1 1 1 0.010199648313063756 1 1 0.0065416684262889439 1 1 1 1 1 1 1 1 1 1 1 1 1 1 1 1 1 1 1 0.0085672378677763908 1 1 1 1 1 0.0063833505514380258 1 1 1 1 1 1 1 1 1 1 1 1 1 1 1 1 1 1 1 0.0046175076105883055 0.0096650002282624506 1 1 1 1 1 1 1 1 1 1 1 1 0.0051324173153730343 1 0.010013178272005237 1 1 1 1 1 1 1 1 1 1 1 1 1 1 1 0.0092742594850732107 1 1 1 1 1 0.00012267878032768082 0.0095127424947527104 1 1 1 1 1 1 1 1 1 1 1 1 1 1 1 1 1 1 1 1 1 1 1 1 1 1 1 1 1 1 1.8265923495963676e-10 1 1 1 1 1 0.0098884541548499034 1 1 1 1 1 1 1 5.4222167554518474e-11 1 1 1 1 0.0092486492303080012 1 1 1 1 1 1 1 1 0.0096433158215319531 1 1 1 0.010421970106674153 -4.2040832143666607e-10 1 1 1 1 -1.2337468026368814e-10 1 1 1 0.010698857332249899 0.010219399592348298 1 1 1 1 1 1 1 1 1 1 1 1 1 1 1 1 1 1 1 1 1 1 1 0.0099712687418762949 1 0.0287752979363564 1 1 1 1 1 1 1 1 0.013543621954502601 1 0.023475266495742726 1 1 1 0.0084493662615957449 1 1 0.0067189097746518552 1 1 0.0090846303374659283 1 0.011187583867257454 1 1 1 1 1 1 1 1 1 1 1 1 1 0.027553396818590009 1 1 1 1 0.029996839050685963 1 1 0.012264099066455682 1 0.0096166928813517152 1 1 0.0082464934626940191 1 1 1 1 1 1 1 1 1 1 1 1 1 1 0.0074271579512303031 1 1 1 1 1 1 1 0.012502872786695768 1 1 1 1 1 0.011679203632010318 1 1 1 1 1 1 1 1 1 1 1 1 1 1 1 1 1 1 1 1 1 0.0063190348296433196 1 1 1 1 1 0.010918798212431363 1 1 0.018236910300488289 1 1 1 1 1 1 0.017052777156443662 1 0.015294747268383629 1 1 1 1 0.023826393184063259 1 1 1 1 0.013133483004360028 1 0.018905349451931033 0.0051958318399563837 1 0.0070824430724511517 1 0.02192472329765674 0.0095449607760764426 1 1 0.025678269793070203 0.0098080594468539974 1 1 1 1 1 1 1 1 1 1 1 1 0.02283490003971262 1 1 0.027016089709831725 1 1 1 1 1 1 1 1 1 1 1 1 0.015289624015974942 0.0067806777612634895 0.020039482267460509 1 1 1 0.010038074744222122 0.011853508040401977 1 0.0097960241562281454 1 1 0.0099104491520866402 1 1 0.008755230913132718 1 1 1 1 1 1 1 1 1 1 1 1 1 1 1 1 1 1 1 1 1 1 1 1 1 1 1 1 1 1 1 1 0.013172631541141578 1 1 1 1 1 1 1 1 0.009037977661135484 1 1 0.010568646940640644 1 1 1 1 1 1 1 0.010897812856097401 1 1 1 1 1 1 1 1 1 1 0.0098284792365424256 1 1 1 1 0.0097784160984761264 0.010038858697559608 1 1 1 1 1 1 0.010977440506086598 1 1 1 1 1 1 1 1 1 1 1 1 1 1 1 1 1 1 1 1 0.0092634909300876242 1 1 1 1 0.027686311615095171 1 1 0.021696952545800167 1 1 1 1 1 1 1 1 1 1 1 1 1 1 1 1 1 1 1 0.022942223636062763 1 1 0.024148016598327902 1 1 1 1 0.019835043218961998 0.01839698198377307 1 1 0.027827315702077797 1 1 1 0.0099979095188085197 1 1 1 1 1 1 1 0.0092309338359138834 1 1 1 1 1 0.0077523558295005436 1 1 1 1 1 1 1 1 1 1 1 1 1 1 1 1 1 1 1 0.0096898104693068678 1 1 1 1 1 1 1 1 1 1 1 1 1 0.010247415545768558 1 1 1 1 0.0086640699459473759 1 1 1 1 1 1 1 1 1 1 1 1 1 1 1 1 1 1 1 1 1 1 1 1 1 1 1 1 1 0.0096431937340360936 1 1 1 0.0055550964387538777 1 1 1 1 1 0.0064644937264643643 1 1 1 1 1 1 1 1 1 1 1 1 1 1 1 1 1 1 1 1 1 1 1 1 1 1 1 1 1 1 1 1 1 1 1 1 1 1 1 1 1 1 1 1 1 1 1 1 1 1 1 1 1 1 0.014080755386350969 1 1 1 1 0.013467019276709045 1 1 1 1 1 0.024010087250812474 0.011622956055034401 1 1 1 1 1 1 0.011779220622150758 1 1 1 1 1 1 1 1 0.015074835711692417 1 1 0.023730039500816091 1 1 1 1 1 1 1 0.025449892061323351 1 1 1 0.028326591549311789 1 1 1 0.00666217759893658 0.0099922333061353719 1 1 1 1 0.027082786301649717 1 1 0.0057359596153585329 1 1 1 1 1 1 1 1 1 1 0.019947667169890035 1 1 1 1 0.021241707481119053 1 1 1 1 1 0.022376747166823766 1 1 1 1 1 1 1 1 1 1 1 0.021524520398365988 1 1 1 0.026290460293462912 1 0.0099855734603708363 1 1 1 1 1 1 0.0095045842636170864 1 1 1 1 1 0.01268465194235407 1 1 0.022798256644940222 1 1 1 1 1 1 1 1 1 1 1 1 1 1 1 1 1 1 1 1 1 1 1 1 1 1 1 1 1 1 1 1 1 1 1 1 0.0067113967778160578 1 1 0.0085377513519843198 1 0.010040879373212533 1 1 1 1 1 1 1 1 1 1 1 1 2.5693519872457826e-09 0.0017962595330413226 1 1 1 1 1 1 1 1 1 1 1 1 1 1 1 1 1 1 1 1 1 1 1 1 1 1 1 1 1 1 1 1 1 1 1 1 1 1 1 1 1 1 1 1 1 1 1 1 1 1 0.010145606516195747 1 1 1 1 1 1 0.008692594155974287 1 1 1 1 1 0.0078875481339146548 1 1 1 1 0.009522623323047567 1 1 0.0089084583515550708 1 0.010000118741733647 1 1 1 1 1 1 1 1 0.0098503696528316528 1 0.0080463492241303978 1 1 1 1 1 1 1 1 1 1 1 1 1 0.0091736714036261269 1 0.0098151739351158077 0.010150383263010897 1 1 1 1 1 0.010325753020444646 1 1 1 1 1 1 0.0090880091138271536 1 1 1 0.013596701941828306 1 1 1 1 1 1 1 1 1 1 1 1 1 1 1 1 1 1 1 1 1 1 0.0096470287374726699 1 1 1 1 1 1 0.010055455171595061 1 1 1 1 0.010058877454154791 0.0090565487153484066 1 1 1 1 1 1 1 1 1 1 1 1 1 1 1 1 1 1 1 1 1 0.003128615946276914 0.0019753199216729356 1 1 1 1 1 1 1 1 1 1 1 1 1 1 1 1 1 1 1 1 1 1 1 1 1 1 1 1 1 1 1 1 1 1 1 1 1 1 1 0.0082553268691520978 1 1 0.001022302299502344 1 1 1 0.0094051826178861153 1 1 1 1 1 0.0078262099199361054 1 0.010279358224437637 1 1 1 1 1 0.0099782865795623888 1 0.0090700592775316089 1 0.0099233107646496208 1 0.0098546689576580193 1 1 1 1 0.010002918429046131 1 1 1 0.0092921804714205473 1 1 1 0.0091577700052530818 1 1 1 1 1 1 1 0.0044096733832661786 1 0.0083159919816701879 1 1 1 0.0086973151648505609 1 1 1 0.0097435697163549603 1 1 1 1 1 1 1 1 1 1 1 1 0.0016259568819764585 1 1 1 1 1 0.0078825734384452735 0.011556857271825465 1 1 1 1 0.011534799862161833 1 0.011348002763021831 1 1 1 0.0077866093100556893 1 1 0.020240162755955176 1 1 1 0.0078000403924791224 1 1 1 1 1 1 1 1 1 0.0099757606701270235 1 0.0034153313143554243 1 0.02031913143735932 1 1 1 1 1 1 1 1 0.006266316715616063 0.0036347619150552315 1 1 1 1 1 1 1 0.010011052069657042 1 1 1 1 1 1 1 1 0.018166787503765949 1 0.0046915309503247279 1 1 1 0.0094682110400759155 1 1 0.010005977561658393 1 1 0.010861061983639911 0.0095523847147673466 1 1 0.010833028966591288 1 1 1 1 1 1 1 1 1 1 1 0.0092280323064448198 1 1 1 1 1 1 1 1 1 1 1 1 1 1 1 0.0097334299455565446 1 1 0.010039835442492477 1 1 0.0092844792034944817 1 1 1 1 1 0.009803031260634032 1 1 1 0.010028046695957832 1 0.010040984981680524 1 1 1 0.010343818548937863 1 1 1 0.010322872561846778 1 1 1 1 1 1 1 1 1 1 1 1 1 1 1 1 1 1 0.010046787707132639 1 0.010056316841809174 1 1 1 1 1 1 1 1 1 1 1 1 1 1 1 1 1 1 1 1 1 1 1 1 1 1 0.010453720533036719 1 1 1 1 1 1 1 1 1 1 1 1 1 1 1 1 1 0.01297408494458477 1 0.010958687010775325 1 0.0099442335859685257 1 0.0081458220492466454 0.0054538884885282409 1 1 1 0.012973640651543342 1 1 0.010108461263556905 0.0047182871805620322 1 1 1 1 1 1 1 0.0038226345679683027 1 1 0.0019001082379838281 1 0.0062210727335423955 1 1 1 0.014918860697703644 1 1 0.0096971835940330466 1 1 1 1 1 1 0.021731154279124955 1 1 0.008092034451969975 1 0.010682363220837788 1 1 0.0070619545950564473 1 0.0069946470001959905 1 1 1 0.017219307180006554 0.01438612810765268 1 1 0.010039061823827147 0.0066396539511183322 1 0.009719728882223444 1 1 1 1 1 1 1 1 1 1 1 1 0.011095234675979011 1 1 1 1 1 1 1 1 1 1 1 1 1 1 1 1 1 1 1 1 1 1 1 1 1 1 1 0.0098219817297899529 1 1 1 1 1 1 1 0.0092846499694206365 1 1 1 1 1 0.0077782226152236112 1 1 1 1 1 0.0063085425429407135 1 1 1 0.0091980780949932825 0.0050291172999863062 0.010453392910962974 1 1 1 0.010003583324398081 1 1 1 1 0.010227803763130443 1 1 1 1 0.018030401412949162 1 1 0.010587746476150585 1 1 1 1 1 1 1 1 1 0.012224445740538131 0.010244992357465909 1 1 1 1 1 1 1 1 1 0.0096808137191667504 1 1 1 1 1 1 1 1 0.014367731806116085 0.010731864649854907 1 1 1 1 1 1 1 1 1 1 1 1 1 0.01589427414875157 1 1 1 1 1 1 1 1 1 1 0.012363912552538879 1 1 0.012133152947926449 1 1 1 1 0.014561989633157219 1 1 1 1 1 1 1 1 1 1 1 1 1 1 1 1 1 1 1 1 1 1 1 1 1 1 1 1 1 1 1 1 1 1 1 1 1 1 1 1 1 1 1 1 1 0.01539624568741124 1 1 1 1 1 1 1 1 1 1 1 1 1 1 1 1 1 1 1 1 1 1 1 1 1 1 1 1 1 1 1 1 1 1 1 1 1 1 0.0085541425661135075 1 0.011806882873223894 1 1 1 1 0.013351533976656033 1 0.012063748006604813 1 1 1 1 1 1 1 1 1 1 1 1 1 1 1 1 1 1 1 1 1 1 1 1 1 1 1 0.012638314642833515 1 1 0.0098780897223349432 1 1 1 1 1 1 1 1 1 1 1 0.007133103582614115 1 0.0086415651574643683 1 1 0.0095893968105754852 1 0.0049180336804308805 1 1 0.010478935188745027 0.017791869410740881 1 1 1 1 0.011436887165075073 1 1 0.0080947882542888646 1 1 1 1 1 1 1 1 1 1 1 0.0061667242549909799 6.4833166960043265e-09 1 0.0069092688847266926 1 0.019192177758404108 1 1 0.0074548475274431574 0.0094060614632757271 1 1 1 1 1 1 1 1 1 1 1 0.0015774443238307824 1 1 1 1 1 1 1 1 1 1 1 1 1 1 1 1 1 1 1 1 0.0099974775274430643 1 1 1 0.00021055246118896302 1 1 1 1 0.0051075067183568804 1 1 0.018632584200110713 0.0099787706197912475 1 1 0.021535071767912306 1 0.0089859348767145804 1 1 1 1 0.0099427016745686492 1 0.013963053519376477 1 1 0.010905829199328882 1 1 1 0.00045580748041491176 1 1 0.0029169445598835886 1 1 1 1 1 0.0097683050346567546 1 1 1 1 1 1 1 1 1 1 1 1 1 1 1 1 0.0066904819446169383 1 0.010572147783313866 1 0.005413064448871855 1 0.010521089256400936 1 0.0028007484613874838 1 0.0088830907252363291 1 0.010007778812456309 1 0.00044537829602231925 1 1 1 1 1 1 1 1 1 1 1 0.0088334021039580407 1 1 1 1 1 1 1 1 1 1 1 1 1 1 0.0032627726214767873 1 1 1 1 1 1 1 1 1 1 1 1 1 1 1 1 1 1 1 1 1 1 1 1 1 1 1 1 1 1 1 1 1 1 1 1 1 0.013234959079673512 1 1 1 1 1 1 1 1 1 0.01275130168182729 1 1 1 1 1 1 0.013042433480032718 1 1 1 1 1 1 1 1 1 1 1 1 1 1 1 1 1 1 1 1 0.010591857108829927 1 1 1 1 1 1 0.011859402611959252 0.011361527253078416 1 1 1 1 1 1 1 1 1 0.011242897388217894 1 1 1 1 1 1 1 1 1 1 1 1 1 1 1 1 1 1 1 1 1 1 0.0099731809268590148 1 1 0.0092372252779006625 1 1 1 1 0.01430392969182165 1 1 1 1 1 1 1 1 1 1 1 1 1 1 1 1 1 0.01064844109769543 1 1 1 1 1 1 1 1 1 1 1 1 1 1 1 1 0.011924988167393565 1 0.0099622951248455292 1 1 1 0.012520886746055167 1 0.012807342475852912 1 1 1 1 1 0.01195481217109607 1 1 1 1 0.01321994010762851 1 1 0.015399977114746857 0.0030385911668746775 1 1 1 1 1 1 1 1 1 1 1 1 1 1 1 1 1 1 0.019251962938164537 1 1 1 1 1 1 1 1 1 1 1 1 1 1 1 1 1 1 0.015967121272946645 1 0.011787950688685538 1 1 1 1 1 1 1 0.01137146633832405 1 1 1 1 1 1 1 0.011789778762691593 1 1 1 1 0.013582564680425954 1 1 1 1 1 1 1 1 1 1 1 1 0.0081716850847835809 1 1 1 1 0.0066172397280721204 1 1 0.0047274039848095931 1 1 1 1 1 1 1 1 1 1 1 1 1 0.013066935648470022 1 1 1 1 1 1 1 0.005816927843577388 1 1 1 1 0.0065315176712635592 0.010924333795037898 1 0.01601648598660935 1 1 1 0.018045931374708078 1 1 1 0.010368813900422477 1 1 1 1 1 1 1 1 1 1 1 1 1 1 0.0098184010744494579 0.010430894526095733 0.014459968683021619 1 1 0.014504529160060765 0.0072487385712269592 1 1 1 1 1 0.012893800192860627 1 1 1 1 1 1 1 1 1 1 1 1 1 0.0071370261394644238 0.0071550394974776027 1 0.0099494954648749814 1 1 0.0098510925483715761 1 1 1 1 1 0.0097002995746605786 1 1 1 1 1 0.0091871919294008036 1 1 1 1 1 1 0.015988871501970075 0.0080423062727034006 1 1 0.010534709884614621 1 1 0.0097634787774293699 1 0.0022548248734282836 1 1 1 1 1 0.013528012729347262 0.010070189259038596 1 1 0.010017277653594128 0.010317596373294602 1 1 1 1 1 1 1 1 0.011216508713512513 1 1 1 1 1 1 0.008816771739054298 1 0.0095917417187516216 0.010219510908578214 1 1 1 0.0083570778255080622 1 1 0.010069670950988097 1 0.015079312347577294 1 1 1 1 1 1 1 1 0.01097771045497864 1 1 1 1 1 0.01316153643825798 1 1 0.006533760498746051 1 1 0.011883835040011996 1 1 0.021965321217704378 1 0.010424671369270361 1 0.010108641533293918 1 1 1 1 1 0.010020867619712145 1 0.0098650882416973437 1 1 1 1 1 1 1 1 0.015065540328460574 1 0.013692589721518583 1 1 1 0.0084131198273922972 1 1 1 1 1 1 1 1 0.010001633254831898 1 1 1 1 0.0048699755113208315 1 1 1 1 1 1 1 1 1 1 0.0094843948855167365 1 1 1 0.010056238650846152 0.0061764540824387759 1 1 0.014632738331882045 1 1 1 1 1 1 1 1 1 1 1 1 1 1 0.010192731996383632 1 1 1 1 1 1 1 0.010757597495572403 1 1 1 1 1 1 1 1 1 1 1 1 1 1 1 1 1 1 1 1 0.017461746344447603 1 1 0.018569441335397001 0.01464447795571424 0.018198440095242248 1 1 0.012922820939914823 1 1 0.013510289499935532 1 1 1 1 1 1 1 1 1 1 1 1 1 1 1 1 1 1 1 1 1 1 1 1 1 1 1 1 1 1 1 1 1 1 1 1 1 1 1 1 0.0083178854440764671 1 0.013000250739235051 1 1 1 1 1 1 1 1 1 1 1 1 1 1 1 1 1 1 1 1 1 1 0.0095819382424455202 1 0.018428839533187476 1 0.023151397560291151 1 1 1 1 1 1 1 1 1 0.0043973510549147818 1 0.026331298882223002 1 1 0.0086788309541949125 1 1 1 1 1 1 1 0.011138566983544864 1 1 1 1 1 1 1 1 1 1 1 1 0.011468906067082126 1 1 1 1 1 1 1 1 1 1 1 1 1 1 1 1 1 1 0.012980545656699821 1 1 1 1 1 1 0.0086662549931229779 0.0043583168261134633 1 0.00056184813234437525 1 1 1 1 1 1 0.0043462230932943199 1 1 0.0043771075328622039 1 1 1 0.0059530218527642578 1 1 1 1 1 1 0.0031529550016907645 1 1 1 0.030233386549496997 1 1 1 1 1 1 1 0.0041615520812665896 1 1 1 1 0.0092098818274891185 1 1 1 1 1 1 1 0.0077341596696260291 1 1 1 1 0.017784270051257302 1 1 0.017141486818155686 1 1 0.0098004134670361051 1 1 0.0066639395061980772 1 0.0075559973815921971 1 1 1 1 1 1 1 1 1 1 0.0099062905036339279 0.0050996201101843885 1 1 0.010039098250930871 1 1 1 1 1 1 0.0061838950567288317 1 1 1 1 1 1 1 0.010858818401420764 1 1 0.010982050906542289 1 1 1 1 1 1 1 1 0.010497726678067913 1 1 1 1 0.010388317945695237 1 0.011439553501618294 1 0.013439472847699557 1 1 0.0099943644566583625 1 1 1 1 1 1 0.010379494195480544 1 1 1 1 1 1 0.0098492070262889767 1 1 1 1 0.0094396789151940802 1 1 1 1 1 1 1 1 1 1 1 1 1 1 1 1 1 1 1 1 1 1 1 1 1 1 1 1 1 1 1 1 1 1 1 1 0.0088987393495010905 1 1 1 0.0072406181028436094 1 1 1 1 1 1 1 1 1 1 1 1 1 1 1 1 1 1 1 1 1 1 1 1 1 1 1 1 1 1 1 1 1 1 0.0053528918885224729 1 1 1 1 0.0041614627282250717 1 1 1 1 1 1 1 1 1 1 1 1 1 1 1 1 1 0.010043146723804665 1 1 1 1 1 1 1 1 1 1 1 1 1 1 1 1 1 0.0039800245509828067 1 1 1 1 1 1 1 1 1 1 1 1 1 1 1 1 1 1 1 1 1 1 1 1 1 1 1 1 1 1 1 1 1 1 1 1 1 1 1 1 1 1 1 1 1 1 1 1 1 1 1 1 1 1 1 1 1 1 1 1 1 1 1 0.0080599540412904964 1 1 1 1 1 1 1 1 1 1 1 1 1 1 1 1 1 1 1 1 1 0.0097788835372183205 1 1 1 1 1 1 1 1 1 1 0.0096198177224782813 0.0098080822985874977 1 1 1 1 1 1 1 1 1 1 1 1 1 1 1 1 1 1 1 1 1 1 1 1 1 1 1 1 1 1 1 1 1 1 1 1 1 1 1 1 1 1 1 1 1 1 1 1 1 1 1 1 1 1 1 1 1 1 1 1 1 1 1 1 0.010059741857308631 1 1 1 1 1 1 0.010026889970636145 1 1 1 1 1 1 1 1 1 1 1 1 1 1 1 1 1 1 1 1 1 1 1 1 1 1 1 1 1 1 1 1 1 1 1 1 1 1 1 1 1 1 1 1 1 1 1 1 1 1 1 1 1 1 1 1 1 1 1 0.013412837103381918 1 1 1 1 1 1 1 1 1 1 1 1 1 1 1 1 1 1 0.0060015339398109338 1 1 1 1 1 1 1 1 1 0.0066970041074692777 1 1 1 1 1 1 1 1 1 1 1 1 1 1 1 1 0.00098690908108555603 0.019735416576211137 1 1 0.0098460815641848946 1 1 0.014006258734731989 1 1 1 0.0099440379451816805 1 1 1 1 1 1 1 1 1 1 1 1 1 1 1 1 1 1 1 1 1 1 1 0.010681313457673543 1 1 1 1 1 1 1 1 1 1 1 1 1 0.01155254195348495 1 1 1 1 1 1 1 1 1 1 1 1 1 1 1 1 1 1 1 1 1 1 1 1 1 1 1 1 1 1 1 1 1 1 1 1 1 1 1 0.014087962180247805 1 1 1 1 1 0.0095753567240094324 1 1 1 0.010039413777455215 0.0078099673449985446 1 0.0091100337895098152 1 1 1 1 0.0075330580495114145 1 1 0.0097277981098872271 1 1 1 1 1 1 1 0.0096122325418678753 1 1 1 1 1 1 1 0.010871228495811416 1 1 1 1 1 1 1 1 1 1 1 1 1 1 1 1 1 1 1 1 1 1 1 1 0.0098886474544163036 1 1 1 1 1 1 1 0.0089967986531211425 1 1 1 1 1 1 1 1 1 1 1 1 1 1 1 1 1 1 1 1 1 1 1 1 1 1 1 1 1 1 1 1 1 1 1 1 0.012665024370296367 1 1 0.011457893275100356 1 1 1 0.010462094875679062 1 1 1 0.0099601437382653146 1 0.0099601629958464416 1 1 1 1 1 1 1 1 1 1 0.0092025514842342913 1 1 0.0097712538268138679 1 1 1 1 1 1 1 1 1 1 1 0.010830408716918431 1 1 1 1 1 1 1 0.012144641290331088 1 1 1 1 1 1 1 1 1 1 1 1 1 1 1 1 1 1 1 1 0.0095321054198842722 1 1 1 1 1 1 1 0.0098506807770856186 1 1 1 1 1 1 1 1 0.010196243613266714 1 0.010414691112559065 1 1 1 1 1 1 1 1 1 1 1 1 1 1 1 0.009681424642798659 1 1 1 1 1 1 1 1 1 1 1 1 1 1 1 1 1 1 1 0.008937304052179379 1 1 1 1 1 1 1 1 0.01224951449123347 1 1 1 1 1 1 1 1 1 1 0.0086149319831479408 1 1 1 0.016696432334905684 1 0.0069567998321342995 1 1 1 0.0055074558304084864 1 1 1 1 0.0036246825248788458 1 1 0.0026619118493076887 1 1 1 1 1 1 1 1 0.0098599214325544009 1 0.0046557735101216005 1 1 1 0.0041081964893429097 1 1 1 1 1 1 1 1 1 1 1 1 1 1 1 1 1 1 0.0031697733130168536 1 1 1 0.018241189494225658 1 0.0023450115005756167 1 1 1 1 1 1 1 1 1 1 1 1 1 1 1 0.013973064323361139 1 1 0.01321502788046852 1 1 1 1 1 1 0.011524458350606568 1 1 0.014589433245966411 1 1 1 1 1 1 1 1 0.012884004947208155 1 0.01095772331267861 1 1 1 1 1 1 0.008383802688331915 1 1 1 1 1 1 1 1 1 1 1 1 1 1 1 1 1 0.0094868275858461422 1 1 1 1 1 1 1 1 1 1 1 1 1 1 1 1 1 1 1 1 1 0.0039399447309903489 1 0.0068645717564792298 1 1 0.010459239632735175 1 1 1 1 1 1 1 1 1 1 1 1 1 1 1 1 1 0.0015576759824693712 1 1 1 1 1 1 1 1 1 1 1 1 1 1 1 1 1 1 1 1 1 1 1 1 1 1 1 1 1 1 1 1 1 1 1 1 1 1 1 1 1 1 1 1 1 1 1 1 1 1 1 1 0.0095052890224571231 1 1 1 0.010119613544767201 1 1 1 1 1 1 0.0084187189880429412 1 1 1 1 1 1 1 1 1 1 1 0.010988278924305348 1 1 1 1 1 1 1 1 1 1 1 1 1 1 0.010390504552288567 1 1 1 1 1 1 1 1 1 0.012362007472867457 1 1 1 1 1 1 1 1 1 1 1 1 1 1 1 1 1 1 0.011207573696684779 1 0.01403506750565087 1 1 1 0.0069526782364726456 1 1 1 1 0.019018245020006312 1 1 1 1 1 1 1 1 1 1 1 1 1 1 1 1 1 1 1 1 1 1 1 1 1 1 1 1 1 1 1 1 1 1 1 1 1 1 1 1 1 1 1 1 1 1 1 1 1 1 1 1 1 1 1 1 1 1 1 1 1 1 1 1 1 1 1 1 1 1 1 0.0095085829579794768 1 0.0067743208704334132 0.0088553894328234871 1 1 1 0.0098165710961413133 1 1 1 1 1 1 1 1 1 0.0078777406230984403 0.0091103767717841556 1 1 0.0076348843175439388 1 1 1 1 1 1 1 1 1 1 1 1 1 1 1 1 1 1 1 1 1 1 1 1 1 1 1 1 1 1 1 1 1 1 1 1 1 1 1 1 1 1 1 1 1 1 1 1 1 1 1 1 1 1 1 1 1 1 1 1 1 1 1 1 1 1 1 0.0036743483473534004 1 1 1 1 1 1 1 1 1 1 0.010200177199577611 1 1 1 0.010591512657872551 1 1 1 1 1 1 1 1 1 1 1 1 1 1 1 1 1 1 1 1 0.0069612590385081611 1 0.0063819005819686749 1 1 1 1 1 1 1 0.01142885851692791 1 1 1 1 1 1 1 1 0.012763797453949406 8.0942064851403841e-05 1 1 1 1 1 1 1 0.022827852189682689 0.0041836282625569363 0.011306093871407255 1 1 0.012914928853669955 1 1 0.018959518984274545 1 1 1 0.009014266606702185 1 1 0.016614627961514694 1 1 1 1 1 1 1 0.010025710155799689 1 1 1 1 1 1 1 1 1 1 1 1 1 1 1 0.0094755220158607503 0.0060731548487356936 1 1 1 1 1 1 1 1 1 1 1 1 1 1 1 1 1 1 1 1 1 1 1 1 1 1 1 1 1 1 1 1 1 0.008201761554943808 1 1 1 1 1 1 1 1 1 1 1 1 1 1 1 1 1 1 1 1 1 1 1 1 1 1 1 1 1 1 1 1 1 1 1 1 1 1 1 1 1 1 1 1 1 1 1 1 1 1 1 1 1 1 1 1 1 1 1 1 1 1 1 1 1 1 1 1 0.011153720948005085 1 1 1 1 0.005313864686547801 1 1 1 0.013530995730138044 1 1 1 1 1 1 1 1 1 1 1 1 1 1 1 1 1 1 1 1 1 1 1 1 1 1 1 1 1 1 1 1 1 1 1 1 1 1 1 1 0.011276026784955987 1 1 1 1 0.019299446737749679 1 1 1 1 1 1 0.0082125234475710907 1 0.014231215205406145 0.023767226580883323 1 1 1 0.0096602843533591873 1 1 1 1 1 1 1 1 1 1 1 1 1 1 1 1 1 1 1 1 1 1 1 1 1 1 1 1 1 0.022873280405433204 0.011263814829405337 1 1 1 1 1 1 1 1 1 1 1 1 1 1 1 1 1 1 1 0.0098341274522408106 1 1 1 0.0031405709239574605 1 1 1 1 1 0.0095479714048833531 1 1 1 1 0.016774457811721301 0.010168858392661571 1 1 1 1 1 1 1 1 0.01159064206518433 1 1 0.012825646029554525 1 1 1 1 1 1 1 1 1 1 1 1 1 1 1 1 1 1 1 1 1 1 1 0.0072069968622254059 1 0.017238104696958838 1 1 1 1 1 1 0.0083937528468241152 1 1 0.0085784587135617502 1 0.0084247089180213321 1 1 1 0.008027533122852256 1 1 0.011648834590131375 0.0099952620336411085 1 0.010681882477481353 1 1 1 0.013484216926914273 0.0087017219087666513 1 1 1 0.0085012510390374291 1 1 1 1 0.0098851874822169696 1 1 1 1 1 1 1 1 1 0.0099997463703622291 1 1 1 0.010101172788325815 0.0025455006691149432 1 1 1 1 1 1 1 1 1 1 1 1 1 1 1 1 0.013257654469164647 1 1 1 1 1 1 0.010136647332883796 1 1 1 0.013056424584262608 1 1 1 0.0046071883479117115 1 1 1 1 1 1 1 1 1 1 1 1 1 1 1 1 1 1 1 1 1 1 1 1 1 0.008604990956822189 1 1 1 1 1 1 1 0.0066350417899143609 1 1 1 1 1 1 1 1 1 8.4187441948269104e-09 1 1 1 1 1 1 1 1 1 0.0092821704155680827 1 1 1 1 0.0078507138530064351 0.0095349069740166825 1 1 1 1 0.0084725480772432585 1 1 1 1 1 1 1 1 0.012333004538233048 1 1 1 1 1 1 1 1 1 1 1 1 1 1 1 1 1 0.0097657541453157019 1 1 1 1 1 1 1 1 1 1 1 1 1 1 1 1 1 1 1 1 1 0.0091325468860330855 1 1 1 1 1 1 1 1 1 1 1 1 1 0.0073067853267787322 1 1 1 1 1 1 1 0.0093818829247155032 0.0091619651816708218 1 0.011240797000724674 1 0.0060753972295809755 1 1 1 1 1 1 1 1 1 1 1 1 0.011057121190639799 1 0.0088833924187615848 1 1 0.00960639954973227 1 1 1 1 1 1 1 1 1 1 1 1 1 1 1 1 1 1 1 1 1 1 1 1 1 1 1 1 1 1 1 1 1 1 1 1 1 1 1 1 1 1 1 1 1 1 1 1 1 1 1 1 1 1 1 1 1 1 1 1 1 1 1 1 1 1 1 1 1 1 1 1 1 1 1 1 1 1 1 1 1 1 1 1 1 1 1 1 1 1 1 1 1 1 1 1 1 1 1 1 1 1 1 1 1 1 1 1 0.010482347500781461 1 1 1 1 1 1 1 1 1 1 1 1.7805561695199978e-09 1 1 1 1 1 1 1 1 7.6619229832236568e-09 1 1 0.0089420269474837152 1 1 0.013643891222199576 1 1 0.006961411684947405 1 1 1 1 1 0.011321546717584721 1 1 1 1 1 1 1 1 1 1 1 0.00044280603764987238 1 1 1 1 1 1 1 1 1 1 1 1 1 1 1 1 1 1 1 1 1 1 1 1 1 0.010419100356789354 1 1 1 1 1 1 1 0.010267794931284584 1 1 1 1 -1.4197248203451363e-09 1 1 1 1 1 0.010194915422434069 1 1 1 0.00068992906745717758 1 1 1 1 1 1 1 1 1 0.0061869777982947304 0.0086763874125656074 1 1 1 1 1 1 0.011223228369211281 0.0059713810829184113 1 1 1 0.006647949713948588 1 0.0051666949654202128 1 1 1 0.015764542227396695 1 1 0.016430267915121144 1 1 1 1 1 1 1 1 1 1 1 1 1 1 1 1 1 1 1 1 1 1 1 1 1 1 1 1 1 1 1 1 1 1 1 1 1 1 0.0072574572323576472 1 1 1 0.0063978510825523985 1 1 1 1 1 0.010069124479520939 1 1 1 1 1 1 0.013963437969778133 0.0039812084020837794 1 1 0.0099933258542943115 1 1 1 1 1 1 0.0054183156840814234 0.0063004963791959585 1 1 1 1 1 0.01125242605716846 1 1 1 1 1 1 1 1 1 0.0090155641949364596 1 1 1 1 1 1 1 1 1 1 1 1 1 1 1 1 1 1 1 1 1 1 1 1 1 0.011694045533128828 1 1 1 1 1 1 1 1 1 1 1 1 1 1 1 1 1 1 1 0.010766473398382277 1 1 1 1 1 1 1 1 1 1 1 0.0096387575868432072 1 1 1 1 1 1 1 1 1 1 1 0.014276734139783809 0.015905391740504874 1 1 1 1 1 1 1 0.017388081655004689 1 1 1 1 0.0074049591905767861 1 0.005100194728111844 1 0.0099586353542593514 1 0.011617645627263584 1 1 0.0038836962468150188 1 1 1 0.0030473675760574193 1 1 1 1 -1.5336235476004489e-09 1 1 1 1 0.011500544800264138 1 1 1 0.010874702841581745 1 1 1 1 1 1 0.0089043938579506949 1 1 1 1 0.011527041862608011 1 1 1 0.0041652480641915443 1 1 1 1 1 1 1 1 1 0.010170796894096994 1 1 1 1 1 1 0.009186179843803717 1 1 1 0.0083950911927098797 1 1 1 1 1 1 1 1 1 1 1 1 1 1 1 1 1 1 0.013161152874633646 1 1 1 1 0.012110317231904116 1 1 1 1 1 1 1 1 1 0.0095408600975085793 1 1 1 1 1 1 1 0.0086488159161641903 0.0095806379810610964 0.0092868012938978964 1 1 1 1 0.0089201105169122857 1 1 0.0078911663677002572 1 1 1 1 1 1 1 1 1 0.0096734839050047969 1 1 1 0.014798980231775102 0.0088772374475287741 1 1 1 1 1 1 1 1 0.0089710558507879665 1 1 1 1 1 1 1 1 1 1 1 1 1 1 1 1 1 1 1 1 1 1 1 1 1 1 1 1 1 1 1 0.01044941406757971 1 0.0096775545448267372 1 1 1 1 1 1 0.010006286219875295 1 1 0.0045478520204345445 1 1 0.0045440157671292648 1 1 1 1 0.0096905878555333426 1 1 1 1 -3.1557107205149038e-09 0.010163054427591758 1 1 1 1 1 1 1 1 1 1 1 1 1 0.0088366178325617849 1 1 0.010143251019218227 1 0.0092919323802269707 1 1 1 1 1 0.0096324149510732884 1 1 1 1 1 1 1 1 1 1 1 1 1 0.0031340613924146117 1 1 1 1 1 1 1 1 1 1 0.0094544555981783095 1 1 1 0.0097434015506354821 1 1 1 1 1 1 1 1 1 1 1 1 1 1 1 1 1 1 1 1 1 1 1 1 1 1 1 1 1 1 1 1 1 1 1 1 1 1 1 1 1 1 1 1 1 1 1 1 1 1 1 1 1 1 1 1 1 1 1 1 1 1 1 1 1 1 1 1 1 1 1 1 1 1 1 1 1 1 1 1 1 1 1 1 1 1 1 1 1 1 1 1 1 1 1 1 1 1 1 1 1 1 1 1 1 1 1 1 0.017958897130655984 1 1 1 1 0.016441099836813848 1 1 1 1 1 1 1 1 0.010335535290498674 1 1 0.010757946094313128 1 1 0.010113488807467371 1 1 0.010271935932623884 1 1 1 1 1 1 1 0.0062690410903954163 1 1 0.0087373406940563017 1 1 1 1 1 1 1 1 0.010263466106339682 1 1 1 0.0010045262384760743 1 0.012199249273294972 1 1 1 1 1 1 0.011787789555384658 1 0.010453848452572993 1 1 1 1 1 1 1 1 1 0.0088231232767816033 1 1 1 0.0094989408518025009 0.011995333098177175 1 1 1 1 0.00034898662994363103 0.014794840264777996 1 1 1 1 1 1 1 1 1 1 1 1 1 1 1 1 0.010704593971398162 1 1 1 1 1 1 0.012122681365375566 1 0.010074328350670821 1 1 1 1 1 1 1 1 1 1 1 1 1 1 1 1 1 1 1 1 1 1 1 1 1 0.0081085984398489505 1 1 1 0.0093149029278212572 1 1 1 1 1 1 0.010049766853391248 1 1 1 1 1 0.011357394316141942 1 1 0.0068396019936839587 1 1 1 1 1 1 1 1 1 1 1 1 1 1 0.0099598704189892747 1 1 1 1 1 1 1 1 0.010380485333498444 1 1 1 1 1 1 1 1 0.0091130443691542877 1 1 1 1 1 1 1 0.0085973243650663 1 1 1 1 0.011145621867786136 1 1 1 1 1 1 1 1 1 1 1 1 0.0093410301787247435 1 1 1 0.010263933887966877 1 1 1 1 1 1 0.0096500934487460319 1 1 1 0.0097857841348704885 1 0.01088830648639523 1 1 1 1 1 0.012152951479139529 1 1 1 0.012034002362720744 1 1 1 0.009863934872773053 1 1 1 1 0.010071850286905097 1 1 1 1 1 1 1 1 1 1 1 1 1 1 1 0.0096954844026983789 1 1 1 1 1 1 1 1 0.005876396539112946 1 1 1 1 1 1 1 1 1 1 1 1 0.0092682834029648026 1 0.0093034996078120991 1 1 1 1 1 1 1 1 1 1 1 0.012937238114366749 1 1 0.015996205725199088 1 1 1 1 1 1 1 1 1 1 0.018746638043709272 1 1 1 0.005759535255801175 1 1 1 1 1 1 0.0084720427960646161 1 1 1 1 1 1 1 1 1 1 1 1 1 1 1 1 1 1 1 1 1 1 1 1 1 0.01426776223269164 1 1 1 1 1 1 1 1 1 1 1 1 1 1 1 1 1 1 1 1 1 0.0080915100508846746 1 1.0014738344166219e-10 0.0090077689063834537 1 1 1 1 0.00052995626248347402 1 1 0.019386334908871535 1 0.0091333569176133434 1 1 1 1 0.0076236974336812598 1 0.015555312641449388 1 1 1 1 1 1 1 1 1 1 1 1 1 0.0099626769483378147 1 0.017914372725793638 1 1 1 1 1 1 1 1 1 1 1 1 1 1 1 1 1 1 1 1 1 1 1 1 1 1 1 1 1 1 1 1 1 1 1 1 1 1 1 1 1 1 1 1 1 1 1 1 1 1 1 0.010560643953531139 0.0049959807836222735 1 1 1 1 1 1 1 1 1 1 1 1 1 1 1 1 1 1 1 1 0.0050759210739473627 1 1 1 1 1 1 1 1 1 1 1 1 1 1 1 1 1 1 1 1 1 1 1 0.0081465538785063275 1 1 1 0.011197561441975319 1 1 1 1 1 1 1 1 1 1 1 1 1 1 1 1 1 1 1 1 1 1 1 1 1 1 1 1 1 1 1 1 1 1 1 1 1 1 1 1 1 1 1 1 1 1 1 1 1 1 1 1 1 1 1 1 1 1 1 1 1 1 1 1 1 1 1 1 1 1 1 1 1 1 1 1 1 1 1 1 1 1 1 1 1 1 1 1 1 1 0.011128733379778391 1 1 1 1 1 1 1 1 1 0.0067537479123954882 1 1 1 1 1 1 1 1 1 1 1 1 1 1 1 1 0.011228800926070336 1 1 1 1 0.012664189635907243 1 1 1 1 1 0.014446354696013575 1 1 1 1 1 1 1 1 1 1 1 1 1 1 1 1 1 1 1 0.0066669863403927363 1 1 1 0.01090086747959091 1 1 1 1 1 1 1 0.011925413560905235 1 1 1 1 1 0.0012569916327179811 1 1 1 1 1 1 0.00742236999242573 1 1 1 1 1 1 1 1 1 1 1 1 0.0028696195414113917 1 1 1 1 0.0091254506621467127 1 1 1 3.1318332718854869e-09 1 1 1 0.016444210941562995 0.019880447556246642 1 1 1 1 1 1 1 1 1 1 1 1 1 1 1 1 0.017877804689498712 1 1 1 0.013565267823776449 1 1 1 1 1 1 1 1 1 1 1 1 1 1 1 1 1 0.014784500068577795 1 1 1 1 1 1 1 1 1 1 1 1 1 1 1 1 1 1 1 1 1 1 1 1 1 1 1 1 1 1 1 1 1 1 1 1 1 1 1 1 1 1 1 0.010191896371759025 1 0.017933999432705225 1 0.016170658972766296 1 0.0042027021641227527 1 1 1 1 1 1 1 1 1 1 1 1 1 0.007585757661506938 1 1 1 0.02490272996942932 1 0.010004170243356335 1 0.0098832621333239806 0.019116750540977709 1 1 1 1 1 1 1 1 1 1 1 1 1 1 1 1 1 1 1 1 1 1 1 1 1 1 1 1 1 1 1 1 1 1 1 1 1 1 1 1 1 1 1 1 1 1 1 1 1 1 1 1 1 1 1 1 1 1 1 1 1 1 1 1 1 1 1 1 -5.1452847260602397e-09 1 1 0.011452654990522337 1 1 1 1 0.010119618867379811 1 0.0016690810005757575 1 1 1 1 1 1 1 1 1 0.0037169399296262118 1 1 1 1 1 1 1 1 1 1 1 1 1 1 1 1 1 1 1 1 1 1 1 0.0074341528102144713 1 1 1 1 1 1 0.01045664320528359 1 0.0098656066237427995 1 1 1 1 1 1 1 0.010591923901170655 1 1 1 1 1 1 1 0.0086551849321482664 1 1 1 1 1 1 1 1 1 1 1 1 1 1 1 1 1 1 1 1 1 1 0.0097720141904295565 1 0.0072545310189772068 1 0.0014850725790388781 1 1 0.0031236202789353754 1 1 1 1 1 0.011092333548686491 1 1 1 0.00062894454306258209 1 1 4.3788591398696841e-09 1 1 1 1 1 1 1 1 1 1 1 1 1 1 1 1 1 1 1 1 1 1 1 1 1 1 1 1 1 1 1 1 1 1 1 1 1 1 1 1 1 1 1 1 1 1 1 1 1 1 1 1 1 0.0071059453565363896 1 1 1 1 1 1 1 0.0098933308385985002 0.015798275191332187 1 1 1 1 1 0.015565987979214577 1 1 1 1 1 0.016819006155760576 1 1 1 1 1 0.0099574082465519066 1 1 1 1 1 1 1 1 1 1 1 1 1 1 1 1 1 1 1 1 1 1 1 1 1 0.010151305425504778 1 1 1 1 1 1 1 1 1 1 1 1 1 1 1 1 1 1 1 1 1 1 1 1 1 1 1 1 1 1 1 1 1 1 1 1 1 1 1 1 1 1 1 1 1 1 1 1 1 0.01018075475716514 1 1 0.014457088704157912 1 1 1 1 1 1 1 1 1 1 1 0.010074085595763628 1 1 1 1 1 1 1 1 1 1 1 1 1 1 1 1 1 1 1 1 1 1 1 1 1 1 1 1 1 1 1 1 1 1 1 1 1 1 1 1 1 1 1 1 1 1 1 1 0.011744717557004389 1 1 1 1 1 1 1 1 1 0.013295002141117201 1 1 1 1 0.00086699204069854742 1 1 1 1 1 1 1 1 0.009443659833207687 1 1 0.010905450381927917 1 1 1 1 1 0.0091451846744270981 1 1 1 1 1 1 0.011022776781358497 1 1 1 1 1 0.01199778393061441 1 1 1 1 1 1 1 1 1 1 1 1 1 1 1 0.0038380306469780606 1 1 1 0.0026442231528306694 1 1 1 1 1 1 1 1 0.004577078631188428 1 1 1 1 1 1 1 1 1 1 1 1 1 1 1 1 1 1 1 1 1 1 1 1 1 1 1 1 1 1 1 1 1 1 1 1 1 1 1 1 1 0.010441297515983597 1 1 1 1 1 1 1 1 0.009701524841219427 1 1 1 1 1 1 1 1 1 1 1 1 0.011428915845106899 1 1 1 1 1 1 1 0.0063999821686583375 1 0.0099780064727048364 1 0.0053228913788721417 0.0062331749486490822 1 1 1 1 1 1 0.0050060332768747749 1 1 1 0.012527831395457869 1 1 1 1 1 1 1 1 1 1 0.010301001105791414 1 1 0.0051012706646998002 1 0.0018860325025069364 1 1 1 1 0.0099854042874560414 1 1 1 1 1 1 0.00054434216167331684 1 1 1 1 1 1 1 0.0099877996554631823 1 0.011353091059615673 1 1 0.0036423266187412696 0.0060244579982019989 1 1 0.006250355820524525 0.0061180131519388802 1 1 1 1 0.0099495891681243235 0.013337131626403757 1 1 0.01286844277776842 1 1 1 1 1 0.0092030596302019041 1 1 1 1 1 1 1 1 1 1 1 1 1 1 1 1 1 1 1 1 1 1 1 0.00086831777469860427 1 1 1 1 1 1 1 1 1 1 1 1 1 1 1 0.0024325911241096024 1 1 1 1 1 1 1 1 1 1 0.0088433527067541592 1 1 2.201787802427746e-09 1 1 0.0091593722171230494 1 1 1 -3.4678379005198545e-09 1 1 1 0.0073560170890714215 1 1 1 1 1 1 1 1 1 1 1 1 1 1 1 1 1 1 1 1 1 1 0.0093571172098874042 1 1 0.010265388774546684 1 1 1 1 1 1 1 0.010399064018541779 1 1 1 1 0.0032279987478049041 1 1 1 1 1 1 1 1 1 1 0.01006253561561745 1 1 1 1 1 1 1 1 1 1 1 1 1 1 1 1 1 1 1 1 1 1 0.010788186014311172 1 1 0.0031061254217350544 1 1 1 1 1 0.010892667306722352 1 1 1 0.0039112741111596728 1 1 1 1 1 1 1 1 1 1 1 1 1 1 1 1 1 1 1 1 0.0086104333878103782 1 1 1 1 1 1 1 1 1 1 1 1 0.0057923471731894617 1 1 1 1 1 1 1 1 0.011440859859985678 1 1 1 1 0.0037194912019445142 1 1 0.013953800637088246 1 0.0091114038941494252 1 1 1 1 0.0098245670050451164 1 1 1 1 0.0080760063307929297 1 1 1 1 1 1 1 1 1 1 1 1 1 1 1 1 1 1 1 1 1 1 1 1 0.0098951159327528085 1 1 0.009561762420778025 1 1 0.009824725528883145 1 1 1 1 1 1 1 1 1 1 1 1 1 1 0.0040574709693805833 0.0098293888106829024 1 1 1 1 1 1 1 1 1 1 1 0.0030288411854551903 1 1 1 1 0.0091460032195207278 1 1 1 1 0.0097124145011328548 1 1 0.0093898431573296547 1 0.010643008389556313 1 1 1 0.010210039017660891 1 1 1 1 1 0.0043360641116264413 0.0085257874648580079 1 1 1 0.0067246131627031452 0.0090279853683621555 1 1 1 0.0078657616918023643 1 1 1 1 1 1 1 1 1 0.0097777731677492954 0.0066849821042559363 1 1 1 1 1 1 1 1 1 1 1 1 1 1 1 0.0064153039733394375 1 1 1 1 1 0.0087016729177836205 1 1 1 1 1 0.0098057766108671715 1 1 1 1 0.0084053462465438107 1 8.5973330815614091e-09 1 1 1 1 1 1 1 1 1 1 1 1 1 1 1 1 1 1 1 1 0.0060635503469706822 0.00044186756018365497 1 1 1 1 1 0.0065481178848150034 1 1 1 1 1 1 1 1 1 1 1 1 1 1 1 1 1 1 1 1 1 1 1 1 1 1 1 1 1 1 1 1 1 1 1 1 1 0.018465796670203254 1 1 1 0.011459321492745651 1 1 1 1 1 1 1 1 1 1 1 0.02434831445478685 1 1 1 1 1 1 1 1 1 1 1 0.026319490712569255 1 1 1 1 1 1 1 1 1 1 1 1 1 1 1 1 1 1 1 1 1 1 1 1 1 1 1 1 1 1 1 1 1 1 1 1 0.010611974433472983 0.011473339212782048 1 1 1 1 1 1 1 1 1 1 0.022739565547995732 1 1 1 1 0.018140525319541204 1 1 1 1 1 1 1 1 1 1 1 1 1 1 1 1 1 1 1 1 1 1 1 1 1 1 1 1 1 1 1 1 1 1 1 1 0.0084337146891155391 1 1 1 1 1 1 1 1 1 0.0069574479292976591 1 0.011669293376713885 1 1 1 1 1 1 0.0099480898391182595 1 1 0.0082375921821612932 1 1 1 1 1 1 0.0074183103915994707 1 1 0.0055849695709984624 1 0.012723593325343379 1 1 1 1 0.0063407008068565567 1 1 1 1 1 1 1 1 1 1 1 1 1 1 0.011362733010607841 0.011597373081956151 1 1 1 1 1 0.0095051851531281536 1 1 0.011222805119070348 1 1 0.009890822673838737 1 1 1 0.0076439535559987299 0.013818683755999891 1 0.0098547797811410192 1 1 1 0.0085889418564381835 1 1 1 1 1 1 1 1 1 0.010153542293604018 1 1 1 1 0.0095298836492451969 1 1 1 1 1 1 1 1 1 1 1 1 1 0.0040562050698884798 1 1 1 1 1 1 1 1 1 1 1 1 1 1 1 1 0.0096501879614436428 1 0.0089445215675838657 0.0019561843320837231 1 1 1 1 1 1 0.014571615476561908 1 1 0.0028894031225269005 1 1 0.0054172405672150009 0.012465541970716294 1 1 1 0.0082786222142817237 1 1 1 1 1 1 1 1 1 1 1 1 1 1 1 1 1 1 1 1 1 1 1 1 1 1 0.0096623865043252207 1 1 1 1 1 1 1 1 1 1 1 1 1 0.011887200883321819 1 1 1 1 1 0.011739554134818284 1 1 1 1 1 0.0097039140138020508 1 1 0.010853036097714911 1 1 0.0057858718015627395 0.010009630227379447 1 1 0.01122087944994867 1 1 0.0072522263097225832 0.010763469566021937 0.0080740157974905045 0.002169953458126794 1 1 1 1 0.013587984988958822 1 1 1 1 1 1 1 1 1 1 1 1 1 1 1 1 1 1 1 1 1 1 1 0.010171074969216183 1 1 1 1 1 0.0087716690280038243 1 1 1 1 0.0066786551457448419 1 1 1 1 1 0.0098418031015165431 1 1 1 0.011126607754454522 1 0.013100188533222352 1 1 0.005923476227317228 1 1 1 0.0086821260875576192 1 1 1 1 0.0094290338585909274 1 1 0.0019325998765380541 0.0069192782512187967 1 1 1 1 1 1 1 1 1 0.020452908333967387 0.004857401561469122 1 1 0.01047982801120834 0.0030306361374453569 1 1 1 1 0.0086137487130998388 1 1 1 1 1 1 1 1 1 1 1 1 1 1 0.010313535001211818 1 1 1 0.016724489134020512 1 1 1 1 1 1 1 1 1 1 1 0.010026782275550974 0.010849644002112508 0.010240519901883887 1 1 0.0050220384744289973 1 1 1 1 1 1 1 1 1 1 1 0.0099864245044871125 1 1 1 0.010965441468063058 1 1 0.0033406787943727739 1 1 1 1 0.010346287755697245 1 1 1 1 1 1 1 1 1 1 0.016458056388012912 1 0.0031605012308529544 0.0024240641066343611 1 0.02196300537142875 1 1 1 1 0.007314231166609262 1 1 1 1 1 1 1 1 1 1 1 0.016186306085053351 1 1 0.0094168295818328994 1 1 1 0.012904137740080059 1 1 1 1 0.010856605071189603 1 1 1 1 1 1 1 1 1 1 1 1 1 1 1 1 1 0.014923823548633528 1 1 1 1 1 1 1 1 1 1 1 0.010966401307027628 1 1 1 1 1 1 1 1 1 1 1 1 1 1 1 1 1 1 1 1 1 1 1 1 1 1 1 1 1 1 1 1 1 1 1 1 1 1 1 1 1 1 1 1 1 1 1 1 1 1 1 1 1 1 1 1 1 1 1 1 1 1 1 1 1 1 0.0096713952453835166 1 1 1 1 1 1 1 0.009376302314126346 1 1 0.0099842345168641659 1 1 1 1 1 0.0085982124846119088 0.010216806143805242 1 1 1 1 1 1 1 1 1 1 1 1 1 1 1 0.0089271691448205917 1 1 1 1 1 1 0.0074171690621831696 1 1 1 1 0.010053535980191788 0.010025487929196282 1 1 1 1 1 1 1 1 1 1 1 1 1 1 1 1 1 1 1 1 1 1 1 1 0.015969197694077116 0.0098357544081599177 1 1 1 1 0.00018964952082603515 1 1 0.018345454985940441 1 1 1 1 0.015833531356029884 1 1 1 1 0.012215853149087977 1 1 1 1 1 1 1 1 1 1 1 1 1 1 1 1 1 1 1 1 1 1 1 1 1 1 1 0.0026185450050401904 1 1 1 1 1 1 1 1 1 0.0038611146892818526 1 1 1 1 0.0097721588107132842 1 1 1 0.0032553927655028445 1 1 1 1 1 1 1 1 1 1 1 1 0.0028454888913854066 0.0027441686334746373 1 1 1 1 1 1 1 1 0.0096676404081218123 1 1 1 0.0016691912843715753 1 1 1 0.0092942592122279288 1 1 1 1 1 1 1 1 1 1 1 1 1 1 1 1 0.01142931719956566 1 1 1 1 1 1 0.01340870591054721 1 1 1 1 1 1 1 1 1 1 1 1 1 1 1 1 1 1 1 1 1 1 1 1 0.0074447580167988012 1 0.008929123039688 1 1 0.010182964022480485 1 1 1 0.0054396709101662763 1 1 1 1 1 1 1 1 1 0.013691249098737646 1 1 0.011710893724217065 1 1 1 0.0079949128933674771 1 1 1 1 1 1 1 1 1 1 1 1 1 1 1 1 1 1 1 1 1 1 1 1 1 1 1 1 1 1 1 1 1 1 1 1 1 1 1 1 1 1 1 0.0079274311170727807 1 1 1 1 1 1 1 1 1 0.0095628307742012808 1 1 1 0.0093844680723590979 1 1 1 1 1 1 1 0.0091807449090293911 1 1 1 1 1 1 1 0.0076986606630806732 1 1 0.010533150599889372 1 1 1 1 1 1 1 1 1 0.0098216890277333102 1 1 0.0083644996079352621 1 1 1 1 1 0.010343087827094762 1 1 1 1 1 1 1 1 1 1 1 1 1 0.014150331866746461 1 1 1 1 1 1 1 1 1 0.0094987227484862151 1 0.012725125720041426 1 1 1 1 1 1 1 1 1 1 0.0037209449717510897 1 0.0095196747164113041 1 1 1 1 0.004145786510415618 0.0080062971737878338 1 1 1 1 1 1 1 1 1 1 1 1 1 1 1 1 1 1 1 1 1 0.015419300195932514 0.015239858711357806 1 1 0.0096214601765605839 1 1 0.0099791026757933138 1 1 1 0.010306896669741966 1 1 1 0.010885520625204703 1 1 0.012341528206098849 0.010052699265925079 1 1 1 0.0098131987762864695 1 1 1 0.0052974557559033447 1 1 1 1 1 1 0.012472463792557537 1 1 1 1 1 1 0.008150171957974954 1 1 1 1 1 1 1 0.01318515057652387 1 1 0.010257642501790253 1 0.013884374462837766 1 1 1 1 1 1 0.010034744711654615 1 1 1 1 1 1 1 1 1 1 1 1 1 1 1 1 1 1 1 1 1 1 1 1 1 0.0083165252918365028 1 1 1 1 1 1 1 1 1 0.0079481103607231211 1 1 1 1 1 0.0082342929830878427 1 1 1 1 1 1 1 1 1 1 1 1 1 1 1 1 1 1 1 1 1 1 1 1 1 1 1 1 0.0039219181193030101 1 1 1 1 1 0.0057762836522416774 1 1 1 1 1 1 1 1 1 1 1 1 0.0097928853022539834 1 1 0.009503815824365984 1 1 1 1 1 1 1 1 1 0.0068932142829531574 1 0.010034592184197711 1 1 0.0049157038711282811 1 1 1 1 1 1 0.0070991543831329506 1 1 1 1 1 0.0064562658389856632 1 1 1 1 0.006594792793724347 1 0.0048453009130814736 1 1 0.0049091331286296794 1 1 1 1 1 1 1 1 1.9149734228895987e-10 0.0081618364764553964 1 1 1 1 1 1 1 1 1 1 1 1 1 1 1 1 1 1 1 1 1 1 1 1 1 0.0090794664194334823 1 1 1 1 1 1 0.0092721084665387601 1 1 1 1 1 1 1 1 0.0086483124777311567 1 1 1 1 1 1 1 1 1 1 1 1 1 1 0.01058543722448471 1 1 1 1 1 1 1 1 1 1 1 1 1 1 1 1 1 1 1 1 1 1 1 1 1 1 1 0.0083168176845277789 0.0096368407790087662 1 0.0027753664283318592 1 1 1 1 1 1 1 1 1 1 1 1 1 1 1 1 1 1 1 1 1 1 1 1 1 1 1 1 1 1 1 1 1 0.01109989382337149 1 1 1 1 1 0.01037308424488593 1 1 1 0.0037953591170581842 1 1 1 1 1 0.0066772023932763838 0.0074579289554213418 0.0093294416595924821 1 1 1 1 1 0.0088272588122314949 1 1 0.0095372763820698783 0.0089106908355949411 1 1 1 1 1 1 0.0072248613257744152 1 1 0.0091652622974999209 1 1 1 1 1 1 1 1 1 1 1 1 1 1 1 1 1 1 1 1 0.0095584016696649964 1 1 1 0.010141012574880247 1 1 1 1 1 1 1 0.0099728368677032813 1 1 1 1 1 1 1 1 1 0.024879589998239533 1 1 1 1 0.0092823337223858337 1 1 1 1 1 1 1 1 1 1 1 1 1 1 1 1 1 1 1 1 1 1 1 0.0080310971925715898 1 1 1 1 1 1 1 1 1 1 1 1 1 1 0.011506498217435514 0.0078041681843595643 0.0088958387498508946 1 1 0.010091624587690454 1 1 1 1 1 1 1 1 1 1 0.011696518674051162 1 0.011354459810060653 1 1 1 1 1 1 1 1 1 1 1 0.02088132550584576 1 1 1 0.017087399958096969 1 1 0.0015296272974143644 1 1 0.010280544887390984 1 1 1 1 1 0.0093640621588184578 1 1 1 0.013705398518673979 0.0097523245502582536 1 1 1 0.0091204968289962125 0.023526448702164346 1 1 1 1 1 1 1 0.010590461127689948 1 1 1 1 1 1 1 1 1 1 1 1 1 1 1 0.011260631485362899 1 0.010450510059016416 1 1 1 1 0.0093938750103535855 1 1 1 1 1 1 1 1 1 1 0.0084905839124858641 1 1 1 1 1 0.0099158294602358921 1 1 1 1 1 0.0099160864708507379 1 1 1 1 1 1 1 1 1 1 1 1 1 1 1 1 1 1 0.011598220952188808 1 1 1 0.0080906044383715851 1 0.01241155091446308 1 1 0.0087144473845639 1 1 1 1 1 1 1 0.010186352311948942 1 1 1 1 0.0097168276075066933 1 1 1 1 1 1 1 0.010114653158971205 1 1 1 1 1 0.010355681592226305 0.010303648810297111 1 1 1 1 1 1 1 1 1 1 1 1 1 1 1 1 1 1 1 0.010248090877064492 1 1 1 1 1 1 1 1 1 0.013543117224034902 1 1 1 1 1 1 1 1 1 1 1 1 1 1 1 1 1 1 0.0097373624226664499 1 0.0046041624492194101 1 1 1 1 0.0056669854769273269 0.016148652225712365 1 1 1 1 0.026166513259312324 1 1 0.0097928410567645254 1 1 1 1 1 1 1 0.021524462572093575 1 1 0.024664373836841592 1 1 1 1 1 1 1 1 1 1 1 1 1 1 1 1 0.010350980634927363 1 1 0.01325176314494177 1 0.017760055074823672 1 1 0.016590351287567306 1 1 0.020070783590138454 0.0068545492235620661 1 1 0.027829780283682656 1 0.0093992329771403309 1 1 1 1 1 1 1 0.011125008099098846 1 1 1 1 1 1 1 1 1 1 1 1 1 1 1 1 1 1 1 1 1 1 1 1 1 1 1 1 1 1 1 1 1 1 1 1 1 1 1 1 1 1 1 1 1 1 1 0.010355200096436118 1 1 0.010714829162005279 1 1 1 1 1 0.0091639166418499562 1 0.0079049590205326759 1 1 1 1 1 1 1 1 1 1 1 1 1 1 1 1 1 1 1 1 1 1 1 1 1 1 1 0.0096053334087760501 1 1 1 1 1 1 1 1 1 1 1 1 1 3.1213093549696189e-09 1 1 1 1 0.0080526445414432907 1 1 1 0.012472582491794709 0.01236358229576711 1 1 1 0.0064875191210715527 1 1 1 1 1 1 0.010744797307599734 1 1 0.0098956676118646218 1 0.003740316006788068 1 1 1 1 1 1 1 1 1 1 1 1 1 1 1 1 1 1 1 1 1 1 1 0.0099977378877896522 1 0.0008891795131686954 1 1 1 0.008741478991638494 1 1 1 1 1 -2.131809095570758e-10 1 1 1 1 1 1 1 1 0.0095967856446940742 1 1 1 0.014441938312384573 1 -3.0755078171684769e-10 1 1 1 0.012938867916141544 1 1 1 1 1 1 1 0.0078487238091034112 1 1 0.016118053357868173 1 1 1 0.0057192689044299003 1 0.015203848879039885 1 1 0.0085605022673294704 1 1 1 1 1 1 1 1 1 1 0.0091167258362527936 1 1 1 1 1 1 0.0097397831227395825 1 0.0093283082116171201 1 1 1 1 1 0.0064809965047135723 1 1 1 1 1 1 1 1 1 0.012137457285719225 1 1 1 1 1 1 1 1 0.004017616514444872 1 1 0.017298291067326169 1 0.0097806846481755545 1 0.02075261322368108 1 1 1 1 1 0.012565660714633085 1 1 1 1 1 1 1 1 1 1 0.011632787107486723 1 1 1 0.01377024439320595 1 1 1 1 1 1 0.0030764889847532152 1 1 1 1 1 1 0.0008690495544222427 1 1 1 1 1 1 0.012763628501610816 1 1 1 1 0.010363671892275808 1 1 1 1 0.010225981946437888 1 1 1 1 1 1 1 1 1 1 1 1 1 1 1 1 1 1 0.016568767821436469 1 1 0.01827501717566932 1 1 1 0.0099780264679826952 1 0.010150972011483916 1 0.010021940474313177 1 1 1 1 1 1 1 0.010379524240041895 1 1 1 1 1 1 1 1 0.0097896525034291641 1 1 1 1 0.0086012568824561566 1 1 1 1 1 1 0.0058067436507162895 1 1 1 0.015665427969041898 1 1 1 1 0.0092948376565573226 1 1 1 1 0.010075794122829702 1 1 1 1 1 1 1 1 1 1 1 1 1 1 1 1 1 1 1 1 1 1 1 1 1 0.010246869092045894 1 1 1 1 0.010996419612346363 1 1 1 1 1 1 1 1 1 1 1 1 1 1 1 1 1 1 1 1 1 1 1 1 1 1 1 1 1 1 1 1 1 1 1 1 1 1 1 1 1 1 1 0.010359629065569162 1 1 1 1 1 1 1 1 1 1 1 1 1 1 1 1 1 1 1 1 1 1 1 1 1 1 1 1 1 1 1 1 1 1 
</DataArray>
</CellData>
</Piece>
</UnstructuredGrid>
</VTKFile>
